# vtk DataFile Version 2.0
Time step 52
ASCII
DATASET UNSTRUCTURED_GRID
POINTS 5000 float
2398.29 69362.0 0
8534.0 68735.4 0
12438.9 68569.5 0
16747.6 67887.4 0
22243.6 69535.3 0
27669.2 66270.4 0
33205.0 68957.8 0
38185.2 69541.6 0
42703.8 69695.0 0
47472.2 69601.1 0
57004.9 68540.4 0
62763.5 69616.2 0
72702.5 68882.1 0
77500.0 69629.1 0
82500.0 69618.3 0
87407.7 68916.6 0
92500.0 69656.5 0
97192.5 69678.0 0
101292.0 69595.0 0
105946.0 68984.6 0
111936.0 69463.8 0
117850.0 69648.9 0
133428.0 69095.2 0
147500.0 69633.4 0
152501.0 69603.1 0
157589.0 69230.7 0
162561.0 69385.9 0
167010.0 68927.6 0
171830.0 67810.6 0
177734.0 67848.8 0
182938.0 67035.1 0
187393.0 68889.8 0
196079.0 69214.0 0
201747.0 68574.3 0
207650.0 69338.6 0
212985.0 68674.1 0
225794.0 69001.5 0
230434.0 68873.6 0
241170.0 68575.9 0
252680.0 68561.3 0
259052.0 69035.9 0
268740.0 69033.3 0
273935.0 69328.6 0
278881.0 67980.0 0
286325.0 69620.2 0
297319.0 67944.7 0
303664.0 68728.8 0
312126.0 69153.7 0
323245.0 69676.0 0
332206.0 69545.6 0
337223.0 69254.7 0
345896.0 68800.6 0
361815.0 68347.4 0
372012.0 66365.1 0
367954.0 69680.6 0
377031.0 68336.7 0
382609.0 69210.9 0
388132.0 68511.6 0
394019.0 67827.5 0
399200.0 69496.2 0
403650.0 66753.4 0
408587.0 67965.6 0
412474.0 69616.2 0
417500.0 69662.1 0
422737.0 67773.0 0
427271.0 69481.6 0
432478.0 67284.9 0
437541.0 69638.4 0
442088.0 68580.1 0
446251.0 68160.8 0
450665.0 68928.6 0
455208.0 68868.3 0
460242.0 68712.0 0
465793.0 69101.4 0
471628.0 68357.9 0
477063.0 67161.4 0
485844.0 67093.6 0
491674.0 68632.3 0
497601.0 67125.7 0
2284.55 74376.3 0
6062.47 72055.4 0
11087.2 73087.5 0
17332.6 73789.6 0
28519.5 72622.1 0
34969.3 74232.4 0
40341.8 74550.9 0
48279.8 73595.6 0
52137.1 69700.8 0
52500.0 74661.0 0
57995.2 73981.6 0
62850.0 74715.7 0
67994.7 69749.7 0
67505.2 74387.5 0
72115.9 74001.8 0
77500.0 74787.1 0
82116.1 74433.3 0
87907.8 73674.4 0
92500.0 74796.1 0
97183.4 74424.9 0
102467.0 74329.7 0
108243.0 73575.7 0
112500.0 74732.5 0
123330.0 69725.6 0
122500.0 74736.8 0
128345.0 69846.5 0
127727.0 74279.6 0
132494.0 74630.4 0
137520.0 74645.2 0
138124.0 69778.7 0
142500.0 69699.8 0
142774.0 74122.4 0
146926.0 74470.4 0
151937.0 74348.0 0
156861.0 73279.9 0
161296.0 74100.1 0
166509.0 73599.3 0
172971.0 73379.5 0
178375.0 73261.1 0
183533.0 72103.2 0
188604.0 73335.4 0
192498.0 70051.6 0
193571.0 74195.8 0
198250.0 73558.7 0
203920.0 74194.1 0
213692.0 73224.4 0
209357.0 74408.4 0
218128.0 69760.0 0
222479.0 69772.5 0
222032.0 74596.8 0
226801.0 73236.6 0
232205.0 74298.5 0
235810.0 69871.6 0
246502.0 70577.3 0
248462.0 74650.8 0
257263.0 73674.4 0
263773.0 70124.4 0
262325.0 74300.0 0
267061.0 73876.2 0
271610.0 73179.4 0
277075.0 73583.2 0
282030.0 71312.5 0
287500.0 74710.5 0
291717.0 70076.2 0
292913.0 74567.3 0
298250.0 73455.1 0
303119.0 74399.3 0
307730.0 71299.1 0
307441.0 74592.1 0
317929.0 69770.5 0
317474.0 74645.8 0
322433.0 74144.0 0
327581.0 69947.0 0
327500.0 74690.7 0
332500.0 74763.1 0
341019.0 70465.6 0
337713.0 74096.2 0
343308.0 73490.8 0
350686.0 70723.8 0
347752.0 73886.9 0
355258.0 69706.9 0
352668.0 74613.7 0
361441.0 73660.0 0
357755.0 74127.1 0
365113.0 73352.2 0
372930.0 73165.8 0
378819.0 72887.5 0
382004.0 74025.9 0
388375.0 73599.9 0
393554.0 73974.6 0
402999.0 72953.0 0
398136.0 74409.4 0
408388.0 72246.4 0
412865.0 73558.3 0
417520.0 74177.8 0
422128.0 72409.7 0
428327.0 74423.9 0
433429.0 72518.0 0
437510.0 74706.9 0
443214.0 72862.3 0
447602.0 72170.8 0
451946.0 73406.1 0
457176.0 73595.3 0
466599.0 73671.1 0
475181.0 73650.9 0
481305.0 70024.6 0
486589.0 73282.7 0
496837.0 72634.9 0
6738.93 77100.6 0
11843.3 78916.8 0
16323.4 78996.8 0
23005.5 75045.4 0
20502.9 79006.8 0
27043.8 79454.7 0
32615.9 79288.1 0
38263.8 79063.6 0
44464.7 74892.6 0
42970.7 79450.6 0
47589.0 78316.7 0
56554.7 79601.9 0
62115.2 79571.6 0
67697.8 79231.3 0
73695.3 79544.5 0
81954.5 79159.4 0
86960.3 79190.2 0
92531.5 79547.1 0
97548.4 78944.2 0
107924.0 78355.6 0
116732.0 79417.1 0
112494.0 79629.2 0
117500.0 74814.0 0
120857.0 79267.2 0
125864.0 78647.6 0
140992.0 78243.2 0
146305.0 79361.6 0
156244.0 77840.5 0
161703.0 79790.7 0
169996.0 78165.9 0
176294.0 79018.8 0
182187.0 77242.2 0
188048.0 79497.0 0
194261.0 79221.9 0
199972.0 78663.7 0
208111.0 79317.0 0
204288.0 79659.0 0
213300.0 78035.2 0
217601.0 74830.8 0
217709.0 79764.5 0
222564.0 78871.2 0
226872.0 78241.5 0
232444.0 79763.2 0
237686.0 75122.9 0
237422.0 79548.8 0
243283.0 74947.1 0
246841.0 78718.9 0
252678.0 75121.4 0
257738.0 78426.4 0
262720.0 79077.6 0
267489.0 78330.7 0
273047.0 78419.4 0
279878.0 77646.5 0
282828.0 74999.2 0
291016.0 78873.6 0
296734.0 78498.5 0
302234.0 79634.1 0
307700.0 79021.9 0
312501.0 74905.0 0
318188.0 79135.7 0
322509.0 78149.2 0
336512.0 78760.7 0
331856.0 79746.3 0
341414.0 77696.2 0
346846.0 78273.5 0
351893.0 79448.7 0
356026.0 78001.1 0
361261.0 78362.0 0
366513.0 77433.1 0
371101.0 79306.5 0
377673.0 78822.5 0
384354.0 77363.4 0
392424.0 78797.3 0
397217.0 78757.1 0
402858.0 79194.0 0
409243.0 77891.3 0
419145.0 78867.1 0
424121.0 77226.9 0
432249.0 78141.3 0
437342.0 78878.4 0
442359.0 78099.3 0
448276.0 77243.7 0
454179.0 78810.2 0
458992.0 79859.8 0
462429.0 75085.4 0
463188.0 79622.9 0
467519.0 79729.7 0
470193.0 74851.4 0
472372.0 78173.4 0
477746.0 79121.5 0
480797.0 75299.5 0
492077.0 75533.1 0
491506.0 79594.5 0
496591.0 79203.6 0
2238.62 80300.1 0
2182.12 84714.2 0
8050.23 82941.1 0
13471.9 83543.7 0
17752.4 82841.1 0
22417.4 83380.3 0
32072.9 83575.5 0
37589.5 84268.3 0
43206.2 84513.7 0
49063.6 83108.0 0
51800.6 80081.7 0
53807.2 84782.4 0
59223.1 84280.7 0
63617.0 83903.2 0
68064.9 84903.2 0
72603.0 84420.1 0
78211.1 79984.6 0
77068.8 83903.9 0
82136.1 84180.4 0
87334.0 84363.9 0
92269.2 84877.7 0
97732.1 84296.4 0
102630.0 80091.7 0
107685.0 83853.8 0
113113.0 83958.5 0
118139.0 83893.2 0
123420.0 83254.8 0
127500.0 84811.3 0
131158.0 80346.4 0
136445.0 80298.7 0
137738.0 84212.7 0
142524.0 84362.1 0
151834.0 80959.5 0
148002.0 83969.8 0
156828.0 83234.6 0
160406.0 84603.6 0
166528.0 81609.0 0
170842.0 84195.0 0
182233.0 82720.7 0
191646.0 84618.3 0
197223.0 83949.2 0
203055.0 83803.0 0
214360.0 83706.0 0
222020.0 83128.8 0
227505.0 83791.8 0
234333.0 84142.6 0
237874.0 82872.8 0
241792.0 80202.1 0
241749.0 84802.7 0
246210.0 83904.1 0
251784.0 80012.6 0
255872.0 83141.7 0
260336.0 82811.3 0
266349.0 83012.9 0
271756.0 84688.3 0
278361.0 83149.4 0
283554.0 79932.0 0
284358.0 84670.9 0
287216.0 79999.6 0
288758.0 83153.1 0
292983.0 84868.8 0
298941.0 84798.4 0
307500.0 84854.7 0
313207.0 80147.1 0
316257.0 83850.1 0
312166.0 84673.5 0
321079.0 83374.3 0
325851.0 84963.5 0
326812.0 80030.7 0
329893.0 83572.8 0
339780.0 83087.1 0
346088.0 84528.1 0
357349.0 81958.6 0
361674.0 84349.8 0
366551.0 82125.8 0
371934.0 84940.4 0
382813.0 82879.5 0
387369.0 84737.0 0
388338.0 80551.7 0
399508.0 84363.7 0
408059.0 83240.2 0
404321.0 84390.5 0
412346.0 84909.3 0
414413.0 80445.6 0
416948.0 84249.2 0
427686.0 80263.1 0
425659.0 83890.4 0
431067.0 84333.2 0
437115.0 83073.3 0
441811.0 83684.9 0
446524.0 82240.6 0
450849.0 82737.8 0
455406.0 84582.8 0
461200.0 84271.9 0
466975.0 84055.6 0
472594.0 83132.8 0
478847.0 84620.7 0
482622.0 79994.4 0
487506.0 81097.4 0
492124.0 83449.9 0
1482.51 89388.7 0
7155.32 89248.9 0
11905.7 87283.8 0
17161.8 88020.4 0
23053.3 88764.4 0
26989.1 85377.6 0
30224.4 88115.1 0
34875.2 88909.3 0
39764.5 88332.4 0
48583.2 88332.4 0
57213.6 88672.9 0
63064.6 88678.2 0
68310.2 90078.8 0
73401.5 88478.2 0
78302.6 89052.3 0
83593.9 89121.1 0
88398.3 89181.2 0
92508.9 89719.8 0
97237.0 89711.8 0
101195.0 89777.5 0
102767.0 85548.1 0
105585.0 89370.0 0
111306.0 88542.4 0
116640.0 89151.3 0
122098.0 88444.9 0
126931.0 88852.9 0
131218.0 89554.9 0
132691.0 85174.4 0
136577.0 88762.7 0
142212.0 90055.5 0
147012.0 88247.0 0
153420.0 85612.8 0
157942.0 89172.4 0
164429.0 85312.5 0
167047.0 88187.0 0
163657.0 89797.9 0
177032.0 85586.8 0
182933.0 89640.7 0
186625.0 85131.4 0
193693.0 88703.9 0
189204.0 89536.8 0
198249.0 89836.5 0
203174.0 88903.9 0
208748.0 85663.1 0
212115.0 89914.8 0
218717.0 85013.4 0
216320.0 88323.0 0
221175.0 88662.6 0
231983.0 88641.1 0
237943.0 87608.7 0
242843.0 89459.2 0
248029.0 88982.2 0
251518.0 85271.0 0
252897.0 89299.1 0
257727.0 88323.9 0
262636.0 86385.8 0
267587.0 88964.8 0
278480.0 89803.8 0
283573.0 89257.7 0
288835.0 88473.6 0
293487.0 89466.7 0
303985.0 85030.9 0
302639.0 89336.2 0
307115.0 89696.1 0
311941.0 89414.7 0
316965.0 88286.9 0
322296.0 88969.7 0
330937.0 89087.7 0
327150.0 89833.9 0
334357.0 85569.9 0
341522.0 88580.8 0
337123.0 89466.4 0
352844.0 85024.2 0
357892.0 88536.9 0
367104.0 87033.1 0
362982.0 89324.0 0
377880.0 86273.8 0
383272.0 88890.9 0
388210.0 88917.5 0
393045.0 85469.4 0
403054.0 88366.3 0
408162.0 88090.2 0
414685.0 88557.2 0
417929.0 89810.1 0
421365.0 85495.3 0
427477.0 88339.8 0
431264.0 89761.9 0
436128.0 88057.9 0
441997.0 89345.2 0
448332.0 87751.7 0
454028.0 89743.6 0
459446.0 89884.4 0
464982.0 89162.5 0
473889.0 88349.2 0
469647.0 90014.2 0
481986.0 89574.3 0
484704.0 85135.4 0
489148.0 85859.6 0
486773.0 89470.4 0
492177.0 90027.1 0
496754.0 85846.1 0
2749.67 93426.7 0
12671.5 91789.0 0
18088.5 93790.7 0
23745.7 94522.7 0
28648.7 92161.4 0
33633.4 94465.8 0
39135.6 93173.4 0
43683.5 90166.3 0
43746.4 94376.2 0
48695.2 94302.0 0
53135.2 90783.7 0
59720.6 93684.2 0
64872.1 94784.1 0
68290.1 94268.1 0
72212.2 92356.9 0
76319.1 93947.6 0
81940.3 94541.7 0
87885.6 94250.2 0
96906.3 94284.8 0
92636.6 94646.1 0
101491.0 94414.5 0
106437.0 94706.3 0
111043.0 93391.8 0
115385.0 93867.6 0
120870.0 94469.6 0
127441.0 94117.2 0
133301.0 94008.0 0
138726.0 94494.9 0
143744.0 94662.4 0
151801.0 90179.3 0
148389.0 94264.7 0
152799.0 94769.5 0
157000.0 94870.0 0
161442.0 93647.5 0
166774.0 93538.8 0
171003.0 90203.1 0
176727.0 91878.1 0
186882.0 94538.1 0
192411.0 94044.4 0
202629.0 93479.9 0
207321.0 91043.6 0
210631.0 94442.6 0
216384.0 94217.7 0
222686.0 94305.6 0
226331.0 90429.7 0
236017.0 92591.5 0
240938.0 95026.0 0
250904.0 93449.2 0
256764.0 94531.3 0
262829.0 91964.9 0
268273.0 94320.9 0
272697.0 90573.3 0
282084.0 93188.0 0
287109.0 94559.5 0
293046.0 93886.1 0
297506.0 90844.0 0
301871.0 93263.1 0
306177.0 95176.8 0
311437.0 95142.8 0
316864.0 93412.1 0
322340.0 94890.0 0
328008.0 94445.0 0
333887.0 93316.7 0
346658.0 90495.5 0
342202.0 94561.4 0
351577.0 90674.8 0
355549.0 92800.1 0
352291.0 94952.2 0
360516.0 94065.7 0
366513.0 94175.7 0
370163.0 90481.7 0
374540.0 90496.0 0
378545.0 93846.1 0
383421.0 93029.2 0
387240.0 93388.3 0
392170.0 91715.8 0
397892.0 90300.8 0
400401.0 94600.1 0
405311.0 93606.8 0
411971.0 92674.5 0
417777.0 94545.3 0
422500.0 90356.0 0
427294.0 92593.3 0
432241.0 94352.6 0
437085.0 93389.5 0
441852.0 94951.5 0
447111.0 93916.6 0
452640.0 94932.6 0
462539.0 94843.4 0
466556.0 93844.6 0
471814.0 94580.8 0
477663.0 91422.4 0
482254.0 94931.3 0
487738.0 94318.8 0
497457.0 91581.7 0
3058.1 99226.4 0
7838.87 95769.6 0
13610.1 97636.7 0
23880.6 100225.0 0
28782.8 97504.4 0
33720.0 100170.0 0
38542.3 98358.8 0
43272.0 98633.2 0
49672.6 99195.2 0
54182.4 95488.0 0
53687.2 100233.0 0
58566.5 99552.2 0
63416.8 98730.9 0
67007.3 99193.5 0
71705.4 97692.8 0
77975.0 99277.8 0
88018.9 99283.0 0
93070.7 99265.1 0
98000.1 98754.4 0
105783.0 99142.7 0
110766.0 98745.5 0
116642.0 98646.8 0
126500.0 99378.6 0
122654.0 99937.8 0
131193.0 98702.7 0
139747.0 100046.0 0
145104.0 99256.3 0
150850.0 99315.4 0
156884.0 100227.0 0
162036.0 98310.5 0
167180.0 98635.8 0
172235.0 95987.4 0
177078.0 96203.2 0
176185.0 99928.0 0
181363.0 96251.5 0
185795.0 99822.5 0
191577.0 99923.8 0
197843.0 95544.6 0
202645.0 98916.7 0
206637.0 95655.7 0
207609.0 99678.6 0
212134.0 98823.0 0
223347.0 100275.0 0
228326.0 95974.5 0
233993.0 97130.3 0
243836.0 100068.0 0
246423.0 95577.8 0
248991.0 99679.9 0
252376.0 97722.4 0
262544.0 99126.3 0
268736.0 99289.6 0
272894.0 95470.2 0
273495.0 100017.0 0
277850.0 95813.3 0
282796.0 98566.4 0
293224.0 99219.9 0
297883.0 96201.1 0
302610.0 99110.2 0
308389.0 100093.0 0
313173.0 99685.0 0
317438.0 99166.4 0
325879.0 98424.3 0
329964.0 99608.4 0
335028.0 100154.0 0
337521.0 96744.6 0
347980.0 95247.6 0
351082.0 99418.7 0
356010.0 97396.0 0
360813.0 99942.4 0
366435.0 99920.4 0
372525.0 95438.1 0
383496.0 97476.2 0
390731.0 96349.2 0
396042.0 96124.3 0
403887.0 99643.8 0
409494.0 98271.8 0
414469.0 98521.3 0
417767.0 98680.4 0
422969.0 95225.2 0
420957.0 99036.8 0
427626.0 99104.3 0
433303.0 98719.0 0
437889.0 98368.8 0
442650.0 99844.8 0
448517.0 99801.1 0
453997.0 99798.4 0
458109.0 95246.1 0
458539.0 100216.0 0
462991.0 99995.8 0
467794.0 98824.6 0
476954.0 96141.7 0
479982.0 100045.0 0
484311.0 99899.1 0
488549.0 99445.4 0
492469.0 95883.4 0
492636.0 100038.0 0
497459.0 96665.5 0
2142.5 105131.0 0
8752.29 101653.0 0
13671.7 105280.0 0
18380.4 101372.0 0
22344.7 104711.0 0
27492.3 105158.0 0
32330.2 104421.0 0
37272.2 104969.0 0
46373.4 102996.0 0
51408.7 105383.0 0
63645.4 103901.0 0
68689.5 102476.0 0
79821.3 104756.0 0
83400.1 100624.0 0
90126.9 103764.0 0
98603.7 102930.0 0
102078.0 100408.0 0
105637.0 103652.0 0
111337.0 105083.0 0
118204.0 104217.0 0
123812.0 104466.0 0
128387.0 102796.0 0
135218.0 100528.0 0
133268.0 104872.0 0
137790.0 103987.0 0
141902.0 104839.0 0
147422.0 104567.0 0
152993.0 104523.0 0
161786.0 103878.0 0
167144.0 103606.0 0
171462.0 101312.0 0
170762.0 105343.0 0
176881.0 104922.0 0
180973.0 101853.0 0
186887.0 104849.0 0
191537.0 105228.0 0
197331.0 101075.0 0
201626.0 104389.0 0
207153.0 104647.0 0
212987.0 104333.0 0
217212.0 100605.0 0
228979.0 101969.0 0
233411.0 101597.0 0
232798.0 105378.0 0
238461.0 100791.0 0
242102.0 104319.0 0
246559.0 104044.0 0
251470.0 103645.0 0
255537.0 100632.0 0
262740.0 105200.0 0
268253.0 104907.0 0
274071.0 104979.0 0
278387.0 101203.0 0
284548.0 104599.0 0
287975.0 100550.0 0
293312.0 103577.0 0
297717.0 101480.0 0
302306.0 104796.0 0
307427.0 105357.0 0
312020.0 103858.0 0
316759.0 103761.0 0
322203.0 100466.0 0
326427.0 104051.0 0
331733.0 104559.0 0
340295.0 100563.0 0
345917.0 101285.0 0
351163.0 104595.0 0
356391.0 102964.0 0
366973.0 104791.0 0
371143.0 100375.0 0
371655.0 104857.0 0
377225.0 101103.0 0
382200.0 105029.0 0
386894.0 105376.0 0
387807.0 100652.0 0
392748.0 100679.0 0
391451.0 105186.0 0
398356.0 101639.0 0
411605.0 103796.0 0
416991.0 102405.0 0
422627.0 104036.0 0
428258.0 105190.0 0
432998.0 103363.0 0
438724.0 104015.0 0
444698.0 104726.0 0
455670.0 104192.0 0
461373.0 105085.0 0
468722.0 104049.0 0
472983.0 100327.0 0
477805.0 104557.0 0
482449.0 104727.0 0
486594.0 103600.0 0
490650.0 104052.0 0
497770.0 101426.0 0
495005.0 105407.0 0
2239.97 109703.0 0
7229.67 107732.0 0
18604.1 106314.0 0
23275.2 109564.0 0
32590.8 107895.0 0
42440.7 106292.0 0
40991.8 110510.0 0
47008.7 109478.0 0
52812.1 110127.0 0
57400.5 105682.0 0
62195.9 109295.0 0
67964.1 109362.0 0
73558.0 105545.0 0
78090.1 109352.0 0
85124.7 105548.0 0
82804.0 110265.0 0
88774.2 110086.0 0
95038.0 105620.0 0
93973.0 110463.0 0
101293.0 106287.0 0
97844.3 108988.0 0
105727.0 109145.0 0
115522.0 110097.0 0
121623.0 109298.0 0
128112.0 108835.0 0
137500.0 107928.0 0
133715.0 109707.0 0
142031.0 110106.0 0
157246.0 106142.0 0
153546.0 109342.0 0
157983.0 110320.0 0
163103.0 109716.0 0
173356.0 108591.0 0
168439.0 108877.0 0
177762.0 109364.0 0
182321.0 106674.0 0
186463.0 110116.0 0
191579.0 109740.0 0
196349.0 106521.0 0
201124.0 109982.0 0
212098.0 109266.0 0
216812.0 110480.0 0
219801.0 105693.0 0
224910.0 105596.0 0
228653.0 106063.0 0
226069.0 110125.0 0
231021.0 109410.0 0
236990.0 106031.0 0
241284.0 109228.0 0
246730.0 108981.0 0
252429.0 109156.0 0
257766.0 105899.0 0
274590.0 109960.0 0
279358.0 106726.0 0
284011.0 109060.0 0
289724.0 105481.0 0
288600.0 110495.0 0
292658.0 108903.0 0
296526.0 106401.0 0
303662.0 109749.0 0
307813.0 109675.0 0
312335.0 109086.0 0
321330.0 105599.0 0
317612.0 108799.0 0
328006.0 108716.0 0
332709.0 109672.0 0
337285.0 105863.0 0
342892.0 105894.0 0
346827.0 105852.0 0
345477.0 109567.0 0
341914.0 109822.0 0
349517.0 108786.0 0
355327.0 109164.0 0
361676.0 106048.0 0
366485.0 109511.0 0
373420.0 110008.0 0
378335.0 107709.0 0
392581.0 109557.0 0
388072.0 109782.0 0
395528.0 105938.0 0
397114.0 109796.0 0
400529.0 106749.0 0
405863.0 105417.0 0
408059.0 110174.0 0
412514.0 109041.0 0
417167.0 107533.0 0
421019.0 109584.0 0
425370.0 109222.0 0
431956.0 109007.0 0
437683.0 110255.0 0
443668.0 110307.0 0
450508.0 106481.0 0
454498.0 109438.0 0
458800.0 110375.0 0
463934.0 110200.0 0
465833.0 106728.0 0
469297.0 109537.0 0
473167.0 105900.0 0
474376.0 110435.0 0
479087.0 109444.0 0
486586.0 107804.0 0
491385.0 109872.0 0
497411.0 110023.0 0
2127.6 114071.0 0
6960.61 113617.0 0
12440.7 111343.0 0
18049.7 110771.0 0
16008.7 114778.0 0
20037.5 115056.0 0
24885.1 114816.0 0
29083.6 111131.0 0
32222.3 115496.0 0
35952.1 110787.0 0
43318.5 114932.0 0
48686.5 115476.0 0
53580.0 114656.0 0
57603.1 111843.0 0
62542.2 114527.0 0
67219.3 114613.0 0
73651.8 112251.0 0
79099.2 114872.0 0
84543.0 114863.0 0
88606.7 115122.0 0
92508.1 114571.0 0
101251.0 110572.0 0
97466.4 113379.0 0
102445.0 114998.0 0
110243.0 110521.0 0
107194.0 113897.0 0
111837.0 114684.0 0
117994.0 115604.0 0
123247.0 114530.0 0
127766.0 114222.0 0
132819.0 114777.0 0
138522.0 114032.0 0
143145.0 114935.0 0
148122.0 111149.0 0
151877.0 114935.0 0
156564.0 115153.0 0
161568.0 114650.0 0
166875.0 113753.0 0
173249.0 114812.0 0
181596.0 111246.0 0
178608.0 114960.0 0
189457.0 114966.0 0
195892.0 112273.0 0
199741.0 114998.0 0
203874.0 115580.0 0
207148.0 110707.0 0
212779.0 113925.0 0
219058.0 115228.0 0
221590.0 111297.0 0
223358.0 114797.0 0
227641.0 114826.0 0
232481.0 114120.0 0
235877.0 110670.0 0
237723.0 115132.0 0
242285.0 115551.0 0
246691.0 113818.0 0
251863.0 115407.0 0
257588.0 111146.0 0
257453.0 115444.0 0
263719.0 110704.0 0
269612.0 110571.0 0
267688.0 114759.0 0
271757.0 114322.0 0
279917.0 112070.0 0
276114.0 114789.0 0
284286.0 113473.0 0
293601.0 113444.0 0
298744.0 111105.0 0
302642.0 114694.0 0
306701.0 113546.0 0
311690.0 114779.0 0
316843.0 113630.0 0
321345.0 115522.0 0
323360.0 110589.0 0
324883.0 114481.0 0
328697.0 113427.0 0
334154.0 115295.0 0
337436.0 111176.0 0
339612.0 115084.0 0
344143.0 113783.0 0
350100.0 114442.0 0
360664.0 111236.0 0
369396.0 114300.0 0
374924.0 115326.0 0
378300.0 112205.0 0
383175.0 110673.0 0
388067.0 114282.0 0
397920.0 113976.0 0
393143.0 114629.0 0
401987.0 115222.0 0
403354.0 110896.0 0
406595.0 114798.0 0
412747.0 114937.0 0
418441.0 112967.0 0
423544.0 114387.0 0
428715.0 113028.0 0
433882.0 115490.0 0
445499.0 115026.0 0
450715.0 112913.0 0
456148.0 114519.0 0
463205.0 114245.0 0
460063.0 114985.0 0
467453.0 114802.0 0
472541.0 114734.0 0
477866.0 114773.0 0
483695.0 111129.0 0
482744.0 115377.0 0
487589.0 114372.0 0
492465.0 115061.0 0
497811.0 114785.0 0
3067.49 119180.0 0
8555.6 118117.0 0
12581.9 116752.0 0
16421.2 118950.0 0
21312.7 119959.0 0
27466.4 120170.0 0
32650.3 119303.0 0
37673.7 116389.0 0
42306.7 120084.0 0
53255.7 119611.0 0
57459.3 116753.0 0
58928.9 120645.0 0
62499.4 118949.0 0
71133.1 117019.0 0
66930.3 119049.0 0
76176.4 120063.0 0
82351.7 118468.0 0
86393.5 118803.0 0
91254.3 119654.0 0
96601.9 118501.0 0
101325.0 119660.0 0
106448.0 119066.0 0
112395.0 120196.0 0
123220.0 119781.0 0
128379.0 118725.0 0
133236.0 120261.0 0
138695.0 119763.0 0
143897.0 118977.0 0
147994.0 117124.0 0
152641.0 119367.0 0
158024.0 119631.0 0
162828.0 118783.0 0
168108.0 119204.0 0
172596.0 120489.0 0
177246.0 120247.0 0
183533.0 115898.0 0
187087.0 119852.0 0
192265.0 120120.0 0
193907.0 116095.0 0
197934.0 119719.0 0
202908.0 119562.0 0
208359.0 115847.0 0
207315.0 120548.0 0
212051.0 118869.0 0
217205.0 120297.0 0
222464.0 119019.0 0
227444.0 120370.0 0
232440.0 118827.0 0
237065.0 119445.0 0
241372.0 120022.0 0
246106.0 118835.0 0
254521.0 119878.0 0
250344.0 120418.0 0
258823.0 120506.0 0
262305.0 116932.0 0
267465.0 120095.0 0
272517.0 118208.0 0
277260.0 120070.0 0
283204.0 118866.0 0
288580.0 115734.0 0
288223.0 120290.0 0
292775.0 119050.0 0
298814.0 115865.0 0
297384.0 119818.0 0
302107.0 119836.0 0
306892.0 118273.0 0
316042.0 118525.0 0
311368.0 120295.0 0
320406.0 119943.0 0
326139.0 119268.0 0
338274.0 120344.0 0
343317.0 118729.0 0
348164.0 119928.0 0
356711.0 116011.0 0
353179.0 120482.0 0
363251.0 115900.0 0
372382.0 119469.0 0
367630.0 119858.0 0
379744.0 116177.0 0
382002.0 119359.0 0
384038.0 116302.0 0
387377.0 118907.0 0
391838.0 119346.0 0
396416.0 118558.0 0
401430.0 120125.0 0
406579.0 119661.0 0
417742.0 118892.0 0
428007.0 119237.0 0
440195.0 116421.0 0
448654.0 117576.0 0
444884.0 120180.0 0
448961.0 120689.0 0
453284.0 119293.0 0
458570.0 118408.0 0
463270.0 118437.0 0
468255.0 119859.0 0
473568.0 119917.0 0
478469.0 119686.0 0
481959.0 120219.0 0
485369.0 118832.0 0
490339.0 118946.0 0
495332.0 119039.0 0
2830.08 125087.0 0
7503.86 122536.0 0
12197.8 121299.0 0
12525.4 124938.0 0
17166.1 124490.0 0
23592.2 125392.0 0
28520.0 125258.0 0
32917.7 123410.0 0
37798.1 121755.0 0
44154.5 125445.0 0
47951.2 120985.0 0
51666.0 124101.0 0
56222.6 124192.0 0
61495.6 124623.0 0
71359.0 121199.0 0
67362.6 124550.0 0
73115.0 125566.0 0
80897.4 122729.0 0
86723.9 124429.0 0
92877.4 125637.0 0
98368.7 123873.0 0
103676.0 123815.0 0
108521.0 124462.0 0
113657.0 125578.0 0
118078.0 121031.0 0
123557.0 124815.0 0
128426.0 123900.0 0
133081.0 124781.0 0
137596.0 125140.0 0
146817.0 121362.0 0
143072.0 123103.0 0
146707.0 125408.0 0
150635.0 123303.0 0
155609.0 123383.0 0
161150.0 123666.0 0
167133.0 125282.0 0
172930.0 124777.0 0
178054.0 125757.0 0
182427.0 120854.0 0
183654.0 125620.0 0
189253.0 124593.0 0
194195.0 124641.0 0
203778.0 123780.0 0
199079.0 125369.0 0
208282.0 125590.0 0
213126.0 124128.0 0
217850.0 125602.0 0
222500.0 124771.0 0
227501.0 124947.0 0
231363.0 122961.0 0
235333.0 123488.0 0
241012.0 124413.0 0
246228.0 124684.0 0
252669.0 125164.0 0
257745.0 124296.0 0
262636.0 123427.0 0
268650.0 124812.0 0
272487.0 122860.0 0
276647.0 125119.0 0
282613.0 124644.0 0
287964.0 124703.0 0
293356.0 124529.0 0
298042.0 123686.0 0
302181.0 125743.0 0
306759.0 123147.0 0
311373.0 125517.0 0
317138.0 124213.0 0
322854.0 124478.0 0
326676.0 124218.0 0
331450.0 125761.0 0
332573.0 121348.0 0
340794.0 125040.0 0
345207.0 123127.0 0
349873.0 124551.0 0
358609.0 121528.0 0
363217.0 121391.0 0
367147.0 125257.0 0
377383.0 120830.0 0
372564.0 124383.0 0
382879.0 124013.0 0
389047.0 123879.0 0
397277.0 123739.0 0
402363.0 125763.0 0
407529.0 124371.0 0
411926.0 121298.0 0
417012.0 124592.0 0
422243.0 121819.0 0
426096.0 125344.0 0
432010.0 124633.0 0
435852.0 120762.0 0
437797.0 125718.0 0
440095.0 121372.0 0
443151.0 125200.0 0
447787.0 124370.0 0
452656.0 125212.0 0
457751.0 123256.0 0
463132.0 123610.0 0
468194.0 125005.0 0
473083.0 125080.0 0
478097.0 124524.0 0
482741.0 124835.0 0
487707.0 123738.0 0
493259.0 123776.0 0
497790.0 123329.0 0
2518.44 130429.0 0
9657.98 126388.0 0
7270.31 129831.0 0
12117.3 130165.0 0
17593.3 130765.0 0
28810.5 129766.0 0
32724.1 128110.0 0
37937.0 127421.0 0
43274.1 130876.0 0
48947.2 127135.0 0
52884.4 129794.0 0
58210.9 128967.0 0
64170.4 130227.0 0
71361.8 129110.0 0
78025.1 126572.0 0
81048.6 130737.0 0
96751.4 129694.0 0
92020.6 130219.0 0
101923.0 128168.0 0
107424.0 130556.0 0
113364.0 130574.0 0
118711.0 126333.0 0
123398.0 129882.0 0
128618.0 129065.0 0
133599.0 129311.0 0
141641.0 127673.0 0
145474.0 130270.0 0
150726.0 129014.0 0
156814.0 128609.0 0
162657.0 129733.0 0
170995.0 129643.0 0
183159.0 129572.0 0
179617.0 130444.0 0
187240.0 129674.0 0
192617.0 129249.0 0
202934.0 128789.0 0
210961.0 129698.0 0
215629.0 129917.0 0
221240.0 129992.0 0
227185.0 130308.0 0
231614.0 127148.0 0
237589.0 129180.0 0
243850.0 129885.0 0
248904.0 129656.0 0
257368.0 127635.0 0
260306.0 129674.0 0
265515.0 128596.0 0
272406.0 129165.0 0
279500.0 129888.0 0
285572.0 128772.0 0
290284.0 128644.0 0
297351.0 128883.0 0
302309.0 130847.0 0
306882.0 128622.0 0
318328.0 130031.0 0
323488.0 129427.0 0
328118.0 127719.0 0
335630.0 126244.0 0
332371.0 130214.0 0
340946.0 129619.0 0
337052.0 130830.0 0
345692.0 128419.0 0
350918.0 130528.0 0
355448.0 126715.0 0
361544.0 126106.0 0
359291.0 130912.0 0
364354.0 130603.0 0
368943.0 129920.0 0
373329.0 129253.0 0
377583.0 126566.0 0
381329.0 129840.0 0
386962.0 130022.0 0
393443.0 126031.0 0
393352.0 130885.0 0
398527.0 129319.0 0
402914.0 130703.0 0
407775.0 129771.0 0
411988.0 126604.0 0
415878.0 130403.0 0
421587.0 126448.0 0
424598.0 129380.0 0
428963.0 129916.0 0
434131.0 129612.0 0
438737.0 130901.0 0
442788.0 129562.0 0
447718.0 129634.0 0
453045.0 130234.0 0
458330.0 129061.0 0
463625.0 128428.0 0
468161.0 130331.0 0
473597.0 129491.0 0
478149.0 129682.0 0
482808.0 129034.0 0
487497.0 129320.0 0
492502.0 128727.0 0
497556.0 127977.0 0
2475.48 135423.0 0
7677.06 134853.0 0
12004.5 134365.0 0
15771.6 135799.0 0
23417.9 131451.0 0
26808.4 135839.0 0
34065.2 133500.0 0
39402.5 132389.0 0
44706.1 135342.0 0
47709.2 130955.0 0
48760.4 134665.0 0
53066.3 134968.0 0
59516.4 134060.0 0
63885.6 135364.0 0
69258.8 131174.0 0
67606.6 134623.0 0
75107.9 130938.0 0
71692.3 134564.0 0
78263.1 134446.0 0
82471.6 135728.0 0
87053.8 131090.0 0
91999.0 134859.0 0
96999.8 134809.0 0
102128.0 134059.0 0
111124.0 134869.0 0
118426.0 131594.0 0
126570.0 134587.0 0
132454.0 134285.0 0
137140.0 135421.0 0
137995.0 130950.0 0
142292.0 134552.0 0
147728.0 134019.0 0
152626.0 134669.0 0
157521.0 133693.0 0
162025.0 135303.0 0
167210.0 133733.0 0
172467.0 134791.0 0
175347.0 131370.0 0
178178.0 135703.0 0
183468.0 133495.0 0
190431.0 134266.0 0
197965.0 131008.0 0
195416.0 135710.0 0
203351.0 134145.0 0
206811.0 131149.0 0
208223.0 135130.0 0
212607.0 134197.0 0
217697.0 134602.0 0
223410.0 134842.0 0
227690.0 135305.0 0
232727.0 134530.0 0
237913.0 135197.0 0
242249.0 134076.0 0
246577.0 133970.0 0
254146.0 131293.0 0
251456.0 135755.0 0
257660.0 135564.0 0
262657.0 133795.0 0
268086.0 133853.0 0
273563.0 135875.0 0
284060.0 133031.0 0
289118.0 133743.0 0
293632.0 132016.0 0
298812.0 134630.0 0
302795.0 134310.0 0
307469.0 134180.0 0
312363.0 131568.0 0
316382.0 134950.0 0
321289.0 135049.0 0
327598.0 133596.0 0
333607.0 135195.0 0
340751.0 133751.0 0
346463.0 134972.0 0
352479.0 135347.0 0
362683.0 134467.0 0
367601.0 135196.0 0
377200.0 131650.0 0
373234.0 134379.0 0
383127.0 135250.0 0
388874.0 135903.0 0
397598.0 133736.0 0
401996.0 135321.0 0
407555.0 135573.0 0
417737.0 134564.0 0
413357.0 135598.0 0
421177.0 131706.0 0
420739.0 135848.0 0
426079.0 135292.0 0
432065.0 134389.0 0
436732.0 134744.0 0
442765.0 134584.0 0
453409.0 134405.0 0
458511.0 135589.0 0
463600.0 132970.0 0
467767.0 135647.0 0
471813.0 133190.0 0
476449.0 134715.0 0
481100.0 133025.0 0
485658.0 133986.0 0
490710.0 135021.0 0
496002.0 133257.0 0
3211.22 140552.0 0
8257.78 139953.0 0
12763.2 139589.0 0
17406.6 140558.0 0
20838.9 136496.0 0
22006.5 141093.0 0
26229.5 140623.0 0
30952.9 139124.0 0
40054.6 136633.0 0
35933.0 139239.0 0
43630.1 139327.0 0
47755.5 138698.0 0
51809.3 139026.0 0
56830.0 139247.0 0
62579.6 139378.0 0
67171.1 139801.0 0
72521.0 139750.0 0
77992.2 138544.0 0
82526.2 140153.0 0
86293.9 140747.0 0
87140.6 136681.0 0
90159.8 139994.0 0
95222.1 139832.0 0
101125.0 139729.0 0
106970.0 136435.0 0
111795.0 139731.0 0
115819.0 136238.0 0
121102.0 136240.0 0
118333.0 140908.0 0
123281.0 140667.0 0
132214.0 139601.0 0
127624.0 139706.0 0
137231.0 140020.0 0
146469.0 139015.0 0
156132.0 138636.0 0
169286.0 140116.0 0
181606.0 140512.0 0
186112.0 137897.0 0
190993.0 139570.0 0
195754.0 140385.0 0
199786.0 136328.0 0
204962.0 138664.0 0
208466.0 140912.0 0
211616.0 138763.0 0
216502.0 139922.0 0
221703.0 139247.0 0
226694.0 139797.0 0
231954.0 138802.0 0
236065.0 140083.0 0
241434.0 138569.0 0
246762.0 139083.0 0
251417.0 140006.0 0
256142.0 140671.0 0
261549.0 139137.0 0
266315.0 138293.0 0
270640.0 140755.0 0
279476.0 136083.0 0
276599.0 140831.0 0
284957.0 138171.0 0
290187.0 138609.0 0
293861.0 136236.0 0
293757.0 140857.0 0
297271.0 139053.0 0
302714.0 137470.0 0
307446.0 138114.0 0
310129.0 140696.0 0
312804.0 137387.0 0
316961.0 139093.0 0
326197.0 138980.0 0
321557.0 141024.0 0
331855.0 140178.0 0
336696.0 140718.0 0
337889.0 136704.0 0
341785.0 139630.0 0
346628.0 140847.0 0
350388.0 139278.0 0
354412.0 140560.0 0
358046.0 136493.0 0
363421.0 139810.0 0
368528.0 140419.0 0
372652.0 139070.0 0
377756.0 136384.0 0
381262.0 139761.0 0
385749.0 140369.0 0
391603.0 140918.0 0
393912.0 136164.0 0
397805.0 139817.0 0
403436.0 140297.0 0
408193.0 140690.0 0
412655.0 140764.0 0
417328.0 139263.0 0
422294.0 139595.0 0
433144.0 140323.0 0
438898.0 138804.0 0
448812.0 136734.0 0
443938.0 140174.0 0
453765.0 139358.0 0
463038.0 140050.0 0
468113.0 140414.0 0
472250.0 138232.0 0
476531.0 139751.0 0
481591.0 138294.0 0
487407.0 138897.0 0
497268.0 138909.0 0
2743.24 145980.0 0
8042.81 144975.0 0
14921.7 144791.0 0
19909.5 145369.0 0
25329.0 145466.0 0
32699.8 145920.0 0
40009.7 142363.0 0
47202.2 143972.0 0
52669.8 143221.0 0
57753.5 145489.0 0
63751.4 144737.0 0
69579.4 145093.0 0
74694.8 145631.0 0
78841.1 143299.0 0
82761.4 144921.0 0
87411.8 145180.0 0
93077.7 145254.0 0
98832.4 145089.0 0
106555.0 141457.0 0
103893.0 145642.0 0
107222.0 145463.0 0
111638.0 145603.0 0
120398.0 145635.0 0
124184.0 144934.0 0
128406.0 144331.0 0
132872.0 143936.0 0
136853.0 144710.0 0
141708.0 141292.0 0
141100.0 145475.0 0
146522.0 144982.0 0
151573.0 141479.0 0
156635.0 145077.0 0
161834.0 141604.0 0
172255.0 145101.0 0
175976.0 141478.0 0
179233.0 145091.0 0
184127.0 145715.0 0
189315.0 144085.0 0
193668.0 144988.0 0
197503.0 144569.0 0
200539.0 141507.0 0
202966.0 145354.0 0
206274.0 143230.0 0
212256.0 144601.0 0
216806.0 144453.0 0
220974.0 144081.0 0
225739.0 144765.0 0
230980.0 143198.0 0
235664.0 145007.0 0
240542.0 143816.0 0
248381.0 143860.0 0
252558.0 143649.0 0
259971.0 143729.0 0
256057.0 145675.0 0
265490.0 143543.0 0
272928.0 144224.0 0
275665.0 144811.0 0
281961.0 143685.0 0
288336.0 143364.0 0
293476.0 145529.0 0
298770.0 143451.0 0
304641.0 142178.0 0
309147.0 144360.0 0
313927.0 142147.0 0
317699.0 144059.0 0
323366.0 146212.0 0
327811.0 143489.0 0
332500.0 144836.0 0
336870.0 145329.0 0
342208.0 145204.0 0
351679.0 144100.0 0
347217.0 145218.0 0
357651.0 144098.0 0
363233.0 146165.0 0
368505.0 144681.0 0
376987.0 141532.0 0
373400.0 145897.0 0
382575.0 143792.0 0
379099.0 145938.0 0
387079.0 145969.0 0
395893.0 144548.0 0
400749.0 145012.0 0
405935.0 144635.0 0
411228.0 145939.0 0
416962.0 145091.0 0
422189.0 144496.0 0
427069.0 141981.0 0
431391.0 146020.0 0
437982.0 144229.0 0
443845.0 146056.0 0
448492.0 142581.0 0
453591.0 144586.0 0
457909.0 141503.0 0
458351.0 145701.0 0
462239.0 145040.0 0
467266.0 145419.0 0
472251.0 143377.0 0
478242.0 144515.0 0
483445.0 143419.0 0
487729.0 143569.0 0
492246.0 141433.0 0
497114.0 144510.0 0
2122.1 150806.0 0
6629.62 149910.0 0
11765.2 147456.0 0
10874.5 151109.0 0
16444.9 150036.0 0
22132.8 150168.0 0
26805.1 150041.0 0
42538.7 147333.0 0
47182.2 149103.0 0
52162.2 148649.0 0
62695.8 150117.0 0
67631.1 150436.0 0
72734.0 150177.0 0
77869.6 149550.0 0
83358.2 149635.0 0
88734.3 150140.0 0
93487.8 150113.0 0
97430.6 149724.0 0
102461.0 150852.0 0
107419.0 148714.0 0
116413.0 148292.0 0
125857.0 149257.0 0
131745.0 148660.0 0
137377.0 149589.0 0
143319.0 150373.0 0
151900.0 146870.0 0
148470.0 149933.0 0
157300.0 150076.0 0
160656.0 147144.0 0
163242.0 149501.0 0
166704.0 146384.0 0
170863.0 148536.0 0
175911.0 149109.0 0
181671.0 150924.0 0
189133.0 149332.0 0
194263.0 149731.0 0
199454.0 148920.0 0
203612.0 150942.0 0
207411.0 148015.0 0
216143.0 149978.0 0
221749.0 148326.0 0
226488.0 150037.0 0
232442.0 149183.0 0
238431.0 148936.0 0
244735.0 148139.0 0
251356.0 148640.0 0
256819.0 150202.0 0
261841.0 148314.0 0
270071.0 147573.0 0
274196.0 150309.0 0
278053.0 147852.0 0
283491.0 150000.0 0
289033.0 148690.0 0
293268.0 151039.0 0
297213.0 148334.0 0
303006.0 148655.0 0
308805.0 149567.0 0
312953.0 146890.0 0
318356.0 149337.0 0
328792.0 148712.0 0
334066.0 150462.0 0
339592.0 149870.0 0
344933.0 149669.0 0
349989.0 149204.0 0
354429.0 147716.0 0
358650.0 150821.0 0
368161.0 149396.0 0
372313.0 150633.0 0
376962.0 150473.0 0
382471.0 149434.0 0
387497.0 150448.0 0
392323.0 147103.0 0
392129.0 151210.0 0
396150.0 149923.0 0
401229.0 150481.0 0
406693.0 149798.0 0
411220.0 150811.0 0
415490.0 150129.0 0
421158.0 150082.0 0
426356.0 147539.0 0
428523.0 151046.0 0
430961.0 150450.0 0
435835.0 150250.0 0
446665.0 150421.0 0
449070.0 146930.0 0
456077.0 149371.0 0
461499.0 150090.0 0
466931.0 150827.0 0
472915.0 148576.0 0
478057.0 149985.0 0
482524.0 147882.0 0
487864.0 148699.0 0
492458.0 146422.0 0
493643.0 150324.0 0
498089.0 149192.0 0
2813.61 155598.0 0
8165.9 154854.0 0
12894.4 154218.0 0
20384.4 154745.0 0
16332.0 154867.0 0
25268.6 155976.0 0
31181.1 153720.0 0
38046.6 151362.0 0
44045.9 151851.0 0
41794.9 155713.0 0
47446.2 155834.0 0
53101.9 155144.0 0
57345.5 151586.0 0
63565.5 155270.0 0
68268.0 154833.0 0
72453.6 155026.0 0
77185.4 154664.0 0
86321.9 153759.0 0
82034.8 154743.0 0
91303.7 154678.0 0
96817.5 154125.0 0
111801.0 151968.0 0
116464.0 154702.0 0
120437.0 151498.0 0
121274.0 156234.0 0
126005.0 155417.0 0
132122.0 155044.0 0
137819.0 155230.0 0
142840.0 155764.0 0
147532.0 154485.0 0
152878.0 151401.0 0
152628.0 156043.0 0
157561.0 155065.0 0
162712.0 154003.0 0
168107.0 151798.0 0
172608.0 154299.0 0
177851.0 154406.0 0
182304.0 156021.0 0
186374.0 153666.0 0
192082.0 154202.0 0
196621.0 154896.0 0
201110.0 154400.0 0
206767.0 154199.0 0
210865.0 151692.0 0
212749.0 154812.0 0
217643.0 155893.0 0
221800.0 152989.0 0
226798.0 155144.0 0
231546.0 154810.0 0
236388.0 153838.0 0
241206.0 153409.0 0
245772.0 153488.0 0
250430.0 154533.0 0
255178.0 154383.0 0
260748.0 154493.0 0
266226.0 151662.0 0
271140.0 153968.0 0
278166.0 153562.0 0
288465.0 153985.0 0
293486.0 155939.0 0
298394.0 153542.0 0
303462.0 154207.0 0
308194.0 154576.0 0
314357.0 154684.0 0
319272.0 154288.0 0
324039.0 151662.0 0
328968.0 154271.0 0
333146.0 154672.0 0
336742.0 154621.0 0
342592.0 155032.0 0
347881.0 154174.0 0
353212.0 153886.0 0
363897.0 151758.0 0
367793.0 155044.0 0
373566.0 155263.0 0
382651.0 154686.0 0
378336.0 154979.0 0
387500.0 154984.0 0
390840.0 154787.0 0
394209.0 154377.0 0
397989.0 154383.0 0
405861.0 155829.0 0
412257.0 155445.0 0
417885.0 154949.0 0
423011.0 155347.0 0
427877.0 154936.0 0
432790.0 155407.0 0
437676.0 155894.0 0
442045.0 151995.0 0
447083.0 154675.0 0
451287.0 151647.0 0
456331.0 154319.0 0
461274.0 155746.0 0
466168.0 155410.0 0
470975.0 153570.0 0
476162.0 155012.0 0
482656.0 153884.0 0
488909.0 154264.0 0
497008.0 153975.0 0
2316.13 160039.0 0
7488.63 159700.0 0
11899.3 158185.0 0
17721.6 159109.0 0
22192.4 159703.0 0
25713.8 160502.0 0
33500.7 159304.0 0
37228.6 156704.0 0
41261.0 160942.0 0
46266.2 161063.0 0
51637.4 160489.0 0
58687.8 156876.0 0
56874.5 161139.0 0
62241.2 160726.0 0
67515.7 159549.0 0
72506.4 159637.0 0
81266.9 159865.0 0
76625.2 160699.0 0
87014.7 158780.0 0
92308.8 159947.0 0
101396.0 156743.0 0
97255.4 159968.0 0
107501.0 156943.0 0
111799.0 160772.0 0
113001.0 156795.0 0
117643.0 160243.0 0
123436.0 159969.0 0
128783.0 160472.0 0
134059.0 160084.0 0
137961.0 159815.0 0
142163.0 159765.0 0
147504.0 160285.0 0
152869.0 160977.0 0
158962.0 159452.0 0
162909.0 159374.0 0
167292.0 156828.0 0
167203.0 161466.0 0
171989.0 158739.0 0
177728.0 159942.0 0
183253.0 160701.0 0
188242.0 158641.0 0
193898.0 159497.0 0
199055.0 159219.0 0
204158.0 159657.0 0
214027.0 158166.0 0
209491.0 159267.0 0
217434.0 160276.0 0
222151.0 158481.0 0
226340.0 159005.0 0
230558.0 160336.0 0
235731.0 158581.0 0
240054.0 156782.0 0
243733.0 157691.0 0
240026.0 160738.0 0
250365.0 159926.0 0
256477.0 159812.0 0
262643.0 160120.0 0
266799.0 157183.0 0
272519.0 159609.0 0
278324.0 159377.0 0
283292.0 156838.0 0
289989.0 159482.0 0
294961.0 160387.0 0
299386.0 158896.0 0
303668.0 158205.0 0
307824.0 159733.0 0
313038.0 160875.0 0
317923.0 159092.0 0
322914.0 157411.0 0
327990.0 159308.0 0
333198.0 158958.0 0
339000.0 160325.0 0
344324.0 160313.0 0
346990.0 157729.0 0
351177.0 159986.0 0
357776.0 156502.0 0
358163.0 160884.0 0
362518.0 156572.0 0
362969.0 161478.0 0
367649.0 160409.0 0
372887.0 160893.0 0
377591.0 159657.0 0
387666.0 159440.0 0
383033.0 159851.0 0
390579.0 160328.0 0
394661.0 158996.0 0
400640.0 158767.0 0
409727.0 161292.0 0
416361.0 160729.0 0
422812.0 161005.0 0
428624.0 159768.0 0
433383.0 160226.0 0
438577.0 161147.0 0
441768.0 156664.0 0
448820.0 159536.0 0
444221.0 160460.0 0
452132.0 156809.0 0
452094.0 160799.0 0
457220.0 160578.0 0
462826.0 160225.0 0
466793.0 161494.0 0
470795.0 158759.0 0
476400.0 161391.0 0
482885.0 160623.0 0
488671.0 159787.0 0
492846.0 157118.0 0
492895.0 160840.0 0
497140.0 159838.0 0
2879.54 163871.0 0
7660.86 164161.0 0
13296.3 162583.0 0
17519.6 164002.0 0
21981.4 163989.0 0
29624.6 162291.0 0
25924.6 164394.0 0
33841.2 165157.0 0
36829.5 161727.0 0
38550.9 165194.0 0
43314.6 166003.0 0
47500.0 164798.0 0
51975.5 166136.0 0
58911.5 165693.0 0
64498.8 165917.0 0
69008.7 164645.0 0
73878.0 164106.0 0
77217.8 164524.0 0
80691.8 164967.0 0
86321.8 165088.0 0
92811.4 164954.0 0
98242.8 165229.0 0
102435.0 161893.0 0
106772.0 162087.0 0
103094.0 165857.0 0
109028.0 165266.0 0
113212.0 164883.0 0
122442.0 164752.0 0
117544.0 165953.0 0
126563.0 165364.0 0
131864.0 164821.0 0
136845.0 164363.0 0
144006.0 165052.0 0
150410.0 164847.0 0
157085.0 164672.0 0
162990.0 163761.0 0
167630.0 166131.0 0
173048.0 164373.0 0
183029.0 165311.0 0
178837.0 166008.0 0
186680.0 164020.0 0
191842.0 164376.0 0
196806.0 163571.0 0
201799.0 164666.0 0
207325.0 164373.0 0
213592.0 162434.0 0
216949.0 165471.0 0
220482.0 163315.0 0
225383.0 162853.0 0
229372.0 165371.0 0
235824.0 164060.0 0
240223.0 165760.0 0
245170.0 163772.0 0
252493.0 164936.0 0
257216.0 165271.0 0
262356.0 164900.0 0
267377.0 162699.0 0
272615.0 165718.0 0
277796.0 164397.0 0
282852.0 162377.0 0
289758.0 164255.0 0
285973.0 165879.0 0
293416.0 163961.0 0
297871.0 164896.0 0
303739.0 163358.0 0
309258.0 165298.0 0
315431.0 166294.0 0
320305.0 163416.0 0
324621.0 161980.0 0
328767.0 164962.0 0
334659.0 164269.0 0
338218.0 166525.0 0
342802.0 165459.0 0
348333.0 164790.0 0
354571.0 164707.0 0
358832.0 164844.0 0
362305.0 165531.0 0
366732.0 165448.0 0
371988.0 166278.0 0
376885.0 163478.0 0
380638.0 164132.0 0
386648.0 164628.0 0
391380.0 163712.0 0
396438.0 164704.0 0
400517.0 163145.0 0
404214.0 162069.0 0
413219.0 166586.0 0
418108.0 165771.0 0
422107.0 166160.0 0
426877.0 164613.0 0
431420.0 164513.0 0
436288.0 166491.0 0
442100.0 165802.0 0
447549.0 164717.0 0
452803.0 164986.0 0
461585.0 164442.0 0
465841.0 165551.0 0
470827.0 164553.0 0
480519.0 165041.0 0
485119.0 165667.0 0
491128.0 165633.0 0
497364.0 165330.0 0
2104.65 168028.0 0
6793.28 169658.0 0
12523.0 167944.0 0
18520.4 169039.0 0
24345.7 168766.0 0
30115.2 169136.0 0
35415.9 170573.0 0
39873.5 169250.0 0
43534.9 171287.0 0
47482.0 168972.0 0
51744.6 170974.0 0
56705.5 170722.0 0
61964.5 170732.0 0
66638.4 170412.0 0
71690.8 168992.0 0
77191.5 168141.0 0
82291.6 169955.0 0
88449.9 171405.0 0
93313.2 169060.0 0
97500.0 169831.0 0
107094.0 169405.0 0
102236.0 169632.0 0
112290.0 169133.0 0
117489.0 170567.0 0
122473.0 168821.0 0
132589.0 169580.0 0
127669.0 170329.0 0
137654.0 169305.0 0
140199.0 166677.0 0
142126.0 169741.0 0
147636.0 169524.0 0
153045.0 168857.0 0
157497.0 170552.0 0
161579.0 168699.0 0
165667.0 170386.0 0
171229.0 170239.0 0
176234.0 170232.0 0
180326.0 170680.0 0
184959.0 169100.0 0
190262.0 168666.0 0
195404.0 169154.0 0
201311.0 170120.0 0
206583.0 170445.0 0
212321.0 168264.0 0
218105.0 169800.0 0
222870.0 167775.0 0
227523.0 170385.0 0
232628.0 168933.0 0
238165.0 169745.0 0
243791.0 170108.0 0
248620.0 168675.0 0
254994.0 168996.0 0
259925.0 169166.0 0
266658.0 169741.0 0
272632.0 170662.0 0
276489.0 169265.0 0
281554.0 168124.0 0
287001.0 170470.0 0
292799.0 168782.0 0
298711.0 170763.0 0
303423.0 168652.0 0
307680.0 169953.0 0
312792.0 171569.0 0
319111.0 170660.0 0
323692.0 166940.0 0
323805.0 171164.0 0
328218.0 170605.0 0
332685.0 168908.0 0
337214.0 170306.0 0
341746.0 170697.0 0
346957.0 170186.0 0
352961.0 169985.0 0
358289.0 168663.0 0
363852.0 169924.0 0
368575.0 169559.0 0
377264.0 167781.0 0
372516.0 170154.0 0
383137.0 169101.0 0
392796.0 168449.0 0
388492.0 170332.0 0
396697.0 170227.0 0
401632.0 168219.0 0
407475.0 166756.0 0
408624.0 171349.0 0
412939.0 171549.0 0
417500.0 169730.0 0
423655.0 170060.0 0
429096.0 168810.0 0
432842.0 169990.0 0
439598.0 170142.0 0
445091.0 169794.0 0
449570.0 169447.0 0
453928.0 169793.0 0
457499.0 166651.0 0
458053.0 171214.0 0
461735.0 168998.0 0
466235.0 170260.0 0
472008.0 170579.0 0
476634.0 167315.0 0
481396.0 169664.0 0
487086.0 170885.0 0
492809.0 171529.0 0
497596.0 170364.0 0
3506.58 175109.0 0
8912.79 174923.0 0
12819.2 173370.0 0
18045.9 175250.0 0
23734.8 174132.0 0
29009.0 174932.0 0
33721.4 174735.0 0
38524.6 175056.0 0
43678.4 176008.0 0
47741.0 173735.0 0
52003.6 175531.0 0
56979.3 176129.0 0
61796.1 175440.0 0
66399.9 175005.0 0
71634.0 174878.0 0
78211.2 175359.0 0
84122.8 174699.0 0
87688.2 176480.0 0
94100.2 173274.0 0
99300.4 174528.0 0
103853.0 175966.0 0
108319.0 174370.0 0
113637.0 173975.0 0
122392.0 173213.0 0
118188.0 175012.0 0
126888.0 175275.0 0
131334.0 174426.0 0
135399.0 173061.0 0
139961.0 174011.0 0
145194.0 174657.0 0
151681.0 174967.0 0
157461.0 175719.0 0
162223.0 174128.0 0
167836.0 174704.0 0
173460.0 175877.0 0
178656.0 174654.0 0
183497.0 174647.0 0
188825.0 172770.0 0
193401.0 175398.0 0
198162.0 173866.0 0
202225.0 175445.0 0
207011.0 175614.0 0
212376.0 174665.0 0
217312.0 174264.0 0
221939.0 173115.0 0
226296.0 175182.0 0
231236.0 174328.0 0
236066.0 174927.0 0
240758.0 174772.0 0
247330.0 174146.0 0
251701.0 172003.0 0
251815.0 176011.0 0
256817.0 174146.0 0
262021.0 174283.0 0
272433.0 175406.0 0
277769.0 173695.0 0
282670.0 173622.0 0
287575.0 175953.0 0
294279.0 175398.0 0
299741.0 175578.0 0
304166.0 173661.0 0
308989.0 174934.0 0
315365.0 176472.0 0
320388.0 175672.0 0
326100.0 175903.0 0
333160.0 175071.0 0
339147.0 175591.0 0
343441.0 174716.0 0
347375.0 174985.0 0
351812.0 175533.0 0
357563.0 174015.0 0
363014.0 174960.0 0
368208.0 174399.0 0
373386.0 173813.0 0
378061.0 172882.0 0
382810.0 175251.0 0
392116.0 173404.0 0
388002.0 176056.0 0
397057.0 174577.0 0
402872.0 174891.0 0
407559.0 174899.0 0
411392.0 175843.0 0
416297.0 174694.0 0
421524.0 174491.0 0
427086.0 173876.0 0
431837.0 176140.0 0
436283.0 173653.0 0
442626.0 175059.0 0
449563.0 175074.0 0
454946.0 174462.0 0
459033.0 175496.0 0
462487.0 173233.0 0
466447.0 175122.0 0
470794.0 175746.0 0
477068.0 171932.0 0
475071.0 175488.0 0
479813.0 175978.0 0
485458.0 176546.0 0
491394.0 175738.0 0
496535.0 175840.0 0
3164.77 181772.0 0
7860.67 178987.0 0
13198.5 179281.0 0
18016.5 181223.0 0
22913.6 179763.0 0
28302.8 180075.0 0
33684.9 179644.0 0
38744.3 179994.0 0
42462.6 179839.0 0
47500.0 179607.0 0
52558.0 179928.0 0
57797.7 181443.0 0
62773.9 179907.0 0
67039.9 179805.0 0
72935.3 180928.0 0
78321.3 181158.0 0
82589.4 179751.0 0
87056.7 180395.0 0
92062.4 178590.0 0
97669.7 179818.0 0
102295.0 179638.0 0
107409.0 180203.0 0
113346.0 179392.0 0
121263.0 178502.0 0
117556.0 180743.0 0
125792.0 181196.0 0
129829.0 178690.0 0
135551.0 178860.0 0
141806.0 178878.0 0
147624.0 181008.0 0
152815.0 180316.0 0
156959.0 180197.0 0
162562.0 180242.0 0
168611.0 180222.0 0
178545.0 179740.0 0
173681.0 181250.0 0
183146.0 181372.0 0
188006.0 178657.0 0
193371.0 180206.0 0
197865.0 178890.0 0
202704.0 179641.0 0
206537.0 180004.0 0
210414.0 179247.0 0
215936.0 178786.0 0
222030.0 179257.0 0
227890.0 179646.0 0
232868.0 178797.0 0
237576.0 179404.0 0
243287.0 179252.0 0
248665.0 179620.0 0
254448.0 179681.0 0
259269.0 178985.0 0
262859.0 180788.0 0
266298.0 177069.0 0
270744.0 179689.0 0
276853.0 178262.0 0
282833.0 179779.0 0
288072.0 181286.0 0
292398.0 180954.0 0
298266.0 179872.0 0
306027.0 179258.0 0
310185.0 180805.0 0
311332.0 177986.0 0
314051.0 181493.0 0
318485.0 179722.0 0
322500.0 179892.0 0
328894.0 180571.0 0
333249.0 181446.0 0
337018.0 179460.0 0
341124.0 179379.0 0
346186.0 179510.0 0
357136.0 179333.0 0
352140.0 181641.0 0
361938.0 179872.0 0
372172.0 178427.0 0
367473.0 181168.0 0
377871.0 178874.0 0
383977.0 181296.0 0
389039.0 180814.0 0
392970.0 178619.0 0
398548.0 179998.0 0
404604.0 180051.0 0
408305.0 180054.0 0
411601.0 180136.0 0
415648.0 179490.0 0
420774.0 179980.0 0
427258.0 180429.0 0
432708.0 180209.0 0
437828.0 180260.0 0
443855.0 181307.0 0
448897.0 181196.0 0
453712.0 179297.0 0
458584.0 179586.0 0
462382.0 177701.0 0
466454.0 180002.0 0
471665.0 180403.0 0
476743.0 180067.0 0
482110.0 180850.0 0
489724.0 179864.0 0
493000.0 181852.0 0
497149.0 181835.0 0
2175.08 187019.0 0
6289.99 185971.0 0
11599.4 185397.0 0
17536.7 185687.0 0
22463.8 185435.0 0
27690.2 185136.0 0
32846.4 185024.0 0
37849.1 184527.0 0
42860.5 184628.0 0
47500.0 184690.0 0
52500.0 184609.0 0
57471.1 185903.0 0
62273.8 184963.0 0
67614.2 184191.0 0
72220.4 186649.0 0
81627.4 184657.0 0
77001.1 185045.0 0
86238.8 184517.0 0
91741.1 185003.0 0
97809.6 185206.0 0
102672.0 184185.0 0
106903.0 186349.0 0
111197.0 184276.0 0
115541.0 185074.0 0
120820.0 184393.0 0
126021.0 186028.0 0
131558.0 184678.0 0
137589.0 185047.0 0
143032.0 185488.0 0
152332.0 184305.0 0
148507.0 186815.0 0
156773.0 184877.0 0
161249.0 186092.0 0
165865.0 184754.0 0
170814.0 185181.0 0
176299.0 185823.0 0
181147.0 184887.0 0
186185.0 186890.0 0
190720.0 183593.0 0
195904.0 184528.0 0
202302.0 183327.0 0
207014.0 185019.0 0
212683.0 183466.0 0
217356.0 183214.0 0
221317.0 184762.0 0
226104.0 184477.0 0
231884.0 183851.0 0
236932.0 185962.0 0
240965.0 183498.0 0
246406.0 185587.0 0
252566.0 184951.0 0
257958.0 183039.0 0
262514.0 185834.0 0
267435.0 182765.0 0
272737.0 183780.0 0
277837.0 182959.0 0
283412.0 186817.0 0
290027.0 185803.0 0
296068.0 185056.0 0
302093.0 183924.0 0
308498.0 184773.0 0
313707.0 186624.0 0
318496.0 184290.0 0
325749.0 184258.0 0
322152.0 187013.0 0
331013.0 186008.0 0
336305.0 185131.0 0
342218.0 184779.0 0
347988.0 185710.0 0
357716.0 185199.0 0
363372.0 184794.0 0
372129.0 184547.0 0
377596.0 184838.0 0
388203.0 185685.0 0
393859.0 184295.0 0
403548.0 185849.0 0
409206.0 186594.0 0
413408.0 184322.0 0
418015.0 184932.0 0
422331.0 185021.0 0
432985.0 184466.0 0
437053.0 185187.0 0
442560.0 186796.0 0
447415.0 184570.0 0
451703.0 185150.0 0
455863.0 183565.0 0
461826.0 184880.0 0
468601.0 185580.0 0
474668.0 185489.0 0
480001.0 184957.0 0
486586.0 185079.0 0
493164.0 186229.0 0
498364.0 186154.0 0
2648.32 191300.0 0
6704.61 189840.0 0
17237.5 190184.0 0
21689.6 190309.0 0
26625.8 190338.0 0
32269.6 190479.0 0
37800.7 189597.0 0
42911.0 189744.0 0
48373.5 189563.0 0
53049.3 189792.0 0
57491.6 190189.0 0
62500.0 189777.0 0
67351.0 189800.0 0
72974.1 190985.0 0
77089.9 189973.0 0
80945.2 189960.0 0
86598.3 189689.0 0
92662.8 191597.0 0
98143.0 190251.0 0
102893.0 189202.0 0
107106.0 191703.0 0
112144.0 189577.0 0
117789.0 189444.0 0
127517.0 189743.0 0
123040.0 191111.0 0
131675.0 191483.0 0
135063.0 188553.0 0
139792.0 191181.0 0
146644.0 192051.0 0
153455.0 190099.0 0
159438.0 190637.0 0
165968.0 189967.0 0
171465.0 190407.0 0
177279.0 192042.0 0
191882.0 188332.0 0
201235.0 188284.0 0
206403.0 191752.0 0
211857.0 189236.0 0
217581.0 187931.0 0
222973.0 189414.0 0
228683.0 189436.0 0
233716.0 188819.0 0
236981.0 190509.0 0
241134.0 188848.0 0
246166.0 192014.0 0
251684.0 190392.0 0
257179.0 187508.0 0
263482.0 191425.0 0
268885.0 188748.0 0
274516.0 191427.0 0
276234.0 187184.0 0
279025.0 190244.0 0
288599.0 190552.0 0
293685.0 190751.0 0
300199.0 190093.0 0
305288.0 188441.0 0
308890.0 190692.0 0
313481.0 191632.0 0
316787.0 189446.0 0
320577.0 191153.0 0
326686.0 190694.0 0
333861.0 190964.0 0
338665.0 189506.0 0
342799.0 190243.0 0
347415.0 190681.0 0
352469.0 187297.0 0
352858.0 192123.0 0
357815.0 190984.0 0
362632.0 189616.0 0
367022.0 191624.0 0
367627.0 187278.0 0
371864.0 190020.0 0
377441.0 190765.0 0
382625.0 191925.0 0
382670.0 187565.0 0
386622.0 191214.0 0
391984.0 190476.0 0
397810.0 188157.0 0
406986.0 190797.0 0
411808.0 190295.0 0
417019.0 189471.0 0
422566.0 190758.0 0
427432.0 187182.0 0
432185.0 191060.0 0
437979.0 190406.0 0
448193.0 189626.0 0
455966.0 189478.0 0
461566.0 191438.0 0
466225.0 190090.0 0
471899.0 191806.0 0
477523.0 190288.0 0
481988.0 188935.0 0
491854.0 191336.0 0
497014.0 190917.0 0
11883.7 192183.0 0
162838.0 193624.0 0
183203.0 192172.0 0
188837.0 192479.0 0
195937.0 192181.0 0
201229.0 193720.0 0
204475.0 196284.0 0
210790.0 194900.0 0
216416.0 193678.0 0
222470.0 195144.0 0
227958.0 194842.0 0
233919.0 193645.0 0
236553.0 196970.0 0
240340.0 194628.0 0
248995.0 196560.0 0
253470.0 195155.0 0
258379.0 192497.0 0
261359.0 195562.0 0
265891.0 196315.0 0
270708.0 194267.0 0
278604.0 195724.0 0
284480.0 193196.0 0
289821.0 195098.0 0
297138.0 195463.0 0
305013.0 192422.0 0
302388.0 196009.0 0
396543.0 192274.0 0
401644.0 192571.0 0
427263.0 192885.0 0
442951.0 192350.0 0
452071.0 192796.0 0
481329.0 192776.0 0
486495.0 192396.0 0
199565.0 198639.0 0
204439.0 200417.0 0
209449.0 199889.0 0
215731.0 199784.0 0
221138.0 200525.0 0
226642.0 200561.0 0
231460.0 198186.0 0
235319.0 200141.0 0
244603.0 197683.0 0
240447.0 200727.0 0
252387.0 200093.0 0
257902.0 198053.0 0
262175.0 198645.0 0
271471.0 199405.0 0
276419.0 201092.0 0
283463.0 197841.0 0
280938.0 200977.0 0
284566.0 202272.0 0
287257.0 199407.0 0
293226.0 199979.0 0
299486.0 200831.0 0
200565.0 204925.0 0
206823.0 204904.0 0
212342.0 204104.0 0
218216.0 205459.0 0
223359.0 204444.0 0
227341.0 206519.0 0
231813.0 203494.0 0
236722.0 203806.0 0
240956.0 206449.0 0
245799.0 202833.0 0
250599.0 204393.0 0
256857.0 204454.0 0
262924.0 202716.0 0
268034.0 203550.0 0
273345.0 205772.0 0
278896.0 204994.0 0
283257.0 205857.0 0
288822.0 204697.0 0
294307.0 205575.0 0
298362.0 205538.0 0
202161.0 211303.0 0
208341.0 210402.0 0
213592.0 209184.0 0
218680.0 210835.0 0
223708.0 210453.0 0
228230.0 211082.0 0
231676.0 208866.0 0
236090.0 207868.0 0
240598.0 210530.0 0
246377.0 208700.0 0
252212.0 209129.0 0
257463.0 210345.0 0
261597.0 207857.0 0
266661.0 208781.0 0
271774.0 210533.0 0
276907.0 209759.0 0
281086.0 208915.0 0
285903.0 209899.0 0
291470.0 209637.0 0
297267.0 210135.0 0
341742.0 212397.0 0
10310.7 214733.0 0
206113.0 215805.0 0
210328.0 214407.0 0
215193.0 214723.0 0
220808.0 215062.0 0
226487.0 216027.0 0
231211.0 213473.0 0
237005.0 213300.0 0
243162.0 213303.0 0
248814.0 214078.0 0
254687.0 214277.0 0
261855.0 213172.0 0
268410.0 215253.0 0
274604.0 213803.0 0
279543.0 212619.0 0
278616.0 216701.0 0
283537.0 214830.0 0
289172.0 214429.0 0
293919.0 213738.0 0
297982.0 216290.0 0
309756.0 216263.0 0
48261.5 222157.0 0
174681.0 221182.0 0
201804.0 218428.0 0
206246.0 221114.0 0
211438.0 219253.0 0
216914.0 220261.0 0
222263.0 219926.0 0
228037.0 220537.0 0
232130.0 218545.0 0
237053.0 218684.0 0
241904.0 218739.0 0
247658.0 219976.0 0
253228.0 219426.0 0
258639.0 217944.0 0
262729.0 220504.0 0
267372.0 221529.0 0
273142.0 220116.0 0
279213.0 222423.0 0
282870.0 219087.0 0
287189.0 220656.0 0
293026.0 218941.0 0
362467.0 222406.0 0
368610.0 222189.0 0
389098.0 221253.0 0
404603.0 219519.0 0
421499.0 220791.0 0
443009.0 220438.0 0
455114.0 220819.0 0
472319.0 221563.0 0
492537.0 222539.0 0
497243.0 220387.0 0
6878.9 224543.0 0
56374.4 226071.0 0
63868.7 226081.0 0
68827.6 227100.0 0
79658.9 227834.0 0
96187.4 226347.0 0
100416.0 225794.0 0
107589.0 227531.0 0
115161.0 227833.0 0
121008.0 227726.0 0
126005.0 225515.0 0
158565.0 227531.0 0
167796.0 224405.0 0
177286.0 225235.0 0
191569.0 226388.0 0
196244.0 227316.0 0
201361.0 223205.0 0
200883.0 227564.0 0
205139.0 226008.0 0
210417.0 224923.0 0
215508.0 224953.0 0
220077.0 224378.0 0
225519.0 224029.0 0
231418.0 224677.0 0
237507.0 223598.0 0
242306.0 226617.0 0
248058.0 226041.0 0
253774.0 224773.0 0
258819.0 223138.0 0
259057.0 227546.0 0
263576.0 225694.0 0
269202.0 226648.0 0
274268.0 225377.0 0
284341.0 225631.0 0
288860.0 225253.0 0
292821.0 224222.0 0
297889.0 222799.0 0
297460.0 227802.0 0
309917.0 227769.0 0
317421.0 224483.0 0
322450.0 225873.0 0
357807.0 223990.0 0
374583.0 224830.0 0
437044.0 224080.0 0
461586.0 224680.0 0
476569.0 224806.0 0
481239.0 225899.0 0
14254.8 229096.0 0
17655.2 232413.0 0
22442.4 230412.0 0
30433.9 230316.0 0
36537.1 230849.0 0
75161.9 229135.0 0
85031.3 228532.0 0
93065.2 232448.0 0
111005.0 229376.0 0
124379.0 232621.0 0
131855.0 229838.0 0
137504.0 228850.0 0
142262.0 231103.0 0
150902.0 232426.0 0
154054.0 228136.0 0
173221.0 230258.0 0
178042.0 232102.0 0
178735.0 228601.0 0
204079.0 230653.0 0
207996.0 229005.0 0
213357.0 229822.0 0
217845.0 228620.0 0
222320.0 228545.0 0
220060.0 232614.0 0
227456.0 229328.0 0
233019.0 230409.0 0
238126.0 229551.0 0
241699.0 231403.0 0
245359.0 230550.0 0
251061.0 230914.0 0
255503.0 229309.0 0
261792.0 229993.0 0
267220.0 231695.0 0
273097.0 229671.0 0
277796.0 229090.0 0
282146.0 229414.0 0
284677.0 231906.0 0
287764.0 229405.0 0
292969.0 229226.0 0
296828.0 232309.0 0
322451.0 230585.0 0
326630.0 231344.0 0
330913.0 231618.0 0
339605.0 230962.0 0
391311.0 227931.0 0
388726.0 232446.0 0
396056.0 229370.0 0
417127.0 230436.0 0
423600.0 228742.0 0
426612.0 232311.0 0
439714.0 231302.0 0
449230.0 230452.0 0
462790.0 231129.0 0
466760.0 229942.0 0
471850.0 228539.0 0
479717.0 231182.0 0
484429.0 231262.0 0
497839.0 229838.0 0
2631.23 237703.0 0
8033.11 234732.0 0
14588.8 235920.0 0
30589.4 236518.0 0
40985.6 235254.0 0
48339.7 233061.0 0
45936.2 236729.0 0
53010.0 233058.0 0
88220.9 234522.0 0
92904.6 237457.0 0
97919.2 234573.0 0
102310.0 236680.0 0
113050.0 236738.0 0
119140.0 234723.0 0
126262.0 236829.0 0
146000.0 234554.0 0
155278.0 235791.0 0
169989.0 235510.0 0
177569.0 236271.0 0
183085.0 237925.0 0
188922.0 236576.0 0
194746.0 237848.0 0
199532.0 235175.0 0
204404.0 235792.0 0
209313.0 233379.0 0
215064.0 235356.0 0
222083.0 236880.0 0
225948.0 234310.0 0
230700.0 235164.0 0
236385.0 234903.0 0
241423.0 235178.0 0
247380.0 235975.0 0
253470.0 235422.0 0
257880.0 233193.0 0
262773.0 234223.0 0
267283.0 237031.0 0
271753.0 234122.0 0
276232.0 235575.0 0
280753.0 233647.0 0
287948.0 234361.0 0
292568.0 234138.0 0
300502.0 234723.0 0
296387.0 237054.0 0
304860.0 235217.0 0
308760.0 234401.0 0
314014.0 237308.0 0
318278.0 234606.0 0
335045.0 234278.0 0
345114.0 233155.0 0
342101.0 236555.0 0
348027.0 236710.0 0
364943.0 235712.0 0
377600.0 236574.0 0
383597.0 235365.0 0
390690.0 236376.0 0
393964.0 234253.0 0
398809.0 236405.0 0
407296.0 233523.0 0
403236.0 237276.0 0
412976.0 235845.0 0
422388.0 234208.0 0
431907.0 233013.0 0
436080.0 234851.0 0
444222.0 233559.0 0
458451.0 233318.0 0
473827.0 237967.0 0
478880.0 236402.0 0
489239.0 234187.0 0
497266.0 237942.0 0
4198.95 242806.0 0
10165.2 240955.0 0
18911.2 238247.0 0
27252.5 240570.0 0
31965.1 243055.0 0
37311.7 238850.0 0
44551.6 242211.0 0
49617.5 243146.0 0
54909.3 239719.0 0
60744.6 240768.0 0
73247.1 242805.0 0
85759.2 239738.0 0
91010.0 239870.0 0
96476.5 238895.0 0
100409.0 241063.0 0
105708.0 239771.0 0
118044.0 242028.0 0
127597.0 241556.0 0
137141.0 238288.0 0
132697.0 240207.0 0
140009.0 242515.0 0
145853.0 242532.0 0
166524.0 239566.0 0
175196.0 241606.0 0
208773.0 238587.0 0
204247.0 241306.0 0
212998.0 241750.0 0
218415.0 240445.0 0
222785.0 240776.0 0
226654.0 239141.0 0
231894.0 240354.0 0
237319.0 240318.0 0
242504.0 239813.0 0
247180.0 242348.0 0
252149.0 240344.0 0
257611.0 238978.0 0
262742.0 238922.0 0
265988.0 242788.0 0
272536.0 239823.0 0
278428.0 239708.0 0
284102.0 238546.0 0
281572.0 243159.0 0
290977.0 239491.0 0
305457.0 239150.0 0
301919.0 242184.0 0
309713.0 238564.0 0
312813.0 242558.0 0
335177.0 241785.0 0
341691.0 241449.0 0
360423.0 239514.0 0
368691.0 238345.0 0
373639.0 240764.0 0
380959.0 241354.0 0
385630.0 240096.0 0
394399.0 239043.0 0
398411.0 240423.0 0
402468.0 242179.0 0
415149.0 240288.0 0
431773.0 238536.0 0
462565.0 240950.0 0
468005.0 242608.0 0
483291.0 240000.0 0
488293.0 241448.0 0
492521.0 238185.0 0
494690.0 242892.0 0
1396.57 245796.0 0
8211.08 244762.0 0
11918.4 246237.0 0
16619.4 245706.0 0
21754.5 244403.0 0
31750.6 247798.0 0
40529.6 246677.0 0
36111.9 247047.0 0
53511.7 244688.0 0
65233.2 243912.0 0
75981.4 247693.0 0
79797.4 243303.0 0
97591.4 244498.0 0
101262.0 245614.0 0
122206.0 244026.0 0
125707.0 245249.0 0
132217.0 246291.0 0
137709.0 247771.0 0
150246.0 245948.0 0
157949.0 244701.0 0
162385.0 245481.0 0
166757.0 248058.0 0
169946.0 243270.0 0
178322.0 245119.0 0
173828.0 246426.0 0
182125.0 243168.0 0
182575.0 247945.0 0
203599.0 246888.0 0
208492.0 244070.0 0
212184.0 246647.0 0
217001.0 247314.0 0
221535.0 244714.0 0
226387.0 244081.0 0
231035.0 245696.0 0
236952.0 246265.0 0
242597.0 244877.0 0
247334.0 246802.0 0
251017.0 245475.0 0
255658.0 244208.0 0
261566.0 244317.0 0
265044.0 247583.0 0
270041.0 246606.0 0
276311.0 245558.0 0
282382.0 248091.0 0
286620.0 244110.0 0
291670.0 246652.0 0
296247.0 243186.0 0
305267.0 245961.0 0
308862.0 243181.0 0
315851.0 246385.0 0
321609.0 246152.0 0
329672.0 244875.0 0
345721.0 246609.0 0
350533.0 244202.0 0
355714.0 245696.0 0
368277.0 243849.0 0
376826.0 245808.0 0
388242.0 243334.0 0
392773.0 247801.0 0
397327.0 245638.0 0
402414.0 246938.0 0
406830.0 244792.0 0
411664.0 243285.0 0
417627.0 245100.0 0
430432.0 247849.0 0
435876.0 246184.0 0
440796.0 243789.0 0
443743.0 248079.0 0
448497.0 246148.0 0
472750.0 243642.0 0
472922.0 247966.0 0
477904.0 248087.0 0
490331.0 246032.0 0
498185.0 245985.0 0
9024.03 249641.0 0
22141.1 249889.0 0
27556.0 250913.0 0
42506.5 250319.0 0
47221.1 251033.0 0
55082.9 248790.0 0
57767.4 252530.0 0
71070.6 249139.0 0
66580.1 252179.0 0
78232.9 253066.0 0
87177.6 250635.0 0
92596.4 253084.0 0
101304.0 250837.0 0
105416.0 251244.0 0
110427.0 253126.0 0
115988.0 248856.0 0
121376.0 249663.0 0
119859.0 253318.0 0
127453.0 248696.0 0
125026.0 252096.0 0
134374.0 250648.0 0
136926.0 250944.0 0
142940.0 250404.0 0
149278.0 252535.0 0
154955.0 251337.0 0
159503.0 250061.0 0
162950.0 252376.0 0
170964.0 249865.0 0
178095.0 249382.0 0
179935.0 252783.0 0
188423.0 249874.0 0
193802.0 252705.0 0
198191.0 249532.0 0
202876.0 252490.0 0
208334.0 249112.0 0
213345.0 251305.0 0
221885.0 249965.0 0
227461.0 249820.0 0
232907.0 250702.0 0
238284.0 252482.0 0
244005.0 250319.0 0
249419.0 250170.0 0
253932.0 250402.0 0
259256.0 248860.0 0
263833.0 251594.0 0
268011.0 250999.0 0
272691.0 251078.0 0
278031.0 251889.0 0
287572.0 250276.0 0
292515.0 252090.0 0
296089.0 248824.0 0
296867.0 252832.0 0
310186.0 249563.0 0
315912.0 252253.0 0
326129.0 249351.0 0
329885.0 251295.0 0
332766.0 249268.0 0
354804.0 253078.0 0
359390.0 249365.0 0
365233.0 248408.0 0
363529.0 253017.0 0
371514.0 248317.0 0
375763.0 251710.0 0
382983.0 248647.0 0
388117.0 252181.0 0
405524.0 249901.0 0
418256.0 250265.0 0
423877.0 250317.0 0
448865.0 251023.0 0
453540.0 252344.0 0
457751.0 249589.0 0
463509.0 249700.0 0
469551.0 251084.0 0
473869.0 252082.0 0
485101.0 252164.0 0
492549.0 249888.0 0
497345.0 250882.0 0
12432.9 255276.0 0
18261.9 255237.0 0
31572.7 257412.0 0
35807.4 254412.0 0
40409.5 255120.0 0
62118.7 254036.0 0
83627.7 255332.0 0
88025.0 256144.0 0
98112.3 256785.0 0
115498.0 254957.0 0
119756.0 257206.0 0
124322.0 256126.0 0
137186.0 258203.0 0
145130.0 254409.0 0
152637.0 255774.0 0
157044.0 255884.0 0
175791.0 254131.0 0
203858.0 257580.0 0
208374.0 254575.0 0
213629.0 256875.0 0
218054.0 253817.0 0
223604.0 254897.0 0
220713.0 257208.0 0
229037.0 254803.0 0
226282.0 257888.0 0
233879.0 255860.0 0
238180.0 257503.0 0
242503.0 256011.0 0
247734.0 254927.0 0
252004.0 253783.0 0
255720.0 255711.0 0
260652.0 254806.0 0
265215.0 255599.0 0
269725.0 255148.0 0
274714.0 256578.0 0
283191.0 253435.0 0
281330.0 257771.0 0
288142.0 256095.0 0
293578.0 256885.0 0
297771.0 256487.0 0
305811.0 253438.0 0
301395.0 253980.0 0
309215.0 254563.0 0
320548.0 256343.0 0
332502.0 254192.0 0
332244.0 258127.0 0
337497.0 254086.0 0
344487.0 255002.0 0
350089.0 254541.0 0
359342.0 254894.0 0
368250.0 253472.0 0
379842.0 254279.0 0
383935.0 254348.0 0
396224.0 256350.0 0
401114.0 258307.0 0
420703.0 253991.0 0
428710.0 253826.0 0
443848.0 256515.0 0
460614.0 257527.0 0
475351.0 257284.0 0
480010.0 253561.0 0
486287.0 257713.0 0
2385.26 260330.0 0
11457.4 261413.0 0
19755.7 259761.0 0
23726.9 260989.0 0
28043.2 261744.0 0
37894.0 261269.0 0
42563.5 259039.0 0
48901.4 261867.0 0
59411.4 260396.0 0
73236.5 259152.0 0
78992.8 260981.0 0
84814.0 261197.0 0
103476.0 260212.0 0
108327.0 261641.0 0
127047.0 260429.0 0
133529.0 260911.0 0
141682.0 260956.0 0
147366.0 262862.0 0
178009.0 261199.0 0
182816.0 260873.0 0
188845.0 260800.0 0
195076.0 263063.0 0
203963.0 263125.0 0
208072.0 260066.0 0
212464.0 261637.0 0
217762.0 260582.0 0
223042.0 260500.0 0
230318.0 259721.0 0
235414.0 260797.0 0
240555.0 260967.0 0
245780.0 260476.0 0
251494.0 258929.0 0
251771.0 263508.0 0
256396.0 260767.0 0
262262.0 259641.0 0
267761.0 259953.0 0
272922.0 261737.0 0
278143.0 261263.0 0
284671.0 260767.0 0
290899.0 261489.0 0
296526.0 261306.0 0
320417.0 261935.0 0
324961.0 261860.0 0
327915.0 258850.0 0
349617.0 261260.0 0
356286.0 262179.0 0
366109.0 262428.0 0
370489.0 262722.0 0
373783.0 259448.0 0
391305.0 259790.0 0
405441.0 260424.0 0
410203.0 262345.0 0
415232.0 260827.0 0
420447.0 261477.0 0
436061.0 262287.0 0
441300.0 260780.0 0
447423.0 260366.0 0
452098.0 262146.0 0
463371.0 261847.0 0
468386.0 259281.0 0
472620.0 262178.0 0
478625.0 262445.0 0
482264.0 260075.0 0
488314.0 261585.0 0
491602.0 259302.0 0
497634.0 263118.0 0
6006.39 264025.0 0
10345.6 266839.0 0
14356.5 267774.0 0
17628.4 265458.0 0
21198.9 267643.0 0
31549.5 264717.0 0
44669.6 263691.0 0
53337.5 263961.0 0
57735.5 263869.0 0
81396.5 265299.0 0
88732.2 266535.0 0
94616.0 267240.0 0
115852.0 267745.0 0
131487.0 264961.0 0
151889.0 266625.0 0
157006.0 265218.0 0
162148.0 264917.0 0
166764.0 263875.0 0
172721.0 264038.0 0
208985.0 265307.0 0
215424.0 266246.0 0
220830.0 264843.0 0
223890.0 267928.0 0
226900.0 264025.0 0
232157.0 264538.0 0
237585.0 265539.0 0
242700.0 264686.0 0
247669.0 266388.0 0
259937.0 263801.0 0
255609.0 265954.0 0
264650.0 264494.0 0
269298.0 264577.0 0
275667.0 266512.0 0
282089.0 266092.0 0
288380.0 266642.0 0
294169.0 266567.0 0
307859.0 265550.0 0
313339.0 267111.0 0
318165.0 266192.0 0
333604.0 267629.0 0
339112.0 264051.0 0
344315.0 266193.0 0
348224.0 268160.0 0
361855.0 264992.0 0
373349.0 265724.0 0
382120.0 265790.0 0
377846.0 266327.0 0
386421.0 266018.0 0
424465.0 264323.0 0
425494.0 268266.0 0
429055.0 263874.0 0
434661.0 267289.0 0
444448.0 266799.0 0
456662.0 267248.0 0
475464.0 265464.0 0
478873.0 268129.0 0
484076.0 266532.0 0
2520.43 272519.0 0
23712.7 270991.0 0
27712.7 271905.0 0
38957.8 272976.0 0
64003.3 273105.0 0
69034.9 273017.0 0
73587.4 270414.0 0
78890.1 272241.0 0
99836.4 270275.0 0
106851.0 273390.0 0
111993.0 272856.0 0
115838.0 273506.0 0
124424.0 269067.0 0
129417.0 269379.0 0
132091.0 272792.0 0
137331.0 270959.0 0
141484.0 272595.0 0
178121.0 271231.0 0
173534.0 272616.0 0
182877.0 269778.0 0
190151.0 269997.0 0
198863.0 271428.0 0
194183.0 273234.0 0
204533.0 268906.0 0
206165.0 273386.0 0
209812.0 270277.0 0
214272.0 271968.0 0
219383.0 270158.0 0
223634.0 272488.0 0
228551.0 269807.0 0
233632.0 268922.0 0
232406.0 273391.0 0
237508.0 271434.0 0
241571.0 268962.0 0
249634.0 271164.0 0
245265.0 271807.0 0
254552.0 271413.0 0
260839.0 269535.0 0
267630.0 269418.0 0
273080.0 271526.0 0
278626.0 271406.0 0
282938.0 271063.0 0
286583.0 271224.0 0
291011.0 271070.0 0
295789.0 271880.0 0
304833.0 269979.0 0
320801.0 273438.0 0
326082.0 272424.0 0
339966.0 273431.0 0
345237.0 270711.0 0
348323.0 272491.0 0
353398.0 273662.0 0
375332.0 269092.0 0
387759.0 272721.0 0
396070.0 270976.0 0
405148.0 270997.0 0
412280.0 268832.0 0
416387.0 270487.0 0
422843.0 273151.0 0
431748.0 271283.0 0
439140.0 269092.0 0
452878.0 270706.0 0
457920.0 272203.0 0
461427.0 268695.0 0
465643.0 270748.0 0
493893.0 273155.0 0
35470.8 274597.0 0
31330.3 275010.0 0
58276.5 277741.0 0
62760.5 277892.0 0
79117.6 277060.0 0
83595.1 274691.0 0
102136.0 275004.0 0
118035.0 277022.0 0
122579.0 275140.0 0
187621.0 275433.0 0
204357.0 276483.0 0
210207.0 274879.0 0
219003.0 275040.0 0
214471.0 276786.0 0
223352.0 277257.0 0
227926.0 275448.0 0
236315.0 276491.0 0
241299.0 274732.0 0
246217.0 276989.0 0
251078.0 275266.0 0
256302.0 277394.0 0
262861.0 276241.0 0
268059.0 274629.0 0
272177.0 276648.0 0
277010.0 276330.0 0
282246.0 275832.0 0
286579.0 274902.0 0
288281.0 278488.0 0
292295.0 275631.0 0
296350.0 275385.0 0
296140.0 278610.0 0
334097.0 277675.0 0
338749.0 276638.0 0
344226.0 274656.0 0
377578.0 275196.0 0
383309.0 277331.0 0
391971.0 273919.0 0
417562.0 274879.0 0
429251.0 275926.0 0
440415.0 276875.0 0
448734.0 274380.0 0
444373.0 275953.0 0
483950.0 276600.0 0
488519.0 274469.0 0
23860.2 281657.0 0
85357.4 279362.0 0
89677.3 280531.0 0
114635.0 280727.0 0
119205.0 281181.0 0
148593.0 280301.0 0
154063.0 281377.0 0
160451.0 282091.0 0
172783.0 282627.0 0
177642.0 280861.0 0
182265.0 279049.0 0
186511.0 279134.0 0
204006.0 280939.0 0
209786.0 280330.0 0
219172.0 279729.0 0
215089.0 281187.0 0
222789.0 281716.0 0
226785.0 280223.0 0
232142.0 280607.0 0
237492.0 280780.0 0
241630.0 279809.0 0
247322.0 281951.0 0
251264.0 279829.0 0
257637.0 282149.0 0
261118.0 281261.0 0
267903.0 280096.0 0
273126.0 281081.0 0
279255.0 280634.0 0
284088.0 280781.0 0
287844.0 282793.0 0
292285.0 281107.0 0
343860.0 281984.0 0
354633.0 281997.0 0
362728.0 281166.0 0
367860.0 279573.0 0
374256.0 279909.0 0
378320.0 283685.0 0
388742.0 279789.0 0
441465.0 283067.0 0
447200.0 283462.0 0
449043.0 279431.0 0
472532.0 279558.0 0
476982.0 279008.0 0
487877.0 282163.0 0
18980.9 285572.0 0
24601.3 286783.0 0
29372.6 287957.0 0
41944.7 288136.0 0
46285.1 286091.0 0
57656.8 284424.0 0
59419.7 288325.0 0
125705.0 289028.0 0
131308.0 287683.0 0
136308.0 287551.0 0
164978.0 285820.0 0
169679.0 287024.0 0
175845.0 284499.0 0
203274.0 286708.0 0
207137.0 285115.0 0
212541.0 285284.0 0
216903.0 284719.0 0
216026.0 288461.0 0
221028.0 285932.0 0
226469.0 285393.0 0
231406.0 285692.0 0
236716.0 285740.0 0
242994.0 285173.0 0
247799.0 286123.0 0
251624.0 284381.0 0
256146.0 285955.0 0
260920.0 285553.0 0
265927.0 285466.0 0
270797.0 284691.0 0
273818.0 288369.0 0
276141.0 284881.0 0
281425.0 285122.0 0
285814.0 286178.0 0
295740.0 284091.0 0
291086.0 286024.0 0
295575.0 289005.0 0
300753.0 285931.0 0
347413.0 284470.0 0
351113.0 285491.0 0
354750.0 288783.0 0
359569.0 285170.0 0
378180.0 288067.0 0
496741.0 284677.0 0
3000.82 291223.0 0
34198.8 289917.0 0
38189.5 292970.0 0
44756.1 291592.0 0
49720.9 290419.0 0
78998.1 291118.0 0
109302.0 292342.0 0
203607.0 290288.0 0
199008.0 292817.0 0
209616.0 290984.0 0
215005.0 292087.0 0
219940.0 290863.0 0
225127.0 290957.0 0
230480.0 290330.0 0
235397.0 291145.0 0
240005.0 290405.0 0
245797.0 291051.0 0
252776.0 290969.0 0
259145.0 290382.0 0
263538.0 289315.0 0
264996.0 293409.0 0
269639.0 289817.0 0
277560.0 290284.0 0
282425.0 289604.0 0
286250.0 289909.0 0
290629.0 291509.0 0
303327.0 291327.0 0
318205.0 292346.0 0
324319.0 293540.0 0
344872.0 292112.0 0
374379.0 289725.0 0
382647.0 290612.0 0
388980.0 289372.0 0
399809.0 293905.0 0
430527.0 292455.0 0
435600.0 291807.0 0
441425.0 289475.0 0
463934.0 290566.0 0
5576.43 295623.0 0
30674.9 298866.0 0
40981.1 295715.0 0
78850.0 294572.0 0
104572.0 296169.0 0
110496.0 297102.0 0
114684.0 298565.0 0
199280.0 298538.0 0
204506.0 295112.0 0
213854.0 295363.0 0
209704.0 298284.0 0
217595.0 294748.0 0
222169.0 295523.0 0
227333.0 295726.0 0
232822.0 295668.0 0
238449.0 295266.0 0
242878.0 295297.0 0
247484.0 296790.0 0
251331.0 295739.0 0
255291.0 296624.0 0
260318.0 295596.0 0
270308.0 296081.0 0
275508.0 294570.0 0
275365.0 299218.0 0
280916.0 295357.0 0
286405.0 294399.0 0
290401.0 297078.0 0
295370.0 294803.0 0
306624.0 297602.0 0
321222.0 294616.0 0
349594.0 298960.0 0
394819.0 297396.0 0
406576.0 296190.0 0
412274.0 295869.0 0
420030.0 295823.0 0
425901.0 294368.0 0
466754.0 297023.0 0
470906.0 298379.0 0
13308.9 302314.0 0
118920.0 301055.0 0
123167.0 303311.0 0
190052.0 302732.0 0
194107.0 299659.0 0
203762.0 300003.0 0
207021.0 303888.0 0
215563.0 299538.0 0
222848.0 299320.0 0
219946.0 300260.0 0
226713.0 301384.0 0
231987.0 300714.0 0
236793.0 300306.0 0
241917.0 299505.0 0
242687.0 304051.0 0
246392.0 301574.0 0
252118.0 299921.0 0
251699.0 304053.0 0
259938.0 300819.0 0
255128.0 301358.0 0
265584.0 300143.0 0
270872.0 302003.0 0
280266.0 301230.0 0
285529.0 299489.0 0
289387.0 303194.0 0
294636.0 300953.0 0
336311.0 302932.0 0
351904.0 304375.0 0
355596.0 301760.0 0
389404.0 299563.0 0
417609.0 301947.0 0
431254.0 303274.0 0
4937.82 306541.0 0
2103.89 309101.0 0
9627.86 306794.0 0
187646.0 308969.0 0
203371.0 306217.0 0
213627.0 304839.0 0
209713.0 308049.0 0
218154.0 304840.0 0
222500.0 304703.0 0
228118.0 306641.0 0
233102.0 305294.0 0
237975.0 305098.0 0
241624.0 308699.0 0
247738.0 305771.0 0
255829.0 305535.0 0
260264.0 305878.0 0
265036.0 305532.0 0
269992.0 307367.0 0
275872.0 305349.0 0
280221.0 308160.0 0
284133.0 305358.0 0
288836.0 308749.0 0
294886.0 307580.0 0
329037.0 309388.0 0
341778.0 306399.0 0
361777.0 308115.0 0
367623.0 308167.0 0
378832.0 306894.0 0
204452.0 309851.0 0
208611.0 312331.0 0
213389.0 310535.0 0
218306.0 309500.0 0
218165.0 314253.0 0
222726.0 309613.0 0
222182.0 314329.0 0
226681.0 311172.0 0
231449.0 309963.0 0
236417.0 309888.0 0
247090.0 310886.0 0
253246.0 310097.0 0
258473.0 310152.0 0
262430.0 309497.0 0
261403.0 314378.0 0
266448.0 311389.0 0
273824.0 310724.0 0
278168.0 311665.0 0
282084.0 311191.0 0
285751.0 312654.0 0
289876.0 313427.0 0
294931.0 314337.0 0
320148.0 312724.0 0
325382.0 313114.0 0
371598.0 311730.0 0
375018.0 313663.0 0
385884.0 310916.0 0
390115.0 313271.0 0
35193.8 316950.0 0
68661.0 316506.0 0
74935.4 318109.0 0
139476.0 317210.0 0
144683.0 317910.0 0
154306.0 319040.0 0
204665.0 315504.0 0
208958.0 317884.0 0
213534.0 315752.0 0
225758.0 315739.0 0
230740.0 315445.0 0
236519.0 315107.0 0
242380.0 315046.0 0
247901.0 316452.0 0
252047.0 314961.0 0
256535.0 314761.0 0
266160.0 317252.0 0
271274.0 314699.0 0
276404.0 316754.0 0
281975.0 315653.0 0
287124.0 317657.0 0
292000.0 318613.0 0
302840.0 319248.0 0
315116.0 314849.0 0
61778.3 322266.0 0
68580.0 320880.0 0
71617.3 322394.0 0
90847.8 320465.0 0
137181.0 321924.0 0
149546.0 320846.0 0
157366.0 323197.0 0
161601.0 319926.0 0
295743.0 320449.0 0
300503.0 323378.0 0
306217.0 322558.0 0
78448.2 327747.0 0
81810.3 324932.0 0
132100.0 325275.0 0
135499.0 328798.0 0
309713.0 327722.0 0
305097.0 333199.0 0
308845.0 332263.0 0
185974.0 335482.0 0
197715.0 339285.0 0
142495.0 341394.0 0
138284.0 344022.0 0
193738.0 347520.0 0
1675.17 375612.0 0
5466.24 375226.0 0
9922.76 375284.0 0
14386.8 375201.0 0
18548.4 375144.0 0
23089.6 375106.0 0
26983.4 375425.0 0
30849.7 375245.0 0
34518.9 375525.0 0
37434.1 375617.0 0
41325.7 375478.0 0
45995.0 375119.0 0
49375.8 375248.0 0
53080.8 375814.0 0
57180.2 375453.0 0
61228.3 375917.0 0
65958.6 375036.0 0
69530.8 375481.0 0
72931.6 375647.0 0
76709.7 375176.0 0
80874.9 375348.0 0
85456.9 375216.0 0
90445.4 375325.0 0
94845.0 375264.0 0
99445.5 375298.0 0
103526.0 375355.0 0
107427.0 375279.0 0
111438.0 375257.0 0
115771.0 375173.0 0
119902.0 375549.0 0
124092.0 375107.0 0
129571.0 375493.0 0
133458.0 375546.0 0
136255.0 375533.0 0
142524.0 375548.0 0
139471.0 375472.0 0
145818.0 375364.0 0
150405.0 375871.0 0
154669.0 375163.0 0
158500.0 375865.0 0
162486.0 375722.0 0
166288.0 375297.0 0
170313.0 375333.0 0
173490.0 375427.0 0
177422.0 375060.0 0
182057.0 375128.0 0
179589.0 376809.0 0
185633.0 375400.0 0
189443.0 375138.0 0
193017.0 375569.0 0
195821.0 375392.0 0
198585.0 375121.0 0
300813.0 376282.0 0
304633.0 375608.0 0
308247.0 376327.0 0
311664.0 375291.0 0
316341.0 375689.0 0
320450.0 375841.0 0
323691.0 375593.0 0
327153.0 375465.0 0
331266.0 375354.0 0
335555.0 375061.0 0
339483.0 375668.0 0
343383.0 375384.0 0
348406.0 375743.0 0
352536.0 375988.0 0
356153.0 375019.0 0
360761.0 375281.0 0
365634.0 375915.0 0
370332.0 375269.0 0
375876.0 375296.0 0
373048.0 377291.0 0
379858.0 375752.0 0
383770.0 375470.0 0
388150.0 376004.0 0
393348.0 375227.0 0
396865.0 375510.0 0
399839.0 375348.0 0
403780.0 375357.0 0
408089.0 375060.0 0
410129.0 377499.0 0
412680.0 375152.0 0
417375.0 375181.0 0
421604.0 375485.0 0
425811.0 375662.0 0
429481.0 375277.0 0
433470.0 375462.0 0
437808.0 375096.0 0
442374.0 375222.0 0
440572.0 377231.0 0
445759.0 375215.0 0
450814.0 375497.0 0
455544.0 375614.0 0
460491.0 375660.0 0
464770.0 375548.0 0
469450.0 375460.0 0
473692.0 375142.0 0
479030.0 375177.0 0
483914.0 375464.0 0
487719.0 375297.0 0
492685.0 375516.0 0
497564.0 375363.0 0
4054.37 378770.0 0
1268.29 378713.0 0
1387.62 381459.0 0
7748.2 378067.0 0
10030.2 380692.0 0
5663.27 382304.0 0
12131.3 378241.0 0
13870.5 382163.0 0
16162.6 379048.0 0
20697.0 378548.0 0
25249.3 378455.0 0
23303.0 382284.0 0
27020.4 381084.0 0
29012.8 378372.0 0
30222.6 381725.0 0
32893.2 378711.0 0
37370.9 378964.0 0
38799.8 382199.0 0
40780.7 379899.0 0
44827.2 377974.0 0
43895.5 381138.0 0
48705.1 377942.0 0
47835.7 381142.0 0
50964.3 382086.0 0
51936.9 379258.0 0
54481.4 382049.0 0
56518.3 379043.0 0
60103.7 380405.0 0
65121.1 379112.0 0
69444.1 378263.0 0
68447.9 382299.0 0
72088.6 380128.0 0
75057.7 378217.0 0
76024.7 382607.0 0
78752.5 378385.0 0
81214.2 381831.0 0
83353.3 378473.0 0
85657.6 381887.0 0
87863.5 378849.0 0
92773.4 379408.0 0
96963.4 378830.0 0
101212.0 378594.0 0
98872.6 381663.0 0
105077.0 378528.0 0
102654.0 382019.0 0
107242.0 382249.0 0
109379.0 378505.0 0
111637.0 382177.0 0
113455.0 378587.0 0
115406.0 381904.0 0
117758.0 378887.0 0
121812.0 379311.0 0
126623.0 379039.0 0
122863.0 382207.0 0
131008.0 379313.0 0
130146.0 381834.0 0
133699.0 378478.0 0
137456.0 378782.0 0
142448.0 379075.0 0
146702.0 378936.0 0
144438.0 382582.0 0
148066.0 381955.0 0
151306.0 380000.0 0
155099.0 378339.0 0
161129.0 378488.0 0
158675.0 379547.0 0
162265.0 380791.0 0
167976.0 377904.0 0
164741.0 378977.0 0
168263.0 381083.0 0
171410.0 378592.0 0
172143.0 382249.0 0
175469.0 378571.0 0
179597.0 379218.0 0
181340.0 381939.0 0
183003.0 378409.0 0
184707.0 381067.0 0
187171.0 378307.0 0
188071.0 382456.0 0
191383.0 378918.0 0
193927.0 381255.0 0
195427.0 378083.0 0
196799.0 381225.0 0
199148.0 377843.0 0
199642.0 381055.0 0
301194.0 380411.0 0
304649.0 379185.0 0
308393.0 380608.0 0
312495.0 378973.0 0
312522.0 382139.0 0
320704.0 379233.0 0
316849.0 380842.0 0
323554.0 378050.0 0
323768.0 381171.0 0
326012.0 378771.0 0
326810.0 381154.0 0
329640.0 379111.0 0
329378.0 382637.0 0
333732.0 378481.0 0
340603.0 378796.0 0
337576.0 377895.0 0
337510.0 380942.0 0
340680.0 382565.0 0
344715.0 379848.0 0
349284.0 380050.0 0
353516.0 380123.0 0
357523.0 377931.0 0
357896.0 381650.0 0
361696.0 379681.0 0
366440.0 380624.0 0
369674.0 379080.0 0
373016.0 380837.0 0
376989.0 379796.0 0
381260.0 379133.0 0
385033.0 378779.0 0
383413.0 382465.0 0
387826.0 381468.0 0
392063.0 379587.0 0
395438.0 381811.0 0
397366.0 378708.0 0
400222.0 381862.0 0
401756.0 378171.0 0
405976.0 377850.0 0
403959.0 380439.0 0
408274.0 381180.0 0
412342.0 380041.0 0
415150.0 377819.0 0
416321.0 382334.0 0
419155.0 378949.0 0
421178.0 382519.0 0
423419.0 379301.0 0
427133.0 379310.0 0
428288.0 382632.0 0
430460.0 378354.0 0
430284.0 380981.0 0
432262.0 381075.0 0
434002.0 378758.0 0
436763.0 378372.0 0
435543.0 382112.0 0
439204.0 380549.0 0
443794.0 379230.0 0
447867.0 378128.0 0
447686.0 382646.0 0
451399.0 379737.0 0
454319.0 379323.0 0
456183.0 382466.0 0
458548.0 379258.0 0
460120.0 382435.0 0
462776.0 379800.0 0
467171.0 378957.0 0
470197.0 381726.0 0
471702.0 378420.0 0
475378.0 378013.0 0
474533.0 381792.0 0
478560.0 379760.0 0
482121.0 378272.0 0
482390.0 382463.0 0
485663.0 378758.0 0
489493.0 378664.0 0
486719.0 382432.0 0
494366.0 379645.0 0
490867.0 382419.0 0
498518.0 378541.0 0
497990.0 382039.0 0
1884.53 384848.0 0
10105.5 384137.0 0
6198.51 387156.0 0
14529.9 386248.0 0
10391.5 387647.0 0
18513.4 383271.0 0
19340.6 387115.0 0
23112.9 386000.0 0
26959.3 384271.0 0
30817.4 385442.0 0
34887.2 382699.0 0
34789.6 387017.0 0
38413.4 385774.0 0
41211.4 386555.0 0
45087.4 383514.0 0
41479.5 383511.0 0
44174.5 386858.0 0
48597.2 384955.0 0
52244.8 384501.0 0
55808.2 385915.0 0
57445.4 382703.0 0
59844.0 384748.0 0
63704.0 383514.0 0
63246.8 387744.0 0
67168.4 385883.0 0
70427.2 387580.0 0
71722.1 384218.0 0
74882.5 387480.0 0
79265.3 385971.0 0
83731.5 385599.0 0
90290.6 382842.0 0
87471.3 385102.0 0
91331.3 387577.0 0
95077.8 383809.0 0
99792.8 385061.0 0
104587.0 385344.0 0
109428.0 385618.0 0
114487.0 385987.0 0
119086.0 383218.0 0
119276.0 387399.0 0
126437.0 383380.0 0
122677.0 385517.0 0
130180.0 385388.0 0
134058.0 382752.0 0
136795.0 386715.0 0
133244.0 387207.0 0
139476.0 382926.0 0
142536.0 386867.0 0
147304.0 385506.0 0
151121.0 384139.0 0
155477.0 382720.0 0
153738.0 386543.0 0
158109.0 387164.0 0
160039.0 382987.0 0
162403.0 385946.0 0
164989.0 383314.0 0
168979.0 385315.0 0
172931.0 385803.0 0
177005.0 383331.0 0
180959.0 386561.0 0
183864.0 383565.0 0
186080.0 386587.0 0
191535.0 382906.0 0
190314.0 386022.0 0
194775.0 385081.0 0
199138.0 384837.0 0
301287.0 384671.0 0
304731.0 382840.0 0
305118.0 386795.0 0
307418.0 384500.0 0
310782.0 384392.0 0
309124.0 387478.0 0
314199.0 384291.0 0
317581.0 386026.0 0
320875.0 383564.0 0
325847.0 385266.0 0
330866.0 386937.0 0
333560.0 382897.0 0
335596.0 387279.0 0
337502.0 384223.0 0
339989.0 386815.0 0
344104.0 384396.0 0
346415.0 386529.0 0
347828.0 383488.0 0
351270.0 383624.0 0
349396.0 386903.0 0
355241.0 384097.0 0
352944.0 386141.0 0
359619.0 384857.0 0
363411.0 383402.0 0
364311.0 386846.0 0
366848.0 384530.0 0
369943.0 383214.0 0
374586.0 385400.0 0
379268.0 383303.0 0
378992.0 387652.0 0
382029.0 385939.0 0
386199.0 386463.0 0
391912.0 385221.0 0
397077.0 385021.0 0
401040.0 385779.0 0
404588.0 384467.0 0
408615.0 385130.0 0
412217.0 383908.0 0
415204.0 386696.0 0
419146.0 385635.0 0
423157.0 387000.0 0
424793.0 383212.0 0
427614.0 386640.0 0
431845.0 384196.0 0
435792.0 386108.0 0
438725.0 384150.0 0
442429.0 383345.0 0
445118.0 386937.0 0
452444.0 383079.0 0
450302.0 386359.0 0
455065.0 386942.0 0
458995.0 385211.0 0
462620.0 383851.0 0
461553.0 386659.0 0
465742.0 382755.0 0
465559.0 386864.0 0
468659.0 384915.0 0
472319.0 385649.0 0
476330.0 385389.0 0
478468.0 383455.0 0
484233.0 386187.0 0
480078.0 387465.0 0
488405.0 386750.0 0
494100.0 385258.0 0
498380.0 385905.0 0
1903.42 388808.0 0
1448.35 392445.0 0
8836.26 390245.0 0
5555.2 391846.0 0
12172.0 390310.0 0
16664.1 390747.0 0
22570.2 390509.0 0
26891.9 388197.0 0
26750.3 392857.0 0
31876.5 390450.0 0
37216.3 389989.0 0
40973.8 389268.0 0
44526.6 391258.0 0
47879.1 388867.0 0
51842.3 387819.0 0
54813.7 389873.0 0
59072.9 388929.0 0
62326.2 391865.0 0
66991.5 390489.0 0
71809.6 390875.0 0
76068.5 391780.0 0
78766.8 389543.0 0
82442.4 389117.0 0
86658.4 388510.0 0
85071.0 391662.0 0
88713.8 391709.0 0
96652.0 388430.0 0
93497.6 392244.0 0
101747.0 388782.0 0
106883.0 388857.0 0
111090.0 388887.0 0
109485.0 392338.0 0
116610.0 389628.0 0
113475.0 390935.0 0
119722.0 390552.0 0
126365.0 387898.0 0
122818.0 389615.0 0
126524.0 391975.0 0
129984.0 389671.0 0
134106.0 391381.0 0
138863.0 390083.0 0
142947.0 392458.0 0
146853.0 389546.0 0
150684.0 387802.0 0
150723.0 391658.0 0
154596.0 389998.0 0
161730.0 389187.0 0
158934.0 392032.0 0
163426.0 391622.0 0
165842.0 388414.0 0
171037.0 389648.0 0
175809.0 387798.0 0
175082.0 391337.0 0
179053.0 390522.0 0
183910.0 390936.0 0
188707.0 390053.0 0
193164.0 389027.0 0
198232.0 389653.0 0
195110.0 392583.0 0
301051.0 388701.0 0
304516.0 390673.0 0
307481.0 390287.0 0
310575.0 391319.0 0
313386.0 388114.0 0
314530.0 392444.0 0
317475.0 390083.0 0
320466.0 392297.0 0
321950.0 388376.0 0
323970.0 392543.0 0
327641.0 390706.0 0
333032.0 390817.0 0
337440.0 390920.0 0
341695.0 390911.0 0
343907.0 387889.0 0
346693.0 390534.0 0
352031.0 390476.0 0
356064.0 387857.0 0
356425.0 391819.0 0
360577.0 389564.0 0
365092.0 390261.0 0
369352.0 388205.0 0
371549.0 392712.0 0
373442.0 389905.0 0
376542.0 390254.0 0
374710.0 392601.0 0
379436.0 391034.0 0
382343.0 389423.0 0
385188.0 391033.0 0
389570.0 390316.0 0
395824.0 388275.0 0
393651.0 389417.0 0
393550.0 392310.0 0
397018.0 391803.0 0
399440.0 388749.0 0
401681.0 392571.0 0
403227.0 388627.0 0
405314.0 391125.0 0
406993.0 388444.0 0
411233.0 388063.0 0
409255.0 392568.0 0
414418.0 391421.0 0
418452.0 389370.0 0
422135.0 391450.0 0
425853.0 390427.0 0
428897.0 390249.0 0
431976.0 388115.0 0
432004.0 392392.0 0
435918.0 390151.0 0
440360.0 387981.0 0
439337.0 392091.0 0
443895.0 391836.0 0
448041.0 389643.0 0
452070.0 390360.0 0
456241.0 391252.0 0
458978.0 388827.0 0
459866.0 392220.0 0
462980.0 389914.0 0
467546.0 391161.0 0
469296.0 387936.0 0
472141.0 389652.0 0
475408.0 387890.0 0
476799.0 391426.0 0
481357.0 391125.0 0
484389.0 389482.0 0
487762.0 390517.0 0
492319.0 389496.0 0
497663.0 389539.0 0
2777.95 396658.0 0
9751.17 393176.0 0
7516.42 395735.0 0
13055.9 393908.0 0
11203.6 397069.0 0
19922.2 393444.0 0
16780.7 397270.0 0
22547.9 395582.0 0
26407.0 397576.0 0
31499.0 395735.0 0
36070.6 393784.0 0
40346.6 392968.0 0
38158.0 395400.0 0
40798.2 397206.0 0
44548.7 394955.0 0
50482.1 393077.0 0
47385.8 396859.0 0
54235.4 396567.0 0
57298.0 393156.0 0
58161.0 397360.0 0
61490.7 395554.0 0
65694.5 394548.0 0
69728.5 394283.0 0
73490.5 393899.0 0
73261.8 397177.0 0
76926.5 395737.0 0
80759.1 393437.0 0
85439.0 395872.0 0
89912.1 395178.0 0
96153.8 394846.0 0
93784.1 397736.0 0
99136.0 392974.0 0
98008.9 397213.0 0
104361.0 393178.0 0
107565.0 396570.0 0
117251.0 392963.0 0
113055.0 395337.0 0
122145.0 393985.0 0
118063.0 396765.0 0
127200.0 396874.0 0
130027.0 393370.0 0
133019.0 396754.0 0
138045.0 394782.0 0
142119.0 397486.0 0
147262.0 393141.0 0
145725.0 395856.0 0
150036.0 396429.0 0
154402.0 394141.0 0
157995.0 397036.0 0
162924.0 395871.0 0
167471.0 392999.0 0
172665.0 395320.0 0
177045.0 393909.0 0
177521.0 397528.0 0
180607.0 394319.0 0
184281.0 395142.0 0
187519.0 394066.0 0
191732.0 393272.0 0
190678.0 397261.0 0
196929.0 394277.0 0
194640.0 396008.0 0
198388.0 397291.0 0
199421.0 393747.0 0
301264.0 393468.0 0
306853.0 395128.0 0
311692.0 394841.0 0
315148.0 396484.0 0
318032.0 394346.0 0
322014.0 395576.0 0
326047.0 395585.0 0
330593.0 394868.0 0
335306.0 394433.0 0
339522.0 394354.0 0
337414.0 397519.0 0
343951.0 394420.0 0
348902.0 394595.0 0
353398.0 394995.0 0
359983.0 393470.0 0
357627.0 394991.0 0
361218.0 396881.0 0
363429.0 393523.0 0
365502.0 396732.0 0
367620.0 393000.0 0
369919.0 396468.0 0
374389.0 396431.0 0
377699.0 393596.0 0
378633.0 397350.0 0
382013.0 393962.0 0
384863.0 397508.0 0
386923.0 394182.0 0
391150.0 394763.0 0
395176.0 395173.0 0
393188.0 397518.0 0
399020.0 395296.0 0
402656.0 397810.0 0
405343.0 394465.0 0
412833.0 396035.0 0
418406.0 394606.0 0
422671.0 395531.0 0
425069.0 393705.0 0
426186.0 397288.0 0
428067.0 393548.0 0
430814.0 396499.0 0
435658.0 394849.0 0
437618.0 397602.0 0
440829.0 395750.0 0
445335.0 396299.0 0
448513.0 393380.0 0
450154.0 397353.0 0
453265.0 394037.0 0
457340.0 394984.0 0
460972.0 395723.0 0
463839.0 397770.0 0
464054.0 393819.0 0
467465.0 395884.0 0
471416.0 393511.0 0
475515.0 396234.0 0
480446.0 394805.0 0
484917.0 393536.0 0
486836.0 397057.0 0
490042.0 393759.0 0
494334.0 396925.0 0
498821.0 392893.0 0
495145.0 392964.0 0
498356.0 396002.0 0
2889.37 402391.0 0
7815.86 399835.0 0
12403.8 401466.0 0
17584.5 402819.0 0
21833.3 399907.0 0
25748.6 401815.0 0
30706.8 400918.0 0
36001.9 398376.0 0
40137.3 402023.0 0
44960.9 400211.0 0
50506.2 399570.0 0
55533.6 400987.0 0
61139.2 400815.0 0
64551.3 398155.0 0
65361.5 402105.0 0
68802.9 398852.0 0
73561.1 401441.0 0
76591.8 398984.0 0
80603.9 398495.0 0
77943.0 402129.0 0
81439.7 402453.0 0
84788.2 400681.0 0
89197.5 399444.0 0
93178.4 402304.0 0
102011.0 398024.0 0
97764.9 401168.0 0
105503.0 400745.0 0
110867.0 400777.0 0
115372.0 399167.0 0
115728.0 402992.0 0
122035.0 398997.0 0
118349.0 400390.0 0
125501.0 402783.0 0
130005.0 400658.0 0
134074.0 401624.0 0
137973.0 399392.0 0
142272.0 401961.0 0
146404.0 399828.0 0
150877.0 401687.0 0
153682.0 398279.0 0
155987.0 401753.0 0
161182.0 401464.0 0
164362.0 399734.0 0
167610.0 398056.0 0
165525.0 402334.0 0
171508.0 399438.0 0
169616.0 402999.0 0
174708.0 401145.0 0
182126.0 398109.0 0
179556.0 401304.0 0
186473.0 398059.0 0
184484.0 401610.0 0
189366.0 401520.0 0
194626.0 400527.0 0
199108.0 400867.0 0
302206.0 398013.0 0
301449.0 402578.0 0
306697.0 401152.0 0
311041.0 398906.0 0
315535.0 400939.0 0
319185.0 398010.0 0
320220.0 402340.0 0
323865.0 399343.0 0
328594.0 398812.0 0
330955.0 401736.0 0
327008.0 402658.0 0
333561.0 399020.0 0
337854.0 401362.0 0
341256.0 398039.0 0
346118.0 398585.0 0
342691.0 402763.0 0
350896.0 399033.0 0
356191.0 399111.0 0
360209.0 400105.0 0
363821.0 400985.0 0
367929.0 399454.0 0
371888.0 400661.0 0
376144.0 400699.0 0
380155.0 401352.0 0
381800.0 398486.0 0
384505.0 401875.0 0
388977.0 398622.0 0
393139.0 400990.0 0
397189.0 398887.0 0
400746.0 401819.0 0
405293.0 402738.0 0
408233.0 398261.0 0
409738.0 402421.0 0
412684.0 400562.0 0
416311.0 398696.0 0
421224.0 399338.0 0
425499.0 401508.0 0
428336.0 402881.0 0
429383.0 400128.0 0
434288.0 400223.0 0
438975.0 399510.0 0
442415.0 399913.0 0
446911.0 400751.0 0
451735.0 401819.0 0
454799.0 398490.0 0
455792.0 402586.0 0
459413.0 399182.0 0
463461.0 401868.0 0
467191.0 399994.0 0
471055.0 398217.0 0
474582.0 400433.0 0
479030.0 399477.0 0
483326.0 398367.0 0
482133.0 402813.0 0
486592.0 401436.0 0
490197.0 398303.0 0
490364.0 401587.0 0
493647.0 400950.0 0
497827.0 399889.0 0
3377.21 407989.0 0
8284.92 404896.0 0
13452.7 406758.0 0
18498.3 406693.0 0
22441.8 404678.0 0
27456.6 405336.0 0
31468.7 405413.0 0
35444.9 403303.0 0
34516.6 407552.0 0
39039.5 407105.0 0
44009.7 405726.0 0
47898.6 403630.0 0
48695.2 408033.0 0
51719.5 404225.0 0
55480.1 405037.0 0
58846.6 404174.0 0
58064.6 407745.0 0
63210.2 406253.0 0
69245.4 404394.0 0
75051.1 405943.0 0
79852.8 405611.0 0
84335.8 405000.0 0
88572.4 403712.0 0
91863.8 405897.0 0
96651.3 405713.0 0
101791.0 403662.0 0
100517.0 407617.0 0
106965.0 404660.0 0
104345.0 407820.0 0
111922.0 405943.0 0
117231.0 407437.0 0
120185.0 403324.0 0
122220.0 406742.0 0
126200.0 408034.0 0
130488.0 405321.0 0
135084.0 405425.0 0
138572.0 403855.0 0
142350.0 406608.0 0
138062.0 408019.0 0
146203.0 404164.0 0
150012.0 405819.0 0
154271.0 405874.0 0
158806.0 405593.0 0
163619.0 405878.0 0
168475.0 407788.0 0
173243.0 405881.0 0
177036.0 404360.0 0
181585.0 405588.0 0
187259.0 405676.0 0
192882.0 405945.0 0
198032.0 404211.0 0
304780.0 405219.0 0
301450.0 407488.0 0
307769.0 405855.0 0
311448.0 404307.0 0
316643.0 405673.0 0
321330.0 406824.0 0
323718.0 403724.0 0
325703.0 407020.0 0
330290.0 405815.0 0
334402.0 403720.0 0
338654.0 406570.0 0
343123.0 406962.0 0
348059.0 403459.0 0
350662.0 407134.0 0
353201.0 403503.0 0
359051.0 404475.0 0
364036.0 406399.0 0
368174.0 403482.0 0
370860.0 406035.0 0
367985.0 408161.0 0
374109.0 404675.0 0
377844.0 404201.0 0
381308.0 405377.0 0
385909.0 406722.0 0
388998.0 403087.0 0
390318.0 406513.0 0
392812.0 404524.0 0
396814.0 403994.0 0
398114.0 406990.0 0
401306.0 405960.0 0
405637.0 405984.0 0
409128.0 406381.0 0
412602.0 403843.0 0
416848.0 403066.0 0
414174.0 407762.0 0
418971.0 406824.0 0
422126.0 404303.0 0
426880.0 405975.0 0
431035.0 403777.0 0
431067.0 407896.0 0
434750.0 405247.0 0
438249.0 407054.0 0
438831.0 403098.0 0
441412.0 407498.0 0
443409.0 404338.0 0
448743.0 405682.0 0
453377.0 405065.0 0
457007.0 406952.0 0
459385.0 403479.0 0
462011.0 406343.0 0
466197.0 405417.0 0
470940.0 403274.0 0
473854.0 406924.0 0
477274.0 403914.0 0
477283.0 408125.0 0
481245.0 407332.0 0
485171.0 405296.0 0
490965.0 406082.0 0
495530.0 403586.0 0
498596.0 403491.0 0
497393.0 407477.0 0
1629.91 411988.0 0
8695.97 409515.0 0
5569.57 412642.0 0
12800.1 412000.0 0
17647.1 410765.0 0
21269.2 408347.0 0
25095.8 408670.0 0
22145.9 411667.0 0
30229.4 409912.0 0
26014.1 412654.0 0
36042.2 411785.0 0
41182.8 411254.0 0
44819.0 410010.0 0
47626.6 411906.0 0
53428.2 408291.0 0
51542.0 412245.0 0
56321.8 411727.0 0
60493.1 410391.0 0
64153.1 411924.0 0
67332.3 408952.0 0
71504.8 408704.0 0
74466.9 410109.0 0
78212.5 409481.0 0
82833.1 409065.0 0
85501.3 412150.0 0
88027.7 408477.0 0
93051.3 409425.0 0
94729.6 413224.0 0
97700.4 410280.0 0
102007.0 411452.0 0
106742.0 411632.0 0
108368.0 408184.0 0
112073.0 410912.0 0
117262.0 412669.0 0
121590.0 410571.0 0
125741.0 412845.0 0
130318.0 410659.0 0
134095.0 408438.0 0
140768.0 411123.0 0
146880.0 408782.0 0
143652.0 409621.0 0
144614.0 412896.0 0
151744.0 409637.0 0
148912.0 413031.0 0
156025.0 409560.0 0
158126.0 412715.0 0
160355.0 409255.0 0
161745.0 413191.0 0
164631.0 410379.0 0
168350.0 412461.0 0
172693.0 410877.0 0
177027.0 408379.0 0
180919.0 410115.0 0
184608.0 409131.0 0
188953.0 410603.0 0
193889.0 411277.0 0
198073.0 408565.0 0
305438.0 408874.0 0
301877.0 411603.0 0
309506.0 408984.0 0
313399.0 408385.0 0
312329.0 412626.0 0
317992.0 411200.0 0
323682.0 410936.0 0
329073.0 410957.0 0
334118.0 408603.0 0
333631.0 412739.0 0
337775.0 411600.0 0
342209.0 410641.0 0
346603.0 408433.0 0
346205.0 413162.0 0
350675.0 411235.0 0
355145.0 408504.0 0
360446.0 410262.0 0
364961.0 410555.0 0
368465.0 411666.0 0
372350.0 409510.0 0
375058.0 413039.0 0
377314.0 408284.0 0
378945.0 412188.0 0
382019.0 409559.0 0
386297.0 411664.0 0
389604.0 409447.0 0
394416.0 408482.0 0
396517.0 412570.0 0
399373.0 409731.0 0
404729.0 409807.0 0
410245.0 411424.0 0
415094.0 413061.0 0
418407.0 410333.0 0
423303.0 409554.0 0
427750.0 410304.0 0
431256.0 413071.0 0
435182.0 409719.0 0
440198.0 411615.0 0
444653.0 408757.0 0
448571.0 410500.0 0
445300.0 413120.0 0
452858.0 409013.0 0
456544.0 412065.0 0
460176.0 409581.0 0
464378.0 409717.0 0
469437.0 409258.0 0
474406.0 410771.0 0
478527.0 411128.0 0
482406.0 412031.0 0
486006.0 409516.0 0
494001.0 410740.0 0
489987.0 411997.0 0
497932.0 412175.0 0
2425.19 416012.0 0
9148.68 413645.0 0
7230.94 417664.0 0
12027.0 416636.0 0
19777.2 414225.0 0
16419.9 415352.0 0
22910.7 415415.0 0
28936.8 413616.0 0
27635.0 417345.0 0
32060.8 414846.0 0
35822.8 416604.0 0
39836.4 415411.0 0
44431.1 414331.0 0
42582.0 418191.0 0
48754.5 415157.0 0
50457.1 418088.0 0
54705.8 416547.0 0
59895.6 414523.0 0
64200.8 416711.0 0
69932.1 414061.0 0
75934.6 413445.0 0
74817.5 417552.0 0
80935.6 413801.0 0
85499.6 415946.0 0
82578.1 417261.0 0
89823.9 413662.0 0
93971.1 418071.0 0
98788.2 414923.0 0
104114.0 416478.0 0
109653.0 415612.0 0
113753.0 415353.0 0
117123.0 417524.0 0
121673.0 415489.0 0
130263.0 416566.0 0
135839.0 413269.0 0
141051.0 416349.0 0
146138.0 416895.0 0
150193.0 416656.0 0
153811.0 413788.0 0
157891.0 416585.0 0
162176.0 417159.0 0
165164.0 414231.0 0
167383.0 417880.0 0
171174.0 415251.0 0
177724.0 413668.0 0
174339.0 416444.0 0
181150.0 417277.0 0
183950.0 413634.0 0
188232.0 415088.0 0
191352.0 414155.0 0
198103.0 413670.0 0
194422.0 415290.0 0
301843.0 415559.0 0
306714.0 413554.0 0
310891.0 416938.0 0
315762.0 416823.0 0
320850.0 415753.0 0
325861.0 415145.0 0
330916.0 416005.0 0
336632.0 416660.0 0
341924.0 415110.0 0
346013.0 417908.0 0
350449.0 415884.0 0
355802.0 413946.0 0
360694.0 414838.0 0
365248.0 414653.0 0
362535.0 418139.0 0
370452.0 415522.0 0
374763.0 417058.0 0
378483.0 416038.0 0
382467.0 414164.0 0
386792.0 416922.0 0
391472.0 413642.0 0
395814.0 416849.0 0
400946.0 414666.0 0
406709.0 415247.0 0
411724.0 416570.0 0
416368.0 417235.0 0
420665.0 414832.0 0
426176.0 414158.0 0
435811.0 413394.0 0
434483.0 416915.0 0
438223.0 415666.0 0
442272.0 416678.0 0
447503.0 417604.0 0
451575.0 414050.0 0
455572.0 416535.0 0
461435.0 413801.0 0
466676.0 413810.0 0
469234.0 418259.0 0
464319.0 418318.0 0
471552.0 414224.0 0
479425.0 414432.0 0
475999.0 414571.0 0
478389.0 417842.0 0
482450.0 416297.0 0
486285.0 414234.0 0
490342.0 416362.0 0
494374.0 414606.0 0
497986.0 416114.0 0
2730.87 420996.0 0
7244.72 422100.0 0
11011.3 420965.0 0
15300.3 419713.0 0
19849.3 418514.0 0
18526.4 422389.0 0
23699.4 418964.0 0
22977.1 422655.0 0
28465.4 422825.0 0
32629.6 419402.0 0
38411.5 420592.0 0
43856.2 422453.0 0
46535.1 418380.0 0
49389.2 422160.0 0
54957.0 422325.0 0
59711.5 419301.0 0
64249.1 421627.0 0
67622.8 419130.0 0
71348.9 419522.0 0
74851.8 422537.0 0
79177.0 419224.0 0
84149.4 420143.0 0
88724.0 419079.0 0
99369.4 420511.0 0
104219.0 421612.0 0
108295.0 420380.0 0
112948.0 419487.0 0
116708.0 421558.0 0
120906.0 420291.0 0
125405.0 418920.0 0
135837.0 419653.0 0
140072.0 420158.0 0
139588.0 423160.0 0
143658.0 421052.0 0
148887.0 420984.0 0
153826.0 418974.0 0
158811.0 421822.0 0
163934.0 421154.0 0
167945.0 423233.0 0
172358.0 420191.0 0
177122.0 418704.0 0
176538.0 422998.0 0
181016.0 421598.0 0
185747.0 418938.0 0
191372.0 418411.0 0
189266.0 422511.0 0
193536.0 423252.0 0
197231.0 418992.0 0
302248.0 419959.0 0
305914.0 422930.0 0
306675.0 418726.0 0
310555.0 421498.0 0
315200.0 421572.0 0
319448.0 420339.0 0
323562.0 418996.0 0
327869.0 419877.0 0
332616.0 420718.0 0
336908.0 422011.0 0
341395.0 420326.0 0
345881.0 422841.0 0
350186.0 420863.0 0
354209.0 418654.0 0
358468.0 418595.0 0
361692.0 423129.0 0
366669.0 419572.0 0
372010.0 421024.0 0
377442.0 420425.0 0
382107.0 418994.0 0
386350.0 422731.0 0
391642.0 419857.0 0
398902.0 419824.0 0
403660.0 419387.0 0
405633.0 423318.0 0
408420.0 419972.0 0
414296.0 421194.0 0
419609.0 420188.0 0
424229.0 418427.0 0
426129.0 422077.0 0
429494.0 418378.0 0
434020.0 420857.0 0
438561.0 420014.0 0
443682.0 421471.0 0
452072.0 418371.0 0
449858.0 421923.0 0
455474.0 422096.0 0
459541.0 418423.0 0
466813.0 422086.0 0
473959.0 418370.0 0
471574.0 423062.0 0
476927.0 422103.0 0
481699.0 420760.0 0
486218.0 418901.0 0
494103.0 418434.0 0
490513.0 421635.0 0
494627.0 422139.0 0
497867.0 420237.0 0
1119.89 424656.0 0
4805.95 425937.0 0
1167.0 427188.0 0
9795.4 425466.0 0
14505.6 424421.0 0
19610.4 427268.0 0
25329.1 427203.0 0
30273.3 427680.0 0
33909.7 424089.0 0
38493.8 425767.0 0
42710.0 427217.0 0
47023.7 426395.0 0
51803.5 426882.0 0
56376.8 427258.0 0
60099.1 424463.0 0
64783.9 426705.0 0
69258.7 423715.0 0
73012.3 427267.0 0
81318.4 423873.0 0
77549.3 426542.0 0
87116.0 424764.0 0
91441.4 428045.0 0
92903.5 423567.0 0
97424.4 425639.0 0
102086.0 425090.0 0
107027.0 425321.0 0
111471.0 423670.0 0
115470.0 425525.0 0
119369.0 424018.0 0
120381.0 428119.0 0
123532.0 424062.0 0
125445.0 428250.0 0
129685.0 423479.0 0
135385.0 424493.0 0
133668.0 428483.0 0
138546.0 427461.0 0
142870.0 425752.0 0
146297.0 424319.0 0
149106.0 425081.0 0
153316.0 424460.0 0
157919.0 427985.0 0
163073.0 425874.0 0
167406.0 428067.0 0
172593.0 426476.0 0
177060.0 426455.0 0
180702.0 426798.0 0
185245.0 424256.0 0
189864.0 427824.0 0
198078.0 424232.0 0
195328.0 427583.0 0
301974.0 424566.0 0
305459.0 427527.0 0
308902.0 425514.0 0
313216.0 425937.0 0
318415.0 425442.0 0
324048.0 423932.0 0
329544.0 424674.0 0
334271.0 425398.0 0
340001.0 426585.0 0
345383.0 426923.0 0
349862.0 425963.0 0
355228.0 423553.0 0
358444.0 428380.0 0
367809.0 425415.0 0
375962.0 426331.0 0
381111.0 423555.0 0
383489.0 427382.0 0
390966.0 424504.0 0
388216.0 427881.0 0
395764.0 423554.0 0
393408.0 428436.0 0
398310.0 427841.0 0
401062.0 423953.0 0
401748.0 427645.0 0
405537.0 427943.0 0
410150.0 424702.0 0
414182.0 427515.0 0
417705.0 424608.0 0
422294.0 424219.0 0
426188.0 425973.0 0
430738.0 424346.0 0
436694.0 425004.0 0
442150.0 426689.0 0
446717.0 425003.0 0
451587.0 427295.0 0
457619.0 427495.0 0
461841.0 423535.0 0
467111.0 426930.0 0
475487.0 427763.0 0
480903.0 425412.0 0
484840.0 427474.0 0
485385.0 423496.0 0
488924.0 426367.0 0
493540.0 425620.0 0
497840.0 424633.0 0
2473.47 430415.0 0
4937.05 433357.0 0
7809.59 430145.0 0
12929.5 429332.0 0
17226.3 433024.0 0
22525.2 431916.0 0
27552.2 432056.0 0
34966.2 429154.0 0
39527.7 430124.0 0
43321.1 431328.0 0
48481.0 431834.0 0
54353.2 431307.0 0
60478.9 429855.0 0
65639.0 431947.0 0
68910.8 428585.0 0
71613.9 431546.0 0
76016.4 430905.0 0
82310.9 429620.0 0
85750.2 433207.0 0
87778.4 430203.0 0
91365.0 432559.0 0
95508.5 430150.0 0
100717.0 429670.0 0
106107.0 430681.0 0
111415.0 428750.0 0
109955.0 433229.0 0
116068.0 429779.0 0
114217.0 433647.0 0
118925.0 432897.0 0
123072.0 431847.0 0
126893.0 432432.0 0
129476.0 429459.0 0
136999.0 433008.0 0
142191.0 430875.0 0
147018.0 428750.0 0
151879.0 429076.0 0
154754.0 432714.0 0
159854.0 433048.0 0
163789.0 430664.0 0
167821.0 432509.0 0
172593.0 432339.0 0
177038.0 430079.0 0
181554.0 431627.0 0
184635.0 428732.0 0
186426.0 432777.0 0
198290.0 430331.0 0
193979.0 432753.0 0
301490.0 428571.0 0
303854.0 432470.0 0
310151.0 431401.0 0
316015.0 430101.0 0
319825.0 433321.0 0
322052.0 428971.0 0
324293.0 432404.0 0
326755.0 428840.0 0
331537.0 429120.0 0
336082.0 431661.0 0
340934.0 433557.0 0
343949.0 430499.0 0
348418.0 431090.0 0
353388.0 429905.0 0
356962.0 433189.0 0
363375.0 428654.0 0
366944.0 430375.0 0
368339.0 433610.0 0
371236.0 430205.0 0
376035.0 431509.0 0
380014.0 430814.0 0
384955.0 432172.0 0
390130.0 432583.0 0
396947.0 432498.0 0
401620.0 431081.0 0
406185.0 433267.0 0
410156.0 429936.0 0
414636.0 432794.0 0
418397.0 429082.0 0
423254.0 429301.0 0
428711.0 429983.0 0
432916.0 433605.0 0
433494.0 428847.0 0
438066.0 430573.0 0
443089.0 432051.0 0
446578.0 429133.0 0
449609.0 432741.0 0
455000.0 431288.0 0
462190.0 428911.0 0
459469.0 433051.0 0
465521.0 431955.0 0
470670.0 431624.0 0
477245.0 433456.0 0
481191.0 430299.0 0
486326.0 432094.0 0
492358.0 430682.0 0
497606.0 428986.0 0
497933.0 433375.0 0
11109.1 435011.0 0
32738.8 433977.0 0
38075.1 434594.0 0
58235.4 434669.0 0
79088.9 434282.0 0
97176.8 434910.0 0
102488.0 434837.0 0
373683.0 433969.0 0
420223.0 433721.0 0
425319.0 433994.0 0
481857.0 434576.0 0
490283.0 435613.0 0
494440.0 435282.0 0
POINT_DATA 5000
SCALARS Radius float 1
LOOKUP_TABLE default
4796.58 3979.26 3471.03 5253.55 5820.48 5782.6 4862.21 5113.21 3929.19 4107.03 5379.87 5925.6 4792.73 4736.58 4931.38 3485.26 4329.05 4151.94 4049.23 5337.48 6124.89 5708.81 5495.39 4665.12 3383.4 4133.88 4834.9 3850.77 6044.04 5415.48 5120.0 3863.18 4998.37 6182.6 5492.18 5258.36 3163.97 5812.43 5906.14 7513.1 5254.28 5733.48 4672.91 5580.89 5645.7 6810.52 5840.26 6110.27 5073.35 5670.04 4380.59 6716.79 7613.27 5529.52 4951.03 5255.32 6037.08 5096.78 6756.95 4129.43 6324.23 3843.58 3320.52 4194.5 4270.53 5344.25 5191.63 4593.7 4150.99 4216.92 4742.68 4344.58 5634.83 5495.84 6268.1 4861.06 5320.28 6739.08 4797.52 4569.12 4298.67 5960.66 6608.73 7034.11 6261.42 4502.5 4043.57 4478.15 4271.69 5681.38 4138.42 4501.51 3708.04 5513.6 3240.09 4556.36 6082.81 3191.99 4685.34 5601.05 4929.8 3586.91 5252.48 3554.9 4780.03 4015.92 5542.21 4487.31 3996.0 3856.1 3936.02 4044.71 5980.74 4094.62 4927.02 5546.39 5325.36 5484.83 5085.53 5351.6 2356.98 4730.36 4715.55 5867.73 3951.75 5013.56 5061.3 3642.12 4375.68 5542.27 5054.98 5122.66 5484.19 3557.27 4688.68 4436.4 4402.52 4517.56 4182.53 5903.42 3588.44 3761.32 5176.86 4118.05 4366.19 5553.16 3672.51 2938.66 5561.06 4231.61 4008.92 3615.22 3942.53 3379.84 3589.27 4827.82 3997.1 3607.45 3260.67 5759.91 5123.52 3038.33 4392.68 4333.2 7199.21 4523.7 2240.39 5091.39 5293.9 6142.94 3912.37 4727.24 4602.25 4790.08 5082.47 4763.45 5445.87 3815.26 4704.72 4177.94 4571.7 5896.46 3784.5 6481.79 5374.51 7042.12 6326.39 5873.69 4962.09 3999.48 5011.84 4359.62 6946.21 2586.12 5433.8 3771.48 4011.77 5499.11 5922.5 5198.77 5987.17 6013.14 4901.41 5110.37 5664.98 4382.74 4651.28 3693.63 4384.42 3103.0 4516.43 5481.78 5043.05 5816.2 5109.54 6483.19 5945.65 6759.9 5538.89 7021.47 5416.38 6059.59 4955.55 2720.68 5701.86 4499.64 3563.63 4238.81 4468.59 5885.03 6030.06 2837.58 5170.02 5200.76 4927.31 4862.64 5185.34 4432.58 6684.56 3968.64 3955.56 5292.64 6166.5 5065.13 5936.02 4940.78 4861.08 4003.05 4805.87 4712.33 5227.21 5697.78 4667.36 4091.31 6372.62 4295.38 5615.42 7565.34 5923.5 4612.68 4973.83 6342.25 6691.39 5135.69 5344.0 6045.46 4245.72 5908.1 6048.7 6133.92 3719.84 5022.8 4178.4 3095.48 3780.23 4166.08 4123.6 5224.12 4819.73 3382.7 6817.32 4471.58 4319.79 6098.14 4472.17 4203.26 5188.81 6057.22 5062.71 6125.34 4527.08 3633.87 5347.48 4850.01 3970.25 5147.67 3979.82 2765.2 5011.31 5138.31 5264.06 4659.59 6327.9 5927.43 6355.42 4362.19 5690.56 4948.92 3115.91 5637.59 4937.14 3307.12 5924.89 5693.81 4002.16 4174.52 3486.22 3829.13 6230.49 5418.62 5493.32 5740.68 5926.61 5836.15 4345.55 6704.06 3653.41 3871.88 5325.02 3856.01 5246.2 5017.13 5279.39 3673.74 5205.43 6116.18 7447.37 4688.67 4924.6 2635.86 4385.06 4733.32 7184.19 2924.37 5305.17 4290.3 3867.67 5399.73 4660.72 5390.22 3888.21 6038.78 6902.81 4254.17 5629.19 5090.24 5740.84 5530.87 4310.18 4281.49 5978.9 4187.56 3629.62 4997.27 4840.84 4301.06 4020.32 4290.14 6562.18 4156.38 5316.75 4541.21 4164.68 5669.65 5934.22 5624.49 5762.59 7092.87 4850.14 5163.55 3954.91 2965.01 6643.85 3637.61 6222.42 5654.31 4730.41 3745.84 5690.26 4156.2 5965.78 4810.12 5643.58 5215.05 4292.06 5577.04 5006.58 4602.86 3688.8 4548.16 3369.23 4048.37 5449.18 5492.26 5244.78 5762.84 3937.74 4749.8 4493.48 6084.86 5478.92 4778.34 4138.16 6894.71 4684.5 3091.3 4414.54 6458.82 7054.71 4601.27 3641.64 5489.43 5747.75 4277.89 6051.14 4796.33 3261.21 4195.44 5539.32 6496.85 5600.93 4874.39 5541.59 4390.66 4124.71 5728.85 4827.23 4911.47 5863.59 4381.97 6257.19 3255.82 2899.43 2812.98 4065.69 5603.15 4695.45 6052.7 3921.18 3798.62 5891.05 5308.1 3666.57 6644.76 5655.21 4786.6 4645.41 6445.94 5542.14 4218.06 7134.64 4716.19 5514.76 3456.98 3498.2 4877.67 3066.13 4302.5 6006.16 6009.88 7055.53 5013.67 5826.04 5339.78 4970.88 4143.78 4636.5 4666.81 3703.1 4940.42 5923.4 6471.55 5499.39 5501.93 5463.38 5945.21 4938.74 5696.88 5607.14 4497.59 3923.03 5975.63 4374.35 6396.74 4138.46 2775.04 3821.72 4986.77 6318.18 5586.81 4621.75 3948.17 4551.24 5358.59 4220.88 4515.71 6519.71 6640.13 5082.6 5810.84 4230.54 5551.36 5094.44 3748.24 4655.49 4467.94 4850.81 5789.98 6138.47 5527.54 5573.7 4727.62 5054.25 4055.8 7325.81 5280.17 5360.19 4794.96 6186.19 5083.08 6834.49 6337.56 5525.39 5803.39 4024.3 6394.38 5555.28 5242.73 4737.14 4686.65 5834.74 5556.96 5788.23 5581.75 6392.01 4907.89 6730.19 4937.02 4073.93 3735.44 6043.3 5952.75 4433.59 4320.28 6122.55 2739.94 4931.53 5480.13 6308.71 3323.28 6695.82 6405.76 5794.24 5105.16 5448.61 5050.65 4827.33 5206.48 5513.57 5729.23 3365.82 4538.95 5965.15 4763.66 6090.91 4946.42 5085.71 6116.33 5644.82 6343.14 5462.21 5750.71 5470.77 4831.47 4643.85 4004.04 5252.34 4289.17 5564.02 4274.61 2965.79 6898.19 6035.6 4481.53 5330.45 4581.13 3610.4 6387.01 5367.52 3092.35 4322.15 5210.03 5478.47 5351.39 6142.37 6061.47 4933.21 5375.47 6038.14 2540.31 5120.49 6029.66 5262.61 6302.8 5697.4 6038.2 4270.95 4005.44 5206.78 6732.43 6425.26 5143.58 4484.76 4839.34 4840.01 2980.99 7933.0 4455.12 3998.5 5173.87 5938.34 5380.13 5118.27 5169.36 5932.23 5791.61 3369.13 4479.66 3043.85 5461.13 4726.76 3599.45 4907.06 5489.34 5163.9 5708.14 5537.72 6332.36 6155.31 4223.33 5911.67 5709.62 5835.78 4127.74 2476.04 4678.38 3942.07 7443.72 3937.08 5260.34 4709.35 6586.45 4373.3 5226.0 4750.78 4163.5 5724.64 4780.2 5100.1 3561.29 4963.34 5019.93 3295.83 5081.78 4260.92 6263.44 5960.56 5774.97 4020.95 6313.06 3474.39 6470.3 6062.05 5082.74 6072.45 4410.55 5526.14 5137.34 5423.0 3856.59 4219.07 5413.79 6338.89 6202.55 5025.39 4714.54 3629.96 5893.5 3320.11 5030.91 6022.17 5119.37 6163.38 4566.18 4723.12 3459.9 4964.09 5201.36 5024.9 4306.53 5409.61 5094.81 5972.06 5713.22 5555.88 5028.96 3866.16 3794.63 6362.12 3778.1 5152.36 4511.82 5611.2 4220.65 6820.42 4816.2 4894.16 4896.52 5711.87 3372.79 4941.22 5282.64 4715.72 4669.66 4808.52 5367.2 5607.24 5053.92 5839.13 5495.68 4863.72 5002.48 4262.82 3920.42 5102.36 8332.24 4342.9 5069.84 4553.56 5329.64 4051.44 6049.55 5991.09 5133.97 6600.94 4788.58 5371.02 6155.1 5876.71 5029.78 6515.84 4888.6 5078.86 4918.77 4371.99 4219.78 3885.86 4459.28 5235.29 4479.94 6250.23 4118.84 5862.86 3493.7 4200.03 4719.7 6939.12 4735.33 6915.83 5092.37 6444.77 7099.43 4287.63 5198.29 5315.4 6449.45 5077.33 3975.31 4746.52 3689.45 5572.95 6723.16 5584.06 7111.16 4547.19 3817.13 5507.24 3982.23 4583.31 4503.89 5806.08 4853.39 4997.27 4093.08 4809.42 5543.27 4717.05 5659.17 6135.57 4312.67 5423.8 5861.71 4359.04 3183.98 4989.15 5017.78 4524.28 6175.81 4727.24 6677.09 5826.64 5201.67 6321.41 4089.76 4751.02 5526.55 3192.41 5184.56 4987.87 3315.57 5804.71 5046.33 4764.96 4242.52 5356.51 6352.26 3847.38 3818.59 4087.15 3057.03 4143.08 7500.97 6623.85 5228.18 5787.31 5065.11 4978.31 4050.9 4241.89 4099.77 5054.74 5941.72 4537.32 4656.78 5126.91 3600.43 5131.24 5196.67 6496.67 5474.8 6262.72 3664.11 5117.47 4925.63 2990.77 5882.65 4739.14 4434.19 5187.7 4188.3 6261.75 5177.64 4255.31 5453.3 6413.02 4863.27 3492.19 4584.5 5122.63 6049.79 4703.08 5374.98 5274.19 5516.95 4406.4 5411.85 4844.57 4027.46 6314.07 5776.37 4516.28 3627.82 4044.45 3824.16 5125.78 5344.43 3868.18 4373.47 5045.38 5350.88 5372.61 3686.21 6480.17 5023.15 4377.07 6851.54 3813.22 5570.3 4336.42 5243.29 7589.94 4449.22 3130.65 5856.11 5287.2 4109.88 4234.94 5998.38 5013.13 5080.66 4270.24 3417.33 4926.42 4164.13 5015.69 4642.34 4520.1 4947.52 5874.89 4305.57 4293.03 6959.81 4829.35 4389.21 3791.79 4424.7 4925.44 4754.05 6084.93 5215.15 3697.96 4739.42 5538.93 5020.12 4745.45 5727.3 2631.9 5281.28 6255.18 4277.88 4668.71 4758.21 7228.46 3948.23 5978.82 5266.5 3927.99 5868.82 4948.98 4414.48 5227.52 4092.24 4981.9 5163.02 7144.24 4906.82 5687.83 5004.23 6442.69 4648.04 6607.87 4721.32 3293.56 3163.78 5274.14 4903.82 5746.28 4623.61 4082.47 5511.6 4338.08 4378.3 6134.99 4094.73 4407.9 4440.57 5548.29 6766.43 2315.64 6345.13 5226.56 5313.22 4413.85 3905.51 3999.94 4470.98 4864.22 5759.46 3921.08 4190.31 5678.96 5262.19 4244.9 6070.58 6034.41 5130.91 5402.24 4519.22 6445.22 3844.9 5101.59 3963.86 3848.93 4306.11 5935.47 3402.32 5903.66 5628.24 5004.67 5365.89 3327.49 5992.26 3960.8 4562.29 5070.39 4980.85 5714.58 5110.45 5208.32 5248.77 4083.97 4607.02 5153.74 4528.09 3895.51 4165.81 5813.4 6291.51 4128.98 5882.89 6246.22 4951.47 4188.32 5246.61 4307.28 4100.38 5344.77 4723.48 4899.11 5097.87 4278.07 7267.18 5320.92 5269.18 4406.1 6362.14 5034.59 6719.88 4454.63 5080.18 4523.88 3279.1 4066.38 4403.98 4560.84 4729.43 5776.57 4562.74 5598.74 7493.3 6320.71 3464.83 5698.77 2477.07 6413.11 4305.16 5092.28 4965.89 5659.95 4152.85 2908.7 4453.64 4517.73 5469.47 5660.16 4989.56 4718.54 2588.37 6736.03 6235.57 3623.87 5916.16 4390.41 6113.95 5599.49 4097.57 5017.5 5563.79 3901.8 6171.13 5511.88 5083.41 7055.42 5486.68 6048.86 4285.32 5490.43 5022.28 5452.83 4959.34 4948.5 4527.02 4531.14 3695.36 4564.34 3838.56 4871.44 5076.35 6020.48 6375.99 5200.05 5234.29 4528.49 5313.66 5419.37 4466.03 4511.54 5409.33 5196.0 4923.9 4973.78 3329.99 3947.47 3296.27 4713.25 4204.84 6243.0 6673.96 3556.85 5441.96 3435.9 5174.89 4288.3 5370.52 4652.29 5774.81 3746.31 5498.32 5027.98 5346.27 6475.1 4969.21 2691.29 2845.98 6256.02 5314.85 4305.43 5450.44 4942.77 4263.33 5592.32 5912.61 5381.16 6193.35 6086.96 5233.78 5653.9 5046.21 5683.26 5894.61 5139.5 5304.13 5944.09 4814.55 5833.06 3527.05 4923.41 4497.31 5384.76 5529.42 5257.12 5243.43 4537.14 5551.9 3757.34 6415.61 4687.64 4419.71 5037.06 3838.47 4541.8 5175.29 5842.56 5412.31 3087.09 6934.37 4890.5 4050.08 5452.42 5328.22 6853.85 2395.5 4512.11 5782.48 5683.61 3836.45 5100.25 6894.26 4986.51 5197.52 5178.99 5383.07 4591.87 5013.42 4247.15 6552.22 5651.07 6248.81 5273.35 2651.49 4645.58 5512.23 5275.32 4898.94 4613.31 4733.04 6119.09 5788.66 5091.68 7531.29 5069.25 5048.89 3161.47 3991.03 6390.78 7435.25 6826.57 4788.87 4495.87 6022.72 4643.31 5527.33 5402.21 4989.09 4880.14 5289.52 4982.31 3848.54 4307.48 5941.4 5331.02 6510.17 5742.65 4871.96 4863.23 4402.67 4470.61 5565.13 4384.88 6887.27 3701.27 6008.49 4806.34 4287.53 5612.21 4929.14 5945.08 3979.54 3306.14 5490.58 4863.79 4702.06 3830.46 6031.67 4689.15 6138.12 4428.78 5409.66 4345.67 4765.72 4642.66 4752.14 5329.59 4888.12 4950.97 5512.16 3197.63 4863.96 5887.15 5203.08 7480.41 3423.15 4488.85 3981.07 3731.84 4901.07 5186.3 3436.15 3497.9 4151.76 5941.61 4020.4 3493.47 4596.75 6248.6 5443.58 4558.46 5805.86 4470.4 5339.38 6169.11 5615.35 4027.09 4790.78 6422.84 4502.18 5379.09 4602.85 4962.77 5872.05 4853.02 4091.8 6259.23 5181.4 5670.2 5985.29 4711.62 4247.23 4178.15 4268.65 4694.83 5509.42 4354.08 4256.43 5936.36 4520.62 3903.75 4755.47 5935.03 4485.99 5127.16 5475.8 5314.69 6050.81 4249.46 5965.81 3702.37 5660.85 2330.66 4177.19 6917.52 3587.05 6229.37 6718.19 5282.91 4425.84 7256.35 4800.69 3555.86 6386.78 4631.83 4996.99 6081.14 5480.83 4220.46 5128.57 6000.7 3169.67 5604.21 4968.03 3361.92 6710.88 5395.14 3967.48 6213.04 3685.13 6790.73 4655.16 5251.4 3867.19 5857.79 4039.91 5276.7 5036.58 6119.63 5411.02 4752.9 4287.16 5199.44 5191.08 4062.5 4435.51 5374.07 5163.77 4588.7 3766.55 4579.69 3554.48 6496.52 5005.85 4216.17 6484.17 4721.02 4254.37 3374.08 4933.65 4031.78 6098.1 5708.99 4049.02 5346.68 5311.03 5255.12 5296.29 4611.53 4896.11 4285.66 5172.53 5801.99 5210.48 7552.94 5323.3 5088.44 4998.21 4662.56 4114.24 5349.31 2976.22 4649.22 5394.55 5094.52 4946.74 2682.24 5928.32 5229.48 5475.7 4016.18 5526.75 5435.74 4244.99 5327.45 5543.46 5560.26 6185.89 3997.96 4750.17 4439.35 3460.94 3990.25 3691.0 3758.07 4752.51 4236.14 4407.87 5733.62 5282.51 4460.92 3797.33 5945.89 4042.28 4105.55 4340.76 6566.1 6065.22 4221.28 4456.39 4896.39 3633.79 5421.53 5937.08 4607.85 6070.3 5233.29 4312.56 4612.06 5204.04 4750.58 6667.68 5235.11 6622.11 5211.38 4590.55 5920.32 4255.85 5097.69 3988.3 6543.13 5149.72 5464.25 5486.48 5301.47 4617.55 5424.88 5415.85 8659.64 5683.95 6027.62 5010.2 6123.03 5966.61 5711.11 4575.94 4938.72 3546.71 5768.57 5564.23 5950.04 5687.85 4231.83 2435.33 6401.43 5020.71 2681.29 5094.48 3872.61 4238.4 4135.62 4318.48 6132.95 5534.94 4860.33 7644.38 4051.34 6101.92 3627.55 6239.84 4635.6 4256.67 3457.48 5166.79 3931.07 3405.98 5417.15 3688.16 4681.72 4945.39 5996.33 3950.63 5415.19 4612.62 3619.07 4275.57 4467.04 6385.23 2983.99 2614.4 6363.92 6205.93 4923.24 5830.72 6184.4 3828.81 4373.45 4082.57 5255.18 5169.9 3004.16 4767.78 5235.17 4421.12 4779.5 5254.49 6649.96 4303.19 5514.84 5784.3 3914.2 4256.57 6088.68 4135.08 5620.74 4778.82 6124.08 5467.84 5053.95 5926.11 5253.37 5767.9 6515.8 5089.62 5869.4 4741.26 3701.16 4186.6 5895.77 4732.09 6136.49 4356.25 4216.95 5776.96 5742.74 4244.21 4947.24 3645.12 3875.05 6200.54 5148.58 4199.45 5469.13 4233.8 5765.42 4997.83 4893.49 5325.44 5021.88 5956.65 4498.25 4188.87 3735.24 6574.95 4074.48 4558.47 5997.88 5839.71 5576.92 6408.83 5266.22 3930.79 5226.97 3685.13 3312.06 6004.68 3361.26 6799.4 5278.36 5865.39 4427.28 6079.11 3082.32 6430.39 7440.72 3949.6 5703.6 6326.18 5661.62 6631.19 6648.68 4713.74 5626.61 5817.25 4084.49 5061.98 6632.99 4537.6 5147.36 4419.61 7177.44 4563.46 5309.98 6553.94 5460.65 5652.0 5463.41 5225.33 4929.75 4435.36 6045.22 5134.39 3532.3 5769.98 5442.32 2221.99 4643.56 3580.58 4863.01 5356.79 5657.36 3619.79 5029.47 6306.21 5266.01 2978.76 2040.66 7016.27 3876.21 3685.65 4916.22 6022.7 4940.84 5750.07 4809.67 4757.74 6045.67 4209.49 3946.28 3821.94 5439.9 5367.73 3540.11 4652.01 3456.47 5421.64 7234.66 6599.66 4055.54 4886.12 6419.12 4976.12 6098.95 5453.98 3991.42 4388.63 5102.75 4200.09 4597.29 5931.77 5151.21 6333.29 4477.04 5731.57 3886.68 5703.74 5662.55 5737.92 4360.23 5365.24 4004.35 5293.51 4763.96 5754.18 5180.76 3418.99 4480.95 4993.35 4409.63 5521.25 3661.9 5370.85 5949.46 3658.37 3178.54 4765.02 5376.71 4448.13 5070.29 4807.28 4867.08 4266.03 5280.69 4220.03 6923.84 5407.78 5449.46 6179.96 6113.54 4662.43 6260.79 3963.76 5528.53 6799.88 3062.43 5726.66 5426.78 2967.38 4159.35 6477.91 4237.98 6439.37 4614.3 5580.92 5973.33 5067.46 3583.21 2511.46 4011.37 2775.69 4785.25 6519.43 5876.64 5424.46 4857.84 4908.49 4962.21 4858.44 5884.9 4673.35 5689.26 4992.42 5297.19 4351.38 4833.46 5933.7 7248.4 5280.12 5984.81 3498.16 4409.27 4640.06 5471.74 3548.39 3673.28 4858.51 4207.54 5625.65 4301.61 6107.89 4817.16 4446.84 5660.55 5148.08 4834.87 5760.22 3672.21 5938.17 4795.43 5398.64 5097.95 6817.57 4693.52 3614.96 6853.04 4745.43 5831.96 4747.55 3056.7 3755.95 6234.32 4586.19 4446.06 3450.93 5008.63 4270.74 5132.68 6595.03 4558.15 6218.95 5222.16 5107.23 5136.08 3776.94 5558.68 4010.57 5629.39 2684.03 6157.04 4768.61 2261.36 5075.55 4522.21 5506.19 6719.94 4950.67 5227.59 6166.29 5453.6 5703.07 5294.77 4709.05 4630.82 4043.66 4813.08 5860.67 4540.86 5990.52 4835.83 5604.35 6316.56 4332.87 3091.67 6420.81 4081.97 4715.58 5401.99 4450.7 5151.52 5369.08 4347.74 4009.62 5291.9 2081.58 6505.78 5461.55 6865.76 6449.64 6464.8 4684.44 4749.59 5799.69 3468.42 3809.69 5571.72 4771.13 3208.96 7051.9 4184.23 4144.57 5550.75 6834.41 6226.14 5466.33 4444.97 3000.29 5721.05 4247.69 4514.39 4588.99 4321.21 4344.34 4928.27 3583.49 5052.84 3375.28 4366.74 5297.16 3184.64 5206.33 5530.49 5653.03 3718.69 4514.79 2216.82 4509.89 6752.75 5269.38 5607.3 5108.06 3573.73 2928.82 4222.4 4000.43 3420.08 4568.41 4912.04 4539.07 5464.68 5591.76 4585.31 6625.18 5323.91 5097.45 6293.89 2761.07 5737.75 4983.39 5366.52 4690.55 5533.72 5533.42 4802.32 3678.08 4599.38 5246.47 4187.31 6191.29 3240.51 7422.36 5161.01 4298.15 4628.4 5832.37 6051.83 4642.93 5409.63 4263.16 3973.12 3077.84 6024.75 6109.49 5567.93 5987.42 5332.65 3764.1 6451.33 5413.31 3012.99 6400.08 4743.59 5208.14 3317.83 3763.05 5092.24 5549.49 3101.75 4518.04 4766.06 4874.18 5435.19 3298.2 4270.15 5818.95 4093.99 3940.49 4406.05 4680.94 5828.35 5876.72 5236.43 5285.07 4608.41 4187.94 5980.59 3796.15 4801.8 7216.98 5271.02 4209.31 5718.28 6242.79 5950.45 5713.03 5849.65 5134.67 4165.21 4215.0 4936.96 4481.76 5452.78 5065.26 4304.41 6192.0 4940.28 5885.28 6579.31 3004.34 3022.6 4914.45 4811.76 4698.87 4661.03 3624.7 4691.91 5262.35 4475.83 2685.81 4510.8 5889.35 5010.04 4394.56 4570.98 4275.07 5825.38 4185.61 4047.87 5742.47 3778.02 6552.21 5417.8 5146.37 7132.12 4836.16 5518.57 5151.11 5463.48 5730.33 5545.46 4527.99 4376.7 5190.61 8325.01 3764.06 4440.81 5941.9 5434.47 6642.76 5829.22 4497.78 4243.79 5811.18 5433.65 4442.22 4008.15 4887.76 4669.06 4811.32 4286.49 6184.88 5829.32 4396.25 5551.95 3918.87 5423.42 2275.45 6605.86 5012.5 4383.56 3562.79 7093.13 4953.1 4516.53 4122.92 3604.14 4452.54 5089.1 2711.19 4028.32 4099.92 4884.59 3858.06 4680.14 4511.7 4083.79 5263.27 6300.92 5021.77 5599.29 6038.68 5046.12 4807.4 7013.17 3805.67 4601.74 6506.86 5088.57 5580.34 3852.6 5775.31 4706.5 4603.5 4647.67 5375.12 4356.36 4892.44 5578.94 7610.49 4286.17 3684.56 5323.55 5375.1 4172.6 5313.12 5351.56 5160.59 3984.88 4732.09 4320.42 4255.34 5064.79 5480.3 7509.24 4146.81 5896.26 5388.78 6101.13 4573.72 5099.21 4917.99 5636.4 4367.78 4350.12 5227.02 5670.0 4232.16 5300.96 4344.51 5680.94 3781.77 5581.55 5193.01 4543.1 3474.5 6550.44 3860.83 5732.27 4523.39 5278.56 5146.37 6917.62 4013.38 5631.14 4343.78 5263.3 4909.65 6523.86 7693.4 4326.48 4437.07 3449.37 5491.9 6405.0 4659.16 5789.55 4633.05 4901.2 5711.62 4990.79 4798.17 5166.79 6479.39 2895.63 4997.91 5079.22 5381.54 5810.77 4714.83 5474.15 7519.2 6355.68 4478.6 3953.55 4304.63 4469.54 4314.56 4173.54 3928.53 5606.51 5740.65 3834.47 6349.67 6329.53 4590.01 6101.86 4227.41 5993.0 4803.57 5966.42 4110.59 3332.49 5354.66 4214.44 5378.23 4787.97 3746.36 6789.23 3989.7 4777.03 4246.61 6028.09 5452.36 3804.5 6486.37 5498.42 5318.53 3344.57 5220.76 4281.98 7165.9 5344.83 7046.11 3427.63 4863.97 6342.48 5756.75 5599.7 4587.67 4163.74 6969.28 3665.95 5698.96 4095.75 3603.51 4298.45 5222.51 6609.84 5135.96 3834.43 5658.37 4707.06 6074.94 5491.37 4250.88 3783.54 6348.03 3475.67 4792.39 7038.89 3863.67 4814.12 5067.56 6137.8 2735.53 3352.35 5116.6 3747.03 2783.85 4356.49 4526.81 3994.07 4219.94 5907.46 4264.91 6740.71 5399.29 4909.31 5971.22 6522.59 6602.43 3568.28 5425.98 5996.66 4405.42 2995.67 3598.08 4599.81 5698.23 7300.58 3608.06 6633.61 5217.95 4867.7 5484.36 4277.24 4063.9 5291.05 5161.1 4619.2 5166.41 5067.56 2596.96 5701.75 4350.15 4139.3 6541.45 4750.49 5078.31 5391.48 4923.43 5131.15 4847.14 3950.27 5116.66 3566.79 5374.67 4981.43 4741.28 5069.89 4215.2 4157.29 6813.72 5327.75 4609.02 4896.65 4638.18 4196.37 6448.66 4453.97 6945.98 5138.2 5783.48 4449.98 4701.5 4504.35 4771.65 4840.44 5093.82 5951.81 3924.14 6918.35 4296.69 6238.32 3319.67 6471.42 5283.8 4076.59 4428.14 5164.1 6464.15 4479.11 4972.17 6685.4 5699.53 4222.77 6332.01 5268.38 5527.23 4805.33 7085.01 5980.95 6193.08 6069.3 5887.01 5168.35 5388.39 5335.47 3728.18 5633.61 5048.19 6799.23 4888.27 6487.56 4854.11 5533.19 5417.21 5583.61 6063.64 7382.3 4022.56 5522.21 3772.3 4855.01 4923.57 3340.09 6061.63 2279.05 4829.35 4075.28 8137.11 5484.32 6650.77 4067.96 7104.73 6162.3 3272.75 4264.54 3516.27 4263.78 4643.9 5228.75 6047.14 5009.83 5210.38 5717.8 3629.44 5003.78 3299.24 6246.56 4061.6 2603.64 5107.0 6212.15 6502.97 4783.07 4946.23 4852.58 6083.28 5211.6 3556.79 5806.31 5456.71 3503.41 7317.04 6412.67 7001.83 5012.97 5589.37 5439.49 6639.64 4834.3 6804.79 5642.35 6372.13 5369.5 5404.01 6016.19 4124.49 3230.13 5714.25 6176.67 5325.96 4850.06 5016.02 7044.29 4920.21 4234.18 4049.16 3936.95 6153.94 6836.82 3862.77 4631.99 4740.98 3185.39 5128.77 7122.87 5797.36 4243.26 4153.84 5119.86 4592.15 5089.26 5084.17 4901.44 3776.8 4998.22 5096.43 6156.21 2460.79 6104.26 4653.83 6171.71 4986.71 4668.88 5027.43 5522.75 5867.64 6208.9 6059.93 5602.53 6545.43 6760.92 4989.2 4711.04 7144.05 4506.18 4824.12 4383.47 5971.21 7043.44 4036.91 5212.43 5454.12 6348.54 4066.57 4206.98 5156.76 6357.47 6101.57 4891.38 5535.91 2949.12 5955.86 4533.37 4848.46 5412.24 2779.99 5887.38 4581.37 6942.34 5851.61 5478.11 5526.31 3858.17 5030.15 3628.89 6589.82 4438.58 5073.02 3472.91 2970.9 6542.5 6318.23 4058.87 5174.75 5932.07 4984.46 5948.71 4793.65 3856.53 4532.89 5460.89 5260.85 5742.09 2884.65 5807.46 4648.21 3658.05 4393.16 3311.29 4549.69 6423.81 6192.77 6413.15 6103.11 5048.55 6459.51 4024.31 4955.16 5844.72 3992.97 5989.05 6040.74 4054.22 7228.94 5393.65 4961.99 6551.93 4595.12 3110.13 6484.43 4625.67 3485.54 6735.97 5305.59 5416.45 4330.58 5754.6 3288.01 4904.51 4147.31 2202.77 5751.15 5950.88 4149.55 4441.22 5853.89 3380.69 4140.4 4386.8 5446.4 4725.01 5966.75 4729.42 3104.96 5244.78 3636.15 6114.89 5135.63 6384.7 4355.83 6870.97 5351.86 6056.87 5474.01 6201.86 7554.58 5166.89 3639.44 4731.21 5491.63 5725.37 3868.62 5138.33 3477.1 4811.22 5216.26 4844.83 5377.37 5652.87 5483.7 5018.69 3152.86 5952.38 3896.27 5807.52 5963.36 5230.02 5307.35 4342.18 5169.48 6016.08 6776.22 3124.7 6064.71 6102.98 4385.81 6592.93 5096.24 5769.14 3381.82 4831.93 4023.93 5494.28 4834.39 5493.89 5261.19 4918.76 4208.41 5826.78 6214.73 3758.22 4268.19 4532.7 5561.74 6100.73 4788.08 4349.13 6379.14 3687.65 5478.95 3851.85 4749.96 4019.34 4658.24 5869.67 4311.48 4899.73 5457.66 6394.19 5973.89 5366.22 6193.73 5518.11 5087.14 3742.11 5712.35 5701.52 4743.9 5321.17 3719.11 4467.13 6060.17 3877.8 6418.11 5934.82 4501.78 5415.45 6350.71 7107.63 5868.89 4099.26 5206.47 3831.52 4263.65 6106.43 6761.81 5467.63 2856.55 4553.68 5361.87 3205.68 4473.29 4908.75 6556.26 3971.08 4482.9 4593.7 6818.91 3503.65 3634.5 4869.48 3623.19 4906.11 4387.39 4564.1 4745.16 5825.55 5509.51 4848.14 3199.4 4316.5 5254.24 4192.21 3597.43 5144.56 4158.91 5311.55 3360.86 3034.16 4869.25 5545.21 4333.87 4922.49 3572.94 5001.58 6456.58 5039.12 5366.11 4824.81 7307.21 5135.5 3619.72 5615.84 5788.97 3274.85 5007.21 5545.59 4580.06 4835.97 4057.17 5262.47 7066.96 4587.7 5644.81 5666.95 4127.53 4642.2 5210.75 5175.89 3894.64 5232.85 4374.74 5975.23 6816.66 4745.79 6204.65 6550.4 5513.8 4887.52 6631.28 5350.88 6571.31 4392.65 5429.3 5510.96 6653.07 4697.91 4584.81 5071.98 5719.79 4371.08 7261.51 4968.14 4914.03 5086.29 5527.13 5139.18 4278.57 5551.43 5049.99 4201.03 4458.64 5001.87 4312.15 3657.69 4078.93 6015.02 4820.17 5244.98 3814.65 3886.72 4034.05 5798.38 6436.74 3419.87 4384.28 3908.98 5944.3 5113.6 6328.42 5640.72 4565.93 4504.52 4464.73 6440.38 4954.81 5610.53 6419.64 5464.83 5414.58 4991.35 5196.92 4807.35 5334.36 4568.64 5750.35 4489.99 6555.44 5293.75 5473.72 6358.93 2205.51 3703.49 5144.44 4757.2 5034.69 5079.64 4211.82 5470.04 6003.78 5684.25 4891.67 4882.66 4944.51 5603.68 5610.95 5532.72 3220.8 5179.17 5579.39 5270.51 5148.1 5490.75 5224.64 5949.73 4312.48 5783.94 6370.33 5081.08 6318.25 4202.77 6864.06 3644.78 5510.9 4883.63 3492.83 7039.98 6006.89 7778.01 5127.82 5690.96 5805.1 3862.91 4456.26 4027.33 4810.98 3563.14 5851.63 5556.0 5748.9 5755.15 4608.34 3926.11 5695.79 2781.96 3512.94 4467.0 4994.65 5601.55 3903.91 3919.62 4929.6 3683.86 5658.14 4508.18 7124.45 2617.39 4062.56 4198.94 3217.67 6163.54 5212.37 5438.92 3766.69 5110.11 5036.98 5188.53 4521.75 4813.33 4027.63 5569.2 5635.32 4526.34 4316.45 5409.08 5042.75 4598.92 5241.22 6647.08 4979.52 3422.29 4407.79 5214.63 3495.68 3990.96 5352.24 7362.42 5793.12 5836.14 5473.05 6008.81 4583.52 4505.28 6280.13 5244.22 5585.14 4960.64 5792.98 4983.3 5910.86 6239.68 4456.11 4234.88 5782.43 4708.31 5026.76 5091.22 6282.38 5657.55 5727.79 5212.92 5188.82 5043.14 3742.31 3663.0 6304.49 4420.6 3622.8 4431.23 4258.98 6545.99 4368.28 4945.0 4548.45 4658.11 5730.61 5114.07 7142.95 5064.67 6618.21 3717.47 4504.86 6200.63 5969.37 4928.35 1937.5 4509.46 3844.54 3538.53 996.652 6500.49 5965.58 5058.51 4244.49 4050.03 4120.07 3840.21 3429.57 6746.66 5410.33 5420.67 5661.6 4827.61 5285.75 5481.64 5673.75 5360.67 5968.54 6263.3 4501.05 4537.03 6548.29 4114.2 4326.06 5034.46 5757.29 5469.17 5061.75 4373.2 3769.24 6711.21 4971.29 5832.29 2606.51 4438.76 5372.82 5401.4 5053.15 4775.49 5124.17 5749.6 7320.78 4834.44 3873.92 4092.07 5347.9 4717.73 4928.85 5072.5 4749.18 4546.96 4316.0 5134.72 4475.38 5287.25 5917.34 5740.98 5630.9 4728.55 4554.68 4551.26 4559.74 4383.68 6666.67 4583.94 5046.31 4337.32 4680.69 2628.22 3352.34 4901.29 4952.52 3242.31 6099.28 5372.25 5385.03 4169.15 3234.26 4778.37 3494.16 5134.17 4074.16 4904.35 5592.54 3247.97 5124.34 4904.37 4358.81 4651.64 5729.92 5016.46 4179.87 6224.13 4761.84 3661.67 3743.76 5153.18 3425.69 5510.45 3864.92 3994.39 6119.99 4159.81 4446.58 4402.17 4681.29 3845.9 4174.44 6331.74 4198.9 4213.05 4224.3 5235.87 3904.07 6502.99 5424.55 4921.1 4770.51 6511.37 3787.08 4462.87 4218.16 6139.64 4140.92 4474.83 4585.04 6570.35 4242.63 7407.91 6063.44 4051.18 5849.53 4420.11 5863.0 6127.39 4802.98 4833.55 7224.99 3908.56 5265.63 4898.29 4431.06 5730.2 4830.13 5370.9 4529.77 4325.13 6172.27 5390.33 3783.79 5078.73 5278.54 5729.0 5192.92 5275.57 4786.66 5891.25 5370.1 5393.76 3684.15 4730.14 5906.57 7541.76 4990.23 3784.94 5499.59 5667.51 5431.29 4833.67 5325.91 5157.38 6203.03 4700.07 5273.37 4732.37 5713.36 5553.94 4704.92 4287.25 4392.75 3814.16 4191.01 4589.06 5577.41 4216.44 3999.5 4012.92 4346.07 4933.49 4692.32 5236.24 3127.83 3269.54 5836.26 6015.22 6449.06 4651.99 5640.12 4972.18 5329.76 4124.76 7200.89 5684.88 6523.78 4645.86 4045.67 5620.88 4941.52 5900.0 4262.74 6241.77 4248.14 5317.19 5279.19 4016.6 5821.49 7050.08 5580.44 5998.13 5902.67 5454.11 4236.86 6010.59 7123.04 4128.1 4618.73 4932.29 4506.66 4439.71 4141.21 4064.58 4646.51 952.938 4546.44 4184.21 6089.45 4985.3 3987.69 4666.12 6219.34 4920.88 4013.86 4177.47 4770.63 5678.58 4385.49 6102.49 5114.23 6061.85 5512.44 4826.52 2904.46 5241.75 4731.53 3763.9 4577.73 4288.45 4147.49 5419.57 5760.98 4954.76 4642.74 5384.86 5764.52 3770.22 4390.64 5150.84 4608.01 5087.97 6005.95 4308.49 4519.03 4930.17 4581.1 4085.96 4745.44 5762.82 7360.12 6223.98 5462.6 5617.29 3035.06 4262.19 4597.88 5095.52 4763.4 4941.02 5806.61 3682.35 2955.36 3965.3 6110.48 3220.29 4125.9 5426.4 5951.86 5023.41 3791.41 5853.12 5702.4 5473.89 5265.21 4657.24 4966.07 4400.14 5340.05 2918.64 5345.73 4639.8 4212.15 4263.18 5495.0 4454.74 5120.92 4685.4 4081.34 3402.44 4848.98 5184.98 4491.96 4467.51 5339.82 5460.57 5110.27 5703.34 4612.68 6668.98 6649.52 4232.33 4939.56 4747.68 5770.92 3093.38 4845.91 4878.93 2002.78 4461.67 5784.37 3142.09 5182.13 5515.73 6715.73 4564.41 5247.01 4841.7 4678.7 5810.17 3450.07 4271.07 5674.63 5759.79 4489.29 4301.93 4924.07 3200.6 4918.64 6206.98 6638.25 4775.04 5162.67 4636.53 3646.95 5537.61 6084.88 4199.44 4397.06 4053.12 4479.5 6261.67 3435.13 5065.78 4431.46 4521.42 3207.84 3977.98 6043.34 4128.93 4959.72 4712.17 3808.04 4723.71 5003.3 3756.96 3954.77 6793.1 6016.87 5077.29 5209.55 6740.35 4550.92 3306.84 3484.81 5308.33 6023.07 6710.14 4598.54 5218.42 4512.07 4896.43 4462.35 3986.41 6240.42 5146.0 4788.7 5078.59 4607.18 2403.72 3228.27 4721.98 5252.82 3543.98 4142.1 5056.26 5878.55 4014.44 6604.72 6002.77 3794.47 4610.55 4967.02 4614.49 5400.69 4462.5 2807.46 5573.31 5004.68 4023.88 4405.61 5348.11 5428.24 6273.6 3668.93 4009.24 5800.81 6245.52 3125.13 6506.63 5995.4 5188.22 4841.23 4196.62 5984.8 3469.18 6347.72 3956.24 6334.53 7558.99 3393.59 5043.14 5333.04 5445.91 4521.99 4812.59 6842.54 7115.67 5675.45 3361.11 5329.84 6038.56 5599.16 4179.8 3488.34 5658.35 5684.05 4708.17 3779.45 5167.53 5166.05 7035.54 5866.91 5763.05 4208.37 6019.35 6075.99 5191.26 4184.47 3825.48 2804.54 3372.95 5819.0 3460.93 5124.86 5117.64 5580.95 3549.92 6598.99 4032.06 5246.81 5089.1 5888.95 5394.78 3463.34 5122.38 2853.68 5262.85 4998.37 6559.82 3879.83 5342.9 6565.95 4577.98 5043.34 5886.81 5136.87 2741.2 7145.73 6405.69 5357.39 4252.18 6296.54 5797.21 3669.32 4762.1 5700.79 4629.02 4927.73 4705.68 5469.35 4313.38 5827.3 5250.56 2468.16 3633.58 6294.14 4339.97 5203.75 5169.09 3906.41 4691.15 2459.88 4512.6 5470.67 4210.24 5901.71 5225.11 5252.22 5733.12 4962.35 6436.29 7350.26 4556.19 4168.52 5233.76 4659.88 5685.74 3495.3 4140.04 5890.25 5766.05 2832.83 6036.99 4084.87 3010.1 3825.98 4589.22 5087.03 4667.84 5584.64 4123.08 4260.38 4636.45 4932.27 5638.51 6793.49 3563.33 6060.19 5536.0 6786.37 5790.42 5591.77 5106.46 6562.92 3612.44 4474.96 4758.76 4790.63 5259.29 4088.72 3584.05 3945.62 4916.75 4818.53 5097.85 6189.04 6224.64 4221.03 3799.55 4576.71 5082.66 4550.77 4337.93 3550.88 4345.51 4048.73 6223.33 5813.79 4644.88 4068.31 3671.06 4850.5 4683.28 4658.59 5532.75 6949.65 4608.62 5407.96 4987.28 5367.05 4449.73 5647.11 3743.85 6236.46 5342.17 6379.3 5015.67 3795.63 5189.4 6538.04 4894.15 6157.59 5201.3 5848.41 4090.28 4932.56 5024.32 4176.32 3185.09 3587.93 5064.23 5721.14 5084.5 4071.75 6562.03 4246.83 4493.79 4279.44 2945.34 5676.61 6006.16 3565.32 5638.7 3667.93 3487.31 5399.43 3835.81 5710.33 4096.86 5695.44 4668.8 5322.11 4697.49 5735.08 4726.2 5034.05 4816.51 4711.15 4474.39 3810.68 6478.35 3990.94 4756.8 5477.8 5463.06 6069.78 5260.52 4241.68 4975.85 4095.83 5323.95 5846.95 5716.42 5268.15 5701.63 4603.04 4620.95 4870.94 5368.93 4488.39 6121.56 5914.5 4602.57 3419.07 3622.48 4796.12 5344.44 6432.8 4626.72 5131.77 5549.71 4815.47 4759.99 3899.7 5134.33 5214.4 2646.13 3629.49 5034.34 3769.2 3422.21 3916.42 5537.34 5884.99 5192.49 4899.19 6643.4 5058.34 4028.22 5575.11 4983.1 5293.13 4507.36 6224.85 6406.8 5403.97 4795.08 5648.78 6875.73 5501.73 6081.3 4697.24 4983.43 5117.52 6311.89 6549.8 2820.07 5129.68 4825.73 5076.84 4165.36 5288.33 4871.77 5811.26 5062.77 4884.93 5069.9 6028.63 3673.6 4494.15 5146.1 6215.87 6485.77 6060.06 5866.42 5544.27 5393.43 6896.55 4685.65 5377.01 6470.23 5939.22 4271.93 4215.05 3626.86 5125.17 4604.1 6371.96 4859.01 5076.11 5524.45 7133.44 4426.02 5600.21 3953.26 4750.81 4282.11 5467.51 5459.92 2347.41 4625.53 5453.77 4096.47 4357.11 5114.67 2809.19 5005.6 4916.7 5486.89 5589.53 7208.19 4549.51 5025.42 5196.08 4517.29 6379.38 5695.25 6257.79 4495.75 4849.5 6171.01 6229.83 5796.26 4468.26 4523.81 5578.18 5106.33 5791.25 5293.37 5198.94 5271.88 4028.35 5933.54 5559.79 7168.2 2980.31 3763.85 3148.79 4571.74 5740.78 5997.91 5001.51 4332.64 4742.82 5385.86 5115.42 3186.07 4082.4 4209.0 4410.82 4369.86 4967.51 4368.12 5173.82 6443.99 4365.58 3889.98 5193.58 3720.7 5490.64 5378.24 5698.53 3604.31 4507.46 4450.49 5036.14 3468.45 6022.78 4087.32 6647.85 5726.42 2569.12 4674.9 7025.09 3392.26 4433.12 3918.94 2549.95 5461.72 4361.24 5487.63 3768.46 3852.82 5138.93 5099.9 6945.69 5118.86 7086.69 5368.66 4304.64 6170.9 5833.78 4436.48 5226.42 5758.98 5615.35 3967.76 5288.64 6213.24 6734.39 4217.36 5679.74 5942.45 4150.76 4851.18 4228.53 6123.46 5005.72 5368.52 6142.88 5155.28 5111.26 5388.73 5205.38 4949.55 4764.83 1969.87 3132.34 4600.71 3957.38 4841.28 5262.79 5927.2 5035.71 6889.5 4710.88 4419.79 5300.17 5407.69 3869.39 5152.78 5960.5 5534.23 4117.9 4753.76 6025.77 4781.9 4638.09 6815.96 4441.91 5330.26 5339.6 5828.25 5917.08 4725.11 5483.37 5418.12 5322.07 5934.05 5770.07 4714.66 5990.75 5101.6 4984.17 4656.01 5781.62 6589.13 4037.86 5602.62 2030.03 3543.37 4542.16 5714.51 5628.97 4104.04 5353.66 2638.82 5030.33 5593.79 5104.39 5234.2 4612.13 4965.24 5846.6 5327.05 5438.55 5353.23 4434.65 6688.53 5977.66 5209.5 5065.74 4873.23 6731.89 5464.05 4733.41 5879.24 5410.6 5453.2 6348.93 5136.51 3901.53 6824.53 6815.51 5232.16 4422.23 6791.86 3989.26 6031.22 4820.68 4930.72 5482.76 5728.58 3745.02 7212.97 6297.99 4211.36 5918.95 3856.73 4538.89 5817.74 5887.71 5517.65 4009.68 5114.51 3303.49 4622.73 4655.37 4161.32 5256.75 5161.74 7336.37 5932.28 6599.28 5560.23 2960.5 5783.38 4975.32 3043.77 4298.7 3902.48 5237.55 4183.4 3909.94 6030.39 4733.79 4905.53 3799.01 4823.06 7392.65 5254.49 5319.1 3757.23 6828.8 6883.86 5987.88 3579.59 6161.94 4065.28 5057.59 4461.14 5285.6 5575.11 4574.54 5615.06 5490.54 5203.54 4047.95 5507.38 6142.94 4416.87 5001.69 6581.56 4052.43 4057.4 3980.46 4896.67 5383.9 3934.11 5158.44 3886.56 4466.22 4496.51 5715.51 6153.71 6561.94 5259.21 5092.93 4256.08 2803.01 5881.93 4444.0 6771.18 6182.19 5327.39 5910.66 7415.84 4981.81 4138.59 4970.55 4938.33 4484.78 4621.33 5527.27 5157.73 5847.91 4934.66 4984.01 4109.44 4903.84 4290.49 4557.1 4605.39 5927.1 6270.59 6175.27 5876.51 4103.76 4907.55 4286.61 4094.63 2932.52 5264.83 4603.66 4757.87 4969.68 6636.43 5431.14 6298.8 5313.86 4457.05 5178.07 5189.91 3618.64 5777.26 4171.02 5485.84 6424.77 4887.73 4335.79 5453.69 5797.32 5432.04 5689.56 6556.86 3921.27 5129.4 4746.15 3720.38 4758.84 5585.25 4731.37 5023.61 3976.0 6351.89 4672.86 6530.78 5059.37 4742.35 5394.79 4139.39 5645.54 6264.03 5088.64 4526.87 6589.8 4151.74 6920.92 4174.22 3729.16 3783.36 3573.84 3038.91 4181.93 3922.28 6570.43 3350.99 3820.19 3445.92 5236.69 4979.5 5524.28 4586.82 3133.28 4745.37 5939.29 6026.04 6200.05 5418.98 5859.17 4034.41 4052.49 5061.74 5522.34 5326.03 6189.67 4420.35 5717.45 4948.96 5256.82 4013.86 4061.87 4645.93 5165.31 5448.64 3798.09 4585.37 4288.5 6417.61 3721.69 4511.05 3456.3 6074.39 5317.83 6738.9 4399.52 4460.89 4554.24 4157.1 3939.96 8052.53 4867.12 6044.01 6520.19 4637.3 5141.03 1458.87 5734.07 4840.44 8123.59 3997.68 4819.83 5765.14 4801.16 4767.54 4541.22 4946.08 3539.68 5121.08 4696.03 6217.33 6177.68 4698.7 2848.44 6229.64 6045.26 4220.43 6500.45 5743.8 5084.76 6666.34 6605.11 4645.91 6834.92 3557.46 6379.33 5971.95 5652.73 3689.24 3979.46 6321.97 5151.19 6412.84 6509.54 5703.84 7012.36 3530.82 5128.59 5028.06 4002.99 4886.99 5159.67 5587.3 3161.1 3572.73 4864.38 3702.45 6275.25 6892.33 4505.3 4491.26 4452.36 4511.34 4068.41 6463.71 5009.21 4574.03 4379.91 5290.37 5850.38 5264.08 3562.8 4227.66 4730.97 4691.01 4594.89 5192.82 5245.95 5821.42 4067.89 4515.02 6294.09 4924.52 4571.57 5131.07 4121.07 2970.24 4197.87 5658.05 5105.54 5731.43 6353.81 3414.67 3518.14 5444.36 4150.44 5044.68 5771.98 2649.69 5899.78 5000.74 5117.83 5772.57 5268.27 4813.81 3882.37 4095.4 5244.95 4634.25 5901.8 6351.48 5395.12 5783.69 3830.7 6210.0 5432.4 3483.61 5350.9 4262.52 7430.48 5992.06 5545.68 6080.69 4970.12 4967.93 6369.66 5973.57 5922.62 6241.48 6033.28 5957.82 6286.27 5071.38 3717.22 6327.54 5616.66 2927.84 5688.77 4802.36 2943.17 5368.28 5466.13 5257.38 6263.87 5075.23 4975.56 7282.36 3826.01 4829.77 5581.01 3928.99 6959.88 4125.75 5749.53 5130.57 5090.48 5402.45 5582.28 3985.93 5945.25 6071.59 2589.19 6119.0 3856.4 3792.06 6079.55 5485.61 4993.49 4937.36 4293.3 5308.4 5310.33 6583.37 3688.83 5631.32 6126.5 6322.0 5793.14 6345.2 4609.65 5488.96 5704.61 4832.21 3720.92 5128.03 5410.73 5087.3 4942.63 6139.74 6637.38 4975.57 7066.26 3057.3 6150.31 3677.85 5214.71 4677.84 4811.11 3463.53 5379.52 6126.03 5314.67 6044.69 5563.47 5651.46 6593.1 4066.36 4000.51 5462.1 6032.45 5011.37 2827.92 4026.03 6908.32 3467.11 4817.75 6153.26 4848.15 5637.53 4439.09 5523.81 5648.59 4718.61 5188.57 3873.79 5717.67 5357.33 4432.32 5515.59 5252.37 3224.81 4499.54 5037.58 6457.89 5640.67 6572.17 3751.73 5555.89 4766.47 4871.1 5678.08 3917.09 6009.93 5872.45 4414.09 5270.1 5125.45 3784.68 4188.16 4947.64 6305.9 6649.21 5507.07 4654.92 5327.71 4880.78 4322.56 5509.09 5625.02 3873.72 5212.05 4592.49 5479.86 6474.5 4444.92 4702.32 4763.04 5971.9 3746.62 5247.73 4876.37 4532.67 5034.02 4769.62 5260.13 4649.5 5181.31 5985.75 4696.06 4137.16 6189.29 5984.55 6581.13 4569.32 4034.88 5108.84 3511.5 6007.1 5067.92 5357.14 3188.21 4850.95 5919.27 4793.06 6271.22 3421.81 6188.33 3920.64 6111.23 6916.18 5786.06 5873.62 3868.69 4137.41 4996.91 3920.44 4450.51 6033.72 4866.8 3768.62 3851.47 4966.74 2329.93 4959.94 1635.31 5639.4 3162.27 6033.93 6185.73 4083.24 5516.37 5092.44 4441.44 5432.2 4232.44 4612.4 5336.61 3312.3 5563.09 6381.58 3282.57 5212.2 4798.13 4611.21 5108.42 6697.45 4630.5 6296.36 3354.94 5237.27 4451.76 7885.41 3775.38 4046.22 5782.25 4104.97 4844.2 4575.72 5114.61 6118.13 3374.62 4926.62 4420.3 6332.64 4202.12 6492.44 4613.32 4083.1 3482.73 5191.29 5130.56 4957.99 4063.26 5345.05 4997.89 4542.62 3470.69 4859.95 5286.55 4132.08 5522.18 5223.1 4699.77 4850.49 4981.55 5144.23 3625.98 6188.62 6153.07 4414.06 5908.57 5944.52 4413.56 5050.2 5316.05 2513.38 4821.41 4908.32 4924.53 3995.08 4499.52 5019.84 3874.12 4810.74 3900.93 5784.38 5475.83 4149.17 4329.8 5728.27 5672.46 5803.3 4582.12 4487.51 4295.25 4520.14 5354.48 7394.47 4729.45 6261.13 5374.09 4167.55 4720.34 5244.47 5378.75 4731.16 5510.89 6186.24 5822.7 3780.07 4159.89 5466.49 5178.55 5447.74 4038.17 5007.41 4907.48 3692.99 6213.74 4488.41 4369.87 6938.87 5412.07 5512.57 4806.99 6520.96 3771.91 5856.43 5217.62 6178.19 4746.19 4616.81 5349.85 5715.25 5172.1 4362.94 4469.82 6545.78 4870.14 4404.87 5105.72 5767.65 4750.76 5003.49 4907.03 5497.27 4081.77 5617.91 4948.21 2181.29 4987.01 4706.31 2694.25 6265.48 4735.99 4203.68 4739.56 5145.39 3818.37 3996.93 3352.46 6351.95 5195.09 5200.1 7679.2 5093.28 4881.51 6131.52 4311.92 2626.41 6009.88 6729.99 5093.41 6842.35 5464.34 3621.63 4777.96 5801.89 6833.5 7296.47 5742.39 4780.16 3834.01 5616.11 4433.23 4813.24 4028.13 5759.19 4457.73 6476.35 3113.64 4304.75 6260.58 4067.24 3053.19 5202.33 3074.49 4246.24 6805.02 4919.13 5640.63 4900.26 5783.88 5002.38 6705.93 4865.11 5449.09 5502.14 6470.87 4495.33 5282.67 4131.08 5747.9 3864.19 4287.93 5146.69 6203.24 6818.23 5081.65 6679.12 5652.19 5806.74 3878.8 6578.62 4813.55 3465.03 4796.04 3839.0 5229.56 6011.4 5799.86 4672.34 6052.22 5376.41 5410.33 5533.52 5003.63 2932.2 4695.7 4380.86 4944.08 4082.01 5269.39 3964.03 4216.33 5832.72 3903.9 4444.95 4721.2 5161.02 3943.77 3124.49 5242.38 6081.35 5003.81 6262.18 5566.5 4701.03 5663.36 6225.05 5434.04 5125.53 3997.52 4444.54 5403.81 5779.9 4909.74 5310.33 6664.54 3922.98 5161.73 5259.48 4008.67 5254.93 4803.4 6608.94 2613.78 3796.73 5417.07 5656.84 5738.37 6789.66 4739.41 5312.2 5847.27 4490.2 4706.59 5734.84 5480.86 6139.9 3982.31 4950.07 6571.26 5402.81 4328.76 4600.81 5561.63 4124.33 5168.97 4358.06 5093.51 5647.93 4280.92 6201.49 4696.92 5154.74 4605.61 4465.56 6898.8 5386.95 6540.57 5332.11 5315.71 6004.72 6158.93 4823.14 5438.5 4489.18 4621.32 5699.4 5237.76 4698.94 4286.84 6284.12 3948.21 5669.15 5296.05 3330.85 5263.86 6988.4 5056.32 4060.17 4747.24 6051.35 5302.53 4909.13 5576.16 4305.35 5648.02 3308.75 5210.22 2451.27 5677.42 2701.42 4929.35 5606.22 6673.92 5151.68 4884.94 5459.52 4609.98 4738.72 4752.31 5240.97 4276.59 5579.04 5405.6 5994.21 4884.93 5082.25 4759.38 6964.78 4374.05 5299.03 5036.84 4565.36 5813.68 4025.08 5040.9 3618.53 5596.68 4770.21 4868.66 8013.28 3846.55 5159.9 5283.65 4644.68 3082.16 2892.36 5981.54 5911.29 5416.41 4694.27 6760.64 2515.5 5177.88 5551.79 6981.47 4720.22 4582.24 4333.23 5145.13 3747.96 5611.29 5940.5 6568.45 5004.22 4601.54 7263.57 3832.09 5705.96 6437.99 5739.69 6632.04 7360.62 4893.72 4985.45 4072.4 4983.56 5373.78 5699.51 4714.52 5345.65 2489.44 5499.37 5863.36 4632.75 4752.94 4994.98 3950.53 6423.96 6058.13 5894.69 4384.91 6550.61 4987.01 6635.51 6094.34 6779.82 5543.67 3999.81 4287.61 4867.13 4604.34 4439.17 4502.12 3255.93 5442.79 5051.39 6327.61 4633.59 5733.59 5362.15 4455.61 3695.72 6874.6 5106.9 5569.85 5523.96 3929.35 4223.53 4733.37 6960.97 3037.72 4287.15 4523.9 5282.51 5504.65 5669.41 5732.11 3760.4 3919.47 4951.02 4602.7 3783.35 4037.16 4004.39 6395.63 4987.48 5943.61 4248.58 5479.17 5020.37 4542.25 4414.23 5233.88 4849.21 4785.55 3793.83 5245.4 3916.15 6189.81 3860.8 5438.6 7370.52 4726.5 5467.05 4521.88 3724.23 5103.3 4963.88 5888.94 4727.98 4122.2 5175.88 5267.65 4516.26 4790.16 3509.34 3647.26 5360.88 3166.37 4977.64 5369.42 5207.08 5205.53 4587.19 5543.05 4883.13 6028.89 4836.76 5551.09 5755.98 5392.85 4501.1 5581.47 5077.2 4274.05 5275.27 4277.54 4713.56 5529.09 4531.46 5925.82 5448.68 4739.5 6210.48 6377.45 4863.27 4182.05 6853.07 5575.8 5268.93 5306.31 4535.94 5126.08 5604.0 3731.58 5333.16 4888.17 4072.95 4491.62 3865.5 
SCALARS Velocity float 1
LOOKUP_TABLE default
1.19178 1.19178 1.19178 1.19178 1.19178 1.19179 1.19178 1.19178 1.19178 1.19178 1.19178 1.19178 1.19178 1.19178 1.19178 1.19178 1.19178 1.19178 1.19178 1.19178 1.19178 1.19178 1.19178 1.19178 1.19178 1.19178 1.19178 1.19178 1.19178 1.19178 1.19178 1.19178 1.19178 1.19178 1.19178 1.19178 1.19178 1.19178 1.19178 1.19178 1.19178 1.19178 1.19178 1.19178 1.19178 1.19178 1.19178 1.19178 1.19178 1.19178 1.19178 1.19178 1.19178 1.19179 1.19179 1.19179 1.19179 1.19178 1.19178 1.19179 1.19179 1.19179 1.19178 1.19178 1.19178 1.19179 1.19179 1.19178 1.19178 1.19178 1.19178 1.19179 1.1918 1.19178 1.19178 1.19178 1.19178 1.19178 1.19178 1.1918 1.19179 1.19178 1.19178 1.19179 1.19178 1.19179 1.19178 1.19178 1.19178 1.19178 1.19178 1.19178 1.19178 1.19178 1.19178 1.19178 1.19178 1.19178 1.19178 1.19178 1.19178 1.19178 1.19178 1.19178 1.19178 1.19178 1.19178 1.19178 1.19178 1.19178 1.19178 1.19178 1.19178 1.19178 1.19178 1.19178 1.19178 1.19178 1.19178 1.19178 1.19178 1.19178 1.19178 1.19178 1.19178 1.19178 1.19178 1.19178 1.19178 1.19178 1.19178 1.19178 1.19178 1.19178 1.19178 1.19178 1.19178 1.19178 1.19179 1.19179 1.19178 1.19178 1.19178 1.19178 1.19178 1.19178 1.19178 1.19178 1.19179 1.19179 1.19178 1.19178 1.19178 1.19178 1.19178 1.19178 1.19178 1.19177 1.19179 1.19179 1.19178 1.19178 1.19179 1.1918 1.19179 1.19179 1.19179 1.19178 1.19178 1.19179 1.19178 1.19179 1.19179 1.19177 1.19178 1.19179 1.19179 1.19178 1.19178 1.19178 1.19178 1.19179 1.19178 1.19178 1.19178 1.19178 1.19178 1.19179 1.19179 1.19178 1.19179 1.19179 1.19179 1.19179 1.19178 1.19178 1.19178 1.19178 1.19178 1.19179 1.19178 1.19178 1.19178 1.19178 1.19178 1.19178 1.19178 1.19178 1.19178 1.19178 1.19178 1.19178 1.19178 1.19178 1.19178 1.19178 1.19178 1.19178 1.19178 1.19178 1.19178 1.19178 1.19178 1.19178 1.19178 1.19178 1.19178 1.19178 1.19178 1.19178 1.19178 1.19178 1.19178 1.19178 1.19178 1.19178 1.19178 1.19179 1.1918 1.19178 1.19178 1.19179 1.19178 1.19179 1.19178 1.19178 1.19179 1.19178 1.19178 1.1918 1.19178 1.19179 1.19178 1.19178 1.19178 1.1918 1.19179 1.19179 1.19179 1.19178 1.19178 1.19179 1.19179 1.19178 1.19178 1.19179 1.19181 1.19178 1.19177 1.19179 1.19177 1.19177 1.19178 1.1918 1.19178 1.19178 1.1918 1.19178 1.19178 1.19178 1.19178 1.19178 1.19178 1.19179 1.19179 1.19179 1.19179 1.19179 1.19178 1.19178 1.19178 1.19178 1.19178 1.19178 1.19179 1.19178 1.19178 1.19178 1.19178 1.19178 1.19178 1.19177 1.19178 1.19178 1.19178 1.19178 1.19178 1.19178 1.19178 1.19178 1.19178 1.19178 1.19178 1.19178 1.19178 1.19179 1.19178 1.19178 1.19178 1.19178 1.19178 1.19178 1.19178 1.19178 1.19178 1.19178 1.19178 1.19178 1.19178 1.19178 1.19178 1.19178 1.19178 1.19179 1.19179 1.1918 1.19178 1.19178 1.19178 1.19178 1.19178 1.19178 1.19178 1.19178 1.19178 1.1918 1.19178 1.1918 1.19178 1.19179 1.19179 1.19178 1.19179 1.19178 1.19178 1.1918 1.19179 1.19179 1.19179 1.19179 1.1918 1.19179 1.19179 1.1918 1.19179 1.19178 1.19178 1.19178 1.19179 1.19181 1.19178 1.19178 1.19181 1.19178 1.1918 1.19181 1.19178 1.1918 1.19178 1.19177 1.19178 1.19179 1.19179 1.19178 1.19178 1.19179 1.19179 1.19179 1.19179 1.19178 1.19178 1.19178 1.19179 1.19178 1.19178 1.19178 1.19178 1.19178 1.19178 1.19178 1.19178 1.19178 1.19178 1.19178 1.19178 1.19178 1.19179 1.19178 1.19178 1.19178 1.19178 1.19178 1.19178 1.19178 1.19178 1.19178 1.19178 1.19178 1.19178 1.19178 1.19178 1.19178 1.19178 1.19178 1.19178 1.19177 1.19177 1.19178 1.19177 1.19179 1.19178 1.19177 1.19178 1.19178 1.19178 1.19178 1.19179 1.19179 1.19178 1.19178 1.19178 1.19178 1.19178 1.19178 1.19178 1.19177 1.19179 1.1918 1.1918 1.19178 1.19178 1.19177 1.19179 1.19178 1.19178 1.1918 1.19178 1.19178 1.1918 1.19179 1.19177 1.19179 1.19179 1.19179 1.19178 1.19181 1.1918 1.19179 1.1918 1.19178 1.19179 1.19177 1.19178 1.19179 1.19179 1.19179 1.1918 1.19178 1.19178 1.19179 1.19178 1.19178 1.19179 1.19178 1.19178 1.19179 1.19179 1.19178 1.19178 1.19179 1.19179 1.19178 1.19177 1.19178 1.19178 1.19179 1.19178 1.19179 1.19178 1.19178 1.19178 1.19178 1.19178 1.19178 1.19178 1.19178 1.19177 1.19179 1.19178 1.19178 1.19178 1.19178 1.19178 1.19178 1.19178 1.19178 1.19178 1.19178 1.19178 1.19178 1.19178 1.19178 1.19178 1.19178 1.19178 1.19178 1.19178 1.19178 1.19178 1.19178 1.19178 1.19179 1.19179 1.1918 1.19178 1.19178 1.19178 1.19178 1.19178 1.19178 1.19177 1.19179 1.1918 1.19178 1.1918 1.19178 1.19177 1.19178 1.19179 1.19178 1.19179 1.19177 1.19178 1.1918 1.1918 1.1918 1.1918 1.19177 1.19179 1.19179 1.19179 1.19179 1.19181 1.19181 1.1918 1.19177 1.1918 1.19178 1.19179 1.19177 1.19178 1.19178 1.19178 1.19177 1.1918 1.19179 1.19178 1.19179 1.19178 1.19178 1.19179 1.19179 1.19179 1.19178 1.19179 1.19178 1.19176 1.19176 1.19178 1.19178 1.19177 1.19178 1.19178 1.19178 1.19178 1.19178 1.19178 1.19178 1.19178 1.19178 1.19178 1.19178 1.19178 1.19178 1.19178 1.19178 1.19177 1.19178 1.19178 1.19178 1.19178 1.19178 1.19178 1.19178 1.19178 1.19178 1.19177 1.19177 1.19178 1.19178 1.19178 1.19178 1.19179 1.19178 1.19179 1.1918 1.19179 1.19179 1.1918 1.1918 1.19178 1.19178 1.19178 1.19177 1.19177 1.19177 1.19178 1.19178 1.19184 1.19177 1.19178 1.19178 1.19179 1.19179 1.19179 1.19178 1.19177 1.19179 1.1918 1.19178 1.19179 1.19179 1.19179 1.19182 1.19181 1.19181 1.19181 1.19179 1.19177 1.1918 1.19178 1.19179 1.19177 1.19179 1.19179 1.1918 1.19178 1.19178 1.19179 1.19178 1.19179 1.19176 1.19176 1.19178 1.19178 1.19178 1.19177 1.19178 1.19178 1.19177 1.19178 1.19179 1.19178 1.19179 1.19178 1.19178 1.19178 1.19178 1.19178 1.19178 1.19177 1.19178 1.19178 1.19178 1.19178 1.19178 1.19178 1.19178 1.19177 1.19178 1.19178 1.19178 1.19178 1.19178 1.19178 1.19178 1.19178 1.19178 1.19178 1.19178 1.19178 1.19179 1.19177 1.19179 1.19178 1.19178 1.19178 1.19177 1.19177 1.19178 1.19179 1.19177 1.19178 1.19179 1.19179 1.19179 1.19178 1.1918 1.19178 1.19182 1.19176 1.1918 1.19178 1.19177 1.19178 1.19179 1.19179 1.19178 1.19177 1.1918 1.19179 1.19177 1.19177 1.19179 1.19179 1.19178 1.19178 1.1918 1.1918 1.19179 1.19179 1.19179 1.19179 1.19181 1.19179 1.19178 1.19176 1.1918 1.19179 1.19178 1.19179 1.19178 1.19178 1.1918 1.19178 1.1918 1.19178 1.19178 1.19178 1.19178 1.19178 1.19178 1.19178 1.19178 1.19177 1.19178 1.19178 1.19178 1.19178 1.19178 1.19177 1.19177 1.19178 1.19177 1.19178 1.19177 1.19179 1.19179 1.19178 1.19178 1.19178 1.19177 1.19178 1.19178 1.19178 1.19178 1.19178 1.19177 1.19178 1.19177 1.19178 1.19178 1.19178 1.19178 1.19178 1.19178 1.19178 1.19178 1.19178 1.19179 1.19178 1.19177 1.19177 1.19178 1.19178 1.19178 1.19177 1.19178 1.19179 1.19178 1.19178 1.19179 1.19178 1.19179 1.19179 1.19179 1.1918 1.19177 1.19181 1.19179 1.19177 1.19179 1.19176 1.19179 1.19178 1.19176 1.19178 1.1918 1.1918 1.19178 1.19179 1.19178 1.19178 1.19177 1.19179 1.19178 1.19178 1.19179 1.19179 1.19178 1.19178 1.19178 1.19178 1.19179 1.19181 1.1918 1.19179 1.19178 1.1918 1.19179 1.19178 1.19178 1.19179 1.19179 1.19179 1.19176 1.19176 1.19178 1.1918 1.1918 1.1918 1.19179 1.19178 1.19176 1.19177 1.19178 1.19177 1.19177 1.19178 1.19177 1.19176 1.19177 1.19179 1.19178 1.19177 1.19178 1.19178 1.19178 1.19177 1.19178 1.19178 1.19177 1.19178 1.19178 1.19178 1.19178 1.19177 1.19178 1.19177 1.19177 1.19178 1.19178 1.19178 1.19178 1.19178 1.19177 1.19177 1.19177 1.19178 1.19178 1.19178 1.19178 1.19178 1.19178 1.19178 1.19178 1.19178 1.19178 1.19178 1.19178 1.19178 1.19178 1.19178 1.19179 1.19177 1.19176 1.19179 1.19179 1.19178 1.19178 1.19178 1.19179 1.19179 1.19179 1.1918 1.19178 1.19179 1.19179 1.1918 1.19179 1.19178 1.1918 1.19177 1.19176 1.19177 1.19179 1.19179 1.19179 1.19178 1.19176 1.19174 1.19179 1.19179 1.19178 1.19178 1.19179 1.19178 1.19178 1.19179 1.19178 1.19178 1.19178 1.19178 1.19178 1.19179 1.19179 1.19176 1.19178 1.19179 1.19179 1.19178 1.1918 1.19179 1.19176 1.19176 1.19178 1.19179 1.19177 1.19177 1.19178 1.19181 1.19178 1.19177 1.19177 1.19177 1.19177 1.19177 1.19179 1.1918 1.19178 1.19178 1.19178 1.19178 1.19177 1.19178 1.19177 1.19178 1.19178 1.19178 1.19178 1.19177 1.19178 1.19178 1.19178 1.19177 1.19178 1.19178 1.19178 1.19178 1.19178 1.19177 1.19178 1.19177 1.19178 1.19178 1.19178 1.19177 1.19177 1.19178 1.19178 1.19178 1.19178 1.19178 1.19178 1.19178 1.19178 1.19178 1.19178 1.19177 1.19179 1.19176 1.19179 1.19179 1.19178 1.19178 1.1918 1.19179 1.19179 1.19181 1.19179 1.19179 1.19179 1.19179 1.19179 1.19179 1.19178 1.19175 1.1918 1.19176 1.19175 1.19176 1.19178 1.19177 1.19179 1.19177 1.19177 1.19177 1.19178 1.19178 1.1918 1.19178 1.19176 1.19173 1.19178 1.19176 1.19179 1.19178 1.19178 1.19178 1.19178 1.19179 1.19177 1.19177 1.19178 1.19181 1.19176 1.19179 1.19176 1.19178 1.19179 1.1917 1.1918 1.19181 1.19179 1.19177 1.19177 1.19177 1.19177 1.19177 1.19177 1.19179 1.1918 1.19178 1.19177 1.19177 1.19177 1.19177 1.19178 1.19177 1.19178 1.19178 1.19178 1.19178 1.19177 1.19178 1.19178 1.19178 1.19177 1.19177 1.19178 1.19178 1.19178 1.19178 1.19177 1.19177 1.19178 1.19178 1.19178 1.19178 1.19178 1.19178 1.19177 1.19177 1.19178 1.19178 1.19178 1.19177 1.19177 1.19178 1.19178 1.19178 1.19178 1.19177 1.1918 1.19177 1.19179 1.19179 1.19178 1.19178 1.1918 1.19179 1.19181 1.19179 1.19179 1.19179 1.19179 1.19178 1.19178 1.1918 1.19175 1.19178 1.19177 1.19178 1.19178 1.19178 1.19178 1.1918 1.19176 1.19178 1.19178 1.19178 1.19178 1.19178 1.19177 1.19177 1.19177 1.19177 1.19178 1.19178 1.19178 1.19178 1.19178 1.19174 1.19178 1.19177 1.19178 1.19177 1.19176 1.19174 1.19176 1.19179 1.19172 1.19173 1.19179 1.19179 1.19182 1.19177 1.19179 1.19177 1.19178 1.19178 1.19178 1.19177 1.19178 1.19178 1.19177 1.19177 1.19177 1.19178 1.19177 1.19178 1.19179 1.19178 1.19177 1.19178 1.19177 1.19178 1.19177 1.19177 1.19177 1.19178 1.19178 1.19178 1.19178 1.19178 1.19178 1.19178 1.19178 1.19178 1.19178 1.19177 1.19177 1.19178 1.19178 1.19177 1.19179 1.19179 1.19177 1.19181 1.19179 1.19179 1.19178 1.19178 1.19178 1.1918 1.19181 1.19178 1.19181 1.19177 1.19179 1.1918 1.19179 1.19178 1.19176 1.19178 1.19179 1.19179 1.19178 1.19177 1.19179 1.19181 1.19178 1.19178 1.19178 1.19177 1.19177 1.19178 1.19178 1.19176 1.19177 1.19178 1.19178 1.19177 1.19177 1.19177 1.19178 1.19178 1.19175 1.19178 1.19177 1.19173 1.19178 1.19177 1.19176 1.19175 1.19177 1.19179 1.19172 1.19173 1.19179 1.19178 1.1918 1.19177 1.19179 1.19177 1.19178 1.19178 1.19177 1.19177 1.19175 1.19177 1.19177 1.19178 1.19177 1.19177 1.19178 1.19177 1.19178 1.19177 1.19177 1.19179 1.19177 1.19178 1.19177 1.19177 1.19177 1.19178 1.19178 1.19177 1.19177 1.19178 1.19178 1.19177 1.19177 1.19177 1.19178 1.19178 1.19178 1.19178 1.19178 1.19178 1.19178 1.19177 1.19178 1.19178 1.19178 1.19177 1.19178 1.19176 1.19177 1.19178 1.19179 1.19179 1.19176 1.19179 1.19178 1.1918 1.19179 1.19178 1.19179 1.19179 1.19179 1.1918 1.19178 1.1918 1.19177 1.19179 1.1918 1.19183 1.1918 1.19175 1.19175 1.19179 1.19177 1.19179 1.19178 1.19179 1.19181 1.19177 1.19176 1.19178 1.19177 1.19177 1.19176 1.19177 1.19177 1.19177 1.19177 1.19178 1.19176 1.19176 1.19175 1.19178 1.19177 1.19177 1.19174 1.19179 1.19179 1.19172 1.19173 1.19179 1.19177 1.19179 1.19179 1.19178 1.19177 1.19178 1.19178 1.19178 1.19178 1.19178 1.19175 1.19176 1.19177 1.19177 1.19178 1.19177 1.19178 1.19178 1.19177 1.19177 1.19177 1.19178 1.19177 1.19177 1.19177 1.19178 1.19178 1.19178 1.19178 1.19177 1.19177 1.19177 1.19177 1.19177 1.19178 1.19178 1.19177 1.19178 1.19178 1.19178 1.19178 1.19177 1.19177 1.19177 1.19177 1.19178 1.19175 1.19179 1.1918 1.19178 1.19176 1.19178 1.19178 1.1918 1.19179 1.19179 1.1918 1.19179 1.19179 1.19178 1.19178 1.19177 1.19179 1.19177 1.19179 1.19177 1.19179 1.19183 1.1918 1.19175 1.19175 1.19179 1.19177 1.19179 1.19179 1.19174 1.19176 1.19177 1.19177 1.19181 1.19178 1.19178 1.19176 1.19176 1.19177 1.19177 1.19178 1.19177 1.19177 1.19178 1.19177 1.19177 1.19177 1.19176 1.19176 1.19177 1.19178 1.19177 1.19175 1.19177 1.19178 1.19178 1.19176 1.19177 1.19177 1.19177 1.19179 1.19178 1.19177 1.19178 1.19178 1.19178 1.19176 1.19176 1.19177 1.19177 1.19178 1.19178 1.19177 1.19178 1.19177 1.19178 1.19178 1.19177 1.19177 1.19178 1.19178 1.19177 1.19178 1.19177 1.19177 1.19178 1.19178 1.19178 1.19177 1.19178 1.19178 1.19178 1.19177 1.19177 1.19178 1.19178 1.19178 1.19178 1.19178 1.19178 1.19177 1.1918 1.19178 1.19177 1.19177 1.19178 1.1918 1.19178 1.19178 1.19177 1.19177 1.1918 1.1918 1.19179 1.1918 1.19179 1.19178 1.19177 1.19177 1.19178 1.19179 1.19177 1.19179 1.19181 1.19175 1.1918 1.1918 1.1918 1.19178 1.19178 1.19174 1.19177 1.19178 1.19177 1.19179 1.19176 1.19176 1.19177 1.19176 1.19176 1.19177 1.19177 1.19177 1.19176 1.19177 1.19176 1.19179 1.19176 1.19177 1.19178 1.19177 1.19176 1.19175 1.19178 1.19177 1.19177 1.19178 1.19176 1.19178 1.19176 1.19176 1.19179 1.19176 1.19177 1.19177 1.19178 1.19178 1.19178 1.19177 1.19178 1.19175 1.19176 1.19177 1.19178 1.19177 1.19178 1.19177 1.19178 1.19178 1.19178 1.19177 1.19178 1.19177 1.19178 1.19178 1.19178 1.19178 1.19177 1.19178 1.19177 1.19177 1.19177 1.19178 1.19179 1.19178 1.19178 1.19178 1.19178 1.19178 1.19178 1.19179 1.19178 1.19178 1.19179 1.19179 1.19178 1.19177 1.19178 1.1918 1.19179 1.19179 1.19179 1.19177 1.19177 1.19176 1.19179 1.19178 1.19177 1.19179 1.1918 1.19178 1.1918 1.1918 1.19177 1.19176 1.19176 1.19177 1.19177 1.19178 1.19178 1.19177 1.19173 1.19177 1.19177 1.19178 1.19177 1.19177 1.19177 1.19176 1.19177 1.19176 1.19179 1.19176 1.19176 1.19178 1.19178 1.19177 1.19176 1.19175 1.19176 1.19178 1.19176 1.19178 1.19176 1.19176 1.19179 1.19176 1.19176 1.19177 1.19177 1.19178 1.19177 1.19178 1.19177 1.19177 1.19176 1.19176 1.19176 1.19176 1.19176 1.19176 1.19177 1.19177 1.19178 1.19177 1.19178 1.19178 1.19178 1.19177 1.19178 1.19177 1.19177 1.19177 1.19177 1.19178 1.19178 1.19177 1.19177 1.19177 1.19177 1.19177 1.19177 1.19179 1.19178 1.19178 1.19177 1.19178 1.19178 1.19178 1.19174 1.19179 1.19181 1.19177 1.19178 1.19179 1.19179 1.19178 1.19178 1.19181 1.19176 1.1918 1.19179 1.19179 1.19179 1.19178 1.19179 1.1918 1.19178 1.19177 1.19179 1.1918 1.19178 1.19177 1.19178 1.19179 1.1918 1.19177 1.19178 1.19176 1.1918 1.19177 1.19176 1.19177 1.19175 1.19177 1.19178 1.19178 1.19178 1.19178 1.19177 1.19176 1.19176 1.19177 1.19176 1.19178 1.19177 1.19177 1.19176 1.19176 1.19175 1.19176 1.19178 1.19176 1.19177 1.19176 1.19176 1.19179 1.19177 1.19177 1.19178 1.19177 1.19178 1.19178 1.19177 1.19176 1.19177 1.19176 1.19176 1.19176 1.19178 1.19177 1.19177 1.19178 1.19177 1.19178 1.19177 1.19178 1.19177 1.19177 1.19177 1.19177 1.19177 1.19177 1.19177 1.19177 1.19178 1.19178 1.19178 1.19177 1.19177 1.19177 1.19177 1.19179 1.19178 1.19178 1.19177 1.19177 1.19178 1.19178 1.19178 1.19178 1.19177 1.19179 1.19181 1.19179 1.19179 1.19178 1.19177 1.19181 1.19176 1.19178 1.1918 1.19179 1.19177 1.19179 1.19178 1.19179 1.19179 1.19178 1.19177 1.19177 1.19179 1.1918 1.19178 1.19177 1.19177 1.19179 1.19179 1.19177 1.19175 1.19177 1.1918 1.19178 1.19178 1.19178 1.19175 1.19175 1.19177 1.19175 1.19178 1.19179 1.19177 1.19178 1.19178 1.19177 1.19176 1.19178 1.19176 1.19178 1.19176 1.19177 1.19176 1.19177 1.19177 1.19175 1.19175 1.19178 1.19177 1.19177 1.19177 1.19176 1.19177 1.19176 1.19177 1.19177 1.19177 1.19177 1.19178 1.19178 1.19178 1.19178 1.19177 1.19178 1.19178 1.19176 1.19176 1.19176 1.19178 1.19176 1.19177 1.19178 1.19178 1.19177 1.19178 1.19178 1.19178 1.19177 1.19177 1.19177 1.19177 1.19177 1.19177 1.19177 1.19178 1.19177 1.19178 1.19178 1.19178 1.19177 1.19177 1.19178 1.19179 1.19178 1.19177 1.19178 1.19177 1.19178 1.19178 1.19178 1.19178 1.19181 1.19179 1.19177 1.19179 1.19178 1.19178 1.19181 1.19179 1.19177 1.19179 1.19177 1.19178 1.19177 1.19178 1.19179 1.19178 1.19177 1.19179 1.19177 1.19176 1.1918 1.19178 1.19177 1.19177 1.19179 1.19176 1.19176 1.19175 1.19178 1.19177 1.19178 1.19178 1.19176 1.19177 1.19175 1.19178 1.19177 1.19178 1.19178 1.19178 1.19177 1.19177 1.19176 1.19179 1.19176 1.19176 1.19177 1.19177 1.19176 1.19176 1.19175 1.19177 1.19177 1.19177 1.19177 1.19178 1.19176 1.19177 1.19177 1.19177 1.19178 1.19177 1.19177 1.19178 1.19178 1.19176 1.19177 1.19177 1.19176 1.19177 1.19178 1.19177 1.19178 1.19178 1.19178 1.19177 1.19177 1.19178 1.19178 1.19178 1.19178 1.19177 1.19178 1.19178 1.19178 1.19178 1.19177 1.19177 1.19178 1.19178 1.19178 1.19178 1.19177 1.19177 1.19177 1.19177 1.19178 1.19178 1.19178 1.19178 1.19177 1.19179 1.19178 1.19179 1.19181 1.1918 1.19177 1.19177 1.1918 1.19178 1.19178 1.19176 1.19177 1.19178 1.19178 1.19179 1.19177 1.19176 1.1918 1.19178 1.19177 1.19175 1.19176 1.19176 1.19176 1.19176 1.19175 1.19177 1.19179 1.19178 1.19178 1.19176 1.19176 1.19177 1.19175 1.19177 1.19178 1.19177 1.19177 1.19177 1.19176 1.19176 1.19176 1.19178 1.19177 1.19176 1.19178 1.19179 1.19177 1.19178 1.19178 1.19176 1.19176 1.19179 1.19177 1.19177 1.19176 1.19177 1.19176 1.19176 1.19177 1.19177 1.19178 1.19178 1.19177 1.19177 1.19178 1.19178 1.19178 1.19177 1.19177 1.19176 1.19177 1.19178 1.19177 1.19178 1.19178 1.19177 1.19177 1.19178 1.19178 1.19177 1.19178 1.19178 1.19178 1.19177 1.19178 1.19177 1.19178 1.19178 1.19178 1.19178 1.19177 1.19178 1.19177 1.19177 1.19176 1.19178 1.19178 1.19178 1.19178 1.19177 1.19177 1.19178 1.19178 1.19179 1.19179 1.1918 1.19178 1.19177 1.19174 1.19177 1.19177 1.19178 1.19181 1.19177 1.19178 1.19178 1.19179 1.19177 1.19175 1.1918 1.19179 1.19176 1.19175 1.19176 1.19176 1.19178 1.19178 1.19179 1.19177 1.19178 1.19176 1.19176 1.19178 1.19177 1.19177 1.19178 1.19175 1.19177 1.19177 1.19176 1.19177 1.19177 1.19177 1.19176 1.19177 1.19179 1.19178 1.19178 1.19178 1.19177 1.19177 1.19177 1.19177 1.19178 1.19178 1.19178 1.19176 1.19176 1.19176 1.19177 1.19178 1.19178 1.19178 1.19178 1.19178 1.19178 1.19178 1.19177 1.19178 1.19176 1.19177 1.19178 1.19178 1.19178 1.19178 1.19178 1.19177 1.19178 1.19178 1.19177 1.19178 1.19178 1.19178 1.19178 1.19177 1.19178 1.19178 1.19178 1.19177 1.19178 1.19177 1.19178 1.19177 1.19176 1.19177 1.19177 1.19178 1.19177 1.19178 1.19177 1.19177 1.19178 1.19178 1.19178 1.19179 1.19179 1.19177 1.19177 1.19175 1.19176 1.19182 1.19174 1.19176 1.19177 1.19178 1.19178 1.19176 1.19175 1.19176 1.19178 1.19178 1.19178 1.19176 1.19177 1.19178 1.19175 1.19177 1.19176 1.19177 1.19179 1.19178 1.19176 1.19176 1.19178 1.19177 1.19178 1.19177 1.19178 1.19178 1.19178 1.19177 1.19178 1.19177 1.19177 1.19177 1.19176 1.19177 1.19177 1.19178 1.19177 1.19178 1.19177 1.19178 1.19177 1.19177 1.19177 1.19177 1.19176 1.19177 1.19176 1.19177 1.19177 1.19178 1.19178 1.19178 1.19178 1.19178 1.19178 1.19178 1.19178 1.19178 1.19177 1.19178 1.19178 1.19178 1.19178 1.19178 1.19177 1.19178 1.19178 1.19178 1.19178 1.19178 1.19177 1.19178 1.19177 1.19178 1.19178 1.19177 1.19177 1.19177 1.19177 1.19176 1.19177 1.19177 1.19176 1.19177 1.19175 1.19177 1.19178 1.19177 1.19177 1.19177 1.19177 1.19176 1.19179 1.19178 1.19178 1.19178 1.19175 1.19176 1.19177 1.19174 1.19177 1.19175 1.19178 1.19177 1.19176 1.19174 1.19175 1.19177 1.19176 1.19177 1.19176 1.19175 1.19177 1.19177 1.19177 1.19177 1.19177 1.19176 1.19178 1.19178 1.19178 1.19178 1.19177 1.19178 1.19177 1.19178 1.19177 1.19177 1.19177 1.19177 1.19178 1.19178 1.19178 1.19177 1.19177 1.19177 1.19176 1.19177 1.19177 1.19176 1.19177 1.19178 1.19178 1.19178 1.19178 1.19178 1.19178 1.19178 1.19178 1.19178 1.19177 1.19178 1.19178 1.19178 1.19178 1.19178 1.19177 1.19178 1.19178 1.19178 1.19178 1.19178 1.19178 1.19177 1.19178 1.19177 1.19178 1.19177 1.19177 1.19178 1.19176 1.19177 1.19177 1.19176 1.19177 1.19176 1.19176 1.19176 1.19177 1.19178 1.19179 1.19178 1.19176 1.19176 1.19175 1.19176 1.19177 1.19173 1.19176 1.19177 1.19177 1.19176 1.19176 1.19175 1.19175 1.19173 1.19174 1.19175 1.19179 1.19174 1.19176 1.19177 1.19178 1.19178 1.19177 1.19176 1.19176 1.19177 1.19176 1.19177 1.19177 1.19176 1.19177 1.19178 1.19178 1.19177 1.19178 1.19177 1.19177 1.19178 1.19178 1.19177 1.19176 1.19176 1.19177 1.19177 1.19177 1.19177 1.19177 1.19177 1.19178 1.19176 1.19177 1.19177 1.19178 1.19177 1.19175 1.19176 1.19176 1.19176 1.19175 1.19176 1.19177 1.19178 1.19179 1.19177 1.19178 1.19175 1.19177 1.19177 1.19177 1.19178 1.19174 1.19176 1.19176 1.19177 1.19175 1.19176 1.19176 1.19178 1.19177 1.19177 1.19178 1.19177 1.19177 1.19176 1.19176 1.19178 1.19175 1.19177 1.19176 1.19178 1.19177 1.19177 1.19178 1.19177 1.19178 1.19177 1.19176 1.19177 1.19176 1.19176 1.19177 1.19177 1.19175 1.19175 1.19175 1.19177 1.19178 1.19177 1.19177 1.19177 1.19178 1.19176 1.19177 1.19178 1.19178 1.19177 1.19178 1.19176 1.19177 1.19176 1.19176 1.19176 1.19178 1.19174 1.19177 1.19177 1.19178 1.19177 1.19177 1.19176 1.19176 1.19177 1.19177 1.19178 1.19178 1.19177 1.19177 1.19178 1.19175 1.19176 1.19178 1.19177 1.19175 1.19174 1.19175 1.19177 1.19178 1.19178 1.19177 1.19176 1.19177 1.19176 1.19177 1.19177 1.19178 1.19178 1.19176 1.19177 1.19175 1.19176 1.19177 1.19176 1.19176 1.19175 1.19174 1.19176 1.19179 1.19178 1.19178 1.19178 1.19178 1.19177 1.19176 1.19177 1.19176 1.19177 1.19176 1.19178 1.19178 1.19176 1.19178 1.19177 1.19177 1.19176 1.19179 1.19176 1.19174 1.19177 1.19178 1.19178 1.19178 1.19178 1.19178 1.19178 1.19178 1.19178 1.19178 1.19178 1.19178 1.19178 1.19178 1.19178 1.19178 1.19178 1.19178 1.19178 1.19178 1.19178 1.19178 1.19178 1.19178 1.19178 1.19178 1.19178 1.19178 1.19177 1.19177 1.19177 1.19176 1.19178 1.19177 1.19176 1.19176 1.19178 1.19179 1.19175 1.19178 1.19177 1.19177 1.19178 1.19176 1.19178 1.19179 1.19177 1.19178 1.19178 1.19178 1.19178 1.19178 1.19178 1.19178 1.19178 1.19178 1.19178 1.19178 1.19178 1.19178 1.19178 1.19178 1.19178 1.19178 1.19178 1.19178 1.19178 1.19178 1.19178 1.19178 1.19178 1.19178 1.19178 1.19178 1.19178 1.19178 1.19178 1.19177 1.19176 1.19177 1.19178 1.19177 1.19178 1.19176 1.19176 1.1918 1.19177 1.19176 1.19176 1.19178 1.19177 1.19176 1.19177 1.19178 1.19178 1.19178 1.19177 1.19178 1.19177 1.19178 1.19178 1.19178 1.19178 1.19178 1.19178 1.19178 1.19178 1.19178 1.19178 1.19178 1.19178 1.19178 1.19178 1.19178 1.19178 1.19178 1.19178 1.19178 1.19178 1.19178 1.19178 1.19178 1.19178 1.19178 1.19178 1.19178 1.19178 1.19178 1.19178 1.19178 1.19178 1.19178 1.19178 1.19178 1.19178 1.19178 1.19178 1.19178 1.19177 1.19179 1.19177 1.19176 1.19176 1.19177 1.19175 1.19176 1.19177 1.19177 1.19176 1.19175 1.19177 1.19176 1.19176 1.19177 1.19177 1.19178 1.19177 1.19178 1.19178 1.19178 1.19178 1.19178 1.19178 1.19178 1.19178 1.19178 1.19178 1.19178 1.19178 1.19178 1.19178 1.19178 1.19178 1.19178 1.19178 1.19178 1.19178 1.19178 1.19178 1.19178 1.19178 1.19178 1.19178 1.19178 1.19178 1.19178 1.19178 1.19178 1.19178 1.19178 1.19178 1.19178 1.19178 1.19178 1.19178 1.19178 1.19178 1.19178 1.19178 1.19178 1.19178 1.19178 1.19178 1.19178 1.19178 1.19178 1.19178 1.19178 1.19178 1.19178 1.19178 1.19177 1.19177 1.19176 1.19177 1.19175 1.19176 1.19177 1.19177 1.19176 1.19174 1.19174 1.19176 1.19176 1.19177 1.19178 1.19178 1.19176 1.19177 1.19177 1.19178 1.19178 1.19178 1.19178 1.19178 1.19178 1.19178 1.19178 1.19178 1.19178 1.19178 1.19178 1.19178 1.19178 1.19178 1.19178 1.19178 1.19178 1.19178 1.19178 1.19178 1.19178 1.19178 1.19178 1.19178 1.19178 1.19178 1.19178 1.19178 1.19178 1.19178 1.19178 1.19178 1.19178 1.19178 1.19178 1.19178 1.19178 1.19178 1.19178 1.19178 1.19178 1.19178 1.19178 1.19178 1.19178 1.19178 1.19178 1.19177 1.19176 1.19177 1.19177 1.19177 1.19178 1.19176 1.19177 1.19176 1.19176 1.19176 1.19174 1.19178 1.19176 1.19177 1.19177 1.19176 1.19178 1.19179 1.19177 1.19177 1.19178 1.19178 1.19178 1.19178 1.19178 1.19178 1.19178 1.19178 1.19178 1.19178 1.19178 1.19178 1.19178 1.19178 1.19178 1.19178 1.19178 1.19178 1.19178 1.19178 1.19178 1.19178 1.19178 1.19178 1.19178 1.19178 1.19178 1.19178 1.19178 1.19178 1.19178 1.19178 1.19178 1.19178 1.19178 1.19178 1.19178 1.19178 1.19178 1.19178 1.19178 1.19178 1.19178 1.19178 1.19178 1.19178 1.19178 1.19178 1.19178 1.19178 1.19178 1.19178 1.19178 1.19178 1.19178 1.19178 1.19178 1.19177 1.19179 1.19177 1.19178 1.19177 1.19177 1.19177 1.19178 1.19177 1.19176 1.19177 1.19178 1.19174 1.19177 1.19177 1.19178 1.19177 1.19177 1.19177 1.19177 1.19177 1.19178 1.19178 1.19178 1.19178 1.19178 1.19178 1.19178 1.19178 1.19178 1.19178 1.19178 1.19178 1.19178 1.19178 1.19178 1.19178 1.19178 1.19178 1.19178 1.19178 1.19178 1.19178 1.19178 1.19178 1.19178 1.19178 1.19178 1.19178 1.19178 1.19178 1.19178 1.19178 1.19178 1.19178 1.19178 1.19178 1.19178 1.19178 1.19178 1.19178 1.19178 1.19178 1.19178 1.19178 1.19177 1.19176 1.19178 1.19177 1.19177 1.19178 1.19176 1.19177 1.19178 1.19177 1.19178 1.19177 1.19178 1.19176 1.19176 1.19176 1.19176 1.19178 1.19176 1.19177 1.19177 1.19178 1.19178 1.19177 1.19178 1.19178 1.19178 1.19178 1.19178 1.19178 1.19178 1.19178 1.19178 1.19178 1.19178 1.19178 1.19178 1.19178 1.19178 1.19178 1.19178 1.19178 1.19178 1.19178 1.19178 1.19178 1.19178 1.19178 1.19178 1.19178 1.19178 1.19178 1.19178 1.19178 1.19178 1.19178 1.19178 1.19178 1.19178 1.19178 1.19178 1.19178 1.19178 1.19178 1.19178 1.19178 1.19177 1.19177 1.19178 1.19176 1.19177 1.19177 1.19177 1.19177 1.19177 1.19177 1.19177 1.19178 1.19176 1.19176 1.19178 1.19178 1.19177 1.19178 1.19178 1.19178 1.19178 1.19178 1.19178 1.19178 1.19178 1.19178 1.19178 1.19178 1.19178 1.19178 1.19178 1.19178 1.19178 1.19178 1.19178 1.19178 1.19178 1.19178 1.19178 1.19178 1.19178 1.19178 1.19178 1.19178 1.19178 1.19178 1.19178 1.19178 1.19178 1.19178 1.19178 1.19178 1.19178 1.19178 1.19178 1.19178 1.19178 1.19178 1.19178 1.19178 1.19178 1.19178 1.19177 1.19177 1.19179 1.19178 1.19176 1.19178 1.19178 1.19177 1.19177 1.19177 1.19178 1.19177 1.19178 1.19176 1.19178 1.19177 1.19178 1.19178 1.19178 1.19178 1.19178 1.19178 1.19178 1.19178 1.19178 1.19178 1.19178 1.19178 1.19178 1.19178 1.19178 1.19178 1.19178 1.19178 1.19178 1.19178 1.19178 1.19178 1.19178 1.19178 1.19178 1.19178 1.19178 1.19178 1.19178 1.19178 1.19178 1.19178 1.19178 1.19178 1.19178 1.19178 1.19178 1.19178 1.19178 1.19178 1.19178 1.19178 1.19178 1.19178 1.19178 1.19177 1.19178 1.19177 1.19178 1.19177 1.19177 1.19178 1.19178 1.19178 1.19177 1.19177 1.19177 1.19177 1.19177 1.19177 1.19178 1.19177 1.19176 1.19178 1.19177 1.19178 1.19178 1.19178 1.19178 1.19178 1.19178 1.19178 1.19178 1.19178 1.19178 1.19178 1.19178 1.19178 1.19178 1.19178 1.19178 1.19178 1.19178 1.19178 1.19178 1.19178 1.19178 1.19178 1.19178 1.19178 1.19178 1.19178 1.19178 1.19178 1.19178 1.19178 1.19178 1.19178 1.19178 1.19177 1.19177 1.19178 1.19178 1.19177 1.19177 1.19177 1.19178 1.19177 1.19178 1.19177 1.19178 1.19177 1.19177 1.19178 1.19177 1.19177 1.19178 1.19178 1.19178 1.19178 1.19178 1.19178 1.19178 1.19178 1.19178 1.19178 1.19178 1.19178 1.19178 1.19178 1.19178 1.19178 1.19178 1.19178 1.19178 1.19178 1.19178 1.19178 1.19178 1.19178 1.19178 1.19178 1.19178 1.19178 1.19178 1.19177 1.19177 1.19177 1.19177 1.19178 1.19177 1.19177 1.19177 1.19178 1.19177 1.19178 1.19177 1.19177 1.19177 1.19177 1.19178 1.19177 1.19177 1.19178 1.19178 1.19178 1.19178 1.19178 1.19178 1.19178 1.19178 1.19178 1.19178 1.19178 1.19178 1.19178 1.19178 1.19178 1.19178 1.19178 1.19178 1.19178 1.19178 1.19178 1.19178 1.19178 1.19178 1.19178 1.19178 1.19178 1.19178 1.19177 1.19177 1.19177 1.19177 1.19178 1.19177 1.19177 1.19177 1.19177 1.19177 1.19177 1.19177 1.19177 1.19177 1.19177 1.19177 1.19178 1.19178 1.19177 1.19178 1.19177 1.19178 1.19178 1.19178 1.19178 1.19178 1.19178 1.19178 1.19178 1.19178 1.19178 1.19178 1.19178 1.19178 1.19178 1.19178 1.19178 1.19177 1.19177 1.19177 1.19178 1.19177 1.19177 1.19177 1.19177 1.19177 1.19177 1.19178 1.19178 1.19177 1.19178 1.19178 1.19178 1.19178 1.19177 1.19178 1.19178 1.19178 1.19178 1.19178 1.19178 1.19178 1.19178 1.19178 1.19178 1.19178 1.19178 1.19178 1.19178 1.19178 1.19178 1.19178 1.19178 1.19178 1.19178 1.19177 1.19178 1.19177 1.19178 1.19178 1.19177 1.19177 1.19177 1.19177 1.19177 1.19178 1.19178 1.19177 1.19178 1.19177 1.19177 1.19178 1.19178 1.19178 1.19178 1.19178 1.19178 1.19178 1.19178 1.19178 1.19178 1.19178 1.19178 1.19178 1.19178 1.19178 1.19178 1.19178 1.19178 1.19177 1.19177 1.19178 1.19178 1.19178 1.19178 1.19177 1.19178 1.19177 1.19178 1.19177 1.19178 1.19177 1.19178 1.19178 1.19177 1.19178 1.19177 1.19178 1.19178 1.19178 1.19178 1.19178 1.19178 1.19178 1.19178 1.19178 1.19178 1.19178 1.19178 1.19178 1.19178 1.19178 1.19178 1.19178 1.19178 1.19178 1.19177 1.19178 1.19178 1.19177 1.19178 1.19178 1.19177 1.19178 1.19178 1.19178 1.19177 1.19177 1.19178 1.19178 1.19178 1.19178 1.19178 1.19178 1.19178 1.19178 1.19178 1.19178 1.19178 1.19178 1.19178 1.19178 1.19177 1.19178 1.19177 1.19178 1.19178 1.19178 1.19178 1.19178 1.19178 1.19178 1.19178 1.19178 1.19177 1.19178 1.19178 1.19178 1.19178 1.19178 1.19178 1.19178 1.19178 1.19178 1.19178 1.19178 1.19178 1.19178 1.19178 1.19178 1.19178 1.19178 1.19177 1.19178 1.19177 1.19178 1.19178 1.19178 1.19178 1.19178 1.19178 1.19178 1.19178 1.19178 1.19178 1.19178 1.19178 1.19178 1.19178 1.19178 1.19178 1.19178 1.19178 1.19178 1.19178 1.19178 1.19178 1.19178 1.19178 1.19178 1.19178 1.19178 1.19178 1.19178 1.19178 1.19178 1.19178 1.19178 1.19178 2.68365e-05 0.000132498 0.000216533 0.000304162 0.000293758 0.000304714 0.000333503 0.000335795 0.00037507 0.000405809 0.000336478 0.000222891 0.000240316 0.000304751 0.000360124 0.000333722 0.000304307 0.000257854 0.000240645 0.000259437 0.0002571 0.000202511 0.00020859 0.000206867 0.000217908 0.000254919 0.000271859 0.000297001 0.000314611 0.000304009 0.000388416 0.000404747 0.00068229 0.000474108 0.000449496 0.00026098 0.000407093 0.000163734 0.000139892 9.44014e-05 0.000222228 0.000205847 0.000243666 0.000267812 0.000282038 0.000256296 0.000272495 0.000417315 0.000422954 0.000290724 6.41352e-05 0.00015509 1.05357e-05 2.02395e-05 0.000141379 0.000232349 0.000336564 0.000468247 0.000540342 0.000523458 0.000468704 0.000452627 0.000532823 0.000553553 0.000468543 0.000418579 0.000309633 0.00031486 0.000478529 0.000500577 0.000666359 0.000559114 0.00099826 0.00119113 0.00138867 0.00169014 0.0017625 0.00166579 0.00159993 0.00133975 0.000847026 0.00111219 0.00115238 0.00110481 0.000480233 0.00116654 0.00114056 0.00104302 0.000706248 0.00175914 0.000586733 0.00111234 0.00117488 0.00118032 0.00121493 0.00139472 0.00129727 0.00144408 0.00190639 0.00171129 0.00111522 0.000492341 0.0001245 2.18114e-05 4.63036e-05 0.000157707 0.000239427 0.000160481 0.000228399 0.000100247 0.000160877 0.000159646 0.00020674 0.0001023 7.90474e-05 0.000191743 0.000108475 0.000176043 0.000210086 0.000127588 0.000206711 0.000336147 0.000191053 0.000289041 0.000303181 0.000291339 0.000245302 0.000249693 0.000229676 0.000220234 0.000282033 0.000286744 0.000232209 0.00026114 0.000204814 0.000221478 0.000191979 0.000228289 0.000184865 0.00024991 0.000216298 0.000182524 0.000196018 0.000185101 0.000230664 0.00014753 0.00018613 0.000124663 0.000131611 0.000108431 9.70354e-05 7.95472e-05 0.000182578 0.000188492 0.000227453 0.000223439 0.000380732 0.000308555 0.000174601 0.000216715 9.877e-05 0.000181275 0.00012908 0.000277083 8.50795e-05 0.000103827 0.000186936 0.000155663 0.000204963 0.000170316 0.000215944 0.00013248 0.000250997 3.70435e-05 0.000164152 0.000249711 9.18753e-05 0.00023127 0.000325091 0.00010256 0.000193356 0.000167524 8.04587e-05 0.000394941 0.000140667 0.000380784 0.000231871 2.18311e-05 7.6604e-05 0.000102329 0.000146195 6.7196e-05 0.000185836 0.000202421 0.000284626 0.000233855 0.000340383 0.000320755 0.000431618 0.000285748 0.000507739 0.000489161 0.000583706 0.000363242 0.000405644 0.000480153 0.000478496 0.000443461 0.000413375 0.000552006 0.000550917 0.000581361 0.000515164 0.000720709 0.000939541 0.00104421 0.00120684 0.000845478 0.000827072 0.00070201 0.000753766 0.000973038 0.000945001 0.0012241 0.00118828 0.00128228 0.00138095 0.000848163 0.00182698 0.000468979 0.00169597 0.000505547 0.00241181 0.00243501 0.000344577 0.00304989 0.00253216 0.00360823 0.0026783 0.00166963 0.00338464 0.000956447 0.00172876 0.000299444 0.00188097 0.00148046 0.0012731 0.00239689 0.00140528 0.00225541 0.000721154 0.00152709 0.0010028 0.000923547 0.00110882 0.000331786 0.000919178 0.00140658 0.00149031 0.000174737 0.00075107 0.0015924 0.00177405 0.00301952 0.000240892 6.21715e-05 9.1451e-05 0.000209885 0.000143056 0.000103169 0.000172465 6.07957e-05 6.32989e-05 9.90462e-05 9.9076e-05 5.06225e-05 0.000101769 7.08563e-05 0.000122694 0.000162149 0.000221349 0.000142289 0.000159455 0.000194062 0.000189261 0.000158275 0.000213325 0.000150274 0.000177573 0.00014916 0.000127226 0.000172096 0.000174972 0.000181371 0.000195025 0.000188841 0.000185555 0.000182565 0.000178344 0.000222508 0.000191669 0.000118718 0.000107405 0.000196475 0.000180761 0.000155054 0.000137319 0.000118759 0.00031663 0.000115264 0.000223381 0.000272408 0.00022036 0.00025448 0.000196065 0.00025433 0.000163851 0.00024085 0.00026353 0.000226226 0.000156754 0.000185043 0.000191477 0.000248772 0.000109495 0.000120892 0.00011517 5.06202e-05 0.000225343 0.000139218 0.000257577 0.000105565 4.62537e-05 6.28713e-05 3.49622e-05 2.71989e-05 3.8739e-05 4.45641e-05 0.000115724 0.000152689 0.00021674 0.000190779 0.000296141 0.000288622 0.000362388 0.000372117 0.000385798 0.000425266 0.000473591 0.000456637 0.000474879 0.000459522 0.000572213 0.000500244 0.000574011 0.000582091 0.00077662 0.000715398 0.000587327 0.000723246 0.000832275 0.000776971 0.00071188 0.000558127 0.000659705 0.000638322 0.000492629 0.00111505 0.00117054 0.00111 0.00130799 0.00133924 0.000936265 0.000325126 0.000869472 0.00113147 0.00115754 0.00285295 0.00159224 0.00139387 0.00249136 0.000627624 0.000895439 0.00142559 0.00164919 0.00168094 0.00141613 0.00201878 0.00158391 0.000942454 0.00142213 0.00150743 0.00124655 0.00104313 0.00150141 0.000503286 0.000270991 0.00011675 0.000167757 0.000129089 0.000122762 0.000116063 7.66428e-05 9.81145e-05 6.90985e-05 8.52449e-05 6.95974e-05 9.34703e-05 0.000109942 9.98843e-05 0.000114804 0.000130805 0.000154788 0.000170238 0.000166417 0.0001833 0.000156438 0.000150171 0.000160983 0.00016291 0.000149059 0.000139528 0.0001325 0.000174661 0.000153777 0.00010399 0.000102091 0.000160328 0.000145771 0.000141242 0.00013241 0.000207876 0.000207685 0.000213776 0.000232658 0.00027798 0.000295257 0.000276229 0.000221161 0.000239955 0.000239899 0.000266908 0.000256505 0.000356961 0.000247979 0.000339278 0.000175536 0.000123301 0.000232985 7.45102e-05 0.000215679 7.28652e-05 0.000148846 0.000186728 0.000260523 0.000304963 2.74936e-05 7.38275e-05 7.12254e-05 7.72839e-05 9.41092e-05 0.000107961 0.000139757 0.000163609 0.00015374 0.000171165 0.000196992 0.000291642 0.000362246 0.000358365 0.000395303 0.000351089 0.000385073 0.000468694 0.00044184 0.000586012 0.000527036 0.000582234 0.000591446 0.00053933 0.000640453 0.000561816 0.000578592 0.000626149 0.000577861 0.000393256 0.000427287 0.000665037 0.000438357 0.000651012 0.000293944 0.000923127 0.000346777 0.000793587 0.000958053 0.00139546 0.00110791 0.00155334 0.00122932 0.0012867 0.00089624 0.00150765 0.00121381 0.00110103 0.000718776 0.00173497 0.000498713 0.000861774 0.000627108 0.00113334 0.000551766 0.00138172 0.000480649 0.00164486 0.00315212 0.000720162 0.0015007 0.00167038 0.00120311 0.00117375 0.00114139 0.00147575 0.000720421 0.000538422 0.000140888 0.00010425 9.49413e-05 6.01189e-05 7.96802e-05 0.000105583 8.5942e-05 9.30132e-05 9.83821e-05 6.10508e-05 8.75914e-05 0.000107386 0.000111991 0.000100463 0.000102333 0.000121101 5.98126e-05 0.000142498 0.000143911 0.000168338 0.000155918 0.00015458 0.000150265 0.000153902 0.000143418 0.000141065 0.000151075 0.000163858 0.000182092 8.64525e-05 0.000109853 0.000117717 0.000159974 9.32545e-05 0.000184753 0.000176251 0.000157958 0.000234299 0.000228954 0.000232151 0.000284851 0.000283408 0.000274172 0.000211296 0.000220655 0.000210065 0.000195849 0.000219921 0.000168937 0.000211006 0.000205576 0.000116345 6.29201e-05 0.00014596 0.000156567 3.77201e-05 8.30156e-05 0.000159495 0.000253837 0.000633469 0.00039725 0.00023898 0.000516802 3.61958e-05 7.42897e-05 9.46595e-05 0.000100177 0.00013871 0.000143195 0.000169387 0.000248106 0.00029244 0.000323348 0.000276811 0.000312093 0.00034255 0.00034514 0.00034628 0.000330603 0.00040984 0.000418871 0.000493227 0.000506965 0.000545063 0.000585531 0.000613881 0.000702193 0.000623182 0.000899101 0.000588891 0.000434796 0.000782063 0.000890252 0.000987129 0.00114209 0.00106622 0.00104651 0.00125928 0.00114081 0.00175224 0.00112284 0.0016085 0.00103383 0.000848636 0.00169195 0.00200194 0.00179464 0.000507237 0.00138027 0.000951472 0.000301948 0.00084098 0.00191353 0.00212095 0.00277131 0.00272922 0.00146865 0.001228 0.00110518 0.000715226 0.000209264 0.000202608 0.000595686 0.000788646 0.000738996 0.000126014 0.000103857 0.000116385 8.58487e-05 6.54431e-05 8.40775e-05 9.41045e-05 0.000104296 0.000106817 8.08422e-05 0.000118294 0.000149033 0.000174029 0.000197941 0.000134429 0.000141995 0.000177944 0.000160906 0.00017044 0.000164336 0.000144954 0.000106425 7.83547e-05 0.000103918 0.000133877 0.000146025 0.000155498 0.000185759 0.000225626 0.000202092 0.000195284 0.00017074 0.000185489 0.000222199 0.000143084 0.000173682 9.74224e-05 0.000181944 0.000160746 0.000163676 0.000173159 0.00022815 0.000269319 0.000192114 0.000279166 0.000165518 0.000201501 0.000178075 0.000152538 0.000164588 0.00011431 0.0001746 0.000143168 0.000188392 0.00018658 6.37995e-05 0.000105765 9.08296e-05 0.000115636 0.000152849 0.000140313 0.000203261 0.000177862 0.000202482 0.000226459 0.000199666 0.000266845 0.00032115 0.000302783 0.000332507 0.000367045 0.00034712 0.000352932 0.000397002 0.000502791 0.000712278 0.000765544 0.000881656 0.00109682 0.000933081 0.000977109 0.000859239 0.00105733 0.00103103 0.00129942 0.00146673 0.00110975 0.00149657 0.00152556 0.00108217 0.0010719 0.000897687 0.00120882 0.000972768 0.00180823 0.00172673 0.00167698 0.00194992 0.00130262 0.00232764 0.0024528 0.00059026 0.00185752 0.00142794 0.00191864 0.00103425 0.0010632 0.000796458 0.000287191 0.000851715 0.000414315 0.000848355 0.000857062 0.000591229 0.000158434 0.000138874 0.000120534 0.000147932 0.000113181 9.63643e-05 0.000118795 0.000124465 0.000139119 0.000133002 0.000133349 0.000168612 0.000157083 0.000160534 0.000145699 0.000150261 0.000160674 0.000149672 0.000174342 0.000172079 0.000147568 8.61871e-05 6.45588e-05 4.07425e-05 8.70301e-05 9.41322e-05 0.000109065 0.000165861 0.000155243 0.000170782 0.000186205 0.000200412 0.000169521 0.00021263 0.000139095 6.19115e-05 0.000110307 4.9786e-05 9.46383e-05 6.93031e-05 0.000106883 0.0001674 0.000219996 0.000200713 0.000153053 0.000195311 0.000164758 0.00013332 0.000188864 0.000217578 0.000239426 0.000104712 0.00011815 0.000107466 0.000162127 0.00020699 0.000202062 0.000212943 0.00023174 0.000235597 0.000260628 0.000223518 8.64239e-05 0.000408118 0.000278306 0.000342316 0.000418366 0.000571649 0.000550532 0.00102912 0.000778414 0.00104407 0.00113022 0.00121364 0.00115835 0.00103517 0.00130626 0.00115195 0.00121717 0.00157557 0.00121013 0.00268456 0.00228294 0.00217038 0.00169183 0.00217719 0.00182204 0.00119604 0.00173735 0.00153752 0.00216769 0.00185497 0.00284701 0.0014462 0.00311093 0.00176827 0.00227088 0.00231027 0.00311834 0.00183594 0.00218918 0.00174817 0.00164548 0.00151069 0.000832233 0.00132647 0.00055099 0.000826163 0.000256728 0.00036181 0.000510738 0.000848624 0.000178801 0.000135782 0.000113763 0.000154854 0.0001791 0.000145973 0.000117924 0.000155886 0.000135853 0.000151268 0.000149848 0.000173751 0.000154037 0.000165279 0.000148836 0.000144776 0.000158354 0.000150756 0.000170011 0.000191102 0.000198551 0.000123344 0.000147761 8.33682e-05 4.87288e-05 4.03071e-05 1.80231e-05 6.94226e-05 0.000103381 0.000184426 0.000171753 0.000135757 0.00019187 0.000162325 0.000142478 0.000258932 0.000108274 3.35793e-05 0.00010874 7.55068e-05 0.000103846 9.83478e-05 0.000142944 7.06152e-05 0.000227066 0.000273712 0.000217299 0.000119692 0.000236576 0.000247318 0.000119306 0.000119358 6.57606e-05 5.13171e-05 0.000105478 0.000205913 0.000310772 0.000122099 0.000107632 0.000133936 0.000187003 0.000177638 0.000199294 0.00020183 0.00024057 0.00024217 0.000259666 0.00024862 0.000224692 0.000340269 0.000405112 0.000371074 0.000342852 0.00046319 0.00058227 0.00071292 0.000775155 0.00140837 0.00119865 0.0015288 0.00129376 0.00139306 0.00140974 0.00161779 0.00182948 0.00164673 0.00169449 0.00158248 0.00215648 0.0019998 0.00197793 0.00246764 0.00235746 0.00265553 0.00234449 0.00206681 0.00284585 0.0024526 0.00274498 0.00232148 0.00328544 0.0011711 0.00168832 0.00174802 0.00170491 0.00083386 0.000510983 0.00132197 0.000812349 0.00037561 0.000159644 0.000194628 0.00019684 0.00014943 0.000228005 0.000177814 0.000165093 0.000162068 0.000123846 0.000153424 0.000182043 0.000187875 0.000156451 0.000203476 0.000158103 0.000242626 0.000238222 0.000198776 0.000220919 0.000200464 0.000164433 0.000141386 9.6128e-05 4.36262e-05 8.6e-05 3.84596e-05 4.98355e-05 0.000146653 0.000218765 0.000202629 0.000166165 0.000122988 0.000155718 0.000122186 8.61068e-05 0.000117398 0.000164024 0.000166456 0.000148306 0.000284075 0.000220074 0.000302115 0.000331433 0.000221548 9.13399e-05 0.000160126 0.000140632 8.45522e-05 0.000178984 0.000203094 0.000267496 0.000238641 8.50581e-05 0.000136297 0.000200739 0.000248504 0.000253883 0.00025093 0.000292404 0.000340122 0.000366626 0.000486657 0.00047986 0.000492547 0.000778304 0.00101117 0.000865559 0.00132458 0.00132057 0.00143976 0.0015155 0.00147729 0.00156335 0.00152916 0.00175938 0.00177125 0.0022472 0.00215246 0.00221307 0.00214591 0.00265757 0.00171731 0.00197504 0.00223399 0.00167756 0.00220062 0.00283599 0.00283206 0.001652 0.00199772 0.00230827 0.00156355 0.00167702 0.00182585 0.00230673 0.00123972 0.000523347 0.000213155 0.00089053 0.000744979 0.000187718 0.000198493 0.000167599 0.000160123 0.000160704 0.000183901 0.000173331 0.000233447 0.000219061 0.000180086 0.000214291 0.000211187 0.00020559 0.000236386 0.000256385 0.00025197 0.000234871 0.000219676 0.000148273 0.000145178 0.000130317 6.76085e-05 2.63675e-06 0.000212094 0.000192001 0.000175342 0.000110226 0.000108372 0.000144742 0.000102289 9.89268e-05 0.000100422 9.84483e-05 0.000123533 0.00016618 0.000189025 0.000280631 0.000272136 0.000326734 0.000271401 0.000158021 0.000244564 0.000185308 0.000200563 0.000178794 0.000182448 0.000169986 0.000186494 0.00010345 0.000149583 0.000181142 0.000213575 0.000284376 0.000300003 0.000303792 0.000344377 0.000396641 0.000463993 0.000453612 0.000652196 0.00062855 0.000622224 0.000711499 0.000882749 0.00116691 0.0011772 0.00110377 0.00127692 0.00104569 0.0014558 0.0016136 0.00180068 0.00149696 0.00207363 0.00181278 0.00201486 0.00173501 0.00186043 0.00160488 0.00249046 0.00173435 0.00239547 0.00160345 0.00172547 0.00193452 0.00308177 0.00255769 0.0023888 0.00201091 0.00220191 0.00199367 0.000656262 0.000747232 0.000503947 0.00074016 0.000564691 0.000197421 0.000207146 0.000207532 0.000195242 0.00016313 0.000230052 0.00024059 0.000215424 0.000219061 0.00023214 0.00023783 0.000253459 0.000270903 0.000220657 0.000207831 0.000239986 0.000196912 0.000142573 0.000114299 6.28187e-05 0.000115944 0.000135107 7.7453e-05 0.000205657 0.000148106 0.000181627 9.56568e-05 0.00012311 9.85233e-05 0.000226213 0.000188869 0.000255964 0.000181051 0.000181843 0.000271416 0.000188218 0.000154821 0.000147147 0.000210627 0.000215984 0.000302039 0.000251932 0.000311776 0.000274375 0.000331888 0.00020726 0.000270867 0.00021613 0.000124132 0.000173439 6.56551e-05 6.59009e-05 0.000164158 0.00021267 0.00030898 0.000372068 0.000432116 0.000501464 0.000578401 0.000706139 0.00067448 0.000741779 0.000810672 0.000969241 0.0013062 0.00108253 0.000837221 0.000807671 0.00086697 0.00173727 0.00153199 0.00149275 0.00141592 0.00167077 0.00183736 0.00131027 0.00184493 0.00200929 0.00217298 0.0023415 0.00238006 0.00203385 0.00243944 0.00229585 0.00191323 0.00176077 0.0025696 0.0023624 0.00178915 0.00165303 0.00149757 0.00184078 0.00181999 0.000564326 0.00134381 0.000233519 0.00022194 0.000205056 0.000150563 0.000222706 0.000115747 0.000169994 0.000231657 0.000225076 0.000201223 0.0002509 0.000221492 0.000231351 0.000193798 0.000157931 0.000142606 0.000116607 7.85402e-05 0.00011081 0.000112743 0.000103961 0.000225457 9.69205e-05 0.000156258 0.00024426 0.000207881 0.000157388 7.99334e-05 0.000139792 0.000323753 0.000339353 0.000255723 0.000469705 0.000370291 0.000310065 0.000322612 0.000254971 0.000492488 0.00036025 0.000263359 0.000269432 0.000325204 0.000177785 0.000247934 0.000242583 0.000325619 0.000224272 4.30445e-05 8.76997e-05 9.41122e-05 0.000106179 0.000417045 0.000472918 0.000404682 0.000444678 0.000465173 0.000522434 0.000895486 0.000926513 0.000811693 0.000766829 0.000489825 0.000949361 0.00106699 0.00152781 0.00124683 0.0011008 0.00113338 0.00165563 0.00159823 0.00112939 0.00131273 0.00183048 0.00202531 0.0022043 0.00164147 0.00182736 0.00175332 0.00172653 0.00173637 0.00119324 0.00140245 0.00235974 0.00244702 0.00265175 0.00280473 0.00418548 0.00304765 0.00276713 0.00278164 0.00289612 0.00268157 0.00285674 0.00216909 0.00219348 0.000250098 0.000205582 0.000156187 0.000210775 3.15332e-05 0.00021708 9.82229e-05 0.000883221 0.00197741 0.00174111 0.00352446 0.00199657 0.0021399 
SCALARS Stress float 1
LOOKUP_TABLE default
-12551300000.0 -12551300000.0 -12550700000.0 -12552300000.0 -12549700000.0 -12554600000.0 -12553300000.0 -12553300000.0 -12550100000.0 -12550800000.0 -12550200000.0 -12549700000.0 -12550500000.0 -12549700000.0 -12549700000.0 -12549800000.0 -12549700000.0 -12549800000.0 -12550000000.0 -12551300000.0 -12552100000.0 -12551100000.0 -12550000000.0 -12549700000.0 -12549700000.0 -12550000000.0 -12550500000.0 -12550600000.0 -12552100000.0 -12551300000.0 -12550700000.0 -12550000000.0 -12550500000.0 -12550500000.0 -12549700000.0 -12551000000.0 -12550600000.0 -12553400000.0 -12552100000.0 -12550100000.0 -12550700000.0 -12553700000.0 -12554200000.0 -12549800000.0 -12549900000.0 -12550600000.0 -12553600000.0 -12550600000.0 -12552400000.0 -12550800000.0 -12550500000.0 -12553000000.0 -12553000000.0 -12559200000.0 -12567500000.0 -12561700000.0 -12564400000.0 -12562800000.0 -12561700000.0 -12561700000.0 -12559300000.0 -12551500000.0 -12550700000.0 -12549700000.0 -12550800000.0 -12553400000.0 -12554000000.0 -12551700000.0 -12550600000.0 -12550400000.0 -12552400000.0 -12553600000.0 -12564600000.0 -12562400000.0 -12562300000.0 -12554600000.0 -12549800000.0 -12553200000.0 -12550400000.0 -12573200000.0 -12565200000.0 -12570600000.0 -12575200000.0 -12592100000.0 -12582700000.0 -12555500000.0 -12553400000.0 -12549700000.0 -12549700000.0 -12551800000.0 -12549800000.0 -12549700000.0 -12549700000.0 -12552700000.0 -12549700000.0 -12549700000.0 -12550300000.0 -12549700000.0 -12551100000.0 -12549700000.0 -12555900000.0 -12549700000.0 -12550600000.0 -12549700000.0 -12550300000.0 -12549900000.0 -12549700000.0 -12549700000.0 -12549700000.0 -12549700000.0 -12549800000.0 -12550100000.0 -12551500000.0 -12552000000.0 -12555000000.0 -12554800000.0 -12559300000.0 -12558400000.0 -12553000000.0 -12552000000.0 -12549700000.0 -12550600000.0 -12552500000.0 -12554100000.0 -12553100000.0 -12552900000.0 -12549700000.0 -12549800000.0 -12552100000.0 -12558300000.0 -12550700000.0 -12552900000.0 -12553000000.0 -12554300000.0 -12551900000.0 -12550300000.0 -12550300000.0 -12555200000.0 -12553700000.0 -12565900000.0 -12549800000.0 -12549700000.0 -12550600000.0 -12551900000.0 -12551900000.0 -12560300000.0 -12551100000.0 -12552500000.0 -12555900000.0 -12562000000.0 -12553000000.0 -12550900000.0 -12549700000.0 -12549700000.0 -12550400000.0 -12551300000.0 -12553900000.0 -12552200000.0 -12551400000.0 -12555900000.0 -12549900000.0 -12562100000.0 -12566500000.0 -12570600000.0 -12570300000.0 -12580600000.0 -12551300000.0 -12552100000.0 -12551500000.0 -12591000000.0 -12549900000.0 -12559400000.0 -12558600000.0 -12554200000.0 -12554600000.0 -12564800000.0 -12567300000.0 -12549700000.0 -12553100000.0 -12550100000.0 -12558300000.0 -12592500000.0 -12563000000.0 -12574500000.0 -12557800000.0 -12573000000.0 -12557300000.0 -12597100000.0 -12584100000.0 -12584300000.0 -12586800000.0 -12585700000.0 -12570400000.0 -12550800000.0 -12583500000.0 -12553400000.0 -12561200000.0 -12566900000.0 -12560800000.0 -12558500000.0 -12550900000.0 -12556100000.0 -12549700000.0 -12551100000.0 -12549700000.0 -12554100000.0 -12557800000.0 -12549800000.0 -12550800000.0 -12549700000.0 -12549700000.0 -12551200000.0 -12552200000.0 -12553500000.0 -12556400000.0 -12563600000.0 -12567600000.0 -12553000000.0 -12564500000.0 -12561900000.0 -12558300000.0 -12562700000.0 -12549700000.0 -12550200000.0 -12558600000.0 -12550500000.0 -12549700000.0 -12553600000.0 -12562200000.0 -12551100000.0 -12553200000.0 -12550200000.0 -12555100000.0 -12565300000.0 -12552600000.0 -12551100000.0 -12551900000.0 -12559900000.0 -12586900000.0 -12563400000.0 -12549700000.0 -12567300000.0 -12569300000.0 -12598900000.0 -12586300000.0 -12549700000.0 -12586700000.0 -12561700000.0 -12573400000.0 -12574100000.0 -12567700000.0 -12572900000.0 -12565600000.0 -12567600000.0 -12557700000.0 -12578300000.0 -12630000000.0 -12668100000.0 -12560800000.0 -12557900000.0 -12556000000.0 -12646400000.0 -12607200000.0 -12572900000.0 -12573500000.0 -12604000000.0 -12578600000.0 -12572400000.0 -12562200000.0 -12594800000.0 -12550800000.0 -12565300000.0 -12556800000.0 -12552600000.0 -12562700000.0 -12566200000.0 -12554500000.0 -12578900000.0 -12574700000.0 -12576500000.0 -12576600000.0 -12549700000.0 -12549700000.0 -12608100000.0 -12552600000.0 -12567500000.0 -12604400000.0 -12580100000.0 -12591800000.0 -12554400000.0 -12565700000.0 -12560300000.0 -12549700000.0 -12552800000.0 -12561800000.0 -12556300000.0 -12557000000.0 -12549700000.0 -12559100000.0 -12554400000.0 -12556000000.0 -12554200000.0 -12563100000.0 -12549700000.0 -12564200000.0 -12554200000.0 -12552600000.0 -12551700000.0 -12549700000.0 -12551200000.0 -12551500000.0 -12549900000.0 -12551000000.0 -12556700000.0 -12550100000.0 -12553500000.0 -12562800000.0 -12561300000.0 -12581600000.0 -12569100000.0 -12579300000.0 -12580400000.0 -12590800000.0 -12574100000.0 -12563800000.0 -12581900000.0 -12554200000.0 -12550800000.0 -12550000000.0 -12555500000.0 -12568000000.0 -12558900000.0 -12563300000.0 -12556800000.0 -12575800000.0 -12622000000.0 -12563800000.0 -12560600000.0 -12558400000.0 -12557800000.0 -12565400000.0 -12556000000.0 -12594400000.0 -12549700000.0 -12588100000.0 -12572500000.0 -12549700000.0 -12593700000.0 -12594300000.0 -12568000000.0 -12582600000.0 -12570800000.0 -12622000000.0 -12580700000.0 -12613500000.0 -12639100000.0 -12563800000.0 -12689100000.0 -12681000000.0 -12563000000.0 -12695300000.0 -12552100000.0 -12551000000.0 -12595300000.0 -12599200000.0 -12599700000.0 -12571300000.0 -12589200000.0 -12614300000.0 -12578000000.0 -12567900000.0 -12560000000.0 -12606600000.0 -12569600000.0 -12594300000.0 -12616100000.0 -12621300000.0 -12649800000.0 -12580600000.0 -12577000000.0 -12552100000.0 -12551600000.0 -12647300000.0 -12556400000.0 -12587100000.0 -12639800000.0 -12565500000.0 -12565100000.0 -12559900000.0 -12588400000.0 -12575500000.0 -12552400000.0 -12573400000.0 -12566000000.0 -12554700000.0 -12561800000.0 -12552900000.0 -12553800000.0 -12550100000.0 -12560000000.0 -12549800000.0 -12556900000.0 -12560300000.0 -12567100000.0 -12557400000.0 -12553900000.0 -12554800000.0 -12552600000.0 -12550400000.0 -12550100000.0 -12556000000.0 -12552700000.0 -12559700000.0 -12566700000.0 -12556700000.0 -12558500000.0 -12553000000.0 -12577600000.0 -12598100000.0 -12583500000.0 -12553800000.0 -12571800000.0 -12556300000.0 -12555200000.0 -12590800000.0 -12579800000.0 -12567900000.0 -12554200000.0 -12564300000.0 -12618200000.0 -12563400000.0 -12556600000.0 -12575700000.0 -12550500000.0 -12553900000.0 -12573400000.0 -12581800000.0 -12558200000.0 -12582000000.0 -12560500000.0 -12582000000.0 -12556500000.0 -12549700000.0 -12549700000.0 -12550500000.0 -12553200000.0 -12584600000.0 -12650800000.0 -12555200000.0 -12551300000.0 -12580000000.0 -12602000000.0 -12597500000.0 -12617900000.0 -12636200000.0 -12619700000.0 -12598000000.0 -12610300000.0 -12559200000.0 -12603000000.0 -12669800000.0 -12683200000.0 -12635800000.0 -12552000000.0 -12549900000.0 -12616300000.0 -12552200000.0 -12685700000.0 -12693900000.0 -12707100000.0 -12678900000.0 -12628700000.0 -12639000000.0 -12620600000.0 -12555300000.0 -12567600000.0 -12644400000.0 -12570400000.0 -12553100000.0 -12603800000.0 -12588100000.0 -12568600000.0 -12628900000.0 -12616900000.0 -12554800000.0 -12650300000.0 -12573300000.0 -12604500000.0 -12605300000.0 -12571000000.0 -12599400000.0 -12590200000.0 -12553100000.0 -12581000000.0 -12553400000.0 -12552500000.0 -12573200000.0 -12600600000.0 -12600600000.0 -12597500000.0 -12596300000.0 -12593700000.0 -12588000000.0 -12610700000.0 -12599700000.0 -12597900000.0 -12605500000.0 -12612500000.0 -12586900000.0 -12588100000.0 -12576000000.0 -12574500000.0 -12583600000.0 -12549700000.0 -12552800000.0 -12559200000.0 -12550300000.0 -12586900000.0 -12613200000.0 -12562500000.0 -12576200000.0 -12549900000.0 -12556500000.0 -12550100000.0 -12586000000.0 -12579000000.0 -12583600000.0 -12605500000.0 -12612200000.0 -12615800000.0 -12656100000.0 -12618500000.0 -12602500000.0 -12642900000.0 -12607500000.0 -12643300000.0 -12607600000.0 -12615900000.0 -12589100000.0 -12608600000.0 -12625900000.0 -12641500000.0 -12751600000.0 -12641700000.0 -12650900000.0 -12553200000.0 -12586000000.0 -12562200000.0 -12614600000.0 -12575700000.0 -12624900000.0 -12630400000.0 -12633500000.0 -12642900000.0 -12663900000.0 -12567600000.0 -12614100000.0 -12601300000.0 -12597000000.0 -12567100000.0 -12650900000.0 -12636200000.0 -12614900000.0 -12608900000.0 -12712200000.0 -12580600000.0 -12580300000.0 -12653000000.0 -12598100000.0 -12590900000.0 -12549700000.0 -12585900000.0 -12569700000.0 -12551100000.0 -12677900000.0 -12617500000.0 -12595000000.0 -12706700000.0 -12551800000.0 -12626500000.0 -12727600000.0 -12652800000.0 -12606400000.0 -12594800000.0 -12606100000.0 -12567200000.0 -12571700000.0 -12558800000.0 -12574000000.0 -12556900000.0 -12555900000.0 -12608300000.0 -12566300000.0 -12550400000.0 -12570300000.0 -12567800000.0 -12578700000.0 -12554600000.0 -12565200000.0 -12549900000.0 -12551200000.0 -12578100000.0 -12588400000.0 -12585800000.0 -12610100000.0 -12601100000.0 -12573400000.0 -12579600000.0 -12631500000.0 -12557000000.0 -12565600000.0 -12553000000.0 -12558900000.0 -12565800000.0 -12571700000.0 -12577100000.0 -12553000000.0 -12563100000.0 -12564100000.0 -12596500000.0 -12555100000.0 -12566000000.0 -12554400000.0 -12610600000.0 -12583600000.0 -12554000000.0 -12600600000.0 -12587500000.0 -12669700000.0 -12664700000.0 -12591900000.0 -12562000000.0 -12588200000.0 -12557400000.0 -12595000000.0 -12582100000.0 -12549700000.0 -12551000000.0 -12566700000.0 -12586800000.0 -12584200000.0 -12625100000.0 -12586200000.0 -12708400000.0 -12747800000.0 -12704800000.0 -12686600000.0 -12583300000.0 -12792300000.0 -12610100000.0 -12591900000.0 -12757800000.0 -12846800000.0 -12699200000.0 -12678200000.0 -12776600000.0 -12803100000.0 -12585500000.0 -12589000000.0 -12608500000.0 -12623100000.0 -12603700000.0 -12601000000.0 -12598300000.0 -12622700000.0 -12562800000.0 -12607200000.0 -12563300000.0 -12672700000.0 -12555200000.0 -12554900000.0 -12608600000.0 -12551200000.0 -12614200000.0 -12549700000.0 -12809500000.0 -12792100000.0 -12604200000.0 -12783700000.0 -12685000000.0 -12678500000.0 -12655600000.0 -12642400000.0 -12663500000.0 -12623900000.0 -12630500000.0 -12608600000.0 -12549700000.0 -12593000000.0 -12558100000.0 -12561400000.0 -12588100000.0 -12557800000.0 -12569300000.0 -12573800000.0 -12571900000.0 -12580400000.0 -12576700000.0 -12549900000.0 -12562100000.0 -12552900000.0 -12568100000.0 -12592900000.0 -12583200000.0 -12595100000.0 -12613800000.0 -12563600000.0 -12557100000.0 -12563400000.0 -12576200000.0 -12551400000.0 -12571700000.0 -12556600000.0 -12581800000.0 -12597900000.0 -12576000000.0 -12582800000.0 -12563400000.0 -12580400000.0 -12564300000.0 -12576000000.0 -12583700000.0 -12595800000.0 -12691300000.0 -12675800000.0 -12742000000.0 -12590300000.0 -12602600000.0 -12626600000.0 -12558500000.0 -12592200000.0 -12558100000.0 -12549700000.0 -12571300000.0 -12564700000.0 -12705200000.0 -12574900000.0 -12588600000.0 -12694700000.0 -12708900000.0 -12591000000.0 -12551400000.0 -12597100000.0 -12680700000.0 -12621900000.0 -12735000000.0 -12681000000.0 -12744600000.0 -12762400000.0 -12804500000.0 -12646500000.0 -12822300000.0 -12703900000.0 -12672000000.0 -12908700000.0 -12550100000.0 -12553600000.0 -12606100000.0 -12693200000.0 -12592800000.0 -12664900000.0 -12618000000.0 -12549700000.0 -12696400000.0 -12549800000.0 -12557800000.0 -12550300000.0 -12595400000.0 -12610100000.0 -12549700000.0 -12549700000.0 -12794500000.0 -12605600000.0 -12560000000.0 -12676000000.0 -12566000000.0 -12669700000.0 -12549700000.0 -12680500000.0 -12598400000.0 -12598300000.0 -12622500000.0 -12552700000.0 -12604600000.0 -12554800000.0 -12564100000.0 -12576100000.0 -12558200000.0 -12557700000.0 -12572900000.0 -12587800000.0 -12579900000.0 -12573200000.0 -12554100000.0 -12563300000.0 -12563800000.0 -12587500000.0 -12557000000.0 -12582200000.0 -12582900000.0 -12596300000.0 -12622100000.0 -12589300000.0 -12605000000.0 -12559100000.0 -12589600000.0 -12595300000.0 -12563300000.0 -12649700000.0 -12628900000.0 -12615900000.0 -12560200000.0 -12567900000.0 -12564400000.0 -12630900000.0 -12646200000.0 -12551100000.0 -12628400000.0 -12650000000.0 -12709300000.0 -12671500000.0 -12689800000.0 -12693300000.0 -12682200000.0 -12583400000.0 -12665800000.0 -12553100000.0 -12577600000.0 -12646600000.0 -12628800000.0 -12633500000.0 -12756800000.0 -12664800000.0 -12552400000.0 -12566200000.0 -12607900000.0 -12549700000.0 -12616600000.0 -12593500000.0 -12550500000.0 -12633900000.0 -12615400000.0 -12637200000.0 -12570500000.0 -12661400000.0 -12624800000.0 -12642800000.0 -12689100000.0 -12596600000.0 -12659100000.0 -12690100000.0 -12617100000.0 -12585400000.0 -12679400000.0 -12610100000.0 -12635500000.0 -12943100000.0 -12549700000.0 -12669700000.0 -12694000000.0 -12601700000.0 -12550400000.0 -12556500000.0 -12694200000.0 -12596900000.0 -12603900000.0 -12634600000.0 -12551200000.0 -12673400000.0 -12573400000.0 -12629100000.0 -12561700000.0 -12615400000.0 -12694400000.0 -12737400000.0 -12742800000.0 -12551300000.0 -12706600000.0 -12642000000.0 -12580600000.0 -12556700000.0 -12558200000.0 -12571100000.0 -12671000000.0 -12589500000.0 -12602000000.0 -12550700000.0 -12550100000.0 -12591700000.0 -12573000000.0 -12554900000.0 -12551600000.0 -12549700000.0 -12574500000.0 -12574900000.0 -12580800000.0 -12551600000.0 -12584600000.0 -12573600000.0 -12551000000.0 -12571600000.0 -12559800000.0 -12578500000.0 -12575200000.0 -12549800000.0 -12585700000.0 -12553600000.0 -12557600000.0 -12549700000.0 -12589700000.0 -12600200000.0 -12620400000.0 -12549700000.0 -12553500000.0 -12631200000.0 -12549700000.0 -12549700000.0 -12642400000.0 -12550200000.0 -12600300000.0 -12631700000.0 -12549700000.0 -12549700000.0 -12553400000.0 -12650600000.0 -12594500000.0 -12595700000.0 -12615500000.0 -12682500000.0 -12549700000.0 -12549700000.0 -12615900000.0 -12620100000.0 -12620500000.0 -12553800000.0 -12559600000.0 -12679500000.0 -12625800000.0 -12711600000.0 -12675000000.0 -12557200000.0 -12583700000.0 -12558700000.0 -12604200000.0 -12554900000.0 -12660000000.0 -12669700000.0 -12571700000.0 -12620700000.0 -12578400000.0 -12583000000.0 -12626800000.0 -12685200000.0 -12675600000.0 -12754900000.0 -12749000000.0 -12573600000.0 -12549700000.0 -12785600000.0 -12774300000.0 -12792100000.0 -12816900000.0 -12625600000.0 -12840400000.0 -12945500000.0 -12662400000.0 -12627100000.0 -13016200000.0 -13080900000.0 -12772900000.0 -12624700000.0 -12627400000.0 -12690300000.0 -12599800000.0 -12593900000.0 -12583800000.0 -12670000000.0 -12603700000.0 -12550000000.0 -12624800000.0 -12641800000.0 -12566800000.0 -12564300000.0 -12581700000.0 -12586100000.0 -12559900000.0 -12729900000.0 -12656000000.0 -12551000000.0 -12553700000.0 -12579000000.0 -12549700000.0 -12579700000.0 -12583000000.0 -12557100000.0 -12561300000.0 -12559800000.0 -12550700000.0 -12579700000.0 -12563900000.0 -12563400000.0 -12578100000.0 -12558700000.0 -12606800000.0 -12568700000.0 -12577000000.0 -12567600000.0 -12559400000.0 -12569900000.0 -12550100000.0 -12558600000.0 -12550500000.0 -12552700000.0 -12549800000.0 -12612000000.0 -12550200000.0 -12582600000.0 -12600300000.0 -12598200000.0 -12617000000.0 -12599900000.0 -12550100000.0 -12550800000.0 -12581600000.0 -12581400000.0 -12579500000.0 -12623100000.0 -12554200000.0 -12555600000.0 -12569300000.0 -12584900000.0 -12597500000.0 -12573900000.0 -12707800000.0 -12575400000.0 -12665900000.0 -12615300000.0 -12666400000.0 -12563500000.0 -12841000000.0 -12755500000.0 -12613200000.0 -12765300000.0 -12738800000.0 -12576900000.0 -12657400000.0 -12609700000.0 -12620400000.0 -12618000000.0 -12616000000.0 -12611600000.0 -12745200000.0 -12577000000.0 -12610000000.0 -12625500000.0 -12660100000.0 -12566800000.0 -12826100000.0 -12632900000.0 -12601400000.0 -12738900000.0 -12560700000.0 -12727400000.0 -12677800000.0 -12664100000.0 -12570800000.0 -12699900000.0 -12575600000.0 -12809700000.0 -12797800000.0 -12851800000.0 -12728400000.0 -12721800000.0 -12549700000.0 -12779400000.0 -12565100000.0 -12660400000.0 -12554700000.0 -12551700000.0 -12663300000.0 -12566600000.0 -12604800000.0 -12567000000.0 -12665700000.0 -12556700000.0 -12594200000.0 -12564500000.0 -12585700000.0 -12599700000.0 -12697900000.0 -12647400000.0 -12639600000.0 -12573100000.0 -12683800000.0 -12660400000.0 -12609600000.0 -12606900000.0 -12624400000.0 -12553900000.0 -12605800000.0 -12601800000.0 -12582800000.0 -12565800000.0 -12570700000.0 -12590900000.0 -12552000000.0 -12623400000.0 -12579000000.0 -12557500000.0 -12598700000.0 -12586100000.0 -12589500000.0 -12588000000.0 -12560300000.0 -12560000000.0 -12549700000.0 -12562000000.0 -12560100000.0 -12553100000.0 -12620800000.0 -12552600000.0 -12565700000.0 -12578100000.0 -12567200000.0 -12609200000.0 -12613700000.0 -12579700000.0 -12595000000.0 -12567100000.0 -12552000000.0 -12618100000.0 -12549700000.0 -12550100000.0 -12566600000.0 -12570100000.0 -12610800000.0 -12586600000.0 -12684100000.0 -12549700000.0 -12677300000.0 -12694300000.0 -12758400000.0 -12672100000.0 -12569800000.0 -12684400000.0 -12661900000.0 -12636400000.0 -12644000000.0 -12563400000.0 -12587300000.0 -12583200000.0 -12569500000.0 -12644300000.0 -12549700000.0 -12698400000.0 -12709500000.0 -12728600000.0 -12716300000.0 -12549700000.0 -12730000000.0 -12635200000.0 -12610500000.0 -12650700000.0 -12558100000.0 -12814800000.0 -12590500000.0 -12683300000.0 -12597100000.0 -12554900000.0 -12592800000.0 -12781900000.0 -12873000000.0 -12609900000.0 -12748700000.0 -12876300000.0 -12549700000.0 -12731400000.0 -12822600000.0 -12873500000.0 -13030900000.0 -13065700000.0 -13004900000.0 -12973600000.0 -13028500000.0 -13012200000.0 -13043800000.0 -13018800000.0 -12840100000.0 -12675100000.0 -12602300000.0 -12782500000.0 -12767100000.0 -12794900000.0 -12687400000.0 -12550600000.0 -12663700000.0 -12605200000.0 -12597600000.0 -12571000000.0 -12568500000.0 -12573900000.0 -12555300000.0 -12607100000.0 -12604100000.0 -12582400000.0 -12584700000.0 -12612200000.0 -12660400000.0 -12557900000.0 -12581600000.0 -12576300000.0 -12549700000.0 -12564200000.0 -12589100000.0 -12614600000.0 -12614600000.0 -12614200000.0 -12632100000.0 -12596100000.0 -12598000000.0 -12608700000.0 -12633800000.0 -12590000000.0 -12573700000.0 -12577800000.0 -12598600000.0 -12627800000.0 -12612900000.0 -12611200000.0 -12682900000.0 -12586800000.0 -12607700000.0 -12549700000.0 -12549700000.0 -12832600000.0 -12833500000.0 -12735100000.0 -12659200000.0 -12699200000.0 -12568800000.0 -12579800000.0 -12662100000.0 -12649900000.0 -12642200000.0 -12694400000.0 -12753400000.0 -12800200000.0 -12582000000.0 -12551600000.0 -12576300000.0 -12688200000.0 -12815500000.0 -12883500000.0 -12597000000.0 -12694700000.0 -12550300000.0 -12549700000.0 -12674300000.0 -12727700000.0 -12954500000.0 -12611800000.0 -12720500000.0 -12591300000.0 -12639400000.0 -12573400000.0 -12609000000.0 -12611500000.0 -12564000000.0 -12583000000.0 -12912000000.0 -12705400000.0 -12791300000.0 -12578200000.0 -12565400000.0 -12653300000.0 -12554500000.0 -12592400000.0 -12607000000.0 -12573700000.0 -12627200000.0 -12714500000.0 -12659400000.0 -12685000000.0 -12647100000.0 -12573600000.0 -12550500000.0 -12550600000.0 -12554400000.0 -12882900000.0 -12754400000.0 -12727600000.0 -12584500000.0 -12578100000.0 -12577000000.0 -12581900000.0 -12582000000.0 -12557700000.0 -12568200000.0 -12555300000.0 -12553400000.0 -12557800000.0 -12551300000.0 -12575400000.0 -12558200000.0 -12587600000.0 -12558100000.0 -12565700000.0 -12572200000.0 -12627600000.0 -12569500000.0 -12615900000.0 -12605200000.0 -12601200000.0 -12554500000.0 -12609900000.0 -12568100000.0 -12573300000.0 -12553400000.0 -12567100000.0 -12617500000.0 -12584400000.0 -12602100000.0 -12564400000.0 -12552000000.0 -12644000000.0 -12557900000.0 -12558400000.0 -12550700000.0 -12572500000.0 -12563300000.0 -12553100000.0 -12648200000.0 -12557400000.0 -12591000000.0 -12591500000.0 -12691500000.0 -12567700000.0 -12567800000.0 -12687900000.0 -12565000000.0 -12708000000.0 -12753800000.0 -12862000000.0 -12552600000.0 -12809100000.0 -12736700000.0 -12573900000.0 -12614200000.0 -12553300000.0 -12557900000.0 -12699600000.0 -12558500000.0 -12569000000.0 -12588200000.0 -12774400000.0 -12588900000.0 -12750900000.0 -12653200000.0 -12566600000.0 -12806400000.0 -12666800000.0 -12743100000.0 -12681900000.0 -12704600000.0 -12678100000.0 -12740400000.0 -12619400000.0 -12552400000.0 -12625400000.0 -12585100000.0 -12561600000.0 -12692000000.0 -12719200000.0 -12632900000.0 -12806800000.0 -12730700000.0 -12711100000.0 -12629300000.0 -12619700000.0 -12557200000.0 -12722600000.0 -12715400000.0 -12617000000.0 -12576800000.0 -12681400000.0 -12571800000.0 -12553000000.0 -12550700000.0 -12553800000.0 -12549700000.0 -12550800000.0 -12585200000.0 -12764700000.0 -12553100000.0 -12688500000.0 -12595500000.0 -12586200000.0 -12570700000.0 -12612900000.0 -12590600000.0 -12564500000.0 -12562200000.0 -12578200000.0 -12551900000.0 -12554700000.0 -12559600000.0 -12550100000.0 -12558400000.0 -12565600000.0 -12549700000.0 -12607000000.0 -12609200000.0 -12595600000.0 -12555600000.0 -12552700000.0 -12550500000.0 -12561300000.0 -12562500000.0 -12583100000.0 -12582700000.0 -12676100000.0 -12551200000.0 -12550400000.0 -12639500000.0 -12579000000.0 -12551700000.0 -12569600000.0 -12556800000.0 -12563300000.0 -12659200000.0 -12562200000.0 -12575600000.0 -12550800000.0 -12656200000.0 -12784600000.0 -12742100000.0 -12742100000.0 -12779900000.0 -12772700000.0 -12838900000.0 -12557800000.0 -12554000000.0 -12550700000.0 -12877900000.0 -12702300000.0 -12617600000.0 -12557500000.0 -12552900000.0 -12595000000.0 -12564100000.0 -12567500000.0 -12593500000.0 -12578500000.0 -12574500000.0 -12609700000.0 -12814600000.0 -12676200000.0 -12649700000.0 -12832900000.0 -12635400000.0 -12615300000.0 -12609100000.0 -12692700000.0 -12758500000.0 -12567500000.0 -12561700000.0 -12653400000.0 -12550400000.0 -12706200000.0 -12552700000.0 -12655400000.0 -12644000000.0 -12739500000.0 -12601200000.0 -12608500000.0 -12650700000.0 -12721200000.0 -12787300000.0 -12716400000.0 -12799200000.0 -12626700000.0 -12597900000.0 -12760600000.0 -12775700000.0 -12805400000.0 -12667700000.0 -12688100000.0 -12682900000.0 -12683100000.0 -12567500000.0 -12554100000.0 -12557200000.0 -12558600000.0 -12578500000.0 -12702900000.0 -12687000000.0 -12578400000.0 -12568200000.0 -12603000000.0 -12587200000.0 -12572500000.0 -12580400000.0 -12589300000.0 -12581300000.0 -12583000000.0 -12585500000.0 -12585200000.0 -12556100000.0 -12569100000.0 -12566600000.0 -12616400000.0 -12552700000.0 -12549900000.0 -12563300000.0 -12551000000.0 -12559900000.0 -12550000000.0 -12549700000.0 -12573200000.0 -12568700000.0 -12571900000.0 -12627400000.0 -12602100000.0 -12578800000.0 -12580000000.0 -12596200000.0 -12638400000.0 -12557700000.0 -12562000000.0 -12585600000.0 -12569900000.0 -12551900000.0 -12554700000.0 -12688900000.0 -12592000000.0 -12611800000.0 -12656700000.0 -12551000000.0 -12643800000.0 -12565000000.0 -12585900000.0 -12919700000.0 -12587400000.0 -12889400000.0 -12550200000.0 -12549900000.0 -12751900000.0 -12845500000.0 -12554500000.0 -12562300000.0 -12653900000.0 -12596800000.0 -12560000000.0 -12554300000.0 -12854500000.0 -12816900000.0 -12549700000.0 -12558100000.0 -12660200000.0 -12550400000.0 -12592900000.0 -12623600000.0 -12750200000.0 -12562000000.0 -12604800000.0 -12560800000.0 -12608300000.0 -12629600000.0 -12710400000.0 -12605000000.0 -12578700000.0 -12717100000.0 -12647200000.0 -12626600000.0 -12727500000.0 -12663500000.0 -12625100000.0 -12753300000.0 -12678500000.0 -12737100000.0 -12710600000.0 -12664500000.0 -12551100000.0 -12581600000.0 -12648700000.0 -12549700000.0 -12608100000.0 -12597800000.0 -12634700000.0 -12661400000.0 -12645300000.0 -12563700000.0 -12553500000.0 -12557500000.0 -12558700000.0 -12550700000.0 -12552000000.0 -12567400000.0 -12670700000.0 -12549900000.0 -12549700000.0 -12568600000.0 -12559200000.0 -12567400000.0 -12553500000.0 -12563300000.0 -12555000000.0 -12556300000.0 -12559300000.0 -12551600000.0 -12549700000.0 -12571300000.0 -12585500000.0 -12588400000.0 -12596500000.0 -12600500000.0 -12578100000.0 -12563200000.0 -12557700000.0 -12561700000.0 -12565700000.0 -12601300000.0 -12571800000.0 -12620200000.0 -12586900000.0 -12614700000.0 -12552100000.0 -12576000000.0 -12549700000.0 -12567200000.0 -12738900000.0 -12553700000.0 -12631300000.0 -12655700000.0 -12664400000.0 -12614000000.0 -12632000000.0 -12614100000.0 -13179200000.0 -12681300000.0 -12757500000.0 -12694500000.0 -12682900000.0 -12839600000.0 -12616400000.0 -12572500000.0 -12691000000.0 -12603000000.0 -12643300000.0 -12875900000.0 -12630100000.0 -12609500000.0 -12623300000.0 -12663000000.0 -12624000000.0 -12598800000.0 -12599100000.0 -12596600000.0 -12587800000.0 -12695500000.0 -12657100000.0 -12549700000.0 -12667800000.0 -12550300000.0 -12632500000.0 -12601400000.0 -12699700000.0 -12647500000.0 -12613300000.0 -12704900000.0 -12603900000.0 -12554500000.0 -12550000000.0 -12726400000.0 -12650000000.0 -12552100000.0 -12736700000.0 -12726100000.0 -12748300000.0 -12549700000.0 -12571700000.0 -12617200000.0 -12647800000.0 -12569800000.0 -12560900000.0 -12631400000.0 -12559900000.0 -12553600000.0 -12557100000.0 -12557600000.0 -12555400000.0 -12561800000.0 -12624300000.0 -12610500000.0 -12647400000.0 -12610100000.0 -12630100000.0 -12576100000.0 -12599200000.0 -12562400000.0 -12559300000.0 -12566200000.0 -12558000000.0 -12568200000.0 -12561300000.0 -12574700000.0 -12569300000.0 -12591400000.0 -12574300000.0 -12587100000.0 -12553300000.0 -12549700000.0 -12550700000.0 -12555700000.0 -12554700000.0 -12596300000.0 -12558000000.0 -12588200000.0 -12579700000.0 -12589100000.0 -12593300000.0 -12549700000.0 -12601400000.0 -12607500000.0 -12583500000.0 -12611000000.0 -12590000000.0 -12645400000.0 -12657400000.0 -12622300000.0 -12549700000.0 -12713900000.0 -12643200000.0 -12552100000.0 -12585900000.0 -12577100000.0 -12646400000.0 -12661900000.0 -12693800000.0 -12635200000.0 -13289400000.0 -12690600000.0 -12753100000.0 -12671600000.0 -13029700000.0 -12869700000.0 -12848000000.0 -12751000000.0 -12754200000.0 -12894400000.0 -12551100000.0 -12685900000.0 -12558400000.0 -12560900000.0 -12549700000.0 -12707400000.0 -12595600000.0 -12632200000.0 -12704100000.0 -12644700000.0 -12664700000.0 -12586000000.0 -12554800000.0 -12549700000.0 -12550200000.0 -12551400000.0 -12591900000.0 -12640400000.0 -12616700000.0 -12586700000.0 -12676400000.0 -12606400000.0 -12667300000.0 -12574400000.0 -12611100000.0 -12554800000.0 -12660800000.0 -12583800000.0 -12595200000.0 -12552700000.0 -12722800000.0 -12748600000.0 -12738200000.0 -12760400000.0 -12669200000.0 -12554900000.0 -12549700000.0 -12555700000.0 -12551100000.0 -12550800000.0 -12552200000.0 -12589000000.0 -12551600000.0 -12600300000.0 -12552900000.0 -12600700000.0 -12576800000.0 -12579600000.0 -12552400000.0 -12552400000.0 -12557600000.0 -12557400000.0 -12551600000.0 -12566900000.0 -12553600000.0 -12568800000.0 -12551300000.0 -12574100000.0 -12555900000.0 -12555900000.0 -12560100000.0 -12550700000.0 -12549900000.0 -12550000000.0 -12549700000.0 -12550000000.0 -12573300000.0 -12572300000.0 -12550300000.0 -12551900000.0 -12625100000.0 -12598800000.0 -12580000000.0 -12626900000.0 -12634500000.0 -12603500000.0 -12557000000.0 -12595800000.0 -12565500000.0 -12562300000.0 -12660700000.0 -12708100000.0 -12605700000.0 -12549900000.0 -12575500000.0 -12579600000.0 -12550100000.0 -12668200000.0 -12584800000.0 -12749700000.0 -12805100000.0 -13029200000.0 -12552000000.0 -12899100000.0 -12951300000.0 -12820400000.0 -12664500000.0 -12763600000.0 -12671300000.0 -12680700000.0 -12758000000.0 -12864400000.0 -12667800000.0 -12697600000.0 -12582400000.0 -12568900000.0 -12694400000.0 -12560700000.0 -12557500000.0 -12571600000.0 -12591600000.0 -12567800000.0 -12612900000.0 -12585600000.0 -12596000000.0 -12598800000.0 -12549700000.0 -12562600000.0 -12588100000.0 -12564400000.0 -12565100000.0 -12625400000.0 -12652100000.0 -12566800000.0 -12638500000.0 -12549700000.0 -12637300000.0 -12610100000.0 -12569700000.0 -12583500000.0 -12603400000.0 -12600600000.0 -12581100000.0 -12565200000.0 -12602200000.0 -12602200000.0 -12617300000.0 -12694100000.0 -12624100000.0 -12628400000.0 -12821300000.0 -12659200000.0 -12633900000.0 -12553500000.0 -12549700000.0 -12555700000.0 -12551200000.0 -12550700000.0 -12559500000.0 -12555900000.0 -12550600000.0 -12575200000.0 -12561400000.0 -12592100000.0 -12549700000.0 -12565700000.0 -12571100000.0 -12556200000.0 -12550800000.0 -12553500000.0 -12549800000.0 -12557200000.0 -12567900000.0 -12551400000.0 -12550800000.0 -12553200000.0 -12552900000.0 -12549800000.0 -12550600000.0 -12552800000.0 -12549700000.0 -12554300000.0 -12549900000.0 -12549800000.0 -12550500000.0 -12559800000.0 -12559100000.0 -12587700000.0 -12586900000.0 -12633800000.0 -12565300000.0 -12560000000.0 -12566800000.0 -12709500000.0 -12661900000.0 -12659300000.0 -12651000000.0 -12672700000.0 -12708400000.0 -12550000000.0 -12692800000.0 -12610000000.0 -12623900000.0 -12655300000.0 -12605900000.0 -12823300000.0 -12555100000.0 -12688000000.0 -12910300000.0 -12865100000.0 -12837900000.0 -12865500000.0 -12567700000.0 -12742600000.0 -12713200000.0 -12779700000.0 -12613800000.0 -12650500000.0 -12549700000.0 -12896000000.0 -12704000000.0 -12741900000.0 -12719600000.0 -12688300000.0 -12556400000.0 -12559100000.0 -12554600000.0 -12573400000.0 -12579800000.0 -12587500000.0 -12595500000.0 -12591100000.0 -12549800000.0 -12581100000.0 -12550500000.0 -12560200000.0 -12559800000.0 -12595800000.0 -12554900000.0 -12584300000.0 -12566500000.0 -12595800000.0 -12578200000.0 -12626300000.0 -12576400000.0 -12565100000.0 -12573900000.0 -12583800000.0 -12581700000.0 -12592400000.0 -12582100000.0 -12550000000.0 -12549700000.0 -12708900000.0 -12591600000.0 -12556300000.0 -12566500000.0 -12567700000.0 -12566400000.0 -12566300000.0 -12562400000.0 -12562900000.0 -12562800000.0 -12552200000.0 -12581000000.0 -12585100000.0 -12580500000.0 -12565200000.0 -12566400000.0 -12566400000.0 -12563000000.0 -12558600000.0 -12560900000.0 -12549800000.0 -12549700000.0 -12550700000.0 -12549800000.0 -12552600000.0 -12550900000.0 -12550700000.0 -12552800000.0 -12550600000.0 -12549800000.0 -12550500000.0 -12554600000.0 -12551800000.0 -12580600000.0 -12550000000.0 -12550800000.0 -12576200000.0 -12642200000.0 -12619300000.0 -12638300000.0 -12692400000.0 -12580600000.0 -12553900000.0 -12593500000.0 -12584000000.0 -12833400000.0 -12673900000.0 -12761600000.0 -12758000000.0 -12768900000.0 -12645500000.0 -12769300000.0 -12557800000.0 -12618300000.0 -12968400000.0 -13276600000.0 -12585900000.0 -12579300000.0 -12896800000.0 -12607100000.0 -12824200000.0 -12563900000.0 -12612200000.0 -12549700000.0 -12796000000.0 -12623800000.0 -12556700000.0 -12578400000.0 -12617800000.0 -12696300000.0 -12594600000.0 -12596300000.0 -12589900000.0 -12589500000.0 -12568200000.0 -12598200000.0 -12565600000.0 -12583100000.0 -12550200000.0 -12557100000.0 -12569600000.0 -12553900000.0 -12556200000.0 -12605100000.0 -12585000000.0 -12563700000.0 -12566700000.0 -12549700000.0 -12587300000.0 -12613300000.0 -12549700000.0 -12570800000.0 -12551400000.0 -12550300000.0 -12549800000.0 -12581800000.0 -12562600000.0 -12555000000.0 -12607200000.0 -12614000000.0 -12622800000.0 -12596500000.0 -12673600000.0 -12589300000.0 -12578000000.0 -12556200000.0 -12549700000.0 -12549700000.0 -12553700000.0 -12552300000.0 -12551200000.0 -12553100000.0 -12552400000.0 -12551300000.0 -12552600000.0 -12560700000.0 -12558900000.0 -12552200000.0 -12553400000.0 -12553700000.0 -12554900000.0 -12558300000.0 -12560900000.0 -12554800000.0 -12554400000.0 -12555800000.0 -12556900000.0 -12559900000.0 -12557700000.0 -12559000000.0 -12559300000.0 -12555900000.0 -12561700000.0 -12566800000.0 -12572500000.0 -12612000000.0 -12595200000.0 -12596000000.0 -12626300000.0 -12558300000.0 -12583100000.0 -12552100000.0 -12687800000.0 -12646100000.0 -12590300000.0 -12556400000.0 -12568700000.0 -12747300000.0 -12612800000.0 -12560800000.0 -12566400000.0 -12842900000.0 -12549700000.0 -12716100000.0 -12642400000.0 -12608500000.0 -12550100000.0 -12995200000.0 -12571100000.0 -12558000000.0 -12550700000.0 -12868700000.0 -12556000000.0 -12843300000.0 -12672500000.0 -12691000000.0 -12783400000.0 -12702500000.0 -12695700000.0 -12718400000.0 -12697900000.0 -12601500000.0 -12586900000.0 -12590500000.0 -12589600000.0 -12626200000.0 -12632900000.0 -12591300000.0 -12579800000.0 -12588800000.0 -12581700000.0 -12571800000.0 -12567600000.0 -12566600000.0 -12600900000.0 -12564100000.0 -12562600000.0 -12576500000.0 -12582700000.0 -12646200000.0 -12566600000.0 -12563000000.0 -12605500000.0 -12591200000.0 -12581000000.0 -12581800000.0 -12580200000.0 -12559000000.0 -12570700000.0 -12563300000.0 -12550200000.0 -12563000000.0 -12634200000.0 -12565700000.0 -12574200000.0 -12553600000.0 -12550400000.0 -12552400000.0 -12549700000.0 -12549700000.0 -12549800000.0 -12551800000.0 -12550700000.0 -12549800000.0 -12549700000.0 -12552300000.0 -12553900000.0 -12549800000.0 -12549700000.0 -12549700000.0 -12549700000.0 -12549700000.0 -12552800000.0 -12558500000.0 -12558000000.0 -12557200000.0 -12556900000.0 -12555400000.0 -12556500000.0 -12554500000.0 -12558100000.0 -12563200000.0 -12571300000.0 -12579600000.0 -12606200000.0 -12558100000.0 -12569000000.0 -12563900000.0 -12614800000.0 -12584800000.0 -12577900000.0 -12596200000.0 -12651500000.0 -12550300000.0 -12667200000.0 -12617600000.0 -12627400000.0 -12667300000.0 -12691600000.0 -12553000000.0 -12572900000.0 -12873800000.0 -12749900000.0 -12609100000.0 -12659500000.0 -13003300000.0 -12578400000.0 -12614800000.0 -13063500000.0 -12550700000.0 -12555100000.0 -13053300000.0 -12803700000.0 -12851100000.0 -12588700000.0 -12691500000.0 -12634400000.0 -12643200000.0 -12590300000.0 -12552800000.0 -12549700000.0 -12597500000.0 -12603300000.0 -12620700000.0 -12622000000.0 -12629700000.0 -12597200000.0 -12643500000.0 -12611000000.0 -12554600000.0 -12564400000.0 -12552300000.0 -12556200000.0 -12549700000.0 -12550600000.0 -12549700000.0 -12580400000.0 -12557900000.0 -12560600000.0 -12560800000.0 -12565100000.0 -12612600000.0 -12562900000.0 -12562800000.0 -12565000000.0 -12556900000.0 -12563400000.0 -12578000000.0 -12549800000.0 -12552800000.0 -12566100000.0 -12550400000.0 -12599600000.0 -12588400000.0 -12574300000.0 -12570900000.0 -12550800000.0 -12550300000.0 -12551200000.0 -12549700000.0 -12549700000.0 -12549900000.0 -12551200000.0 -12550300000.0 -12549700000.0 -12549700000.0 -12549700000.0 -12551800000.0 -12549700000.0 -12549700000.0 -12549700000.0 -12550100000.0 -12549800000.0 -12552600000.0 -12550600000.0 -12550600000.0 -12549800000.0 -12550900000.0 -12552400000.0 -12552100000.0 -12555700000.0 -12557800000.0 -12557600000.0 -12556300000.0 -12568100000.0 -12574900000.0 -12558600000.0 -12577300000.0 -12584400000.0 -12594300000.0 -12599400000.0 -12605800000.0 -12605200000.0 -12622900000.0 -12659100000.0 -12699800000.0 -12550200000.0 -12682400000.0 -12746900000.0 -12794500000.0 -12854500000.0 -12890100000.0 -13072400000.0 -12877900000.0 -12814900000.0 -13050500000.0 -13192800000.0 -12552700000.0 -12856000000.0 -13091500000.0 -12810900000.0 -12905500000.0 -12602200000.0 -12658600000.0 -12860600000.0 -12713200000.0 -12658400000.0 -12587800000.0 -12559800000.0 -12565200000.0 -12560100000.0 -12582500000.0 -12553000000.0 -12557300000.0 -12555700000.0 -12582600000.0 -12595200000.0 -12563200000.0 -12560700000.0 -12559400000.0 -12556700000.0 -12572300000.0 -12549800000.0 -12551500000.0 -12550200000.0 -12551400000.0 -12551800000.0 -12550500000.0 -12563100000.0 -12549700000.0 -12552500000.0 -12553000000.0 -12587200000.0 -12580000000.0 -12595300000.0 -12602600000.0 -12556900000.0 -12562700000.0 -12550800000.0 -12549900000.0 -12549700000.0 -12549700000.0 -12549700000.0 -12549700000.0 -12550200000.0 -12549900000.0 -12549700000.0 -12549700000.0 -12549700000.0 -12550400000.0 -12549700000.0 -12549700000.0 -12549700000.0 -12549700000.0 -12549900000.0 -12551600000.0 -12550900000.0 -12551000000.0 -12550800000.0 -12550000000.0 -12550100000.0 -12550300000.0 -12552200000.0 -12550500000.0 -12551300000.0 -12551700000.0 -12555100000.0 -12553100000.0 -12551600000.0 -12557300000.0 -12554100000.0 -12558300000.0 -12564600000.0 -12567900000.0 -12749600000.0 -12650900000.0 -12681700000.0 -12748300000.0 -12554900000.0 -12606100000.0 -12764200000.0 -12596700000.0 -12950000000.0 -12631800000.0 -12694000000.0 -12951700000.0 -12677400000.0 -12823200000.0 -12727900000.0 -12705800000.0 -12573400000.0 -12633600000.0 -12610800000.0 -12860800000.0 -12687000000.0 -12584200000.0 -12569200000.0 -12582900000.0 -12580600000.0 -12580500000.0 -12552800000.0 -12550500000.0 -12550200000.0 -12550900000.0 -12560200000.0 -12553000000.0 -12553200000.0 -12552800000.0 -12550700000.0 -12579300000.0 -12566500000.0 -12562100000.0 -12549700000.0 -12566500000.0 -12553100000.0 -12552300000.0 -12555100000.0 -12556000000.0 -12555400000.0 -12557300000.0 -12560700000.0 -12586400000.0 -12563400000.0 -12560500000.0 -12553900000.0 -12555300000.0 -12552100000.0 -12551200000.0 -12555800000.0 -12551500000.0 -12579100000.0 -12570500000.0 -12560200000.0 -12550100000.0 -12551200000.0 -12567200000.0 -12555400000.0 -12567500000.0 -12601400000.0 -12595300000.0 -12584500000.0 -12723200000.0 -12611300000.0 -12633200000.0 -12761100000.0 -12709700000.0 -12774700000.0 -12649200000.0 -12695500000.0 -12825700000.0 -12550000000.0 -12680800000.0 -12883400000.0 -12668200000.0 -12632400000.0 -12632700000.0 -12782600000.0 -12556900000.0 -12552100000.0 -12552400000.0 -12556400000.0 -12549700000.0 -12550900000.0 -12551200000.0 -12550800000.0 -12571700000.0 -12592000000.0 -12590800000.0 -12566200000.0 -12685600000.0 -12582700000.0 -12558700000.0 -12749700000.0 -12691500000.0 -12698000000.0 -12549700000.0 -12597800000.0 -12955300000.0 -12677900000.0 -12834300000.0 -12758300000.0 -12607400000.0 -12636700000.0 -12614000000.0 -12618100000.0 -12764500000.0 -12570100000.0 -12599000000.0 -12615100000.0 -12639600000.0 -12613000000.0 -12596500000.0 -12757300000.0 -12907600000.0 -12705600000.0 -12742200000.0 -12652500000.0 -12571300000.0 -13126900000.0 -12764600000.0 -12855300000.0 -12658300000.0 -12607500000.0 -12549700000.0 -12812300000.0 -12557200000.0 -12563100000.0 -12598100000.0 -12582000000.0 -12614500000.0 -12609200000.0 -12717100000.0 -12550700000.0 -12681700000.0 -12568200000.0 -12566200000.0 -12847800000.0 -13051000000.0 -12549700000.0 -12658300000.0 -12754100000.0 -12549700000.0 -12625700000.0 -12621000000.0 -12746900000.0 -12558000000.0 -12559300000.0 -12549700000.0 -12549700000.0 -12629700000.0 -12623500000.0 -12750800000.0 -12726300000.0 -12583900000.0 -12677800000.0 -12564700000.0 -12570100000.0 -13006300000.0 -12620600000.0 -12575100000.0 -12745300000.0 -12580800000.0 -12614000000.0 -12594400000.0 -12669800000.0 -12570300000.0 -12558300000.0 -12557200000.0 -12549700000.0 -12549700000.0 -12549700000.0 -12561000000.0 -12607000000.0 -12608200000.0 -12594300000.0 -12648500000.0 -12588600000.0 -12702400000.0 -12634700000.0 -12637300000.0 -13007200000.0 -12570800000.0 -12607800000.0 -12596300000.0 -12684700000.0 -12596400000.0 -12719600000.0 -12671000000.0 -12611300000.0 -12575700000.0 -12549700000.0 -12549700000.0 -12549700000.0 -12549700000.0 -12549700000.0 -12549700000.0 -12549700000.0 -12549700000.0 -12549700000.0 -12549700000.0 -12549700000.0 -12549700000.0 -12549700000.0 -12549700000.0 -12549700000.0 -12549700000.0 -12549700000.0 -12549700000.0 -12549700000.0 -12549700000.0 -12549700000.0 -12549700000.0 -12549700000.0 -12549700000.0 -12549700000.0 -12549700000.0 -12557600000.0 -12553600000.0 -12597600000.0 -12576500000.0 -12570700000.0 -12610600000.0 -12645800000.0 -12655200000.0 -12586400000.0 -12649800000.0 -13014400000.0 -12586900000.0 -12578300000.0 -12560200000.0 -12556200000.0 -12707200000.0 -12726700000.0 -12591600000.0 -12583500000.0 -12561100000.0 -12554800000.0 -12550800000.0 -12549700000.0 -12549700000.0 -12549700000.0 -12549700000.0 -12549700000.0 -12549700000.0 -12549700000.0 -12549700000.0 -12549700000.0 -12549700000.0 -12549700000.0 -12549700000.0 -12549700000.0 -12549700000.0 -12549700000.0 -12549700000.0 -12549700000.0 -12549700000.0 -12549700000.0 -12549700000.0 -12549700000.0 -12549700000.0 -12549700000.0 -12549700000.0 -12549700000.0 -12549700000.0 -12549700000.0 -12588900000.0 -12566900000.0 -12551300000.0 -12565500000.0 -12623500000.0 -12606900000.0 -12738300000.0 -12713400000.0 -12665800000.0 -12617500000.0 -12657600000.0 -12839600000.0 -12583300000.0 -12555200000.0 -12667700000.0 -12635400000.0 -12553600000.0 -12550500000.0 -12550000000.0 -12612500000.0 -12559000000.0 -12553100000.0 -12549700000.0 -12549700000.0 -12549700000.0 -12549700000.0 -12549700000.0 -12549700000.0 -12549700000.0 -12549700000.0 -12549700000.0 -12549700000.0 -12549700000.0 -12549700000.0 -12549700000.0 -12549700000.0 -12549700000.0 -12549700000.0 -12549700000.0 -12549700000.0 -12549700000.0 -12549700000.0 -12549700000.0 -12549700000.0 -12549700000.0 -12549700000.0 -12549700000.0 -12549700000.0 -12549700000.0 -12549700000.0 -12549700000.0 -12549700000.0 -12549700000.0 -12549700000.0 -12549700000.0 -12549700000.0 -12549700000.0 -12549700000.0 -12550300000.0 -12553100000.0 -12554800000.0 -12557600000.0 -12560900000.0 -12600200000.0 -12566600000.0 -12572200000.0 -12635800000.0 -12650200000.0 -12610100000.0 -12572100000.0 -12593100000.0 -12623200000.0 -12853000000.0 -12595500000.0 -12610100000.0 -12707500000.0 -12657800000.0 -12559500000.0 -12560400000.0 -12612700000.0 -12551100000.0 -12556200000.0 -12559500000.0 -12552900000.0 -12550700000.0 -12549800000.0 -12549700000.0 -12549700000.0 -12549700000.0 -12549700000.0 -12549700000.0 -12549700000.0 -12549700000.0 -12549700000.0 -12549700000.0 -12549700000.0 -12549700000.0 -12549700000.0 -12549700000.0 -12549700000.0 -12549700000.0 -12549700000.0 -12549700000.0 -12549700000.0 -12549700000.0 -12549700000.0 -12549700000.0 -12549700000.0 -12549700000.0 -12549700000.0 -12549700000.0 -12549700000.0 -12549700000.0 -12549700000.0 -12549700000.0 -12549700000.0 -12549700000.0 -12549700000.0 -12549700000.0 -12549700000.0 -12549700000.0 -12549700000.0 -12549700000.0 -12549700000.0 -12549700000.0 -12549700000.0 -12549700000.0 -12549700000.0 -12549700000.0 -12549700000.0 -12549700000.0 -12549700000.0 -12549700000.0 -12575000000.0 -12573100000.0 -12598400000.0 -12605600000.0 -12592000000.0 -12589800000.0 -12631300000.0 -12609700000.0 -12632500000.0 -12713000000.0 -12679700000.0 -12781600000.0 -12747700000.0 -12634100000.0 -12690800000.0 -12555600000.0 -12591900000.0 -12593700000.0 -12595800000.0 -12549900000.0 -12557100000.0 -12550200000.0 -12549900000.0 -12549700000.0 -12549700000.0 -12549700000.0 -12549700000.0 -12549700000.0 -12549700000.0 -12549700000.0 -12549700000.0 -12549700000.0 -12549700000.0 -12549700000.0 -12549700000.0 -12549700000.0 -12549700000.0 -12549700000.0 -12549700000.0 -12549700000.0 -12549700000.0 -12549700000.0 -12549700000.0 -12549700000.0 -12549700000.0 -12549700000.0 -12549700000.0 -12549700000.0 -12549700000.0 -12549700000.0 -12549700000.0 -12549700000.0 -12549700000.0 -12549700000.0 -12549700000.0 -12549700000.0 -12549700000.0 -12549700000.0 -12549700000.0 -12549700000.0 -12549700000.0 -12549700000.0 -12549700000.0 -12549700000.0 -12549800000.0 -12549700000.0 -12550900000.0 -12550900000.0 -12563700000.0 -12557100000.0 -12566300000.0 -12555600000.0 -12606300000.0 -12549800000.0 -12596700000.0 -12584400000.0 -12580300000.0 -12656600000.0 -12604800000.0 -12734200000.0 -12549700000.0 -12551700000.0 -12665100000.0 -12767800000.0 -12657600000.0 -12578800000.0 -12567600000.0 -12569300000.0 -12551700000.0 -12550500000.0 -12549800000.0 -12549700000.0 -12549700000.0 -12549700000.0 -12549700000.0 -12549700000.0 -12549700000.0 -12549700000.0 -12549700000.0 -12549700000.0 -12549700000.0 -12549700000.0 -12549700000.0 -12549700000.0 -12549700000.0 -12549700000.0 -12549700000.0 -12549700000.0 -12549700000.0 -12549700000.0 -12549700000.0 -12549700000.0 -12549700000.0 -12549700000.0 -12549700000.0 -12549700000.0 -12549700000.0 -12549700000.0 -12549700000.0 -12549700000.0 -12549700000.0 -12549700000.0 -12549700000.0 -12549700000.0 -12549700000.0 -12549700000.0 -12549700000.0 -12549700000.0 -12549700000.0 -12549700000.0 -12549700000.0 -12549700000.0 -12549700000.0 -12549700000.0 -12549700000.0 -12549700000.0 -12549700000.0 -12549700000.0 -12549700000.0 -12549700000.0 -12549700000.0 -12549700000.0 -12549700000.0 -12549800000.0 -12549700000.0 -12551400000.0 -12552600000.0 -12556800000.0 -12567900000.0 -12560300000.0 -12552100000.0 -12638500000.0 -12623100000.0 -12595900000.0 -12643700000.0 -12653600000.0 -12584400000.0 -12579400000.0 -12691700000.0 -12662100000.0 -12635600000.0 -12554500000.0 -12652500000.0 -12603900000.0 -12561400000.0 -12550500000.0 -12552000000.0 -12549700000.0 -12549700000.0 -12549700000.0 -12549700000.0 -12549700000.0 -12549700000.0 -12549700000.0 -12549700000.0 -12549700000.0 -12549700000.0 -12549700000.0 -12549700000.0 -12549700000.0 -12549700000.0 -12549700000.0 -12549700000.0 -12549700000.0 -12549700000.0 -12549700000.0 -12549700000.0 -12549700000.0 -12549700000.0 -12549700000.0 -12549700000.0 -12549700000.0 -12549700000.0 -12549700000.0 -12549700000.0 -12549700000.0 -12549700000.0 -12549700000.0 -12549700000.0 -12549700000.0 -12549700000.0 -12549700000.0 -12549700000.0 -12549700000.0 -12549700000.0 -12549700000.0 -12549700000.0 -12549700000.0 -12549700000.0 -12549700000.0 -12579900000.0 -12610700000.0 -12612100000.0 -12549800000.0 -12553300000.0 -12565700000.0 -12558300000.0 -12587600000.0 -12563400000.0 -12550300000.0 -12612000000.0 -12564200000.0 -12560100000.0 -12558500000.0 -12613400000.0 -12603600000.0 -12627300000.0 -12600400000.0 -12549700000.0 -12604300000.0 -12563200000.0 -12556900000.0 -12551600000.0 -12554500000.0 -12550100000.0 -12549700000.0 -12549700000.0 -12549700000.0 -12549700000.0 -12549700000.0 -12549700000.0 -12549700000.0 -12549700000.0 -12549700000.0 -12549700000.0 -12549700000.0 -12549700000.0 -12549700000.0 -12549700000.0 -12549700000.0 -12549700000.0 -12549700000.0 -12549700000.0 -12549700000.0 -12549700000.0 -12549700000.0 -12549700000.0 -12549700000.0 -12549700000.0 -12549700000.0 -12549700000.0 -12549700000.0 -12549700000.0 -12549700000.0 -12549700000.0 -12549700000.0 -12549700000.0 -12549700000.0 -12549700000.0 -12549700000.0 -12549700000.0 -12549700000.0 -12549700000.0 -12549700000.0 -12549700000.0 -12549700000.0 -12552300000.0 -12551400000.0 -12590100000.0 -12553900000.0 -12558600000.0 -12571200000.0 -12551200000.0 -12559800000.0 -12597300000.0 -12558400000.0 -12551300000.0 -12556100000.0 -12549700000.0 -12668400000.0 -12647300000.0 -12549700000.0 -12551900000.0 -12581100000.0 -12554500000.0 -12549700000.0 -12549700000.0 -12549700000.0 -12549700000.0 -12549700000.0 -12549700000.0 -12549700000.0 -12549700000.0 -12549700000.0 -12549700000.0 -12549700000.0 -12549700000.0 -12549700000.0 -12549700000.0 -12549700000.0 -12549700000.0 -12549700000.0 -12549700000.0 -12549700000.0 -12549700000.0 -12549700000.0 -12549700000.0 -12549700000.0 -12549700000.0 -12549700000.0 -12549700000.0 -12549700000.0 -12549700000.0 -12549700000.0 -12549700000.0 -12549700000.0 -12549700000.0 -12549700000.0 -12549700000.0 -12549700000.0 -12549700000.0 -12549700000.0 -12549700000.0 -12549700000.0 -12549700000.0 -12549700000.0 -12549700000.0 -12549700000.0 -12549700000.0 -12572500000.0 -12576600000.0 -12554500000.0 -12555600000.0 -12556700000.0 -12556500000.0 -12549800000.0 -12572800000.0 -12572400000.0 -12553100000.0 -12550400000.0 -12630100000.0 -12550800000.0 -12637900000.0 -12578200000.0 -12580500000.0 -12553400000.0 -12549700000.0 -12549700000.0 -12549700000.0 -12549700000.0 -12549700000.0 -12549700000.0 -12549700000.0 -12549700000.0 -12549700000.0 -12549700000.0 -12549700000.0 -12549700000.0 -12549700000.0 -12549700000.0 -12549700000.0 -12549700000.0 -12549700000.0 -12549700000.0 -12549700000.0 -12549700000.0 -12549700000.0 -12549700000.0 -12549700000.0 -12549700000.0 -12549700000.0 -12549700000.0 -12549700000.0 -12549700000.0 -12549700000.0 -12549700000.0 -12549700000.0 -12549700000.0 -12549700000.0 -12549700000.0 -12549700000.0 -12549700000.0 -12549700000.0 -12549700000.0 -12549700000.0 -12549700000.0 -12549700000.0 -12549700000.0 -12549700000.0 -12549700000.0 -12554100000.0 -12549900000.0 -12559000000.0 -12564300000.0 -12558300000.0 -12555900000.0 -12558300000.0 -12561400000.0 -12559200000.0 -12571400000.0 -12575100000.0 -12594400000.0 -12579100000.0 -12611900000.0 -12650000000.0 -12558100000.0 -12584500000.0 -12584800000.0 -12563900000.0 -12571200000.0 -12555300000.0 -12552100000.0 -12549700000.0 -12549700000.0 -12549700000.0 -12549700000.0 -12549700000.0 -12549700000.0 -12549700000.0 -12549700000.0 -12549700000.0 -12549700000.0 -12549700000.0 -12549700000.0 -12549700000.0 -12549700000.0 -12549700000.0 -12549700000.0 -12549700000.0 -12549700000.0 -12549700000.0 -12549700000.0 -12549700000.0 -12549700000.0 -12549700000.0 -12549700000.0 -12549700000.0 -12549700000.0 -12549700000.0 -12549700000.0 -12549700000.0 -12549700000.0 -12549700000.0 -12549700000.0 -12558000000.0 -12551300000.0 -12561700000.0 -12549900000.0 -12555400000.0 -12583100000.0 -12568600000.0 -12559500000.0 -12579700000.0 -12551100000.0 -12588200000.0 -12549700000.0 -12592200000.0 -12577400000.0 -12554400000.0 -12561700000.0 -12563000000.0 -12549900000.0 -12550400000.0 -12550700000.0 -12549700000.0 -12549700000.0 -12549700000.0 -12549700000.0 -12549700000.0 -12549700000.0 -12549700000.0 -12549700000.0 -12549700000.0 -12549700000.0 -12549700000.0 -12549700000.0 -12549700000.0 -12549700000.0 -12549700000.0 -12549700000.0 -12549700000.0 -12549700000.0 -12549700000.0 -12549700000.0 -12549700000.0 -12549700000.0 -12549700000.0 -12549700000.0 -12549700000.0 -12550500000.0 -12556900000.0 -12550800000.0 -12560700000.0 -12551300000.0 -12555400000.0 -12562100000.0 -12566600000.0 -12563000000.0 -12549900000.0 -12567600000.0 -12551900000.0 -12559600000.0 -12591700000.0 -12557200000.0 -12569000000.0 -12561000000.0 -12555600000.0 -12558700000.0 -12549700000.0 -12549700000.0 -12549700000.0 -12549700000.0 -12549700000.0 -12549700000.0 -12549700000.0 -12549700000.0 -12549700000.0 -12549700000.0 -12549700000.0 -12549700000.0 -12549700000.0 -12549700000.0 -12549700000.0 -12549700000.0 -12549700000.0 -12549700000.0 -12549700000.0 -12549700000.0 -12549700000.0 -12549700000.0 -12549700000.0 -12549700000.0 -12549700000.0 -12549700000.0 -12549700000.0 -12549700000.0 -12560900000.0 -12562400000.0 -12552900000.0 -12563000000.0 -12564400000.0 -12569000000.0 -12580700000.0 -12568100000.0 -12572200000.0 -12577700000.0 -12580700000.0 -12581200000.0 -12592800000.0 -12551700000.0 -12562300000.0 -12565600000.0 -12549900000.0 -12549700000.0 -12556300000.0 -12554800000.0 -12551500000.0 -12553400000.0 -12549700000.0 -12549700000.0 -12549700000.0 -12549700000.0 -12549700000.0 -12549700000.0 -12549700000.0 -12549700000.0 -12549700000.0 -12549700000.0 -12549700000.0 -12549700000.0 -12549700000.0 -12549700000.0 -12550600000.0 -12556000000.0 -12552000000.0 -12553100000.0 -12551800000.0 -12554100000.0 -12563000000.0 -12561700000.0 -12571300000.0 -12564700000.0 -12551400000.0 -12549700000.0 -12550200000.0 -12580400000.0 -12560700000.0 -12549700000.0 -12549700000.0 -12553100000.0 -12550800000.0 -12549700000.0 -12549700000.0 -12549700000.0 -12549700000.0 -12549700000.0 -12549700000.0 -12549700000.0 -12549700000.0 -12549700000.0 -12549700000.0 -12549700000.0 -12549700000.0 -12549700000.0 -12549700000.0 -12549700000.0 -12549700000.0 -12549700000.0 -12549700000.0 -12550100000.0 -12553500000.0 -12554100000.0 -12553800000.0 -12553300000.0 -12553100000.0 -12553800000.0 -12560400000.0 -12551900000.0 -12553700000.0 -12555000000.0 -12551300000.0 -12555700000.0 -12551100000.0 -12571500000.0 -12549700000.0 -12559200000.0 -12560400000.0 -12554200000.0 -12551100000.0 -12550300000.0 -12549700000.0 -12549700000.0 -12549700000.0 -12549700000.0 -12549700000.0 -12549700000.0 -12549700000.0 -12549700000.0 -12549700000.0 -12549700000.0 -12549700000.0 -12549700000.0 -12549700000.0 -12549700000.0 -12549900000.0 -12550900000.0 -12552100000.0 -12549900000.0 -12550400000.0 -12550000000.0 -12550900000.0 -12555100000.0 -12550200000.0 -12552100000.0 -12549700000.0 -12553700000.0 -12549800000.0 -12552100000.0 -12554000000.0 -12555600000.0 -12558900000.0 -12549700000.0 -12561100000.0 -12549700000.0 -12549700000.0 -12550300000.0 -12549700000.0 -12549700000.0 -12549700000.0 -12549700000.0 -12549700000.0 -12549700000.0 -12549700000.0 -12549700000.0 -12549700000.0 -12549700000.0 -12549800000.0 -12549700000.0 -12550600000.0 -12549700000.0 -12549700000.0 -12549900000.0 -12553000000.0 -12550400000.0 -12549900000.0 -12554000000.0 -12552000000.0 -12551000000.0 -12552400000.0 -12551000000.0 -12550100000.0 -12549800000.0 -12556800000.0 -12554400000.0 -12551000000.0 -12549700000.0 -12549700000.0 -12549700000.0 -12549700000.0 -12549700000.0 -12549700000.0 -12549800000.0 -12550300000.0 -12550000000.0 -12549900000.0 -12549800000.0 -12550000000.0 -12549700000.0 -12551600000.0 -12549700000.0 -12553400000.0 -12551700000.0 -12549700000.0 -12549700000.0 -12549800000.0 -12549700000.0 -12550200000.0 -12549900000.0 -12549800000.0 -12549700000.0 -12550400000.0 -12549800000.0 -12549700000.0 -12549700000.0 -12549700000.0 -12549700000.0 -12549700000.0 -12549700000.0 -12549700000.0 -12549700000.0 -12549700000.0 -12549700000.0 -12549700000.0 -12549700000.0 -12549700000.0 -12549800000.0 -12550000000.0 -12550100000.0 -12551200000.0 -12550800000.0 -12551600000.0 -12549700000.0 -12549800000.0 -12550000000.0 -12549800000.0 -12549800000.0 -12549700000.0 -12549700000.0 -12549700000.0 -12549700000.0 -12549700000.0 -12549700000.0 -12549700000.0 -12549700000.0 -12549700000.0 -12549700000.0 -12549700000.0 -12549700000.0 -12549700000.0 -12549700000.0 -12549700000.0 -12549700000.0 -12549700000.0 -12549700000.0 -12549700000.0 -12549700000.0 -12549700000.0 -12549700000.0 -12549700000.0 -12549700000.0 -12549700000.0 -12549700000.0 -12549700000.0 -12549700000.0 -12549700000.0 -2.66718e+12 -4.12055e+12 -3.67641e+12 -4.85578e+12 -4.04119e+12 -4.1035e+12 -3.9239e+12 -3.77821e+12 -3.5389e+12 -3.18891e+12 -5.79454e+12 -3.00196e+12 -3.5029e+12 -5.1061e+12 -4.78283e+12 -6.33754e+12 -4.40336e+12 -3.20081e+12 -3.93443e+12 -3.02609e+12 -4.30223e+12 -5.18909e+12 -5.40581e+12 -4.94631e+12 -4.91308e+12 -3.71535e+12 -3.64018e+12 -3.92402e+12 -4.41008e+12 -4.04224e+12 -5.43858e+12 -5.24214e+12 -3.42758e+12 -2.62644e+12 -2.98975e+12 -3.79267e+12 -4.64521e+12 -6.27166e+12 -3.59858e+12 -4.53415e+12 -4.62746e+12 -3.83534e+12 -3.61487e+12 -3.15613e+12 -3.80259e+12 -3.62812e+12 -2.34771e+12 -2.69966e+12 -3.72705e+12 -2.78328e+12 -2.11691e+12 -1.79807e+12 -3.47245e+12 -4.82883e+12 -5.3973e+12 -4.0326e+12 -6.67551e+12 -4.48136e+12 -3.01505e+12 -4.72658e+12 -4.50214e+12 -4.23901e+12 -3.93525e+12 -5.93419e+12 -6.56564e+12 -5.3397e+12 -3.74869e+12 -5.32855e+12 -7.39202e+12 -4.57346e+12 -5.02716e+12 -5.7394e+12 -4.64579e+12 -4.45677e+12 -6.68453e+12 -6.00767e+12 -2.58192e+12 -4.09654e+12 -3.84898e+12 -3.78843e+12 -4.67148e+12 -4.06123e+12 -3.941e+12 -5.22623e+12 -4.63976e+12 -3.89708e+12 -4.43922e+12 -4.57184e+12 -2.70793e+12 -5.22891e+12 -4.18546e+12 -5.78513e+12 -6.51051e+12 -6.15817e+12 -5.77198e+12 -5.17116e+12 -4.70369e+12 -6.50766e+12 -4.14923e+12 -4.71021e+12 -6.27189e+12 -4.00673e+12 -4.89503e+12 -2.84831e+12 -2.5976e+12 -6.62088e+12 -5.44358e+12 -8.60541e+12 -6.14848e+12 -6.10451e+12 -7.73156e+12 -1.11408e+13 -5.47959e+12 -7.25863e+12 -4.07472e+12 -5.7166e+12 -4.73089e+12 -7.20251e+12 -7.03507e+12 -1.86859e+12 -5.19978e+12 -6.89295e+12 -4.28021e+12 -4.76657e+12 -6.09226e+12 -2.51547e+12 -5.82594e+12 -5.47122e+12 -6.83245e+12 -7.16525e+12 -1.11858e+13 -5.34711e+12 -6.22214e+12 -6.33998e+12 -5.45096e+12 -9.07354e+12 -7.69312e+12 -8.75468e+12 -5.61402e+12 -5.77321e+12 -8.90896e+12 -9.28678e+12 -8.03743e+12 -5.47167e+12 -5.2254e+12 -7.45324e+12 -6.32112e+12 -7.70165e+12 -7.09157e+12 -6.62896e+12 -6.98887e+12 -4.73445e+12 -8.27082e+12 -7.48467e+12 -1.08708e+13 -2.77268e+12 -3.95876e+12 -3.16646e+12 -5.00797e+12 -7.74356e+12 -8.23376e+12 -6.03869e+12 -4.82709e+12 -5.29811e+12 -6.86138e+12 -6.56245e+12 -2.89306e+12 -4.34279e+12 -4.1266e+12 -4.94421e+12 -4.69651e+12 -5.84793e+12 -5.06633e+12 -6.46319e+12 -9.19033e+12 -5.00196e+12 -4.08586e+12 -6.07538e+12 -3.85312e+12 -7.12036e+12 -6.3972e+12 -7.21203e+12 -3.71841e+12 -4.77519e+12 -4.94538e+12 -3.70907e+12 -2.42906e+12 -5.42123e+12 -4.30977e+12 -8.69362e+12 -8.11802e+12 -2.28632e+12 -5.25283e+12 -1.01825e+13 -3.26808e+12 -4.98971e+12 -3.96831e+12 -2.36807e+12 -7.16616e+12 -5.20115e+12 -7.55618e+12 -4.30344e+12 -4.24349e+12 -6.28681e+12 -6.16496e+12 -1.06669e+13 -6.56623e+12 -1.03286e+13 -7.26154e+12 -5.23906e+12 -9.0108e+12 -7.82033e+12 -5.34309e+12 -6.571e+12 -7.66356e+12 -7.36386e+12 -4.6261e+12 -6.74516e+12 -8.82776e+12 -1.03476e+13 -5.12748e+12 -7.66638e+12 -7.81451e+12 -4.62259e+12 -5.67042e+12 -4.94328e+12 -8.36063e+12 -6.43046e+12 -6.83399e+12 -8.40366e+12 -6.82361e+12 -6.2787e+12 -7.10092e+12 -6.22358e+12 -5.61957e+12 -5.49194e+12 -1.48665e+12 -2.92831e+12 -4.98014e+12 -4.30687e+12 -5.56983e+12 -6.44045e+12 -8.51882e+12 -6.92101e+12 -1.02189e+13 -5.62691e+12 -4.92576e+12 -6.38009e+12 -7.26768e+12 -3.83258e+12 -6.442e+12 -8.29619e+12 -7.11669e+12 -4.96227e+12 -6.02418e+12 -8.03069e+12 -6.43946e+12 -5.91813e+12 -9.85843e+12 -5.40744e+12 -7.21917e+12 -6.97058e+12 -8.2216e+12 -8.12725e+12 -4.10916e+12 -5.48277e+12 -4.70633e+12 -6.52447e+12 -7.27574e+12 -6.95836e+12 -5.09084e+12 -7.79978e+12 -6.07465e+12 -5.41468e+12 -5.11458e+12 -7.43899e+12 -9.08907e+12 -4.72396e+12 -6.39014e+12 -1.74902e+12 -3.55701e+12 -4.62903e+12 -6.71592e+12 -6.87187e+12 -4.23114e+12 -5.92602e+12 -2.25265e+12 -5.59412e+12 -7.26933e+12 -5.65315e+12 -5.96148e+12 -4.96844e+12 -5.73104e+12 -6.96311e+12 -6.60703e+12 -6.69933e+12 -6.89032e+12 -5.00343e+12 -8.63656e+12 -7.61892e+12 -6.15747e+12 -5.74925e+12 -5.40799e+12 -8.39952e+12 -6.52385e+12 -4.95754e+12 -7.61625e+12 -6.52927e+12 -6.47742e+12 -8.38081e+12 -5.83076e+12 -3.93439e+12 -9.97791e+12 -9.07398e+12 -6.04093e+12 -4.79484e+12 -9.58936e+12 -4.16244e+12 -7.48513e+12 -5.4078e+12 -5.39548e+12 -6.24999e+12 -7.16501e+12 -3.91625e+12 -1.06628e+13 -8.06311e+12 -4.50979e+12 -7.39438e+12 -3.98993e+12 -4.93351e+12 -7.10427e+12 -4.99433e+12 -4.77204e+12 -4.0717e+12 -5.12844e+12 -3.11119e+12 -4.79871e+12 -4.54849e+12 -4.42486e+12 -6.18138e+12 -6.56188e+12 -1.09606e+13 -8.1042e+12 -9.41158e+12 -6.79571e+12 -2.96913e+12 -6.74189e+12 -5.79414e+12 -2.65797e+12 -4.45888e+12 -3.84437e+12 -5.89978e+12 -4.26829e+12 -3.83494e+12 -7.53761e+12 -5.64308e+12 -5.48864e+12 -4.05938e+12 -5.78173e+12 -1.03778e+13 -6.62646e+12 -6.10831e+12 -3.86356e+12 -9.34981e+12 -9.62572e+12 -7.63374e+12 -3.75017e+12 -7.96655e+12 -4.60621e+12 -6.12265e+12 -4.86357e+12 -6.40839e+12 -6.14422e+12 -5.10927e+12 -6.51932e+12 -6.52515e+12 -6.09969e+12 -4.45606e+12 -7.29326e+12 -8.10558e+12 -4.96516e+12 -5.83655e+12 -8.34132e+12 -3.9221e+12 -3.78587e+12 -3.68269e+12 -5.73891e+12 -5.95004e+12 -4.04292e+12 -5.9081e+12 -3.87846e+12 -5.27466e+12 -5.01879e+12 -6.04123e+12 -7.57586e+12 -9.0197e+12 -4.62189e+12 -4.13154e+12 -3.07045e+12 -2.14294e+12 -6.59952e+12 -4.42163e+12 -8.96185e+12 -7.35424e+12 -6.20629e+12 -6.90223e+12 -1.0152e+13 -5.10702e+12 -3.77677e+12 -4.60151e+12 -5.91635e+12 -4.81823e+12 -4.98474e+12 -6.30407e+12 -4.83858e+12 -6.14536e+12 -4.95198e+12 -4.98693e+12 -4.16208e+12 -5.21159e+12 -4.13827e+12 -4.67431e+12 -4.1703e+12 -7.32657e+12 -7.3627e+12 -8.21763e+12 -7.2143e+12 -4.05546e+12 -4.85314e+12 -4.32635e+12 -3.5558e+12 -2.31675e+12 -6.1592e+12 -4.47531e+12 -4.45728e+12 -5.19334e+12 -8.07346e+12 -6.64879e+12 -7.40886e+12 -6.04881e+12 -4.24326e+12 -5.42702e+12 -5.4442e+12 -3.28145e+12 -5.95238e+12 -3.87117e+12 -5.666e+12 -7.63248e+12 -5.33493e+12 -4.59308e+12 -6.09605e+12 -6.24151e+12 -6.16064e+12 -6.84187e+12 -5.58319e+12 -3.63462e+12 -4.06419e+12 -5.16602e+12 -3.21705e+12 -4.56612e+12 -5.91486e+12 -4.43117e+12 -5.27921e+12 -3.83621e+12 -7.94247e+12 -4.78871e+12 -7.82367e+12 -5.31879e+12 -4.45016e+12 -5.88563e+12 -4.33168e+12 -5.98149e+12 -7.34439e+12 -5.74042e+12 -4.24115e+12 -8.27776e+12 -4.34411e+12 -8.62603e+12 -3.44524e+12 -3.52904e+12 -3.01042e+12 -2.93384e+12 -2.30521e+12 -3.76423e+12 -3.78469e+12 -8.54042e+12 -2.91843e+12 -3.62427e+12 -3.02626e+12 -5.13109e+12 -5.44829e+12 -5.53998e+12 -4.68033e+12 -2.56811e+12 -5.01188e+12 -7.54468e+12 -6.80062e+12 -7.68144e+12 -6.34201e+12 -6.79675e+12 -3.56774e+12 -4.0296e+12 -5.74286e+12 -6.27036e+12 -6.02819e+12 -7.57156e+12 -4.3989e+12 -5.87869e+12 -5.52267e+12 -5.77306e+12 -3.29638e+12 -3.58682e+12 -4.26604e+12 -5.51313e+12 -5.30646e+12 -3.5338e+12 -4.41639e+12 -4.32752e+12 -7.35387e+12 -3.17939e+12 -4.05089e+12 -2.80299e+12 -7.11962e+12 -4.35889e+12 -5.7184e+12 -3.7791e+12 -4.22475e+12 -4.94522e+12 -2.97449e+12 -4.4415e+12 -1.0082e+13 -4.38078e+12 -6.6742e+12 -7.97681e+12 -4.16113e+12 -4.49789e+12 -648724000000.0 -5.9713e+12 -4.12583e+12 -9.69421e+12 -4.21619e+12 -5.00765e+12 -5.29615e+12 -4.94198e+12 -4.1867e+12 -3.77933e+12 -4.59905e+12 -2.95317e+12 -4.88367e+12 -4.20618e+12 -7.00568e+12 -6.1146e+12 -4.69267e+12 -2.74214e+12 -6.76281e+12 -6.6615e+12 -4.10705e+12 -8.11558e+12 -6.05269e+12 -5.17737e+12 -7.52938e+12 -7.50739e+12 -4.17677e+12 -7.21457e+12 -2.81101e+12 -6.05039e+12 -6.76707e+12 -5.83184e+12 -3.42551e+12 -3.76815e+12 -6.77292e+12 -5.17627e+12 -7.61182e+12 -7.27466e+12 -6.03648e+12 -7.58852e+12 -3.1235e+12 -4.41395e+12 -4.94916e+12 -3.52012e+12 -4.6785e+12 -5.41939e+12 -5.60892e+12 -2.19734e+12 -2.30765e+12 -2.87571e+12 -2.03268e+12 -5.04088e+12 -7.2557e+12 -4.44229e+12 -3.72629e+12 -3.67835e+12 -3.76279e+12 -2.8064e+12 -7.36954e+12 -4.65999e+12 -4.07591e+12 -3.91891e+12 -5.26626e+12 -6.42544e+12 -5.43189e+12 -3.05263e+12 -3.97383e+12 -3.68576e+12 -4.44935e+12 -3.74428e+12 -5.34103e+12 -4.94318e+12 -5.39094e+12 -3.19737e+12 -3.42151e+12 -6.28056e+12 -4.99957e+12 -4.25858e+12 -5.14224e+12 -3.36557e+12 -1.98498e+12 -3.65766e+12 -4.60162e+12 -5.65939e+12 -5.9175e+12 -7.27529e+12 -2.5968e+12 -2.90454e+12 -4.46344e+12 -3.43662e+12 -4.40935e+12 -5.88008e+12 -2.22175e+12 -6.08485e+12 -4.49538e+12 -4.97835e+12 -6.16645e+12 -5.27885e+12 -4.46314e+12 -3.26197e+12 -2.75409e+12 -5.24687e+12 -3.61579e+12 -6.36769e+12 -7.63773e+12 -5.66715e+12 -5.68025e+12 -3.25011e+12 -6.83221e+12 -5.47802e+12 -2.00984e+12 -5.80345e+12 -2.45794e+12 -6.2807e+12 -6.16079e+12 -4.36636e+12 -5.75817e+12 -3.91695e+12 -4.66958e+12 -6.11952e+12 -5.4395e+12 -5.82814e+12 -6.00589e+12 -5.81285e+12 -5.68937e+12 -6.17035e+12 -5.20023e+12 -2.50941e+12 -6.32807e+12 -5.2943e+12 -1.67936e+12 -4.73947e+12 -3.58114e+12 -1.44137e+12 -4.80278e+12 -5.2606e+12 -4.24854e+12 -5.65612e+12 -3.67575e+12 -4.80373e+12 -8.56858e+12 -3.347e+12 -3.77408e+12 -5.4843e+12 -3.18657e+12 -6.64163e+12 -3.21469e+12 -5.51581e+12 -4.19376e+12 -3.89171e+12 -4.98723e+12 -3.93749e+12 -3.51246e+12 -5.96706e+12 -5.43685e+12 -1.98851e+12 -6.50971e+12 -2.48219e+12 -3.87896e+12 -5.51655e+12 -3.79609e+12 -4.38589e+12 -3.89602e+12 -3.033e+12 -4.38169e+12 -4.31568e+12 -6.29272e+12 -1.8355e+12 -4.73408e+12 -4.2676e+12 -5.59008e+12 -5.98375e+12 -6.84005e+12 -3.63915e+12 -4.90159e+12 -4.57761e+12 -3.83631e+12 -2.60613e+12 -4.40326e+12 -3.99122e+12 -3.95915e+12 -4.29534e+12 -6.81056e+12 -6.88696e+12 -4.04815e+12 -8.42582e+12 -2.74039e+12 -5.93668e+12 -2.87566e+12 -4.10813e+12 -3.40987e+12 -3.67426e+12 -2.48967e+12 -3.61203e+12 -6.01968e+12 -4.87737e+12 -5.83311e+12 -5.79722e+12 -3.69914e+12 -6.51752e+12 -3.10993e+12 -2.32211e+12 -5.96845e+12 -5.28345e+12 -4.31114e+12 -1.98383e+12 -2.78918e+12 -6.71711e+12 -2.77934e+12 -4.02296e+12 -6.61254e+12 -3.99286e+12 -5.69648e+12 -2.94084e+12 -4.51639e+12 -5.14131e+12 -3.66346e+12 -4.97735e+12 -3.05474e+12 -5.88419e+12 -4.94662e+12 -2.53365e+12 -4.43706e+12 -5.35481e+12 -2.93237e+12 -3.70658e+12 -2.80299e+12 -3.86444e+12 -4.02056e+12 -4.58493e+12 -2.40486e+12 -3.82635e+12 -3.03142e+12 -4.60441e+12 -5.32571e+12 -2.66428e+12 -4.99619e+12 -4.30685e+12 -3.49008e+12 -2.71844e+12 -4.28766e+12 -3.05957e+12 -3.51491e+12 -3.72493e+12 -3.50007e+12 -5.57e+12 -3.25318e+12 -2.88446e+12 -4.13909e+12 -3.44406e+12 -3.03787e+12 -2.78181e+12 -2.97651e+12 -2.20482e+12 -3.87521e+12 -2.46775e+12 -4.23603e+12 -4.6497e+12 -2.75053e+12 -3.40364e+12 -2.87357e+12 -4.55951e+12 -2.65413e+12 -4.24839e+12 -2.14903e+12 -2.61247e+12 -3.4196e+12 -4.05443e+12 -3.76616e+12 -2.77968e+12 -2.73979e+12 -4.16256e+12 -2.53639e+12 -3.06597e+12 -5.14175e+12 -5.26073e+12 -4.38576e+12 -2.33972e+12 -3.29565e+12 -2.75675e+12 -1.93901e+12 -4.41767e+12 -3.56144e+12 -4.10343e+12 -1.73274e+12 -3.12581e+12 -5.57522e+12 -3.08244e+12 -4.76226e+12 -2.35891e+12 -5.67745e+12 -2.73951e+12 -6.19997e+12 -6.98316e+12 -5.00891e+12 -5.44841e+12 -3.10115e+12 -2.3535e+12 -3.05282e+12 -2.75415e+12 -2.21777e+12 -4.51687e+12 -3.91027e+12 -2.66734e+12 -2.88967e+12 -3.22694e+12 -1.09006e+12 -3.16021e+12 -769181000000.0 -3.88262e+12 -1.46523e+12 -4.61993e+12 -4.50402e+12 -2.89642e+12 -4.32582e+12 -3.03154e+12 -3.08429e+12 -3.97788e+12 -2.27622e+12 -3.47144e+12 -4.08232e+12 -2.23425e+12 -4.58905e+12 -5.43533e+12 -1.59294e+12 -3.05786e+12 -4.33049e+12 -3.05403e+12 -3.67582e+12 -5.76546e+12 -4.09928e+12 -5.28121e+12 -1.9427e+12 -2.60518e+12 -3.20998e+12 -6.88214e+12 -2.74997e+12 -2.21857e+12 -3.09149e+12 -2.0647e+12 -2.01024e+12 -2.20643e+12 -2.85569e+12 -4.61387e+12 -1.98407e+12 -3.05067e+12 -2.69564e+12 -3.80349e+12 -2.03878e+12 -4.57929e+12 -2.5206e+12 -2.14731e+12 -1.62535e+12 -4.00014e+12 -2.72914e+12 -3.07779e+12 -2.45803e+12 -3.20475e+12 -4.35767e+12 -3.43425e+12 -1.82308e+12 -2.91462e+12 -3.67212e+12 -2.35778e+12 -2.63735e+12 -3.15395e+12 -3.52645e+12 -2.78241e+12 -2.70718e+12 -2.85106e+12 -1.93175e+12 -3.83362e+12 -5.16148e+12 -2.06871e+12 -4.16778e+12 -4.85101e+12 -3.50767e+12 -3.36448e+12 -3.0882e+12 -1.46915e+12 -2.96669e+12 -2.97167e+12 -2.66327e+12 -1.39177e+12 -2.83541e+12 -3.00367e+12 -1.7792e+12 -2.80304e+12 -1.16719e+12 -3.27614e+12 -4.29532e+12 -2.95734e+12 -3.33091e+12 -3.06194e+12 -4.33304e+12 -2.90097e+12 -2.88394e+12 -1.70621e+12 -1.74704e+12 -3.28313e+12 -2.9728e+12 -5.786e+12 -2.05976e+12 -3.7603e+12 -3.72898e+12 -2.1558e+12 -2.21811e+12 -2.93768e+12 -3.2497e+12 -1.59551e+12 -3.62676e+12 -5.34319e+12 -3.20316e+12 -1.67541e+12 -2.25392e+12 -3.03816e+12 -2.66655e+12 -2.54828e+12 -2.48612e+12 -3.02668e+12 -2.50635e+12 -1.98453e+12 -4.24785e+12 -3.23529e+12 -2.18305e+12 -5.12439e+12 -2.86059e+12 -3.6258e+12 -4.10277e+12 -4.91277e+12 -1.77407e+12 -2.81789e+12 -3.55777e+12 -3.27872e+12 -3.0483e+12 -3.43117e+12 -3.70202e+12 -4.7031e+12 -2.39245e+12 -2.91382e+12 -1.89352e+12 -5.01265e+12 -3.41868e+12 -2.48347e+12 -3.45823e+12 -4.61104e+12 -3.55168e+12 -3.25701e+12 -2.15093e+12 -2.65265e+12 -2.30215e+12 -2.06304e+12 -2.34069e+12 -202667000000.0 -2.45746e+12 -2.46605e+12 -1.68796e+12 -3.53486e+12 -2.58056e+12 -2.20733e+12 -1.91201e+12 -2.13121e+12 -1.42267e+12 -1.64763e+12 -1.02393e+12 -2.90726e+12 -2.8019e+12 -2.12788e+12 -4.25408e+12 -3.10218e+12 -2.83348e+12 -3.47115e+12 -1.74936e+12 -1.40723e+12 -2.85379e+12 -4.32871e+12 -2.32308e+12 -4.18462e+12 -3.17855e+12 -1.58327e+12 -2.50785e+12 -3.90637e+12 -4.38373e+12 -5.64682e+12 -2.01791e+12 -1.7772e+12 -1.6546e+12 -2.68878e+12 -1.81876e+12 -1.48448e+12 -2.0579e+12 -2.50437e+12 -1.77967e+12 -3.75074e+12 -1.24862e+12 -2.19726e+12 -3.82696e+12 -2.20491e+12 -1.22588e+12 -2.00859e+12 -916228000000.0 -1.1948e+12 -4.07893e+12 -2.79418e+12 -1.91422e+12 -2.21202e+12 -3.34593e+12 -1.7343e+12 -3.33097e+12 -1.76051e+12 -2.59416e+12 -3.1093e+12 -3.66773e+12 -2.30103e+12 -2.08595e+12 -2.02824e+12 -2.19398e+12 -1.73912e+12 -1.525e+12 -3.11407e+12 -4.14287e+12 -5.00461e+12 -2.98051e+12 -4.36704e+12 -3.06064e+12 -3.35937e+12 -1.46282e+12 -3.99764e+12 -1.1614e+12 -1.40798e+12 -2.08502e+12 -2.01878e+12 -2.73171e+12 -3.16382e+12 -3.09096e+12 -1.95811e+12 -3.61805e+12 -2.90469e+12 -2.83217e+12 -3.11001e+12 -2.55917e+12 -1.14695e+12 -2.67874e+12 -1.67108e+12 -2.90032e+12 -1.08684e+12 -2.65043e+12 -1.29404e+12 -1.39203e+12 -1.94556e+12 -1.33578e+12 -824794000000.0 -1.79944e+12 -2.12657e+12 -1.45895e+12 -1.37674e+12 -1.24913e+12 -2.26999e+12 -1.67273e+12 -1.80954e+12 -1.36027e+12 -2.07124e+12 -2.09572e+12 -2.40428e+12 -1.99967e+12 -1.70886e+12 -1.78315e+12 -2.68478e+12 -1.1357e+12 -2.36628e+12 -2.45012e+12 -2.2658e+12 -3.6173e+12 -1.43686e+12 -2.22377e+12 -2.21391e+12 -1.53412e+12 -2.73751e+12 -1.48853e+12 -2.49212e+12 -1.03053e+12 -405545000000.0 -1.67635e+12 -2.09987e+12 -3.30704e+12 -2.94917e+12 -2.71957e+12 -1.7658e+12 -1.62903e+12 -1.67388e+12 -1.93592e+12 -3.06451e+12 -1.3118e+12 -2.99278e+12 -1.26639e+12 -1.09638e+12 -2.17657e+12 -1.38057e+12 -777195000000.0 -1.93942e+12 -2.34345e+12 -686109000000.0 -1.90041e+12 -2.53824e+12 -1.91735e+12 -2.86184e+12 -1.76359e+12 -3.28815e+12 -1.12366e+12 -1.74919e+12 -2.42926e+12 -940360000000.0 -1.79394e+12 -1.44521e+12 -3.62601e+12 -2.58634e+12 -2.49135e+12 -880461000000.0 -2.65975e+12 -2.1835e+12 -2.86022e+12 -2.14995e+12 -1.45759e+12 -2.01094e+12 -1.4653e+12 -1.5218e+12 -1.51337e+12 -2.40244e+12 -1.17888e+12 -2.28742e+12 -1.26693e+12 -589249000000.0 -2.55279e+12 -3.14931e+12 -2.91083e+12 -1.2769e+12 -1.5529e+12 -1.96378e+12 -1.80936e+12 -1.93627e+12 -3.07263e+12 -1.68541e+12 -1.93438e+12 -1.16067e+12 -2.15869e+12 -328629000000.0 -2.21579e+12 -461090000000.0 -1.28034e+12 -2.0907e+12 -2.10163e+12 -890186000000.0 -987070000000.0 -1.50715e+12 -943203000000.0 -1.3115e+12 -1.43955e+12 -1.11337e+12 -932155000000.0 -2.2331e+12 -1.57696e+12 -1.83737e+12 -972648000000.0 -1.62361e+12 -1.32587e+12 -2.26292e+12 -844162000000.0 -1.30036e+12 -1.27312e+12 -1.28457e+12 -1.95264e+12 -600395000000.0 -1.14176e+12 -1.17324e+12 -1.07133e+12 -1.1447e+12 -839509000000.0 -2.17187e+12 -1.07081e+12 -1.29852e+12 -1.33069e+12 -1.08458e+12 -427749000000.0 -632896000000.0 -1.93907e+12 -607868000000.0 -1.20062e+12 -1.10778e+12 -2.08469e+12 -516795000000.0 -1.02848e+12 -2.47278e+12 -1.88334e+12 -1.00951e+12 -1.131e+12 -612433000000.0 -1.57791e+12 -1.25701e+12 -2.25892e+12 -2.12189e+12 -2.47298e+12 -942571000000.0 -692452000000.0 -1.63604e+12 -701707000000.0 -1.49726e+12 -1.77295e+12 -1.46145e+12 -1.7444e+12 -2.03138e+12 -1.94594e+12 -1.14003e+12 -1.09412e+12 -666682000000.0 -882206000000.0 -1.25251e+12 -1.01105e+12 -1.55847e+12 -558107000000.0 -1.11584e+12 -1.92185e+12 -930783000000.0 -1.46015e+12 -1.25872e+12 -1.34583e+12 -2.3411e+12 -2.02087e+12 -1.15865e+12 -1.32968e+12 -1.42549e+12 -396973000000.0 -2.03678e+12 -1.03113e+12 -1.6405e+12 -2.01607e+12 -1.01267e+12 -517659000000.0 -786975000000.0 -1.00596e+12 -910026000000.0 -196693000000.0 -82309000000.0 -1.15497e+12 -353935000000.0 -802264000000.0 -515092000000.0 -707273000000.0 -1.16914e+12 -942678000000.0 -288214000000.0 -667749000000.0 -504020000000.0 -684020000000.0 -244372000000.0 -461541000000.0 -158201000000.0 -359697000000.0 -1.09549e+12 -72055500000.0 -615760000000.0 -254700000000.0 -1.14908e+12 -871040000000.0 -916616000000.0 -738700000000.0 -235187000000.0 -619962000000.0 -247065000000.0 -175454000000.0 -168584000000.0 -153982000000.0 -658221000000.0 -450394000000.0 -538194000000.0 -983712000000.0 -875840000000.0 -447405000000.0 -447037000000.0 -605792000000.0 -210485000000.0 -324268000000.0 -409824000000.0 -226811000000.0 -566425000000.0 -244903000000.0 -345291000000.0 -456282000000.0 -575255000000.0 -255041000000.0 -708830000000.0 -509243000000.0 -305968000000.0 -657858000000.0 -152318000000.0 -880216000000.0 -904104000000.0 -675289000000.0 -268908000000.0 -605670000000.0 -455140000000.0 -746365000000.0 -167387000000.0 -988913000000.0 -429952000000.0 -86788300000.0 -791230000000.0 -181245000000.0 -405088000000.0 -399935000000.0 -371162000000.0 -234843000000.0 -158547000000.0 -255446000000.0 -682165000000.0 -452489000000.0 -1.29483e+12 -1.32501e+12 -883469000000.0 -217321000000.0 -1.22588e+12 -575019000000.0 -323695000000.0 -557134000000.0 -247489000000.0 -358043000000.0 -926862000000.0 -326576000000.0 -267739000000.0 -540792000000.0 -301776000000.0 -485853000000.0 -620494000000.0 -1.03264e+12 -597021000000.0 -178188000000.0 -649208000000.0 -447041000000.0 -258690000000.0 -261285000000.0 -195356000000.0 -271984000000.0 -369442000000.0 -102331000000.0 -270384000000.0 -218707000000.0 -141141000000.0 -197005000000.0 -143890000000.0 