# vtk DataFile Version 2.0
Time step 34
ASCII
DATASET UNSTRUCTURED_GRID
POINTS 5000 float
27669.9 129622.0 0
182938.0 130385.0 0
372012.0 129717.0 0
403649.0 130106.0 0
432479.0 130636.0 0
477063.0 130512.0 0
485844.0 130442.0 0
497601.0 130475.0 0
2398.28 132712.0 0
8531.13 132086.0 0
6060.97 135407.0 0
12438.9 131920.0 0
16747.6 131238.0 0
22243.6 132884.0 0
33202.7 132309.0 0
38183.7 132892.0 0
42702.3 133044.0 0
47472.9 132951.0 0
52137.1 133050.0 0
57005.1 131890.0 0
62763.5 132965.0 0
67994.7 133098.0 0
72702.3 132232.0 0
77500.0 132978.0 0
82500.0 132967.0 0
87407.8 132266.0 0
92500.0 133005.0 0
97192.9 133027.0 0
101293.0 132944.0 0
105946.0 132334.0 0
111936.0 132813.0 0
117850.0 132998.0 0
123330.0 133074.0 0
128345.0 133195.0 0
133427.0 132444.0 0
138124.0 133127.0 0
142500.0 133049.0 0
147500.0 132982.0 0
152501.0 132952.0 0
157589.0 132580.0 0
162561.0 132735.0 0
167011.0 132278.0 0
171830.0 131161.0 0
177734.0 131199.0 0
183532.0 135453.0 0
187393.0 132239.0 0
192499.0 133400.0 0
196080.0 132563.0 0
201748.0 131924.0 0
207651.0 132687.0 0
212985.0 132024.0 0
218128.0 133109.0 0
222480.0 133121.0 0
225795.0 132352.0 0
230434.0 132224.0 0
235810.0 133221.0 0
241170.0 131925.0 0
246502.0 133927.0 0
252679.0 131910.0 0
259052.0 132385.0 0
263774.0 133473.0 0
268740.0 132384.0 0
273935.0 132679.0 0
278881.0 131329.0 0
282030.0 134661.0 0
286326.0 132969.0 0
291718.0 133425.0 0
297319.0 131294.0 0
303664.0 132080.0 0
307731.0 134650.0 0
312126.0 132503.0 0
317928.0 133123.0 0
323245.0 133026.0 0
327580.0 133296.0 0
332206.0 132894.0 0
337223.0 132604.0 0
341019.0 133815.0 0
345896.0 132150.0 0
350687.0 134072.0 0
355260.0 133058.0 0
361815.0 131697.0 0
367954.0 133032.0 0
377031.0 131689.0 0
382609.0 132562.0 0
388132.0 131861.0 0
394019.0 131177.0 0
399199.0 132848.0 0
408587.0 131317.0 0
412474.0 132967.0 0
408386.0 135597.0 0
417500.0 133011.0 0
422737.0 131123.0 0
422128.0 135759.0 0
427272.0 132833.0 0
437538.0 132988.0 0
442089.0 131930.0 0
446252.0 131510.0 0
447601.0 135520.0 0
450665.0 132278.0 0
455209.0 132220.0 0
460242.0 132065.0 0
465794.0 132451.0 0
471628.0 131708.0 0
481305.0 133375.0 0
491674.0 131982.0 0
2284.36 137730.0 0
6739.71 140452.0 0
11086.1 136437.0 0
17331.3 137140.0 0
23003.9 138397.0 0
28517.8 135974.0 0
34967.7 137583.0 0
40340.2 137902.0 0
44463.0 138244.0 0
48278.1 136946.0 0
52500.0 138010.0 0
57994.9 137331.0 0
62849.7 138064.0 0
67505.2 137736.0 0
72116.8 137351.0 0
77500.0 138136.0 0
82116.1 137782.0 0
87907.7 137023.0 0
92500.0 138145.0 0
97183.7 137775.0 0
102467.0 137678.0 0
108243.0 136926.0 0
112500.0 138081.0 0
117500.0 138163.0 0
122500.0 138086.0 0
127727.0 137629.0 0
132494.0 137979.0 0
137520.0 137994.0 0
142774.0 137471.0 0
146927.0 137819.0 0
151938.0 137697.0 0
156862.0 136629.0 0
161297.0 137450.0 0
166510.0 136949.0 0
172971.0 136730.0 0
178375.0 136611.0 0
182187.0 140592.0 0
188603.0 136685.0 0
193570.0 137545.0 0
198250.0 136908.0 0
203920.0 137543.0 0
213692.0 136574.0 0
209356.0 137758.0 0
217602.0 138179.0 0
222033.0 137947.0 0
226802.0 136587.0 0
232206.0 137648.0 0
237687.0 138471.0 0
243284.0 138298.0 0
248461.0 138001.0 0
252677.0 138471.0 0
257262.0 137024.0 0
262325.0 137649.0 0
267064.0 137227.0 0
271613.0 136533.0 0
277072.0 136937.0 0
282828.0 138348.0 0
287500.0 138059.0 0
292910.0 137917.0 0
298249.0 136804.0 0
303117.0 137750.0 0
307442.0 137943.0 0
312501.0 138254.0 0
317479.0 137998.0 0
322434.0 137494.0 0
327500.0 138040.0 0
332500.0 138112.0 0
337713.0 137446.0 0
343307.0 136840.0 0
347751.0 137239.0 0
352668.0 137962.0 0
361442.0 137009.0 0
357756.0 137478.0 0
365115.0 136705.0 0
366513.0 140787.0 0
372930.0 136518.0 0
378820.0 136239.0 0
382004.0 137377.0 0
384355.0 140715.0 0
388374.0 136949.0 0
393553.0 137324.0 0
402998.0 136305.0 0
398136.0 137758.0 0
412863.0 136909.0 0
417518.0 137526.0 0
428325.0 137775.0 0
424119.0 140577.0 0
433428.0 135870.0 0
437510.0 138056.0 0
443214.0 136212.0 0
448272.0 140592.0 0
451945.0 136756.0 0
457175.0 136947.0 0
462429.0 138434.0 0
466599.0 137021.0 0
470193.0 138201.0 0
475182.0 137001.0 0
480798.0 138649.0 0
486590.0 136633.0 0
492077.0 138883.0 0
496837.0 135984.0 0
2238.62 143649.0 0
11843.8 142269.0 0
16323.7 142348.0 0
20503.2 142359.0 0
27042.0 142806.0 0
32615.1 142640.0 0
38261.9 142414.0 0
42968.9 142800.0 0
47587.5 141667.0 0
51799.6 143431.0 0
56553.5 142951.0 0
62114.1 142924.0 0
67696.5 142580.0 0
73695.9 142894.0 0
78211.2 143333.0 0
81954.6 142508.0 0
86960.4 142539.0 0
92531.5 142896.0 0
97548.3 142295.0 0
102630.0 143440.0 0
107924.0 141705.0 0
116732.0 142766.0 0
112494.0 142979.0 0
120857.0 142616.0 0
125864.0 141997.0 0
131158.0 143695.0 0
136446.0 143647.0 0
140993.0 141593.0 0
146306.0 142711.0 0
151835.0 144309.0 0
156245.0 141190.0 0
161703.0 143141.0 0
166528.0 144959.0 0
169997.0 141516.0 0
176294.0 142369.0 0
182233.0 146070.0 0
188049.0 142846.0 0
194261.0 142571.0 0
199972.0 142013.0 0
208111.0 142666.0 0
204288.0 143009.0 0
213300.0 141385.0 0
217709.0 143113.0 0
222564.0 142221.0 0
226872.0 141592.0 0
232445.0 143112.0 0
237422.0 142897.0 0
241792.0 143551.0 0
246843.0 142070.0 0
251785.0 143362.0 0
257736.0 141776.0 0
262718.0 142427.0 0
267487.0 141682.0 0
273045.0 141774.0 0
279879.0 140997.0 0
283555.0 143281.0 0
287217.0 143350.0 0
291018.0 142225.0 0
296735.0 141849.0 0
302235.0 142985.0 0
307701.0 142372.0 0
313208.0 143497.0 0
318190.0 142489.0 0
322510.0 141499.0 0
326813.0 143382.0 0
336511.0 142111.0 0
331856.0 143100.0 0
341413.0 141045.0 0
346845.0 141625.0 0
351893.0 142798.0 0
356026.0 141351.0 0
361260.0 141711.0 0
357350.0 145309.0 0
366552.0 145479.0 0
371101.0 142658.0 0
377674.0 142174.0 0
392423.0 142147.0 0
388338.0 143904.0 0
397216.0 142106.0 0
402857.0 142546.0 0
409242.0 141242.0 0
414411.0 143797.0 0
419142.0 142216.0 0
427684.0 143613.0 0
432248.0 141493.0 0
437340.0 142234.0 0
442355.0 141449.0 0
446526.0 145591.0 0
454175.0 142161.0 0
458989.0 143208.0 0
463184.0 142972.0 0
467518.0 143084.0 0
472372.0 141523.0 0
477748.0 142474.0 0
482622.0 143345.0 0
487506.0 144445.0 0
491507.0 142944.0 0
496591.0 142553.0 0
2182.12 148063.0 0
8050.27 146293.0 0
13471.6 146895.0 0
11902.7 150634.0 0
17752.0 146192.0 0
22416.7 146733.0 0
26987.2 148730.0 0
32070.7 146927.0 0
37587.3 147619.0 0
43203.8 147863.0 0
49063.4 146458.0 0
53807.2 148131.0 0
59222.4 147629.0 0
63616.6 147255.0 0
68064.9 148253.0 0
72603.0 147770.0 0
77068.8 147254.0 0
82136.2 147529.0 0
87334.1 147713.0 0
92269.3 148226.0 0
97732.4 147647.0 0
102767.0 148898.0 0
107686.0 147204.0 0
113112.0 147309.0 0
118138.0 147243.0 0
123419.0 146603.0 0
127500.0 148160.0 0
137738.0 147561.0 0
132690.0 148524.0 0
142523.0 147712.0 0
148001.0 147319.0 0
156828.0 146586.0 0
153418.0 148963.0 0
160406.0 147953.0 0
164429.0 148662.0 0
170842.0 147545.0 0
177032.0 148937.0 0
186625.0 148481.0 0
191646.0 147969.0 0
197223.0 147298.0 0
203055.0 147153.0 0
208748.0 149012.0 0
214360.0 147056.0 0
218717.0 148360.0 0
222023.0 146479.0 0
227508.0 147142.0 0
234330.0 147493.0 0
237871.0 146222.0 0
237943.0 150958.0 0
241750.0 148154.0 0
246212.0 147255.0 0
251519.0 148621.0 0
255873.0 146492.0 0
260338.0 146163.0 0
262638.0 149737.0 0
266352.0 146365.0 0
271758.0 148043.0 0
278362.0 146500.0 0
284358.0 148020.0 0
288759.0 146504.0 0
292983.0 148220.0 0
298941.0 148149.0 0
303985.0 148380.0 0
307500.0 148204.0 0
316254.0 147204.0 0
312166.0 148022.0 0
321076.0 146730.0 0
325850.0 148314.0 0
329892.0 146926.0 0
334357.0 148920.0 0
339780.0 146437.0 0
346088.0 147880.0 0
352844.0 148373.0 0
361674.0 147699.0 0
367105.0 150386.0 0
371934.0 148292.0 0
377880.0 149624.0 0
382814.0 146231.0 0
387369.0 148089.0 0
393045.0 148816.0 0
399508.0 147716.0 0
408059.0 146592.0 0
404320.0 147741.0 0
412348.0 148262.0 0
416950.0 147598.0 0
421364.0 148851.0 0
425656.0 147240.0 0
431064.0 147684.0 0
437116.0 146429.0 0
441814.0 147035.0 0
448327.0 151103.0 0
450850.0 146093.0 0
455410.0 147932.0 0
461204.0 147625.0 0
466979.0 147410.0 0
472597.0 146483.0 0
478849.0 147973.0 0
484706.0 148485.0 0
489148.0 149210.0 0
492124.0 146800.0 0
496754.0 149196.0 0
1482.5 152742.0 0
7152.83 152600.0 0
12669.4 155139.0 0
17160.2 151371.0 0
23051.4 152117.0 0
30223.2 151467.0 0
28647.6 155514.0 0
34874.0 152261.0 0
39763.2 151682.0 0
43680.9 153519.0 0
48579.5 151682.0 0
53133.2 154130.0 0
57212.6 152022.0 0
63066.3 152030.0 0
68312.4 153428.0 0
73399.7 151828.0 0
72213.6 155708.0 0
78300.7 152403.0 0
83592.1 152470.0 0
88396.4 152531.0 0
92507.2 153069.0 0
97237.2 153062.0 0
101195.0 153126.0 0
105586.0 152720.0 0
111305.0 151893.0 0
116639.0 152501.0 0
122098.0 151794.0 0
126930.0 152205.0 0
131218.0 152904.0 0
136577.0 152111.0 0
142212.0 153405.0 0
147011.0 151596.0 0
151800.0 153530.0 0
157941.0 152521.0 0
167048.0 151536.0 0
163659.0 153148.0 0
171004.0 153553.0 0
176728.0 155228.0 0
182933.0 152990.0 0
193693.0 152054.0 0
189204.0 152887.0 0
198249.0 153186.0 0
203175.0 152254.0 0
207322.0 154392.0 0
212116.0 153263.0 0
216321.0 151672.0 0
221177.0 152009.0 0
226331.0 153779.0 0
231984.0 151993.0 0
236019.0 155942.0 0
242844.0 152806.0 0
248030.0 152333.0 0
252899.0 152649.0 0
257728.0 151674.0 0
262831.0 155316.0 0
267589.0 152316.0 0
272698.0 153928.0 0
278480.0 153154.0 0
283574.0 152607.0 0
288835.0 151825.0 0
293487.0 152816.0 0
297507.0 154194.0 0
302639.0 152685.0 0
307117.0 153045.0 0
311943.0 152763.0 0
316968.0 151639.0 0
322298.0 152324.0 0
330940.0 152441.0 0
327153.0 153184.0 0
341519.0 151929.0 0
337120.0 152818.0 0
346663.0 153844.0 0
351583.0 154025.0 0
355555.0 156152.0 0
357892.0 151886.0 0
362981.0 152674.0 0
370168.0 153832.0 0
374545.0 153850.0 0
383271.0 152245.0 0
388207.0 152270.0 0
392171.0 155063.0 0
397894.0 153652.0 0
403055.0 151718.0 0
408163.0 151442.0 0
411970.0 156027.0 0
414682.0 151909.0 0
417928.0 153159.0 0
422497.0 153712.0 0
427477.0 151693.0 0
427290.0 155946.0 0
431257.0 153113.0 0
436123.0 151412.0 0
441992.0 152695.0 0
454025.0 153091.0 0
459442.0 153235.0 0
464978.0 152514.0 0
473885.0 151700.0 0
469643.0 153365.0 0
477662.0 154770.0 0
481986.0 152928.0 0
486774.0 152821.0 0
492177.0 153378.0 0
497457.0 154931.0 0
2749.42 156780.0 0
7839.1 159119.0 0
13608.7 160986.0 0
18087.7 157141.0 0
23744.6 157875.0 0
28781.2 160856.0 0
33630.8 157817.0 0
39132.6 156523.0 0
43742.5 157729.0 0
48691.0 157652.0 0
54179.2 158834.0 0
59718.5 157033.0 0
64870.0 158133.0 0
68288.6 157621.0 0
76320.1 157299.0 0
71705.8 161043.0 0
81941.3 157891.0 0
87886.5 157600.0 0
96906.6 157635.0 0
92637.2 157997.0 0
101491.0 157764.0 0
106437.0 158056.0 0
111043.0 156742.0 0
115385.0 157217.0 0
120870.0 157818.0 0
127440.0 157469.0 0
133300.0 157357.0 0
138725.0 157844.0 0
143743.0 158012.0 0
148388.0 157615.0 0
152799.0 158118.0 0
157000.0 158219.0 0
161442.0 156996.0 0
166774.0 156888.0 0
172236.0 159337.0 0
177078.0 159553.0 0
181363.0 159601.0 0
186881.0 157887.0 0
192410.0 157395.0 0
197842.0 158894.0 0
202628.0 156829.0 0
206634.0 159004.0 0
210631.0 157792.0 0
216383.0 157567.0 0
222686.0 157655.0 0
228326.0 159324.0 0
233994.0 160479.0 0
240940.0 158376.0 0
246425.0 158927.0 0
250906.0 156799.0 0
252374.0 161078.0 0
256766.0 157881.0 0
268274.0 157674.0 0
272894.0 158825.0 0
277851.0 159162.0 0
282085.0 156538.0 0
287110.0 157910.0 0
293046.0 157236.0 0
297884.0 159549.0 0
301872.0 156612.0 0
306177.0 158525.0 0
311438.0 158490.0 0
316866.0 156764.0 0
322341.0 158244.0 0
328008.0 157795.0 0
333889.0 156672.0 0
337528.0 160094.0 0
342208.0 157909.0 0
347985.0 158599.0 0
352296.0 158303.0 0
356013.0 160747.0 0
360520.0 157417.0 0
366517.0 157524.0 0
372527.0 158790.0 0
378548.0 157201.0 0
383424.0 156383.0 0
387243.0 156742.0 0
383499.0 160830.0 0
390737.0 159698.0 0
396044.0 159476.0 0
400402.0 157950.0 0
405313.0 156958.0 0
417775.0 157900.0 0
422967.0 158581.0 0
432238.0 157700.0 0
437083.0 156743.0 0
441852.0 158302.0 0
447111.0 157269.0 0
452641.0 158281.0 0
458109.0 158597.0 0
462539.0 158192.0 0
466554.0 157195.0 0
471812.0 157930.0 0
476954.0 159491.0 0
482254.0 158285.0 0
487738.0 157669.0 0
492470.0 159230.0 0
497459.0 160015.0 0
3057.25 162579.0 0
8751.61 165003.0 0
18378.8 164722.0 0
23879.2 163576.0 0
33718.7 163521.0 0
38540.2 161708.0 0
43269.6 161986.0 0
49670.5 162545.0 0
46373.0 166347.0 0
53686.0 163579.0 0
58565.8 162902.0 0
63416.1 162080.0 0
67006.8 162541.0 0
68687.1 165824.0 0
77975.9 162627.0 0
83400.3 163972.0 0
88019.3 162633.0 0
93070.2 162616.0 0
97999.5 162105.0 0
98601.0 166280.0 0
105783.0 162493.0 0
102078.0 163756.0 0
110766.0 162095.0 0
116643.0 161996.0 0
126501.0 162728.0 0
122655.0 163288.0 0
131195.0 162053.0 0
128388.0 166145.0 0
135220.0 163878.0 0
139749.0 163395.0 0
145105.0 162605.0 0
150852.0 162664.0 0
156885.0 163576.0 0
162037.0 161659.0 0
167181.0 161985.0 0
171462.0 164662.0 0
176185.0 163278.0 0
180974.0 165203.0 0
185796.0 163172.0 0
191578.0 163275.0 0
197331.0 164424.0 0
202644.0 162267.0 0
207608.0 163026.0 0
212134.0 162173.0 0
217212.0 163954.0 0
223347.0 163624.0 0
228978.0 165319.0 0
233410.0 164946.0 0
238460.0 164139.0 0
243835.0 163420.0 0
248987.0 163033.0 0
255540.0 163982.0 0
262542.0 162480.0 0
268734.0 162643.0 0
273493.0 163371.0 0
278386.0 164552.0 0
282795.0 161916.0 0
287974.0 163901.0 0
293222.0 162569.0 0
297717.0 164826.0 0
302611.0 162459.0 0
308390.0 163440.0 0
313173.0 163034.0 0
317437.0 162516.0 0
325881.0 161789.0 0
322198.0 163819.0 0
329971.0 162956.0 0
335035.0 163503.0 0
340302.0 163911.0 0
345922.0 164638.0 0
351087.0 162771.0 0
356393.0 166313.0 0
360816.0 163293.0 0
366438.0 163269.0 0
371145.0 163726.0 0
377227.0 164453.0 0
387809.0 164006.0 0
392750.0 164030.0 0
398357.0 164991.0 0
403887.0 162995.0 0
409494.0 161625.0 0
414468.0 161880.0 0
417766.0 162035.0 0
416994.0 165761.0 0
420954.0 162392.0 0
427628.0 162455.0 0
433305.0 162066.0 0
437891.0 161722.0 0
442653.0 163194.0 0
448517.0 163153.0 0
453997.0 163146.0 0
458540.0 163567.0 0
462991.0 163348.0 0
467794.0 162175.0 0
472983.0 163676.0 0
479978.0 163396.0 0
484307.0 163248.0 0
488545.0 162796.0 0
492632.0 163384.0 0
497770.0 164775.0 0
2142.5 168480.0 0
7229.67 171081.0 0
13671.3 168629.0 0
18602.7 169664.0 0
22342.8 168062.0 0
27490.2 168504.0 0
32328.1 167772.0 0
32590.2 171246.0 0
37269.5 168321.0 0
42438.5 169640.0 0
51407.3 168735.0 0
57398.8 169031.0 0
63643.4 167250.0 0
73555.8 168892.0 0
79819.2 168106.0 0
85122.7 168895.0 0
90125.7 167115.0 0
95036.1 168972.0 0
101292.0 169636.0 0
105636.0 167002.0 0
111336.0 168432.0 0
118205.0 167566.0 0
123813.0 167816.0 0
133268.0 168221.0 0
137500.0 171277.0 0
137791.0 167335.0 0
141902.0 168188.0 0
147422.0 167916.0 0
152992.0 167872.0 0
157246.0 169489.0 0
161787.0 167227.0 0
167145.0 166956.0 0
170762.0 168693.0 0
176883.0 168272.0 0
182322.0 170023.0 0
186888.0 168198.0 0
191538.0 168579.0 0
196351.0 169871.0 0
201629.0 167740.0 0
207156.0 167994.0 0
212991.0 167686.0 0
219802.0 169042.0 0
224911.0 168945.0 0
228654.0 169413.0 0
232791.0 168726.0 0
236991.0 169380.0 0
242099.0 167669.0 0
246556.0 167397.0 0
251472.0 166994.0 0
257766.0 169250.0 0
262741.0 168553.0 0
268253.0 168260.0 0
274070.0 168332.0 0
279359.0 170075.0 0
284552.0 167954.0 0
289717.0 168834.0 0
293309.0 166937.0 0
296534.0 169749.0 0
302309.0 168151.0 0
307427.0 168706.0 0
312021.0 167205.0 0
316759.0 167111.0 0
321329.0 168952.0 0
326426.0 167403.0 0
331732.0 167910.0 0
337285.0 169208.0 0
342892.0 169242.0 0
346832.0 169205.0 0
351166.0 167946.0 0
361680.0 169398.0 0
366976.0 168139.0 0
371658.0 168208.0 0
382203.0 168378.0 0
378338.0 171059.0 0
386896.0 168730.0 0
391452.0 168537.0 0
395530.0 169290.0 0
400531.0 170099.0 0
405865.0 168767.0 0
411607.0 167147.0 0
417171.0 170888.0 0
422631.0 167389.0 0
428259.0 168539.0 0
432998.0 166710.0 0
438723.0 167368.0 0
444697.0 168076.0 0
450508.0 169831.0 0
455668.0 167541.0 0
461371.0 168437.0 0
468720.0 167400.0 0
465832.0 170079.0 0
473165.0 169246.0 0
477806.0 167909.0 0
482449.0 168076.0 0
486596.0 166953.0 0
486593.0 171157.0 0
490651.0 167401.0 0
495006.0 168757.0 0
2239.97 173052.0 0
12439.4 174691.0 0
18048.1 174120.0 0
23274.0 172915.0 0
29079.7 174478.0 0
35954.1 174135.0 0
40993.9 173859.0 0
47005.0 172828.0 0
52812.1 173476.0 0
57601.9 175192.0 0
62194.4 172644.0 0
67962.4 172710.0 0
73650.3 175598.0 0
78090.1 172702.0 0
82804.4 173613.0 0
88773.3 173433.0 0
93971.6 173816.0 0
97843.7 172338.0 0
101251.0 173921.0 0
105727.0 172494.0 0
110243.0 173869.0 0
115522.0 173445.0 0
121623.0 172648.0 0
128113.0 172184.0 0
133715.0 173056.0 0
142031.0 173456.0 0
148122.0 174497.0 0
153547.0 172692.0 0
157984.0 173667.0 0
163104.0 173065.0 0
173357.0 171940.0 0
168440.0 172226.0 0
177762.0 172714.0 0
181596.0 174595.0 0
186463.0 173465.0 0
191579.0 173090.0 0
195893.0 175622.0 0
201125.0 173333.0 0
207148.0 174057.0 0
212099.0 172619.0 0
216814.0 173829.0 0
221591.0 174648.0 0
226069.0 173473.0 0
231021.0 172761.0 0
235877.0 174018.0 0
241284.0 172579.0 0
246730.0 172334.0 0
252429.0 172505.0 0
257588.0 174495.0 0
263723.0 174056.0 0
269616.0 173923.0 0
274594.0 173313.0 0
279913.0 175419.0 0
284009.0 172414.0 0
288598.0 173849.0 0
292656.0 172258.0 0
298738.0 174458.0 0
303656.0 173106.0 0
307807.0 173028.0 0
312328.0 172433.0 0
317604.0 172143.0 0
323361.0 173941.0 0
328007.0 172067.0 0
332711.0 173022.0 0
337429.0 174521.0 0
345482.0 172920.0 0
341919.0 173171.0 0
349523.0 172139.0 0
355332.0 172514.0 0
360669.0 174586.0 0
366490.0 172860.0 0
373423.0 173359.0 0
378300.0 175556.0 0
383175.0 174022.0 0
392584.0 172907.0 0
388075.0 173134.0 0
397116.0 173147.0 0
408061.0 173524.0 0
403356.0 174246.0 0
412516.0 172392.0 0
421023.0 172937.0 0
418443.0 176319.0 0
425373.0 172573.0 0
431956.0 172355.0 0
428719.0 176378.0 0
437685.0 173608.0 0
443671.0 173658.0 0
450715.0 176263.0 0
454497.0 172788.0 0
458795.0 173728.0 0
463932.0 173551.0 0
469295.0 172882.0 0
474374.0 173784.0 0
479087.0 172797.0 0
483696.0 174477.0 0
491391.0 173226.0 0
497411.0 173374.0 0
2127.01 177419.0 0
6959.17 176963.0 0
8551.45 181463.0 0
12578.0 180100.0 0
16007.8 178125.0 0
20036.6 178404.0 0
24884.2 178166.0 0
32220.5 178841.0 0
37671.4 179738.0 0
43316.6 178284.0 0
48684.9 178825.0 0
53578.0 178003.0 0
57456.6 180102.0 0
62542.2 177877.0 0
67219.2 177962.0 0
71132.2 180367.0 0
79096.0 178223.0 0
84539.8 178213.0 0
88603.8 178469.0 0
92508.1 177920.0 0
97466.8 176730.0 0
102446.0 178347.0 0
107193.0 177246.0 0
111837.0 178033.0 0
117995.0 178952.0 0
123248.0 177879.0 0
127767.0 177572.0 0
132820.0 178126.0 0
138523.0 177382.0 0
143145.0 178284.0 0
151877.0 178283.0 0
147994.0 180472.0 0
156564.0 178500.0 0
161568.0 177999.0 0
166876.0 177102.0 0
173249.0 178161.0 0
178607.0 178309.0 0
183535.0 179246.0 0
189458.0 178315.0 0
193909.0 179445.0 0
199741.0 178347.0 0
203874.0 178928.0 0
208361.0 179196.0 0
212779.0 177275.0 0
219058.0 178578.0 0
223358.0 178146.0 0
227641.0 178175.0 0
232480.0 177475.0 0
237733.0 178476.0 0
242294.0 178904.0 0
246699.0 177171.0 0
251872.0 178756.0 0
257453.0 178792.0 0
262304.0 180283.0 0
267692.0 178111.0 0
271760.0 177678.0 0
272514.0 181566.0 0
276113.0 178143.0 0
284281.0 176827.0 0
288575.0 179088.0 0
293597.0 176800.0 0
298812.0 179219.0 0
302639.0 178044.0 0
306699.0 176900.0 0
306886.0 181628.0 0
311690.0 178126.0 0
316843.0 176976.0 0
321343.0 178869.0 0
324883.0 177832.0 0
328697.0 176779.0 0
334155.0 178645.0 0
339612.0 178425.0 0
344146.0 177136.0 0
350103.0 177795.0 0
356715.0 179359.0 0
363255.0 179251.0 0
369398.0 177649.0 0
374925.0 178678.0 0
379746.0 179526.0 0
384038.0 179642.0 0
388073.0 177634.0 0
393149.0 177979.0 0
397925.0 177326.0 0
401990.0 178573.0 0
406597.0 178148.0 0
412748.0 178288.0 0
423547.0 177733.0 0
433883.0 178842.0 0
440196.0 179772.0 0
445499.0 178377.0 0
448657.0 180923.0 0
456146.0 177873.0 0
458568.0 181753.0 0
463205.0 177596.0 0
460061.0 178330.0 0
467453.0 178147.0 0
472542.0 178083.0 0
477866.0 178126.0 0
482744.0 178725.0 0
487589.0 177721.0 0
492465.0 178416.0 0
497811.0 178135.0 0
3067.44 182529.0 0
7504.28 185883.0 0
12198.3 184647.0 0
16418.1 182297.0 0
21309.3 183307.0 0
27462.8 183522.0 0
32650.9 182656.0 0
32912.1 186764.0 0
37790.6 185104.0 0
42299.8 183434.0 0
47949.7 184334.0 0
53255.7 182960.0 0
58928.0 183993.0 0
62499.3 182299.0 0
66930.2 182399.0 0
71361.0 184547.0 0
76177.5 183413.0 0
80897.5 186080.0 0
82349.2 181818.0 0
86391.0 182153.0 0
91252.1 183001.0 0
96600.4 181851.0 0
101325.0 183009.0 0
106449.0 182415.0 0
112396.0 183544.0 0
118078.0 184379.0 0
123221.0 183131.0 0
128380.0 182074.0 0
133236.0 183610.0 0
138696.0 183113.0 0
143898.0 182326.0 0
146818.0 184711.0 0
143073.0 186451.0 0
152640.0 182717.0 0
150635.0 186654.0 0
158019.0 182979.0 0
155608.0 186734.0 0
162828.0 182132.0 0
168108.0 182553.0 0
172596.0 183839.0 0
177247.0 183595.0 0
182428.0 184202.0 0
187088.0 183201.0 0
192266.0 183469.0 0
197935.0 183068.0 0
202909.0 182911.0 0
207316.0 183897.0 0
212053.0 182219.0 0
217206.0 183647.0 0
222465.0 182369.0 0
227445.0 183717.0 0
232443.0 182181.0 0
231378.0 186319.0 0
237069.0 182788.0 0
235349.0 186836.0 0
241375.0 183374.0 0
246109.0 182187.0 0
254526.0 183229.0 0
250349.0 183767.0 0
258826.0 183861.0 0
262638.0 186783.0 0
267463.0 183446.0 0
272482.0 186218.0 0
277252.0 183425.0 0
283195.0 182218.0 0
288213.0 183643.0 0
292764.0 182404.0 0
297374.0 183169.0 0
302096.0 183177.0 0
306758.0 186502.0 0
316043.0 181870.0 0
311367.0 183636.0 0
320407.0 183287.0 0
326140.0 182619.0 0
332574.0 184698.0 0
338274.0 183691.0 0
343318.0 182081.0 0
345205.0 186480.0 0
348155.0 183276.0 0
353182.0 183829.0 0
358609.0 184876.0 0
363216.0 184741.0 0
372381.0 182819.0 0
367630.0 183212.0 0
377383.0 184179.0 0
382010.0 182704.0 0
387370.0 182257.0 0
391831.0 182692.0 0
396410.0 181911.0 0
401425.0 183474.0 0
406574.0 183011.0 0
411925.0 184649.0 0
417743.0 182243.0 0
422243.0 185170.0 0
428007.0 182586.0 0
435856.0 184113.0 0
440095.0 184720.0 0
444888.0 183527.0 0
448961.0 184038.0 0
453284.0 182648.0 0
457757.0 186603.0 0
463267.0 181788.0 0
468255.0 183204.0 0
473568.0 183265.0 0
478469.0 183038.0 0
481962.0 183554.0 0
485379.0 182186.0 0
490342.0 182303.0 0
495335.0 182391.0 0
497792.0 186682.0 0
2830.02 188434.0 0
9654.54 189738.0 0
12521.1 188286.0 0
17161.4 187837.0 0
23585.9 188741.0 0
28513.6 188609.0 0
32719.5 191460.0 0
37936.3 190769.0 0
44153.7 188793.0 0
48946.3 190483.0 0
51664.6 187449.0 0
56221.0 187539.0 0
61493.6 187972.0 0
67360.4 187900.0 0
73112.6 188916.0 0
78022.6 189920.0 0
86724.6 187777.0 0
92878.0 188986.0 0
98369.5 187222.0 0
101922.0 191518.0 0
103677.0 187165.0 0
108522.0 187810.0 0
113659.0 188926.0 0
118713.0 189681.0 0
123559.0 188165.0 0
128428.0 187249.0 0
133083.0 188130.0 0
137597.0 188490.0 0
141643.0 191021.0 0
146707.0 188757.0 0
156815.0 191960.0 0
161150.0 187015.0 0
167133.0 188631.0 0
172930.0 188127.0 0
178055.0 189105.0 0
183650.0 188969.0 0
189253.0 187941.0 0
194196.0 187990.0 0
203778.0 187128.0 0
199079.0 188717.0 0
208282.0 188938.0 0
213126.0 187477.0 0
217850.0 188952.0 0
222500.0 188120.0 0
227501.0 188295.0 0
231616.0 190506.0 0
241014.0 187765.0 0
246231.0 188035.0 0
252671.0 188514.0 0
257745.0 187645.0 0
257368.0 190984.0 0
268643.0 188165.0 0
265514.0 191952.0 0
276643.0 188473.0 0
282618.0 187999.0 0
287953.0 188055.0 0
293356.0 187882.0 0
298040.0 187035.0 0
302177.0 189094.0 0
306877.0 191976.0 0
311379.0 188858.0 0
317145.0 187561.0 0
322861.0 187826.0 0
326683.0 187568.0 0
331450.0 189110.0 0
328120.0 191070.0 0
335628.0 189596.0 0
340791.0 188389.0 0
345698.0 191770.0 0
349873.0 187895.0 0
355445.0 190065.0 0
361540.0 189455.0 0
367143.0 188606.0 0
372560.0 187733.0 0
377579.0 189914.0 0
382875.0 187360.0 0
389044.0 187227.0 0
397271.0 187087.0 0
393438.0 189381.0 0
402361.0 189112.0 0
407526.0 187720.0 0
411985.0 189955.0 0
417009.0 187942.0 0
421587.0 189791.0 0
426097.0 188692.0 0
432019.0 187975.0 0
437805.0 189066.0 0
443158.0 188549.0 0
447794.0 187715.0 0
452662.0 188555.0 0
463137.0 186960.0 0
463621.0 191779.0 0
468200.0 188344.0 0
473088.0 188420.0 0
478102.0 187876.0 0
482745.0 188186.0 0
487711.0 187095.0 0
493261.0 187124.0 0
497556.0 191329.0 0
2517.3 193776.0 0
7268.43 193182.0 0
12114.5 193514.0 0
17589.9 194111.0 0
23413.2 194799.0 0
28806.4 193117.0 0
34063.6 196847.0 0
39401.0 195737.0 0
43272.5 194224.0 0
47707.5 194303.0 0
52882.0 193145.0 0
58208.0 192315.0 0
64167.2 193576.0 0
71364.3 192462.0 0
69256.1 194520.0 0
75110.5 194290.0 0
81048.3 194084.0 0
87053.3 194438.0 0
96750.7 193042.0 0
92019.9 193568.0 0
107424.0 193904.0 0
113364.0 193922.0 0
118426.0 194941.0 0
123399.0 193231.0 0
128618.0 192414.0 0
133599.0 192660.0 0
137996.0 194297.0 0
145476.0 193619.0 0
150727.0 192365.0 0
157520.0 197043.0 0
162658.0 193082.0 0
167210.0 197083.0 0
170994.0 192993.0 0
175346.0 194719.0 0
183158.0 192921.0 0
179615.0 193792.0 0
183466.0 196843.0 0
187238.0 193022.0 0
192615.0 192597.0 0
197963.0 194356.0 0
202933.0 192139.0 0
206814.0 194493.0 0
210964.0 193045.0 0
215632.0 193269.0 0
221235.0 193346.0 0
227180.0 193654.0 0
237593.0 192532.0 0
243853.0 193239.0 0
248907.0 193007.0 0
254149.0 194642.0 0
260306.0 193023.0 0
272405.0 192522.0 0
279499.0 193240.0 0
285572.0 192131.0 0
284055.0 196387.0 0
290278.0 191993.0 0
289114.0 197092.0 0
293630.0 195368.0 0
297348.0 192234.0 0
302305.0 194202.0 0
312363.0 194910.0 0
318330.0 193381.0 0
323489.0 192773.0 0
327596.0 196944.0 0
332372.0 193566.0 0
340952.0 192968.0 0
337057.0 194178.0 0
350922.0 193884.0 0
359289.0 194261.0 0
364351.0 193950.0 0
368943.0 193268.0 0
373329.0 192602.0 0
377201.0 194998.0 0
381328.0 193185.0 0
386960.0 193370.0 0
393349.0 194235.0 0
397597.0 197083.0 0
398523.0 192665.0 0
402909.0 194052.0 0
407771.0 193119.0 0
415876.0 193752.0 0
421176.0 195051.0 0
424599.0 192729.0 0
428965.0 193263.0 0
434132.0 192953.0 0
438736.0 194250.0 0
442786.0 192910.0 0
447716.0 192979.0 0
453043.0 193577.0 0
458329.0 192408.0 0
463596.0 196321.0 0
468162.0 193670.0 0
473599.0 192832.0 0
471814.0 196530.0 0
478151.0 193034.0 0
482810.0 192385.0 0
481098.0 196374.0 0
487498.0 192675.0 0
492502.0 192074.0 0
495998.0 196608.0 0
2475.47 198770.0 0
7677.78 198202.0 0
12005.3 197715.0 0
15773.0 199147.0 0
20838.9 199845.0 0
26807.8 199182.0 0
40051.6 199981.0 0
44702.7 198690.0 0
48756.8 198013.0 0
47753.4 202046.0 0
53062.4 198318.0 0
59512.3 197408.0 0
63884.8 198713.0 0
67605.4 197971.0 0
71691.1 197912.0 0
78267.2 197796.0 0
77989.8 201893.0 0
82473.0 199074.0 0
87141.7 200029.0 0
92000.2 198208.0 0
97000.9 198157.0 0
102129.0 197409.0 0
106970.0 199783.0 0
111124.0 198217.0 0
115819.0 199585.0 0
121102.0 199586.0 0
126570.0 197936.0 0
132454.0 197634.0 0
137140.0 198768.0 0
142292.0 197900.0 0
147729.0 197369.0 0
152626.0 198020.0 0
156133.0 201987.0 0
162024.0 198652.0 0
172467.0 198141.0 0
178178.0 199051.0 0
186111.0 201245.0 0
190428.0 197613.0 0
195414.0 199058.0 0
203350.0 197494.0 0
199783.0 199676.0 0
208215.0 198477.0 0
204958.0 202015.0 0
212599.0 197547.0 0
211627.0 202117.0 0
217693.0 197957.0 0
223418.0 198193.0 0
227706.0 198649.0 0
232744.0 197882.0 0
231963.0 202152.0 0
237929.0 198548.0 0
242255.0 197431.0 0
241445.0 201925.0 0
246583.0 197323.0 0
251465.0 199108.0 0
257656.0 198919.0 0
262653.0 197149.0 0
268086.0 197209.0 0
266312.0 201646.0 0
273561.0 199225.0 0
279480.0 199433.0 0
284959.0 201524.0 0
290179.0 201958.0 0
293855.0 199588.0 0
298807.0 197985.0 0
302791.0 197675.0 0
302701.0 200834.0 0
307476.0 197535.0 0
307441.0 201468.0 0
312809.0 200728.0 0
316382.0 198292.0 0
321288.0 198403.0 0
333602.0 198548.0 0
340751.0 197100.0 0
337887.0 200049.0 0
346462.0 198324.0 0
352478.0 198705.0 0
358046.0 199843.0 0
362683.0 197815.0 0
367602.0 198541.0 0
373234.0 197726.0 0
377756.0 199731.0 0
383126.0 198599.0 0
388875.0 199250.0 0
393912.0 199513.0 0
401993.0 198669.0 0
407552.0 198921.0 0
417740.0 197911.0 0
413354.0 198947.0 0
420743.0 199194.0 0
426076.0 198636.0 0
432062.0 197738.0 0
436730.0 198093.0 0
442764.0 197931.0 0
438897.0 202151.0 0
448811.0 200078.0 0
453407.0 197748.0 0
458507.0 198940.0 0
467770.0 198986.0 0
472247.0 201581.0 0
476447.0 198065.0 0
481589.0 201643.0 0
485655.0 197338.0 0
490707.0 198373.0 0
3209.77 203899.0 0
8256.58 203302.0 0
12761.9 202938.0 0
17405.4 203906.0 0
22005.3 204441.0 0
26227.7 203966.0 0
30949.8 202469.0 0
35929.4 202585.0 0
40005.9 205709.0 0
43628.2 202675.0 0
51806.9 202376.0 0
52668.6 206571.0 0
56827.5 202596.0 0
62577.1 202726.0 0
67168.5 203149.0 0
72518.4 203099.0 0
78841.2 206647.0 0
82528.2 203500.0 0
86295.6 204095.0 0
90160.2 203343.0 0
95222.5 203180.0 0
101125.0 203078.0 0
106556.0 204805.0 0
111796.0 203079.0 0
118331.0 204255.0 0
123279.0 204013.0 0
127624.0 203056.0 0
132213.0 202950.0 0
137230.0 203367.0 0
132873.0 207285.0 0
141707.0 204641.0 0
146467.0 202364.0 0
151572.0 204827.0 0
161835.0 204953.0 0
169286.0 203466.0 0
175977.0 204827.0 0
181607.0 203863.0 0
190990.0 202917.0 0
195751.0 203733.0 0
200535.0 204859.0 0
208468.0 204252.0 0
206282.0 206577.0 0
216513.0 203279.0 0
221713.0 202599.0 0
226704.0 203140.0 0
230989.0 206544.0 0
236074.0 203432.0 0
240550.0 207171.0 0
246772.0 202435.0 0
248383.0 207215.0 0
251426.0 203359.0 0
252565.0 207002.0 0
256149.0 204028.0 0
259979.0 207085.0 0
261546.0 202490.0 0
265487.0 206895.0 0
270636.0 204105.0 0
276600.0 204180.0 0
281963.0 207037.0 0
288339.0 206716.0 0
293750.0 204204.0 0
297268.0 202408.0 0
298770.0 206804.0 0
304642.0 205536.0 0
310136.0 204039.0 0
313929.0 205502.0 0
316962.0 202447.0 0
326195.0 202328.0 0
321557.0 204378.0 0
327804.0 206839.0 0
331848.0 203530.0 0
336691.0 204057.0 0
341780.0 202977.0 0
346623.0 204195.0 0
350387.0 202636.0 0
354413.0 203909.0 0
363423.0 203156.0 0
368531.0 203763.0 0
372655.0 202417.0 0
376990.0 204880.0 0
381264.0 203109.0 0
382577.0 207139.0 0
385751.0 203716.0 0
391602.0 204265.0 0
397807.0 203165.0 0
403438.0 203644.0 0
408194.0 204038.0 0
412656.0 204110.0 0
417328.0 202609.0 0
422294.0 202942.0 0
427069.0 205329.0 0
433143.0 203671.0 0
443937.0 203522.0 0
448492.0 205925.0 0
453763.0 202707.0 0
457907.0 204851.0 0
463035.0 203399.0 0
468110.0 203759.0 0
472251.0 206726.0 0
476529.0 203098.0 0
483447.0 206766.0 0
487403.0 202249.0 0
487730.0 206921.0 0
492245.0 204779.0 0
497268.0 202258.0 0
2743.22 209327.0 0
8043.19 208325.0 0
14923.2 208141.0 0
11765.8 210805.0 0
19911.2 208718.0 0
25330.7 208810.0 0
32698.5 209264.0 0
42535.3 210679.0 0
47200.9 207321.0 0
52162.2 211998.0 0
57753.0 208837.0 0
63750.8 208085.0 0
69578.6 208442.0 0
74694.0 208978.0 0
82761.3 208270.0 0
87411.6 208528.0 0
93077.4 208602.0 0
98832.0 208438.0 0
103893.0 208990.0 0
107222.0 208812.0 0
111638.0 208950.0 0
107419.0 212063.0 0
116411.0 211641.0 0
120395.0 208983.0 0
124182.0 208283.0 0
128407.0 207680.0 0
131747.0 212009.0 0
136854.0 208057.0 0
141100.0 208824.0 0
146522.0 208331.0 0
151900.0 210217.0 0
156635.0 208424.0 0
160661.0 210495.0 0
166704.0 209734.0 0
172255.0 208451.0 0
170863.0 211887.0 0
179233.0 208441.0 0
184127.0 209066.0 0
189313.0 207432.0 0
193667.0 208332.0 0
197502.0 207923.0 0
202963.0 208706.0 0
199453.0 212274.0 0
207409.0 211364.0 0
212265.0 207950.0 0
216816.0 207809.0 0
220984.0 207432.0 0
221748.0 211680.0 0
225748.0 208114.0 0
235666.0 208354.0 0
238429.0 212287.0 0
244741.0 211497.0 0
251362.0 211993.0 0
256063.0 209029.0 0
261844.0 211668.0 0
270071.0 210920.0 0
272927.0 207572.0 0
275664.0 208158.0 0
278048.0 211196.0 0
289029.0 212041.0 0
293480.0 208877.0 0
297213.0 211686.0 0
303002.0 212012.0 0
309155.0 207703.0 0
312953.0 210244.0 0
317701.0 207414.0 0
323364.0 209567.0 0
328789.0 212061.0 0
332500.0 208184.0 0
336869.0 208668.0 0
342206.0 208551.0 0
351677.0 207449.0 0
347214.0 208566.0 0
354426.0 211067.0 0
357650.0 207450.0 0
363234.0 209510.0 0
368505.0 208025.0 0
373400.0 209242.0 0
379102.0 209286.0 0
387080.0 209316.0 0
392324.0 210450.0 0
395893.0 207895.0 0
400749.0 208358.0 0
405935.0 207982.0 0
411228.0 209285.0 0
416962.0 208442.0 0
422188.0 207842.0 0
426356.0 210885.0 0
431392.0 209369.0 0
437982.0 207576.0 0
443846.0 209401.0 0
453589.0 207934.0 0
449069.0 210274.0 0
458354.0 209049.0 0
462242.0 208390.0 0
467269.0 208765.0 0
472915.0 211925.0 0
478244.0 207861.0 0
482526.0 211229.0 0
487864.0 212050.0 0
492456.0 209768.0 0
497112.0 207859.0 0
2122.07 214153.0 0
6630.09 213259.0 0
10875.2 214458.0 0
16445.6 213384.0 0
22135.0 213517.0 0
26807.1 213385.0 0
31182.0 217065.0 0
38043.6 214708.0 0
44043.0 215195.0 0
47182.2 212451.0 0
57345.8 214934.0 0
62695.9 213465.0 0
67631.1 213785.0 0
72733.8 213524.0 0
77869.6 212899.0 0
83358.2 212984.0 0
86321.5 217108.0 0
88733.2 213489.0 0
93487.4 213462.0 0
96817.2 217474.0 0
97430.3 213073.0 0
102461.0 214200.0 0
111802.0 215316.0 0
120438.0 214844.0 0
125858.0 212606.0 0
137379.0 212936.0 0
143320.0 213723.0 0
148471.0 213281.0 0
152881.0 214748.0 0
157303.0 213424.0 0
163245.0 212853.0 0
162714.0 217355.0 0
168106.0 215148.0 0
175911.0 212459.0 0
181670.0 214275.0 0
186378.0 217017.0 0
189132.0 212680.0 0
194262.0 213080.0 0
203612.0 214291.0 0
210864.0 215040.0 0
216144.0 213332.0 0
221802.0 216343.0 0
226487.0 213387.0 0
232440.0 212531.0 0
236397.0 217198.0 0
241213.0 216754.0 0
245779.0 216845.0 0
256824.0 213555.0 0
266231.0 215013.0 0
274195.0 213658.0 0
271144.0 217320.0 0
278158.0 216918.0 0
283482.0 213355.0 0
288459.0 217335.0 0
293265.0 214387.0 0
298387.0 216896.0 0
308802.0 212917.0 0
318355.0 212692.0 0
324039.0 215016.0 0
334063.0 213808.0 0
339589.0 213215.0 0
344929.0 213016.0 0
349985.0 212551.0 0
353208.0 217234.0 0
358648.0 214171.0 0
363895.0 215102.0 0
368160.0 212742.0 0
372315.0 213971.0 0
376964.0 213820.0 0
382473.0 212781.0 0
387497.0 213797.0 0
392129.0 214558.0 0
396150.0 213271.0 0
401229.0 213826.0 0
406694.0 213144.0 0
411220.0 214157.0 0
415491.0 213480.0 0
421159.0 213428.0 0
428517.0 214395.0 0
430955.0 213799.0 0
435837.0 213597.0 0
442047.0 215340.0 0
446666.0 213765.0 0
451289.0 214990.0 0
456079.0 212717.0 0
461500.0 213440.0 0
466932.0 214172.0 0
470975.0 216916.0 0
478057.0 213331.0 0
482655.0 217230.0 0
493646.0 213669.0 0
498089.0 212540.0 0
497008.0 217323.0 0
2813.85 218945.0 0
8166.38 218203.0 0
12896.1 217567.0 0
11900.4 221534.0 0
16333.6 218216.0 0
20386.0 218095.0 0
17722.2 222458.0 0
25270.6 219323.0 0
37229.3 220050.0 0
41792.6 219058.0 0
47443.9 219178.0 0
53099.6 218489.0 0
58687.3 220225.0 0
63564.9 218618.0 0
68267.4 218182.0 0
72453.0 218373.0 0
77185.0 218013.0 0
82034.3 218092.0 0
91303.4 218026.0 0
87015.2 222129.0 0
101397.0 220091.0 0
107501.0 220290.0 0
116465.0 218049.0 0
113003.0 220142.0 0
121275.0 219580.0 0
126005.0 218766.0 0
132124.0 218393.0 0
137821.0 218577.0 0
142842.0 219112.0 0
147533.0 217834.0 0
152630.0 219390.0 0
157563.0 218412.0 0
167296.0 220178.0 0
172608.0 217648.0 0
171994.0 222085.0 0
177857.0 217753.0 0
182309.0 219371.0 0
188246.0 221992.0 0
192088.0 217554.0 0
196628.0 218240.0 0
201118.0 217751.0 0
199059.0 222568.0 0
206775.0 217560.0 0
212749.0 218160.0 0
214030.0 221520.0 0
217645.0 219246.0 0
222152.0 221834.0 0
226805.0 218492.0 0
226340.0 222355.0 0
231552.0 218159.0 0
235735.0 221940.0 0
240058.0 220126.0 0
243728.0 221042.0 0
250437.0 217885.0 0
255184.0 217735.0 0
260755.0 217845.0 0
266794.0 220533.0 0
283286.0 220187.0 0
293479.0 219288.0 0
299379.0 222250.0 0
303455.0 217564.0 0
303660.0 221562.0 0
308186.0 217925.0 0
314349.0 218032.0 0
319264.0 217637.0 0
317916.0 222439.0 0
322908.0 220763.0 0
328967.0 217627.0 0
333145.0 218019.0 0
333188.0 222304.0 0
336742.0 217970.0 0
342588.0 218378.0 0
347878.0 217529.0 0
346988.0 221084.0 0
357770.0 219853.0 0
362512.0 219915.0 0
367790.0 218391.0 0
373562.0 218605.0 0
382648.0 218033.0 0
378333.0 218328.0 0
387500.0 218333.0 0
390842.0 218135.0 0
394211.0 217727.0 0
394662.0 222346.0 0
397992.0 217729.0 0
400641.0 222114.0 0
405861.0 219175.0 0
412258.0 218790.0 0
417887.0 218296.0 0
423012.0 218693.0 0
427878.0 218287.0 0
432791.0 218754.0 0
437677.0 219241.0 0
441769.0 220009.0 0
447087.0 218022.0 0
452128.0 220152.0 0
456328.0 217665.0 0
461270.0 219095.0 0
466169.0 218755.0 0
470795.0 222105.0 0
476162.0 218357.0 0
488907.0 217616.0 0
492847.0 220465.0 0
2319.07 223387.0 0
2877.59 227219.0 0
7488.63 223049.0 0
7660.86 227510.0 0
13295.0 225932.0 0
17518.3 227350.0 0
22192.9 223052.0 0
21984.5 227338.0 0
25714.7 223849.0 0
29626.0 225638.0 0
33500.8 222649.0 0
36830.3 225070.0 0
41262.0 224287.0 0
46267.9 224408.0 0
51633.9 223833.0 0
56870.7 224486.0 0
62241.5 224074.0 0
67516.2 222898.0 0
72506.9 222984.0 0
73875.6 227454.0 0
81267.4 223214.0 0
76625.5 224047.0 0
92309.3 223295.0 0
97256.0 223316.0 0
102435.0 225241.0 0
106772.0 225434.0 0
111799.0 224118.0 0
117642.0 223590.0 0
123435.0 223317.0 0
128783.0 223821.0 0
134059.0 223433.0 0
137961.0 223164.0 0
142163.0 223113.0 0
147507.0 223633.0 0
152873.0 224323.0 0
158961.0 222800.0 0
162909.0 222728.0 0
162992.0 227115.0 0
167203.0 224816.0 0
177732.0 223289.0 0
183256.0 224051.0 0
186682.0 227370.0 0
193902.0 222848.0 0
196807.0 226918.0 0
204162.0 223003.0 0
209496.0 222629.0 0
213601.0 225788.0 0
217441.0 223629.0 0
220487.0 226670.0 0
225387.0 226205.0 0
230558.0 223684.0 0
235826.0 227419.0 0
240025.0 224093.0 0
245172.0 227121.0 0
250369.0 223278.0 0
256480.0 223161.0 0
262640.0 223473.0 0
267375.0 226047.0 0
272520.0 222962.0 0
278324.0 222732.0 0
282855.0 225727.0 0
289982.0 222831.0 0
289755.0 227604.0 0
294952.0 223734.0 0
293413.0 227309.0 0
303740.0 226713.0 0
307819.0 223082.0 0
313031.0 224223.0 0
320295.0 226765.0 0
324611.0 225333.0 0
327981.0 222662.0 0
334654.0 227615.0 0
338991.0 223667.0 0
344315.0 223660.0 0
351178.0 223335.0 0
358165.0 224234.0 0
362964.0 224821.0 0
367646.0 223755.0 0
372884.0 224236.0 0
376885.0 226827.0 0
377591.0 223005.0 0
380639.0 227479.0 0
387666.0 222792.0 0
383033.0 223198.0 0
390580.0 223677.0 0
391381.0 227061.0 0
400517.0 226492.0 0
404215.0 225416.0 0
409728.0 224637.0 0
416362.0 224078.0 0
422813.0 224351.0 0
428624.0 223117.0 0
433383.0 223573.0 0
438576.0 224494.0 0
448819.0 222883.0 0
444220.0 223806.0 0
452095.0 224142.0 0
457221.0 223926.0 0
462828.0 223573.0 0
466794.0 224842.0 0
476400.0 224736.0 0
482885.0 223972.0 0
488671.0 223133.0 0
492896.0 224186.0 0
497140.0 223185.0 0
2104.6 231376.0 0
12523.0 231293.0 0
18520.5 232388.0 0
24345.7 232114.0 0
25927.7 227743.0 0
30115.1 232485.0 0
33841.1 228506.0 0
38550.8 228538.0 0
39872.2 232594.0 0
43314.3 229348.0 0
47500.0 228146.0 0
47479.8 232320.0 0
51974.1 229480.0 0
58908.0 229039.0 0
64495.1 229266.0 0
69005.1 227994.0 0
71690.0 232341.0 0
77215.3 227872.0 0
80690.9 228316.0 0
77190.7 231490.0 0
86320.9 228437.0 0
92811.8 228302.0 0
93313.0 232408.0 0
98243.2 228577.0 0
103094.0 229205.0 0
107094.0 232754.0 0
109026.0 228615.0 0
113209.0 228230.0 0
112292.0 232482.0 0
122442.0 228101.0 0
117544.0 229300.0 0
126563.0 228712.0 0
122473.0 232172.0 0
131864.0 228170.0 0
136845.0 227712.0 0
137654.0 232654.0 0
140201.0 230024.0 0
144008.0 228400.0 0
150415.0 228195.0 0
153047.0 232206.0 0
157087.0 228020.0 0
161580.0 232048.0 0
167635.0 229480.0 0
173051.0 227718.0 0
183032.0 228663.0 0
178840.0 229355.0 0
184965.0 232450.0 0
191844.0 227726.0 0
190264.0 232016.0 0
195406.0 232504.0 0
201799.0 228015.0 0
207325.0 227732.0 0
212325.0 231617.0 0
216950.0 228819.0 0
222873.0 231130.0 0
229377.0 228720.0 0
232625.0 232288.0 0
240227.0 229112.0 0
248620.0 232030.0 0
252499.0 228290.0 0
255006.0 232347.0 0
257222.0 228619.0 0
259925.0 232517.0 0
262352.0 228251.0 0
272616.0 229070.0 0
277797.0 227751.0 0
276490.0 232616.0 0
281555.0 231476.0 0
285974.0 229231.0 0
292797.0 232129.0 0
297868.0 228240.0 0
303429.0 232007.0 0
309258.0 228647.0 0
315421.0 229642.0 0
323686.0 230284.0 0
328762.0 228307.0 0
332679.0 232253.0 0
338214.0 229867.0 0
342800.0 228809.0 0
348331.0 228136.0 0
354571.0 228056.0 0
358832.0 228195.0 0
358289.0 232013.0 0
362307.0 228874.0 0
366734.0 228795.0 0
371990.0 229621.0 0
377265.0 231129.0 0
386649.0 227977.0 0
383137.0 232449.0 0
392797.0 231798.0 0
396440.0 228054.0 0
401634.0 231566.0 0
407476.0 230100.0 0
413219.0 229932.0 0
418109.0 229123.0 0
422108.0 229505.0 0
426879.0 227958.0 0
431421.0 227860.0 0
429096.0 232156.0 0
436289.0 229839.0 0
442101.0 229148.0 0
447550.0 228063.0 0
452804.0 228329.0 0
449570.0 232796.0 0
457500.0 229996.0 0
461587.0 227790.0 0
461735.0 232349.0 0
465843.0 228898.0 0
470828.0 227900.0 0
476633.0 230660.0 0
480520.0 228389.0 0
485119.0 229015.0 0
491128.0 228979.0 0
497365.0 228676.0 0
6793.17 233006.0 0
12819.2 236719.0 0
23734.9 237480.0 0
35415.9 233922.0 0
43532.1 234634.0 0
47740.6 237083.0 0
51743.8 234319.0 0
56704.7 234070.0 0
61963.6 234081.0 0
66637.4 233760.0 0
82290.7 233303.0 0
88450.4 234753.0 0
94100.5 236623.0 0
97500.0 233180.0 0
99300.6 237877.0 0
102236.0 232980.0 0
108320.0 237719.0 0
113638.0 237324.0 0
117489.0 233914.0 0
122394.0 236564.0 0
132591.0 232931.0 0
127670.0 233678.0 0
131337.0 237773.0 0
135403.0 236411.0 0
142127.0 233088.0 0
139965.0 237360.0 0
147638.0 232873.0 0
157498.0 233900.0 0
162228.0 237478.0 0
165669.0 233734.0 0
171234.0 233587.0 0
176239.0 233581.0 0
180331.0 234026.0 0
188829.0 236121.0 0
198166.0 237215.0 0
201313.0 233469.0 0
206585.0 233793.0 0
218108.0 233152.0 0
217316.0 237616.0 0
221942.0 236468.0 0
227522.0 233745.0 0
231238.0 237684.0 0
238163.0 233094.0 0
243789.0 233454.0 0
247335.0 237485.0 0
251710.0 235351.0 0
256823.0 237499.0 0
262027.0 237646.0 0
266658.0 233088.0 0
272631.0 234009.0 0
277768.0 237046.0 0
282670.0 236973.0 0
287001.0 233822.0 0
298711.0 234107.0 0
304165.0 237018.0 0
307680.0 233302.0 0
312783.0 234917.0 0
319106.0 234004.0 0
323800.0 234509.0 0
328212.0 233950.0 0
337209.0 233648.0 0
341740.0 234046.0 0
346951.0 233538.0 0
352955.0 233333.0 0
357557.0 237364.0 0
363850.0 233268.0 0
368580.0 232905.0 0
368203.0 237744.0 0
372515.0 233498.0 0
373381.0 237161.0 0
378056.0 236230.0 0
388492.0 233680.0 0
392116.0 236753.0 0
396699.0 233574.0 0
408626.0 234693.0 0
412941.0 234895.0 0
417500.0 233079.0 0
421523.0 237838.0 0
423653.0 233407.0 0
427085.0 237222.0 0
432842.0 233339.0 0
436284.0 237004.0 0
439596.0 233493.0 0
445091.0 233141.0 0
453927.0 233142.0 0
458049.0 234559.0 0
454947.0 237812.0 0
462489.0 236580.0 0
466236.0 233607.0 0
472009.0 233926.0 0
477068.0 235281.0 0
481395.0 233011.0 0
487085.0 234230.0 0
492809.0 234875.0 0
497596.0 233710.0 0
3506.57 238458.0 0
8912.79 238272.0 0
7861.03 242336.0 0
13198.9 242629.0 0
18045.9 238598.0 0
29009.0 238280.0 0
33721.3 238084.0 0
33684.7 242993.0 0
38524.6 238404.0 0
43678.3 239356.0 0
47500.0 242956.0 0
52004.6 238876.0 0
56979.8 239476.0 0
61796.7 238789.0 0
66400.4 238352.0 0
71634.6 238226.0 0
78211.7 238707.0 0
84123.3 238047.0 0
87688.6 239828.0 0
92062.6 241938.0 0
103853.0 239314.0 0
102295.0 242985.0 0
113346.0 242741.0 0
118189.0 238360.0 0
121263.0 241851.0 0
126891.0 238623.0 0
129832.0 242039.0 0
135553.0 242210.0 0
141808.0 242227.0 0
145197.0 238007.0 0
151685.0 238316.0 0
157464.0 239065.0 0
167841.0 238050.0 0
173465.0 239224.0 0
178660.0 237999.0 0
183500.0 237997.0 0
188009.0 242007.0 0
193405.0 238749.0 0
197869.0 242240.0 0
202230.0 238792.0 0
202708.0 242987.0 0
207015.0 238962.0 0
212381.0 238016.0 0
210417.0 242597.0 0
215939.0 242138.0 0
222034.0 242606.0 0
226298.0 238536.0 0
227893.0 242999.0 0
232872.0 242150.0 0
236066.0 238276.0 0
237579.0 242752.0 0
240758.0 238119.0 0
243284.0 242600.0 0
248663.0 242960.0 0
251815.0 239358.0 0
259268.0 242347.0 0
266315.0 240414.0 0
272435.0 238753.0 0
276853.0 241613.0 0
287566.0 239306.0 0
294274.0 238745.0 0
299736.0 238921.0 0
306025.0 242610.0 0
308988.0 238288.0 0
315362.0 239816.0 0
311333.0 241338.0 0
320384.0 239015.0 0
326096.0 239248.0 0
333155.0 238415.0 0
339141.0 238939.0 0
337014.0 242803.0 0
341119.0 242727.0 0
343435.0 238065.0 0
346181.0 242863.0 0
347368.0 238337.0 0
351805.0 238879.0 0
357135.0 242682.0 0
363009.0 238304.0 0
372171.0 241776.0 0
377870.0 242224.0 0
382805.0 238598.0 0
387999.0 239399.0 0
397058.0 237924.0 0
392970.0 241968.0 0
402873.0 238238.0 0
407560.0 238243.0 0
411391.0 239190.0 0
416297.0 238042.0 0
415648.0 242838.0 0
431835.0 239487.0 0
442627.0 238407.0 0
449565.0 238423.0 0
453713.0 242646.0 0
459035.0 238843.0 0
458586.0 242933.0 0
462382.0 241050.0 0
466449.0 238469.0 0
470796.0 239093.0 0
475073.0 238837.0 0
479815.0 239327.0 0
485460.0 239891.0 0
491395.0 239084.0 0
496535.0 239186.0 0
3164.76 245120.0 0
18016.5 244572.0 0
22913.6 243112.0 0
28302.8 243424.0 0
38744.2 243342.0 0
37849.1 247876.0 0
42462.5 243187.0 0
42860.5 247977.0 0
47500.0 248039.0 0
52556.9 243272.0 0
52500.0 247958.0 0
57796.9 244791.0 0
62773.9 243255.0 0
67039.8 243154.0 0
67614.2 247540.0 0
72935.3 244277.0 0
78321.3 244506.0 0
81627.7 248005.0 0
82589.4 243100.0 0
86239.2 247865.0 0
87056.7 243743.0 0
97669.8 243166.0 0
102672.0 247533.0 0
107409.0 243552.0 0
111197.0 247625.0 0
117556.0 244092.0 0
120820.0 247742.0 0
125794.0 244543.0 0
131559.0 248026.0 0
147626.0 244356.0 0
152817.0 243665.0 0
152336.0 247651.0 0
156961.0 243542.0 0
162564.0 243591.0 0
165869.0 248101.0 0
168614.0 243569.0 0
178547.0 243085.0 0
173683.0 244596.0 0
183147.0 244717.0 0
193375.0 243554.0 0
190730.0 246939.0 0
195912.0 247878.0 0
202303.0 246673.0 0
206540.0 243352.0 0
212693.0 246812.0 0
217365.0 246562.0 0
221325.0 248108.0 0
226111.0 247831.0 0
231889.0 247203.0 0
240965.0 246848.0 0
254445.0 243027.0 0
257950.0 246389.0 0
262870.0 244127.0 0
267428.0 246112.0 0
270746.0 243036.0 0
272729.0 247123.0 0
277830.0 246311.0 0
282821.0 243128.0 0
288060.0 244630.0 0
292385.0 244297.0 0
298264.0 243216.0 0
302083.0 247268.0 0
310183.0 244156.0 0
314050.0 244837.0 0
318478.0 243070.0 0
318493.0 247637.0 0
322500.0 243241.0 0
325754.0 247603.0 0
328895.0 243913.0 0
333247.0 244795.0 0
352137.0 244986.0 0
361937.0 243217.0 0
367472.0 244517.0 0
372126.0 247896.0 0
383976.0 244643.0 0
389039.0 244163.0 0
393857.0 247644.0 0
398548.0 243347.0 0
404604.0 243398.0 0
408304.0 243403.0 0
411600.0 243483.0 0
413407.0 247670.0 0
420774.0 243327.0 0
427258.0 243775.0 0
432708.0 243556.0 0
432985.0 247813.0 0
437828.0 243607.0 0
443857.0 244656.0 0
448898.0 244544.0 0
447415.0 247919.0 0
455864.0 246915.0 0
466456.0 243349.0 0
471666.0 243750.0 0
476744.0 243415.0 0
482115.0 244198.0 0
489725.0 243210.0 0
493000.0 245200.0 0
497149.0 245181.0 0
2175.07 250368.0 0
6289.94 249319.0 0
6704.61 253189.0 0
11599.4 248745.0 0
17536.7 249035.0 0
22463.9 248783.0 0
27690.3 248485.0 0
32846.5 248373.0 0
37800.7 252946.0 0
42911.0 253093.0 0
48373.5 252912.0 0
53049.3 253140.0 0
57471.5 249251.0 0
62273.8 248312.0 0
62500.0 253125.0 0
67351.0 253149.0 0
72220.4 249998.0 0
77001.5 248394.0 0
86598.5 253037.0 0
91741.2 248351.0 0
97809.7 248555.0 0
106903.0 249698.0 0
102893.0 252551.0 0
112144.0 252926.0 0
115541.0 248422.0 0
117790.0 252793.0 0
126021.0 249375.0 0
127517.0 253090.0 0
137590.0 248397.0 0
135064.0 251902.0 0
143033.0 248834.0 0
148512.0 250163.0 0
156777.0 248223.0 0
161253.0 249436.0 0
170818.0 248526.0 0
176303.0 249168.0 0
181152.0 248234.0 0
186191.0 250232.0 0
191887.0 251679.0 0
201245.0 251630.0 0
207025.0 248366.0 0
211869.0 252581.0 0
217593.0 251280.0 0
222977.0 252764.0 0
228687.0 252792.0 0
233719.0 252170.0 0
236935.0 249314.0 0
241140.0 252192.0 0
246409.0 248929.0 0
252566.0 248295.0 0
257173.0 250859.0 0
262502.0 249171.0 0
268882.0 252093.0 0
276220.0 250533.0 0
283407.0 250165.0 0
290016.0 249147.0 0
296056.0 248395.0 0
305269.0 251776.0 0
308494.0 248121.0 0
313704.0 249968.0 0
316775.0 252798.0 0
322153.0 250355.0 0
331011.0 249356.0 0
336305.0 248479.0 0
338665.0 252855.0 0
342218.0 248126.0 0
347987.0 249058.0 0
352469.0 250643.0 0
357713.0 248544.0 0
363369.0 248140.0 0
362633.0 252962.0 0
367623.0 250624.0 0
377594.0 248187.0 0
382668.0 250914.0 0
388201.0 249033.0 0
397810.0 251504.0 0
403548.0 249196.0 0
409206.0 249943.0 0
418014.0 248281.0 0
417019.0 252820.0 0
422330.0 248369.0 0
427432.0 250527.0 0
437053.0 248534.0 0
442559.0 250144.0 0
448192.0 252974.0 0
451703.0 248499.0 0
455968.0 252826.0 0
461827.0 248227.0 0
468602.0 248928.0 0
474668.0 248836.0 0
480001.0 248302.0 0
481988.0 252279.0 0
486589.0 248426.0 0
493166.0 249576.0 0
498364.0 249500.0 0
2648.21 254649.0 0
11883.6 255532.0 0
17237.5 253533.0 0
21689.6 253658.0 0
26625.8 253687.0 0
32269.7 253828.0 0
57491.6 253537.0 0
72974.1 254334.0 0
77090.2 253322.0 0
80945.5 253309.0 0
92662.9 254945.0 0
98143.0 253599.0 0
107106.0 255052.0 0
123040.0 254460.0 0
131674.0 254831.0 0
139794.0 254527.0 0
146646.0 255397.0 0
153457.0 253448.0 0
159441.0 253981.0 0
162837.0 256970.0 0
165969.0 253315.0 0
171466.0 253752.0 0
177280.0 255387.0 0
183205.0 255511.0 0
188839.0 255823.0 0
195946.0 255524.0 0
201233.0 257065.0 0
206414.0 255096.0 0
210800.0 258246.0 0
216426.0 257025.0 0
227966.0 258197.0 0
233931.0 256994.0 0
236988.0 253853.0 0
240343.0 257972.0 0
246173.0 255355.0 0
251692.0 253737.0 0
258375.0 255846.0 0
263474.0 254760.0 0
274503.0 254775.0 0
270695.0 257614.0 0
279017.0 253588.0 0
284474.0 256545.0 0
288588.0 253895.0 0
293679.0 254092.0 0
300184.0 253435.0 0
304997.0 255765.0 0
308870.0 254028.0 0
313460.0 254971.0 0
320571.0 254491.0 0
326680.0 254038.0 0
333860.0 254311.0 0
342798.0 253592.0 0
347414.0 254029.0 0
352858.0 255468.0 0
357815.0 254329.0 0
367022.0 254970.0 0
371861.0 253364.0 0
377438.0 254112.0 0
382625.0 255273.0 0
386622.0 254562.0 0
391984.0 253825.0 0
396543.0 255621.0 0
401644.0 255918.0 0
406987.0 254144.0 0
411809.0 253644.0 0
422568.0 254105.0 0
427263.0 256234.0 0
432184.0 254406.0 0
437979.0 253754.0 0
442950.0 255698.0 0
452071.0 256143.0 0
461567.0 254785.0 0
466226.0 253439.0 0
471900.0 255154.0 0
477524.0 253637.0 0
481330.0 256121.0 0
486495.0 255741.0 0
491854.0 254683.0 0
497014.0 254265.0 0
199583.0 261988.0 0
204482.0 259626.0 0
209467.0 263236.0 0
215738.0 263130.0 0
222478.0 258495.0 0
231474.0 261535.0 0
236562.0 260321.0 0
244599.0 261034.0 0
248990.0 259909.0 0
253465.0 258505.0 0
257897.0 261400.0 0
261356.0 258912.0 0
262168.0 261996.0 0
265876.0 259654.0 0
271462.0 262749.0 0
278596.0 259067.0 0
283453.0 261188.0 0
289816.0 258439.0 0
287249.0 262746.0 0
293218.0 263322.0 0
297130.0 258808.0 0
302379.0 259357.0 0
200579.0 268275.0 0
204460.0 263758.0 0
206837.0 268249.0 0
212355.0 267453.0 0
221145.0 263875.0 0
223364.0 267795.0 0
226654.0 263906.0 0
231823.0 266841.0 0
235331.0 263492.0 0
236731.0 267158.0 0
240449.0 264076.0 0
245801.0 266182.0 0
252381.0 263442.0 0
250600.0 267745.0 0
256854.0 267799.0 0
262921.0 266066.0 0
268030.0 266897.0 0
276410.0 264434.0 0
278883.0 268337.0 0
280928.0 264323.0 0
284558.0 265610.0 0
288812.0 268036.0 0
299476.0 264177.0 0
213600.0 272535.0 0
218221.0 268806.0 0
227349.0 269862.0 0
231682.0 272213.0 0
236097.0 271219.0 0
240963.0 269801.0 0
246384.0 272048.0 0
252218.0 272478.0 0
261596.0 271198.0 0
266658.0 272126.0 0
273340.0 269118.0 0
276899.0 273106.0 0
283257.0 269206.0 0
281077.0 272256.0 0
285894.0 273237.0 0
294296.0 268923.0 0
291460.0 272976.0 0
298352.0 268883.0 0
297263.0 273483.0 0
10310.7 278082.0 0
202176.0 274652.0 0
208347.0 273749.0 0
210342.0 277750.0 0
218689.0 274180.0 0
215206.0 278072.0 0
223716.0 273795.0 0
220821.0 278405.0 0
228238.0 274430.0 0
231221.0 276819.0 0
237010.0 276652.0 0
240603.0 273881.0 0
243168.0 276654.0 0
248820.0 277425.0 0
254691.0 277627.0 0
257463.0 273694.0 0
261851.0 276513.0 0
268405.0 278598.0 0
271774.0 273882.0 0
274599.0 277152.0 0
279539.0 275962.0 0
283535.0 278170.0 0
289164.0 277766.0 0
293912.0 277081.0 0
341742.0 275746.0 0
201822.0 281778.0 0
206129.0 279152.0 0
211447.0 282597.0 0
216922.0 283610.0 0
222270.0 283270.0 0
226498.0 279375.0 0
232141.0 281889.0 0
237063.0 282035.0 0
241914.0 282091.0 0
247668.0 283320.0 0
253239.0 282778.0 0
258644.0 281291.0 0
273130.0 283467.0 0
278615.0 280044.0 0
282858.0 282423.0 0
293006.0 282291.0 0
297964.0 279644.0 0
309756.0 279612.0 0
404603.0 282868.0 0
443009.0 283787.0 0
497243.0 283736.0 0
6878.9 287892.0 0
48261.5 285506.0 0
126005.0 288863.0 0
167796.0 287754.0 0
174681.0 284531.0 0
177286.0 288584.0 0
201370.0 286554.0 0
206257.0 284462.0 0
210430.0 288268.0 0
215520.0 288303.0 0
220089.0 287723.0 0
228050.0 283885.0 0
225526.0 287372.0 0
231425.0 288020.0 0
237516.0 286949.0 0
253778.0 288124.0 0
258820.0 286485.0 0
262732.0 283853.0 0
267376.0 284875.0 0
274268.0 288725.0 0
279208.0 285766.0 0
287170.0 284007.0 0
288847.0 288602.0 0
292808.0 287572.0 0
297876.0 286150.0 0
317421.0 287831.0 0
357807.0 287338.0 0
362467.0 285755.0 0
368610.0 285538.0 0
374583.0 288179.0 0
389098.0 284602.0 0
421499.0 284139.0 0
437044.0 287429.0 0
455114.0 284168.0 0
461586.0 288029.0 0
472319.0 284911.0 0
476569.0 288155.0 0
492537.0 285888.0 0
14254.8 292445.0 0
22442.4 293760.0 0
30433.9 293665.0 0
56374.4 289420.0 0
63868.7 289429.0 0
68827.6 290448.0 0
75161.9 292484.0 0
79658.9 291183.0 0
85031.3 291881.0 0
96187.4 289696.0 0
100416.0 289143.0 0
107589.0 290880.0 0
111005.0 292725.0 0
115161.0 291182.0 0
121008.0 291075.0 0
131855.0 293186.0 0
137504.0 292199.0 0
154054.0 291485.0 0
158565.0 290879.0 0
173221.0 293607.0 0
178735.0 291950.0 0
191569.0 289736.0 0
196244.0 290664.0 0
200890.0 290912.0 0
205149.0 289355.0 0
208008.0 292350.0 0
204088.0 293999.0 0
213363.0 293170.0 0
217853.0 291973.0 0
222328.0 291891.0 0
227463.0 292670.0 0
233025.0 293753.0 0
238133.0 292910.0 0
242311.0 289974.0 0
248059.0 289383.0 0
245366.0 293894.0 0
259050.0 290894.0 0
255500.0 292664.0 0
263576.0 289041.0 0
261787.0 293338.0 0
269203.0 289993.0 0
273096.0 293019.0 0
277796.0 292442.0 0
284328.0 288986.0 0
282143.0 292766.0 0
287756.0 292755.0 0
292960.0 292576.0 0
297452.0 291153.0 0
309917.0 291117.0 0
322450.0 289222.0 0
322451.0 293934.0 0
391311.0 291280.0 0
396056.0 292719.0 0
417127.0 293785.0 0
423600.0 292090.0 0
449230.0 293801.0 0
466760.0 293291.0 0
471850.0 291888.0 0
481239.0 289248.0 0
497839.0 293187.0 0
8033.11 298081.0 0
17655.2 295761.0 0
36537.1 294198.0 0
40985.6 298603.0 0
48339.7 296410.0 0
53010.0 296407.0 0
88220.9 297871.0 0
93065.2 295797.0 0
97919.2 297922.0 0
119140.0 298072.0 0
124379.0 295970.0 0
142262.0 294452.0 0
146000.0 297903.0 0
150902.0 295774.0 0
169989.0 298859.0 0
178042.0 295451.0 0
199541.0 298531.0 0
209322.0 296724.0 0
215074.0 298699.0 0
220073.0 295963.0 0
225955.0 297651.0 0
230706.0 298507.0 0
236391.0 298246.0 0
241709.0 294753.0 0
241428.0 298527.0 0
251054.0 294258.0 0
253466.0 298761.0 0
257880.0 296544.0 0
262774.0 297567.0 0
267219.0 295038.0 0
271750.0 297468.0 0
276228.0 298923.0 0
284673.0 295255.0 0
280751.0 297000.0 0
287934.0 297710.0 0
292554.0 297488.0 0
296823.0 295656.0 0
300490.0 298080.0 0
304849.0 298565.0 0
308750.0 297753.0 0
318278.0 297955.0 0
326630.0 294693.0 0
330913.0 294967.0 0
335045.0 297627.0 0
339605.0 294311.0 0
345114.0 296503.0 0
364943.0 299061.0 0
383597.0 298714.0 0
388726.0 295795.0 0
393964.0 297602.0 0
407296.0 296872.0 0
422388.0 297557.0 0
426612.0 295659.0 0
431907.0 296362.0 0
436080.0 298199.0 0
439714.0 294650.0 0
444222.0 296908.0 0
458451.0 296667.0 0
462790.0 294478.0 0
479717.0 294531.0 0
484429.0 294611.0 0
489239.0 297536.0 0
2631.23 301051.0 0
14588.8 299269.0 0
18911.2 301596.0 0
30589.4 299867.0 0
27252.5 303919.0 0
37311.7 302198.0 0
45936.2 300078.0 0
54909.3 303068.0 0
60744.6 304116.0 0
85759.2 303087.0 0
91010.0 303219.0 0
92904.6 300806.0 0
96476.5 302244.0 0
102310.0 300029.0 0
105708.0 303119.0 0
113050.0 300087.0 0
126262.0 300177.0 0
137141.0 301637.0 0
132697.0 303556.0 0
155278.0 299140.0 0
166524.0 302915.0 0
177571.0 299620.0 0
183088.0 301274.0 0
188925.0 299926.0 0
194749.0 301194.0 0
204414.0 299138.0 0
208779.0 301939.0 0
218423.0 303788.0 0
222096.0 300228.0 0
222793.0 304125.0 0
226657.0 302482.0 0
231897.0 303698.0 0
237321.0 303663.0 0
242505.0 303162.0 0
247377.0 299321.0 0
252148.0 303683.0 0
257608.0 302314.0 0
262738.0 302265.0 0
267278.0 300373.0 0
272528.0 303169.0 0
278416.0 303060.0 0
284096.0 301902.0 0
290961.0 302839.0 0
296371.0 300405.0 0
305456.0 302497.0 0
309713.0 301913.0 0
314014.0 300656.0 0
342101.0 299904.0 0
348027.0 300058.0 0
360423.0 302863.0 0
368691.0 301694.0 0
373639.0 304113.0 0
377600.0 299923.0 0
385630.0 303445.0 0
390690.0 299725.0 0
394399.0 302392.0 0
398809.0 299754.0 0
398411.0 303771.0 0
403236.0 300625.0 0
412976.0 299194.0 0
415149.0 303637.0 0
431773.0 301885.0 0
473827.0 301316.0 0
478880.0 299751.0 0
483291.0 303349.0 0
492521.0 301534.0 0
497266.0 301291.0 0
4198.95 306155.0 0
1396.57 309145.0 0
10165.2 304304.0 0
8211.08 308111.0 0
16619.4 309055.0 0
21754.5 307751.0 0
31965.1 306404.0 0
44551.6 305559.0 0
49617.5 306495.0 0
53511.7 308037.0 0
65233.2 307260.0 0
73247.1 306154.0 0
79797.4 306652.0 0
100409.0 304412.0 0
97591.4 307847.0 0
101262.0 308962.0 0
118044.0 305376.0 0
122206.0 307375.0 0
125707.0 308598.0 0
127597.0 304905.0 0
140009.0 305864.0 0
145853.0 305881.0 0
150246.0 309297.0 0
157949.0 308050.0 0
162385.0 308829.0 0
169946.0 306619.0 0
175196.0 304955.0 0
178322.0 308468.0 0
182125.0 306516.0 0
204252.0 304652.0 0
208499.0 307412.0 0
213008.0 305097.0 0
221538.0 308061.0 0
226390.0 307431.0 0
231040.0 309039.0 0
242600.0 308224.0 0
247183.0 305694.0 0
251021.0 308818.0 0
255660.0 307543.0 0
261566.0 307666.0 0
265985.0 306129.0 0
276294.0 308908.0 0
281553.0 306506.0 0
286610.0 307463.0 0
296232.0 306533.0 0
301905.0 305537.0 0
305263.0 309305.0 0
308861.0 306530.0 0
312812.0 305908.0 0
329672.0 308224.0 0
335177.0 305133.0 0
341691.0 304798.0 0
350533.0 307551.0 0
355714.0 309045.0 0
368277.0 307198.0 0
376826.0 309156.0 0
380959.0 304703.0 0
388242.0 306683.0 0
397327.0 308987.0 0
402468.0 305527.0 0
406830.0 308140.0 0
411664.0 306634.0 0
417627.0 308449.0 0
440796.0 307138.0 0
462565.0 304299.0 0
468005.0 305957.0 0
472750.0 306991.0 0
488293.0 304797.0 0
494690.0 306241.0 0
498185.0 309334.0 0
9024.03 312990.0 0
11918.4 309586.0 0
22141.1 313238.0 0
27556.0 314262.0 0
31750.6 311147.0 0
36111.9 310396.0 0
40529.6 310025.0 0
42506.5 313668.0 0
47221.1 314382.0 0
55082.9 312139.0 0
71070.6 312488.0 0
75981.4 311042.0 0
87177.6 313984.0 0
101304.0 314186.0 0
115988.0 312205.0 0
121376.0 313012.0 0
127453.0 312045.0 0
132217.0 309639.0 0
137709.0 311120.0 0
134374.0 313997.0 0
136926.0 314293.0 0
142940.0 313753.0 0
159503.0 313409.0 0
166757.0 311406.0 0
170964.0 313213.0 0
173828.0 309774.0 0
178097.0 312731.0 0
182576.0 311293.0 0
188424.0 313224.0 0
198203.0 312890.0 0
203606.0 310234.0 0
208340.0 312461.0 0
212187.0 309992.0 0
217004.0 310658.0 0
221899.0 313309.0 0
227474.0 313170.0 0
232918.0 314054.0 0
236956.0 309611.0 0
244013.0 313665.0 0
247339.0 310147.0 0
249420.0 313517.0 0
253932.0 313751.0 0
259252.0 312198.0 0
265046.0 310925.0 0
270025.0 309958.0 0
267997.0 314350.0 0
272677.0 314427.0 0
282366.0 311436.0 0
287555.0 313621.0 0
291661.0 310006.0 0
296082.0 312171.0 0
310186.0 312912.0 0
315851.0 309734.0 0
321608.0 309501.0 0
326129.0 312700.0 0
332766.0 312617.0 0
345721.0 309958.0 0
359390.0 312714.0 0
365233.0 311757.0 0
371514.0 311666.0 0
382983.0 311996.0 0
392773.0 311150.0 0
402414.0 310287.0 0
405524.0 313250.0 0
418256.0 313614.0 0
423877.0 313666.0 0
430432.0 311198.0 0
435876.0 309532.0 0
443743.0 311427.0 0
448497.0 309497.0 0
448865.0 314372.0 0
457751.0 312938.0 0
463509.0 313049.0 0
472922.0 311315.0 0
469551.0 314432.0 0
477904.0 311436.0 0
490331.0 309381.0 0
492549.0 313237.0 0
497345.0 314231.0 0
12432.9 318625.0 0
18261.9 318586.0 0
35807.4 317761.0 0
40409.5 318469.0 0
57767.4 315879.0 0
62118.7 317385.0 0
66580.1 315527.0 0
78232.9 316415.0 0
83627.7 318681.0 0
88025.0 319493.0 0
92596.4 316433.0 0
105416.0 314593.0 0
110427.0 316475.0 0
115498.0 318306.0 0
119859.0 316667.0 0
125026.0 315445.0 0
124322.0 319474.0 0
145130.0 317757.0 0
149278.0 315884.0 0
152637.0 319123.0 0
154955.0 314686.0 0
157044.0 319233.0 0
162950.0 315725.0 0
175791.0 317480.0 0
179935.0 316132.0 0
193805.0 316049.0 0
202895.0 315837.0 0
208392.0 317924.0 0
213344.0 314652.0 0
218062.0 317153.0 0
223600.0 318247.0 0
229049.0 318152.0 0
233890.0 319211.0 0
238295.0 315832.0 0
242513.0 319366.0 0
247737.0 318275.0 0
252006.0 317133.0 0
255722.0 319061.0 0
263820.0 314944.0 0
260654.0 318159.0 0
265219.0 318941.0 0
269720.0 318494.0 0
278019.0 315236.0 0
283180.0 316779.0 0
288130.0 319439.0 0
292495.0 315443.0 0
296849.0 316179.0 0
305804.0 316788.0 0
301389.0 317332.0 0
309208.0 317910.0 0
315912.0 315602.0 0
329885.0 314644.0 0
332502.0 317541.0 0
337497.0 317434.0 0
344487.0 318351.0 0
350089.0 317890.0 0
354804.0 316427.0 0
359342.0 318243.0 0
363529.0 316366.0 0
368250.0 316821.0 0
375763.0 315059.0 0
379842.0 317627.0 0
383935.0 317696.0 0
388117.0 315530.0 0
420703.0 317340.0 0
428710.0 317175.0 0
453540.0 315692.0 0
473869.0 315431.0 0
480010.0 316910.0 0
485101.0 315512.0 0
2385.26 323678.0 0
19755.7 323110.0 0
23726.9 324338.0 0
31572.7 320761.0 0
37894.0 324618.0 0
42563.5 322388.0 0
59411.4 323745.0 0
73236.5 322500.0 0
78992.8 324329.0 0
84814.0 324546.0 0
98112.3 320134.0 0
103476.0 323561.0 0
119756.0 320555.0 0
127047.0 323777.0 0
137186.0 321552.0 0
133529.0 324260.0 0
141682.0 324305.0 0
178009.0 324548.0 0
182816.0 324221.0 0
188845.0 324148.0 0
203858.0 320929.0 0
208079.0 323414.0 0
213647.0 320222.0 0
217768.0 323940.0 0
220706.0 320555.0 0
223047.0 323840.0 0
226293.0 321236.0 0
230328.0 323070.0 0
238191.0 320852.0 0
235421.0 324143.0 0
240570.0 324311.0 0
245796.0 323827.0 0
251491.0 322280.0 0
256392.0 324118.0 0
262262.0 322990.0 0
267757.0 323299.0 0
274708.0 319925.0 0
278143.0 324612.0 0
281330.0 321120.0 0
284664.0 324123.0 0
293565.0 320236.0 0
297757.0 319829.0 0
320548.0 319692.0 0
327915.0 322199.0 0
332244.0 321475.0 0
349617.0 324609.0 0
373783.0 322797.0 0
391305.0 323139.0 0
396224.0 319699.0 0
401114.0 321656.0 0
405441.0 323773.0 0
415232.0 324176.0 0
443848.0 319864.0 0
441300.0 324128.0 0
447423.0 323715.0 0
460614.0 320876.0 0
468386.0 322630.0 0
475351.0 320633.0 0
482264.0 323424.0 0
486287.0 321062.0 0
491602.0 322650.0 0
6006.39 327374.0 0
11457.4 324762.0 0
17628.4 328807.0 0
28043.2 325093.0 0
31549.5 328066.0 0
44669.6 327040.0 0
48901.4 325216.0 0
53337.5 327310.0 0
57735.5 327218.0 0
81396.5 328647.0 0
108327.0 324990.0 0
131487.0 328310.0 0
147366.0 326211.0 0
157006.0 328567.0 0
162148.0 328265.0 0
166764.0 327224.0 0
172721.0 327386.0 0
195076.0 326411.0 0
203977.0 326477.0 0
209000.0 328656.0 0
212473.0 324979.0 0
215417.0 329597.0 0
220826.0 328207.0 0
226902.0 327367.0 0
232157.0 327891.0 0
237585.0 328887.0 0
242705.0 328034.0 0
251770.0 326858.0 0
259936.0 327147.0 0
255608.0 329303.0 0
264649.0 327839.0 0
269295.0 327922.0 0
272917.0 325082.0 0
282071.0 329443.0 0
290880.0 324836.0 0
296507.0 324655.0 0
307859.0 328899.0 0
320417.0 325284.0 0
318165.0 329541.0 0
324961.0 325209.0 0
339112.0 327400.0 0
344315.0 329542.0 0
356286.0 325527.0 0
361855.0 328340.0 0
366109.0 325777.0 0
370489.0 326071.0 0
373349.0 329073.0 0
382120.0 329139.0 0
377846.0 329676.0 0
386421.0 329367.0 0
410203.0 325694.0 0
420447.0 324826.0 0
424465.0 327672.0 0
429055.0 327222.0 0
436061.0 325636.0 0
452098.0 325495.0 0
463371.0 325196.0 0
472620.0 325526.0 0
478625.0 325793.0 0
475464.0 328813.0 0
488314.0 324934.0 0
497634.0 326467.0 0
10345.6 330188.0 0
14356.5 331122.0 0
21198.9 330992.0 0
23712.7 334340.0 0
73587.4 333762.0 0
88732.2 329884.0 0
94616.0 330588.0 0
99836.4 333623.0 0
115852.0 331094.0 0
124424.0 332415.0 0
129417.0 332728.0 0
137331.0 334307.0 0
151889.0 329974.0 0
178121.0 334580.0 0
182877.0 333127.0 0
190151.0 333346.0 0
198863.0 334776.0 0
204546.0 332251.0 0
209823.0 333625.0 0
223902.0 331276.0 0
219385.0 333507.0 0
228561.0 333159.0 0
233641.0 332271.0 0
237517.0 334783.0 0
241577.0 332309.0 0
247671.0 329742.0 0
249639.0 334513.0 0
254556.0 334762.0 0
260840.0 332880.0 0
267629.0 332763.0 0
275650.0 329860.0 0
278614.0 334750.0 0
282926.0 334412.0 0
288361.0 329988.0 0
286570.0 334571.0 0
294150.0 329915.0 0
290997.0 334422.0 0
304833.0 333328.0 0
313339.0 330459.0 0
333604.0 330978.0 0
345237.0 334059.0 0
348224.0 331509.0 0
375332.0 332441.0 0
396070.0 334325.0 0
405148.0 334345.0 0
412280.0 332181.0 0
416387.0 333836.0 0
425498.0 331615.0 0
431748.0 334632.0 0
434661.0 330637.0 0
439140.0 332441.0 0
444448.0 330148.0 0
452878.0 334055.0 0
456662.0 330597.0 0
461427.0 332044.0 0
465643.0 334096.0 0
478873.0 331477.0 0
484076.0 329881.0 0
2520.43 335868.0 0
27712.7 335254.0 0
35470.8 337946.0 0
31330.3 338359.0 0
38957.8 336324.0 0
64003.3 336454.0 0
69034.9 336366.0 0
78890.1 335590.0 0
83595.1 338040.0 0
106851.0 336739.0 0
102136.0 338352.0 0
111993.0 336205.0 0
115838.0 336855.0 0
122579.0 338489.0 0
132091.0 336141.0 0
141484.0 335944.0 0
173534.0 335965.0 0
187621.0 338781.0 0
194183.0 336583.0 0
206168.0 336734.0 0
204359.0 339831.0 0
210210.0 338228.0 0
214282.0 335321.0 0
219003.0 338389.0 0
223637.0 335835.0 0
227927.0 338798.0 0
232409.0 336748.0 0
236325.0 339839.0 0
241309.0 338081.0 0
245272.0 335153.0 0
251082.0 338613.0 0
262862.0 339584.0 0
268059.0 337973.0 0
273075.0 334878.0 0
277004.0 339675.0 0
282239.0 339180.0 0
286571.0 338247.0 0
295776.0 335230.0 0
292295.0 338979.0 0
296343.0 338733.0 0
320801.0 336787.0 0
326082.0 335773.0 0
339966.0 336779.0 0
344226.0 338005.0 0
348323.0 335839.0 0
353398.0 337011.0 0
377578.0 338544.0 0
387759.0 336070.0 0
391971.0 337268.0 0
417562.0 338228.0 0
422843.0 336500.0 0
429251.0 339275.0 0
448734.0 337729.0 0
444373.0 339301.0 0
457920.0 335552.0 0
483950.0 339948.0 0
488519.0 337818.0 0
493893.0 336504.0 0
23860.2 345006.0 0
58276.5 341090.0 0
62760.5 341241.0 0
79117.6 340408.0 0
85357.4 342711.0 0
89677.3 343879.0 0
114635.0 344076.0 0
118035.0 340370.0 0
119205.0 344530.0 0
148593.0 343650.0 0
154063.0 344726.0 0
177642.0 344209.0 0
182265.0 342398.0 0
186511.0 342483.0 0
204014.0 344287.0 0
209793.0 343679.0 0
214473.0 340137.0 0
219176.0 343078.0 0
215103.0 344534.0 0
223352.0 340604.0 0
226793.0 343575.0 0
232150.0 343952.0 0
237498.0 344128.0 0
241635.0 343158.0 0
246223.0 340340.0 0
251267.0 343174.0 0
256305.0 340741.0 0
261122.0 344604.0 0
267899.0 343443.0 0
272173.0 339998.0 0
273126.0 344429.0 0
279244.0 343980.0 0
284076.0 344127.0 0
288269.0 341835.0 0
292273.0 344452.0 0
296132.0 341959.0 0
334097.0 341024.0 0
338749.0 339986.0 0
362728.0 344514.0 0
367860.0 342922.0 0
374256.0 343258.0 0
383309.0 340680.0 0
388742.0 343137.0 0
440415.0 340224.0 0
449043.0 342779.0 0
472532.0 342907.0 0
476982.0 342357.0 0
18980.9 348921.0 0
24601.3 350132.0 0
46285.1 349440.0 0
57656.8 347773.0 0
160451.0 345440.0 0
164978.0 349169.0 0
172783.0 345976.0 0
175845.0 347848.0 0
203274.0 350057.0 0
207137.0 348464.0 0
212554.0 348630.0 0
216915.0 348065.0 0
222794.0 345062.0 0
221039.0 349275.0 0
226479.0 348744.0 0
231414.0 349037.0 0
236721.0 349086.0 0
242997.0 348522.0 0
247327.0 345299.0 0
247802.0 349464.0 0
251623.0 347723.0 0
257642.0 345495.0 0
256142.0 349297.0 0
260912.0 348894.0 0
265915.0 348806.0 0
270784.0 348030.0 0
276138.0 348231.0 0
281421.0 348471.0 0
287830.0 346139.0 0
285810.0 349527.0 0
295728.0 347434.0 0
291071.0 349373.0 0
300738.0 349280.0 0
343860.0 345333.0 0
347413.0 347819.0 0
351113.0 348840.0 0
354633.0 345346.0 0
359569.0 348518.0 0
378320.0 347034.0 0
441465.0 346416.0 0
447200.0 346811.0 0
487877.0 345512.0 0
496741.0 348026.0 0
3000.82 354571.0 0
29372.6 351306.0 0
34198.8 353266.0 0
41944.7 351485.0 0
44756.1 354940.0 0
49720.9 353768.0 0
59419.7 351674.0 0
78998.1 354467.0 0
125705.0 352377.0 0
131308.0 351031.0 0
136308.0 350900.0 0
169679.0 350372.0 0
203607.0 353637.0 0
209621.0 354323.0 0
216034.0 351805.0 0
219949.0 354205.0 0
225136.0 354304.0 0
230488.0 353676.0 0
235404.0 354491.0 0
240011.0 353750.0 0
245801.0 354390.0 0
252778.0 354312.0 0
259147.0 353727.0 0
263539.0 352665.0 0
269628.0 353152.0 0
273809.0 351713.0 0
277545.0 353636.0 0
282425.0 352953.0 0
286249.0 353257.0 0
290623.0 354857.0 0
295565.0 352348.0 0
303322.0 354671.0 0
354750.0 352132.0 0
374379.0 353073.0 0
378180.0 351416.0 0
382647.0 353961.0 0
388980.0 352721.0 0
435600.0 355155.0 0
441425.0 352824.0 0
463934.0 353915.0 0
5576.43 358972.0 0
38189.5 356319.0 0
40981.1 359063.0 0
78850.0 357921.0 0
104572.0 359517.0 0
109302.0 355691.0 0
110496.0 360450.0 0
199017.0 356167.0 0
204516.0 358459.0 0
213862.0 358706.0 0
215010.0 355430.0 0
217602.0 358088.0 0
222174.0 358872.0 0
227337.0 359074.0 0
232825.0 359011.0 0
238452.0 358610.0 0
242881.0 358635.0 0
247476.0 360132.0 0
251323.0 359080.0 0
255282.0 359971.0 0
264988.0 356761.0 0
260308.0 358944.0 0
270309.0 359411.0 0
275508.0 357919.0 0
280911.0 358701.0 0
286400.0 357748.0 0
295364.0 358150.0 0
318205.0 355695.0 0
321222.0 357965.0 0
324319.0 356889.0 0
344872.0 355461.0 0
399809.0 357254.0 0
406576.0 359539.0 0
412274.0 359218.0 0
420030.0 359171.0 0
425901.0 357717.0 0
430527.0 355804.0 0
30674.9 362215.0 0
114684.0 361913.0 0
118920.0 364404.0 0
194109.0 363008.0 0
199282.0 361887.0 0
203765.0 363349.0 0
209716.0 361629.0 0
215565.0 362887.0 0
219949.0 363607.0 0
222852.0 362669.0 0
226717.0 364732.0 0
231990.0 364057.0 0
236802.0 363654.0 0
241924.0 362844.0 0
246396.0 364918.0 0
252130.0 363272.0 0
255142.0 364704.0 0
259953.0 364167.0 0
265598.0 363488.0 0
275357.0 362559.0 0
270872.0 365352.0 0
280256.0 364572.0 0
285529.0 362838.0 0
290396.0 360426.0 0
294631.0 364300.0 0
306624.0 360951.0 0
349594.0 362309.0 0
355596.0 365109.0 0
389404.0 362912.0 0
394819.0 360745.0 0
466754.0 360372.0 0
470906.0 361728.0 0
1660.92 372417.0 0
4578.32 370497.0 0
9061.67 370043.0 0
13265.2 365689.0 0
18128.5 375370.0 0
22555.9 375040.0 0
26829.9 375229.0 0
30829.2 375531.0 0
34762.8 375086.0 0
36973.3 376725.0 0
40217.5 375461.0 0
44624.7 375282.0 0
47847.0 375354.0 0
51462.4 375980.0 0
55507.0 375240.0 0
59536.7 375098.0 0
63129.4 375437.0 0
66133.6 375416.0 0
69731.1 375168.0 0
67087.5 377694.0 0
74886.0 375057.0 0
78859.6 375560.0 0
82133.7 375099.0 0
86701.2 375544.0 0
90792.6 375070.0 0
95618.5 375033.0 0
100308.0 375191.0 0
103816.0 375910.0 0
110624.0 375626.0 0
107170.0 375529.0 0
114334.0 375477.0 0
117926.0 375730.0 0
123167.0 366659.0 0
126289.0 375521.0 0
130851.0 375389.0 0
135292.0 375590.0 0
139322.0 375040.0 0
144009.0 375088.0 0
148658.0 375129.0 0
152587.0 375221.0 0
155846.0 375590.0 0
159820.0 375069.0 0
164870.0 375131.0 0
168702.0 375195.0 0
172096.0 375439.0 0
175499.0 375442.0 0
179625.0 375344.0 0
183301.0 375148.0 0
187612.0 373389.0 0
190053.0 366080.0 0
192871.0 375236.0 0
199466.0 376004.0 0
196922.0 375293.0 0
203380.0 369563.0 0
207027.0 367230.0 0
213627.0 368187.0 0
218154.0 368189.0 0
222500.0 368052.0 0
228119.0 369990.0 0
233099.0 368637.0 0
237972.0 368451.0 0
242687.0 367400.0 0
247739.0 369115.0 0
251702.0 367402.0 0
255832.0 368881.0 0
260265.0 369224.0 0
265036.0 368875.0 0
275869.0 368698.0 0
284123.0 368697.0 0
289387.0 366543.0 0
300622.0 375947.0 0
303820.0 375188.0 0
310557.0 375522.0 0
307118.0 375677.0 0
314949.0 375298.0 0
319345.0 375274.0 0
323458.0 375307.0 0
327876.0 375017.0 0
332775.0 375291.0 0
336311.0 366281.0 0
341778.0 369748.0 0
345005.0 375248.0 0
351904.0 367723.0 0
354732.0 375391.0 0
359040.0 375047.0 0
363777.0 371941.0 0
368625.0 374989.0 0
372876.0 375745.0 0
375717.0 375206.0 0
378832.0 370243.0 0
382564.0 375164.0 0
387016.0 375050.0 0
391198.0 375369.0 0
395329.0 375671.0 0
398757.0 375603.0 0
401545.0 375460.0 0
405344.0 375431.0 0
409557.0 375090.0 0
417609.0 365296.0 0
414099.0 375164.0 0
423178.0 375422.0 0
418851.0 375159.0 0
427466.0 375673.0 0
431254.0 366623.0 0
435059.0 375435.0 0
431133.0 375209.0 0
439388.0 375144.0 0
443770.0 375261.0 0
447166.0 375223.0 0
452238.0 375363.0 0
457219.0 375358.0 0
462199.0 375600.0 0
466529.0 375498.0 0
471128.0 375524.0 0
475107.0 375398.0 0
480030.0 375311.0 0
484643.0 375587.0 0
488270.0 375330.0 0
492974.0 375162.0 0
497864.0 375520.0 0
1518.76 376538.0 0
4221.53 379040.0 0
1429.75 380122.0 0
5234.15 375408.0 0
7791.14 378688.0 0
9509.95 375474.0 0
11935.8 378594.0 0
10084.6 381461.0 0
13902.3 375307.0 0
15962.6 379228.0 0
20609.8 378928.0 0
24923.7 378010.0 0
25943.3 380681.0 0
28745.1 378304.0 0
28224.6 382317.0 0
33217.2 378011.0 0
31366.1 380839.0 0
36584.8 379771.0 0
40099.8 380159.0 0
43782.5 378359.0 0
43343.5 381653.0 0
47425.1 378222.0 0
50708.6 379805.0 0
47137.3 381684.0 0
54710.8 379256.0 0
58941.0 378382.0 0
58470.7 382418.0 0
63554.8 379907.0 0
68826.8 380112.0 0
70741.2 377918.0 0
71665.6 381954.0 0
73430.1 378906.0 0
76261.0 380501.0 0
77719.2 378043.0 0
80972.0 378757.0 0
84954.6 379030.0 0
83804.8 382391.0 0
89313.9 379683.0 0
93077.0 377733.0 0
94652.3 381474.0 0
97997.1 378469.0 0
101654.0 379257.0 0
99032.1 382301.0 0
105420.0 379233.0 0
109467.0 379133.0 0
113249.0 379310.0 0
117230.0 379430.0 0
121636.0 375887.0 0
120734.0 380608.0 0
125142.0 380128.0 0
129407.0 379017.0 0
132444.0 378616.0 0
132399.0 381732.0 0
129239.0 382205.0 0
134709.0 379064.0 0
136590.0 381952.0 0
141423.0 377755.0 0
137768.0 378359.0 0
140458.0 381229.0 0
144168.0 379496.0 0
146775.0 377905.0 0
147896.0 381421.0 0
151595.0 379025.0 0
155727.0 378280.0 0
155608.0 381788.0 0
162882.0 378163.0 0
159024.0 379489.0 0
161844.0 381471.0 0
166833.0 378179.0 0
165041.0 381105.0 0
168887.0 381250.0 0
170277.0 378111.0 0
173799.0 379457.0 0
177516.0 377644.0 0
178320.0 379897.0 0
180839.0 382149.0 0
181353.0 378400.0 0
183507.0 381076.0 0
185323.0 377441.0 0
187062.0 380861.0 0
189609.0 377408.0 0
191249.0 381517.0 0
193323.0 378559.0 0
196142.0 377499.0 0
195581.0 380597.0 0
198982.0 379242.0 0
199628.0 382447.0 0
204452.0 373200.0 0
208611.0 375679.0 0
209712.0 371396.0 0
213387.0 373883.0 0
218305.0 372849.0 0
222725.0 372962.0 0
226679.0 374520.0 0
231453.0 373308.0 0
236418.0 373237.0 0
241626.0 372046.0 0
247092.0 374230.0 0
253248.0 373440.0 0
258473.0 373501.0 0
262430.0 372845.0 0
269990.0 370713.0 0
266447.0 374738.0 0
273816.0 374075.0 0
280218.0 371509.0 0
278161.0 375010.0 0
282077.0 374542.0 0
288823.0 372089.0 0
294874.0 370930.0 0
300955.0 379492.0 0
305252.0 381438.0 0
304026.0 377962.0 0
309470.0 379704.0 0
306805.0 378051.0 0
313143.0 378471.0 0
317517.0 379334.0 0
321440.0 382243.0 0
322095.0 378715.0 0
325586.0 377673.0 0
327295.0 379764.0 0
324690.0 380649.0 0
330287.0 377884.0 0
336413.0 375804.0 0
334045.0 379664.0 0
337714.0 378732.0 0
339963.0 375547.0 0
340449.0 379960.0 0
342067.0 377216.0 0
345491.0 380275.0 0
349810.0 376187.0 0
353420.0 379901.0 0
362443.0 376773.0 0
358094.0 378456.0 0
366048.0 378493.0 0
371163.0 379050.0 0
369283.0 382252.0 0
375165.0 378455.0 0
373603.0 382258.0 0
379057.0 376717.0 0
381805.0 380308.0 0
384565.0 377729.0 0
386034.0 380763.0 0
389359.0 378466.0 0
397163.0 382357.0 0
393841.0 380229.0 0
399093.0 379022.0 0
401823.0 382289.0 0
407451.0 378012.0 0
403331.0 378422.0 0
405481.0 380740.0 0
411538.0 377591.0 0
409736.0 381367.0 0
416526.0 377774.0 0
413763.0 380083.0 0
420543.0 378852.0 0
428426.0 379301.0 0
424779.0 379218.0 0
431670.0 378206.0 0
431559.0 380846.0 0
433472.0 380985.0 0
429677.0 382602.0 0
435183.0 378729.0 0
438091.0 378393.0 0
440541.0 380654.0 0
441983.0 377499.0 0
445268.0 379179.0 0
449432.0 378066.0 0
452852.0 379783.0 0
455631.0 378794.0 0
457291.0 381919.0 0
459983.0 379067.0 0
464383.0 379551.0 0
461524.0 382022.0 0
468953.0 378975.0 0
471874.0 381921.0 0
473445.0 378734.0 0
477031.0 378537.0 0
476188.0 382373.0 0
482825.0 378477.0 0
480063.0 380579.0 0
484536.0 382467.0 0
486545.0 378761.0 0
488884.0 382541.0 0
490215.0 378826.0 0
494698.0 379169.0 0
492912.0 382767.0 0
498624.0 379197.0 0
497866.0 382762.0 0
1329.97 382877.0 0
1960.83 386200.0 0
5573.03 382983.0 0
10006.5 384909.0 0
13846.7 382612.0 0
18324.4 383633.0 0
23117.9 382632.0 0
22667.1 386567.0 0
26300.2 384909.0 0
30486.6 385815.0 0
34786.3 383387.0 0
34434.6 387641.0 0
38585.0 382783.0 0
38160.3 386509.0 0
44609.0 384172.0 0
41100.1 384018.0 0
40933.1 387136.0 0
50481.0 382817.0 0
48187.0 385575.0 0
53863.2 382786.0 0
51858.1 385363.0 0
54973.2 387380.0 0
56219.1 384644.0 0
59155.6 386413.0 0
62787.3 384514.0 0
67217.0 383236.0 0
70519.5 385585.0 0
66312.9 387062.0 0
75100.1 384317.0 0
79876.0 382718.0 0
79046.2 387006.0 0
83603.5 386192.0 0
87031.5 383045.0 0
91087.7 383940.0 0
87625.4 386309.0 0
95734.6 385647.0 0
100184.0 385867.0 0
102871.0 382729.0 0
104826.0 386158.0 0
107491.0 383031.0 0
111837.0 383030.0 0
109555.0 386528.0 0
115530.0 382775.0 0
114483.0 387075.0 0
118915.0 384480.0 0
126476.0 384896.0 0
122602.0 383669.0 0
122699.0 386954.0 0
130544.0 384409.0 0
134300.0 385847.0 0
139851.0 385923.0 0
144125.0 382878.0 0
144814.0 386545.0 0
151753.0 383519.0 0
148261.0 385145.0 0
156028.0 386050.0 0
159360.0 382974.0 0
162919.0 383970.0 0
160690.0 386246.0 0
166463.0 384578.0 0
171336.0 383780.0 0
172973.0 387084.0 0
176229.0 383809.0 0
180754.0 386055.0 0
184154.0 384014.0 0
187752.0 384866.0 0
193995.0 383656.0 0
191385.0 385434.0 0
197031.0 383400.0 0
194659.0 387304.0 0
199222.0 386623.0 0
204667.0 378853.0 0
213536.0 379099.0 0
218169.0 377604.0 0
222185.0 377681.0 0
225765.0 379083.0 0
230746.0 378790.0 0
236525.0 378456.0 0
242384.0 378391.0 0
247905.0 379795.0 0
252051.0 378305.0 0
256537.0 378103.0 0
261405.0 377741.0 0
266176.0 380586.0 0
271303.0 378072.0 0
276440.0 380085.0 0
282005.0 379040.0 0
285745.0 376000.0 0
289872.0 376765.0 0
294924.0 377686.0 0
300818.0 383833.0 0
304503.0 385053.0 0
305797.0 387440.0 0
309212.0 384456.0 0
313298.0 382392.0 0
313445.0 385663.0 0
317733.0 384525.0 0
326850.0 382242.0 0
324434.0 383501.0 0
330163.0 382120.0 0
332739.0 384115.0 0
327705.0 386569.0 0
336668.0 383261.0 0
341620.0 383546.0 0
339266.0 385773.0 0
344841.0 385337.0 0
349482.0 381375.0 0
348211.0 384754.0 0
351582.0 384571.0 0
354550.0 384387.0 0
357229.0 382232.0 0
358395.0 386033.0 0
361316.0 381622.0 0
362485.0 386141.0 0
365555.0 383384.0 0
368280.0 385904.0 0
371352.0 385250.0 0
377692.0 381634.0 0
380641.0 384747.0 0
384595.0 383804.0 0
389458.0 383248.0 0
393680.0 386043.0 0
398761.0 385617.0 0
402657.0 386291.0 0
406140.0 384829.0 0
410134.0 385345.0 0
417743.0 382299.0 0
413689.0 384001.0 0
416694.0 386718.0 0
422564.0 382434.0 0
420611.0 385593.0 0
426161.0 383167.0 0
424615.0 386926.0 0
433239.0 384068.0 0
429065.0 386567.0 0
436862.0 382033.0 0
437223.0 386006.0 0
440110.0 384220.0 0
443795.0 383291.0 0
446537.0 386938.0 0
448977.0 382581.0 0
453640.0 382971.0 0
451562.0 386352.0 0
456276.0 386511.0 0
463991.0 383430.0 0
460143.0 384459.0 0
462733.0 386068.0 0
467253.0 382512.0 0
466727.0 386508.0 0
469959.0 384881.0 0
473475.0 386035.0 0
477555.0 385787.0 0
480463.0 384212.0 0
484032.0 386342.0 0
488622.0 386816.0 0
493988.0 386620.0 0
498343.0 386580.0 0
1931.57 390109.0 0
6251.95 388060.0 0
8854.96 391177.0 0
14383.3 386865.0 0
10418.7 388518.0 0
12156.2 391169.0 0
18994.4 387675.0 0
16563.8 391514.0 0
22364.2 391118.0 0
26639.4 388773.0 0
31553.4 391024.0 0
36868.5 390696.0 0
40634.7 389980.0 0
43805.5 387551.0 0
44076.4 392085.0 0
47365.2 389679.0 0
51131.3 388807.0 0
54139.8 391222.0 0
58419.8 390376.0 0
62643.4 388980.0 0
69767.2 388936.0 0
66430.0 391705.0 0
71337.2 392057.0 0
74298.3 388682.0 0
78394.3 390410.0 0
82250.4 389826.0 0
86425.9 389365.0 0
84853.4 392448.0 0
91368.3 388659.0 0
88550.4 392528.0 0
96950.0 389833.0 0
101902.0 389697.0 0
106970.0 389813.0 0
111108.0 389953.0 0
116554.0 390833.0 0
113437.0 392100.0 0
119287.0 388719.0 0
119614.0 391968.0 0
126192.0 389686.0 0
122681.0 391196.0 0
129970.0 387749.0 0
129849.0 391996.0 0
137054.0 389710.0 0
133172.0 389899.0 0
142793.0 390309.0 0
147920.0 388914.0 0
151568.0 387452.0 0
151417.0 391073.0 0
154496.0 389743.0 0
159203.0 390153.0 0
162815.0 391539.0 0
163953.0 388060.0 0
166697.0 391092.0 0
168986.0 387447.0 0
171996.0 391166.0 0
176273.0 388491.0 0
176403.0 392005.0 0
180244.0 390332.0 0
185030.0 388525.0 0
187994.0 392004.0 0
189727.0 388288.0 0
192709.0 391012.0 0
198082.0 391534.0 0
208960.0 381231.0 0
287145.0 380997.0 0
291978.0 381995.0 0
295720.0 383742.0 0
301707.0 388190.0 0
305700.0 390774.0 0
301284.0 392110.0 0
308520.0 388526.0 0
310133.0 391184.0 0
315277.0 387910.0 0
311889.0 388060.0 0
314668.0 391620.0 0
319001.0 389388.0 0
322276.0 386591.0 0
323835.0 390966.0 0
332806.0 387880.0 0
336867.0 388539.0 0
341276.0 388394.0 0
345056.0 389099.0 0
347365.0 387813.0 0
350470.0 388097.0 0
353994.0 387419.0 0
356739.0 389804.0 0
361553.0 390729.0 0
365778.0 388139.0 0
366049.0 391705.0 0
370558.0 390019.0 0
375934.0 387044.0 0
374765.0 391536.0 0
380430.0 389127.0 0
377963.0 391805.0 0
383453.0 387376.0 0
387618.0 387800.0 0
383821.0 390851.0 0
391259.0 391210.0 0
397536.0 388985.0 0
395349.0 390257.0 0
401104.0 389370.0 0
398716.0 392530.0 0
404856.0 389089.0 0
406951.0 391542.0 0
408584.0 388763.0 0
412778.0 388224.0 0
415982.0 391515.0 0
419945.0 389340.0 0
427400.0 390305.0 0
423675.0 391356.0 0
430472.0 390132.0 0
433481.0 387965.0 0
437551.0 389982.0 0
433697.0 392185.0 0
441911.0 387982.0 0
441053.0 392066.0 0
445598.0 391909.0 0
449485.0 389763.0 0
453457.0 390281.0 0
457383.0 390716.0 0
460149.0 387970.0 0
460709.0 391150.0 0
464111.0 389455.0 0
468226.0 390986.0 0
470325.0 387978.0 0
472835.0 390202.0 0
476107.0 388438.0 0
477394.0 392219.0 0
480568.0 388325.0 0
481797.0 391877.0 0
484889.0 389533.0 0
488325.0 390736.0 0
492412.0 390616.0 0
497759.0 390473.0 0
1460.84 393720.0 0
5605.9 392876.0 0
9773.99 394143.0 0
7540.23 396763.0 0
13053.3 394794.0 0
19820.9 394206.0 0
22422.9 396321.0 0
26508.3 393540.0 0
31238.8 396435.0 0
39953.6 393762.0 0
35719.2 394523.0 0
37799.3 396204.0 0
44103.4 395889.0 0
49911.4 394144.0 0
53735.3 397730.0 0
56778.4 394473.0 0
61059.5 396797.0 0
61816.0 393112.0 0
65242.5 395757.0 0
69282.8 395396.0 0
75760.1 392737.0 0
73165.0 394820.0 0
76670.4 396553.0 0
80537.0 394141.0 0
85242.9 396613.0 0
89746.3 395977.0 0
93443.2 393225.0 0
96152.1 395742.0 0
99268.8 394115.0 0
104408.0 394172.0 0
109469.0 393427.0 0
117123.0 394282.0 0
112914.0 396580.0 0
121962.0 395604.0 0
126335.0 393877.0 0
129858.0 395631.0 0
134101.0 394025.0 0
139050.0 393211.0 0
147380.0 392806.0 0
143356.0 395717.0 0
147709.0 396355.0 0
151395.0 394770.0 0
155543.0 392981.0 0
155260.0 396928.0 0
160085.0 394832.0 0
164354.0 394355.0 0
168719.0 395057.0 0
174370.0 396194.0 0
178877.0 393781.0 0
183335.0 393340.0 0
179902.0 396705.0 0
187180.0 396159.0 0
183852.0 397345.0 0
191321.0 395129.0 0
194816.0 394428.0 0
196799.0 396056.0 0
199392.0 395593.0 0
304829.0 394376.0 0
301421.0 396836.0 0
308159.0 393844.0 0
311526.0 394744.0 0
315763.0 395613.0 0
319145.0 393230.0 0
322472.0 394948.0 0
326253.0 395226.0 0
329350.0 391836.0 0
331340.0 396716.0 0
334259.0 392407.0 0
336183.0 396171.0 0
338502.0 392461.0 0
340478.0 395952.0 0
342819.0 392471.0 0
344983.0 396040.0 0
347687.0 391930.0 0
349916.0 396201.0 0
352859.0 392004.0 0
354510.0 396597.0 0
357508.0 393533.0 0
361129.0 394835.0 0
358887.0 396651.0 0
364495.0 394961.0 0
368717.0 394603.0 0
372862.0 394383.0 0
376120.0 394157.0 0
380894.0 392503.0 0
379197.0 395102.0 0
386797.0 392320.0 0
383590.0 395328.0 0
388619.0 395261.0 0
392839.0 395681.0 0
395232.0 393172.0 0
396899.0 395963.0 0
400759.0 395975.0 0
403382.0 393138.0 0
407062.0 394920.0 0
410891.0 392845.0 0
414512.0 396213.0 0
420026.0 394575.0 0
426708.0 393520.0 0
424348.0 395387.0 0
427916.0 397042.0 0
429742.0 393365.0 0
432590.0 396229.0 0
437453.0 394630.0 0
442764.0 395705.0 0
439505.0 397327.0 0
447334.0 396414.0 0
450297.0 393546.0 0
452297.0 397519.0 0
455023.0 394031.0 0
459066.0 394308.0 0
461419.0 396586.0 0
463880.0 393641.0 0
467633.0 394937.0 0
471996.0 394171.0 0
476701.0 396779.0 0
481634.0 395815.0 0
485439.0 393249.0 0
486035.0 396889.0 0
490086.0 394749.0 0
493929.0 398014.0 0
498847.0 393896.0 0
495244.0 394055.0 0
498266.0 397044.0 0
2818.25 397799.0 0
7844.4 400886.0 0
11213.4 398038.0 0
16746.8 398139.0 0
21749.7 400763.0 0
26242.8 398366.0 0
30507.9 401748.0 0
35703.2 399203.0 0
40434.7 398088.0 0
44569.2 401243.0 0
46913.6 397954.0 0
50102.9 400674.0 0
55180.8 402156.0 0
57748.4 398612.0 0
60830.0 402036.0 0
64191.3 399369.0 0
68447.8 399977.0 0
72918.5 397992.0 0
76290.0 399706.0 0
73223.7 402152.0 0
80378.5 399150.0 0
77697.2 402707.0 0
84540.9 401375.0 0
88984.7 400197.0 0
93628.8 398596.0 0
97859.9 398232.0 0
101912.0 399091.0 0
97540.0 402115.0 0
105290.0 401884.0 0
107443.0 397696.0 0
110587.0 402030.0 0
115098.0 400518.0 0
117854.0 398203.0 0
121753.0 400699.0 0
118013.0 401867.0 0
126930.0 398903.0 0
132845.0 399180.0 0
137834.0 401994.0 0
138164.0 397643.0 0
142425.0 400518.0 0
146223.0 399240.0 0
150605.0 399393.0 0
154646.0 400760.0 0
159161.0 399559.0 0
164445.0 398693.0 0
169460.0 399671.0 0
173364.0 400775.0 0
177460.0 400177.0 0
182055.0 400354.0 0
186365.0 400133.0 0
190565.0 399193.0 0
194464.0 397796.0 0
198292.0 399070.0 0
194615.0 402361.0 0
199097.0 402653.0 0
302536.0 401173.0 0
307472.0 398425.0 0
312651.0 398034.0 0
316268.0 399450.0 0
311844.0 401948.0 0
319484.0 397176.0 0
320321.0 400857.0 0
323360.0 398211.0 0
327121.0 398657.0 0
329817.0 401290.0 0
334612.0 400914.0 0
338432.0 399226.0 0
342296.0 399688.0 0
347225.0 400269.0 0
352057.0 400679.0 0
357441.0 400740.0 0
361590.0 401676.0 0
362493.0 398436.0 0
366753.0 398315.0 0
371220.0 398032.0 0
369327.0 401107.0 0
375863.0 397962.0 0
380197.0 398797.0 0
383467.0 399811.0 0
386584.0 398668.0 0
390741.0 399640.0 0
394938.0 398381.0 0
394955.0 401868.0 0
398973.0 399623.0 0
402595.0 402450.0 0
404429.0 398371.0 0
409999.0 398625.0 0
414469.0 400765.0 0
418048.0 398744.0 0
422954.0 399181.0 0
427294.0 401184.0 0
431206.0 399756.0 0
436179.0 399884.0 0
440911.0 399267.0 0
444462.0 399902.0 0
449023.0 400869.0 0
457178.0 398392.0 0
454034.0 401866.0 0
461454.0 400246.0 0
464838.0 397526.0 0
466011.0 401518.0 0
468801.0 398368.0 0
472498.0 398639.0 0
475381.0 401102.0 0
484076.0 399815.0 0
479679.0 400481.0 0
489209.0 399249.0 0
486582.0 403135.0 0
490282.0 402454.0 0
493303.0 401782.0 0
497702.0 400783.0 0
2895.02 403501.0 0
8278.13 405958.0 0
12402.0 402456.0 0
17530.9 403752.0 0
22346.3 405604.0 0
25620.4 402683.0 0
27309.3 406252.0 0
31265.4 406310.0 0
35196.7 404198.0 0
39827.2 402958.0 0
43719.5 406787.0 0
47567.1 404709.0 0
51417.0 405345.0 0
55204.2 406197.0 0
58562.6 405350.0 0
65113.8 403302.0 0
62996.3 407433.0 0
69065.9 405569.0 0
74795.9 406399.0 0
81178.7 403074.0 0
79572.7 406187.0 0
83980.4 405689.0 0
88235.2 404428.0 0
91445.9 406619.0 0
92901.5 403114.0 0
96279.5 406578.0 0
101487.0 404702.0 0
106584.0 405866.0 0
111422.0 407289.0 0
115317.0 404398.0 0
119721.0 404933.0 0
125026.0 404839.0 0
129591.0 402881.0 0
129875.0 407616.0 0
133662.0 404025.0 0
142109.0 404664.0 0
138099.0 406340.0 0
146936.0 403247.0 0
145522.0 407357.0 0
151891.0 404170.0 0
156973.0 404162.0 0
162434.0 403824.0 0
166457.0 402582.0 0
166313.0 405642.0 0
170244.0 404504.0 0
175071.0 404040.0 0
177342.0 407001.0 0
179796.0 403768.0 0
184607.0 403824.0 0
189398.0 403528.0 0
198072.0 406055.0 0
301630.0 405633.0 0
307161.0 404202.0 0
316438.0 403827.0 0
312106.0 407207.0 0
321155.0 405238.0 0
324885.0 402248.0 0
324784.0 406578.0 0
328171.0 405266.0 0
332201.0 404044.0 0
335662.0 405764.0 0
338962.0 403161.0 0
343827.0 404439.0 0
349268.0 405194.0 0
354490.0 405154.0 0
360460.0 406056.0 0
365290.0 402638.0 0
369921.0 405203.0 0
373391.0 402102.0 0
375630.0 406105.0 0
377735.0 402213.0 0
381794.0 402715.0 0
379522.0 405722.0 0
386281.0 403017.0 0
383150.0 406566.0 0
390822.0 404105.0 0
394680.0 405411.0 0
398703.0 404751.0 0
407171.0 403220.0 0
403258.0 406577.0 0
407588.0 406461.0 0
411594.0 402761.0 0
411095.0 406758.0 0
414479.0 404086.0 0
418653.0 403094.0 0
420811.0 406778.0 0
423922.0 404044.0 0
430221.0 402457.0 0
428750.0 405491.0 0
432957.0 403311.0 0
433068.0 407267.0 0
436810.0 404823.0 0
440784.0 402756.0 0
443538.0 407640.0 0
440502.0 406687.0 0
445348.0 404389.0 0
450804.0 405734.0 0
458056.0 402923.0 0
455348.0 405288.0 0
462309.0 404410.0 0
458914.0 407024.0 0
466681.0 405944.0 0
471149.0 403394.0 0
473072.0 407728.0 0
477112.0 404947.0 0
482063.0 404092.0 0
484935.0 406716.0 0
490966.0 407140.0 0
495409.0 404371.0 0
498572.0 404338.0 0
497375.0 408288.0 0
3365.27 409101.0 0
8675.93 410602.0 0
13416.9 407781.0 0
18431.1 407666.0 0
17589.0 411776.0 0
21190.2 409319.0 0
24986.9 409637.0 0
22068.9 412672.0 0
30084.3 410870.0 0
34302.9 408488.0 0
38776.4 408051.0 0
35880.0 412759.0 0
44636.6 411069.0 0
41000.3 412217.0 0
48461.9 409123.0 0
47439.6 412985.0 0
53190.4 409435.0 0
57829.5 408904.0 0
60247.0 411557.0 0
56105.4 412898.0 0
63895.7 413067.0 0
67212.2 410102.0 0
71495.0 410025.0 0
74678.0 409957.0 0
78122.0 410033.0 0
82447.7 409822.0 0
87535.6 409170.0 0
92546.4 410092.0 0
100111.0 408595.0 0
97236.4 411124.0 0
101462.0 412506.0 0
103904.0 408969.0 0
107864.0 409491.0 0
111477.0 412345.0 0
116606.0 408923.0 0
121536.0 408538.0 0
121403.0 412428.0 0
125454.0 410308.0 0
134517.0 407840.0 0
133460.0 410823.0 0
137440.0 410512.0 0
141619.0 409218.0 0
147012.0 411435.0 0
143559.0 411908.0 0
149829.0 407869.0 0
151687.0 411931.0 0
154557.0 408387.0 0
155900.0 412261.0 0
159197.0 407828.0 0
160132.0 411741.0 0
163565.0 408545.0 0
173289.0 408339.0 0
168576.0 409718.0 0
177097.0 410829.0 0
181815.0 407985.0 0
181012.0 412460.0 0
187436.0 407870.0 0
184756.0 411446.0 0
192997.0 407857.0 0
198111.0 410496.0 0
305062.0 408144.0 0
301662.0 410524.0 0
305825.0 411674.0 0
308240.0 408725.0 0
309958.0 411811.0 0
314006.0 411222.0 0
317416.0 408536.0 0
322238.0 409662.0 0
331548.0 408156.0 0
326835.0 409759.0 0
335568.0 410710.0 0
340038.0 408479.0 0
344585.0 408674.0 0
348062.0 410273.0 0
352046.0 408841.0 0
356578.0 410147.0 0
361921.0 411821.0 0
365590.0 408000.0 0
366429.0 412221.0 0
369546.0 409858.0 0
372627.0 408047.0 0
373901.0 411588.0 0
378822.0 409779.0 0
383790.0 410713.0 0
387774.0 407832.0 0
392222.0 407494.0 0
391553.0 410437.0 0
396404.0 409310.0 0
400077.0 407711.0 0
401423.0 410404.0 0
406808.0 410317.0 0
412389.0 411792.0 0
416160.0 407971.0 0
420475.0 410436.0 0
425162.0 409162.0 0
429676.0 409577.0 0
433125.0 412268.0 0
437243.0 409159.0 0
437600.0 412840.0 0
442065.0 411516.0 0
446674.0 408875.0 0
450421.0 410508.0 0
454823.0 409410.0 0
460160.0 411016.0 0
463336.0 408394.0 0
468728.0 410455.0 0
463996.0 412139.0 0
473851.0 411647.0 0
476667.0 409036.0 0
478089.0 412018.0 0
480892.0 408449.0 0
485904.0 410654.0 0
494021.0 411699.0 0
489985.0 413012.0 0
497931.0 412970.0 0
1631.09 413124.0 0
2423.75 417158.0 0
5559.12 413760.0 0
9130.48 414753.0 0
12770.2 413070.0 0
19730.6 415215.0 0
16403.6 416409.0 0
22827.3 416453.0 0
25907.9 413655.0 0
28825.9 414599.0 0
31937.0 415835.0 0
39679.6 416409.0 0
35693.5 417593.0 0
44234.8 415380.0 0
48527.8 416242.0 0
51345.4 413393.0 0
54543.6 417738.0 0
59707.1 415712.0 0
64016.7 417956.0 0
69507.4 415305.0 0
74987.3 413401.0 0
74949.2 417733.0 0
80057.4 414669.0 0
84765.2 412923.0 0
84773.6 416630.0 0
89122.7 414203.0 0
94145.0 413761.0 0
98144.0 415824.0 0
106137.0 412922.0 0
103264.0 417688.0 0
108898.0 416999.0 0
116730.0 414132.0 0
113058.0 416805.0 0
120841.0 417257.0 0
125258.0 415303.0 0
129711.0 412958.0 0
135408.0 415634.0 0
140480.0 413560.0 0
144413.0 415267.0 0
148827.0 415577.0 0
153639.0 416331.0 0
158131.0 415400.0 0
161829.0 415466.0 0
164676.0 412698.0 0
165241.0 416560.0 0
168336.0 414497.0 0
172667.0 413246.0 0
170895.0 417551.0 0
177738.0 416002.0 0
184002.0 415939.0 0
188315.0 417281.0 0
189020.0 412828.0 0
191504.0 416290.0 0
193920.0 413225.0 0
198088.0 415652.0 0
194392.0 417292.0 0
301937.0 414632.0 0
306930.0 416344.0 0
312710.0 415370.0 0
318604.0 414026.0 0
324493.0 413646.0 0
330583.0 413294.0 0
335156.0 414922.0 0
339289.0 413654.0 0
343698.0 412470.0 0
343427.0 417026.0 0
347739.0 415005.0 0
352209.0 413005.0 0
357440.0 415644.0 0
362464.0 416428.0 0
367039.0 416346.0 0
369933.0 413342.0 0
377116.0 414637.0 0
372435.0 417003.0 0
380916.0 413516.0 0
384506.0 415344.0 0
388245.0 412715.0 0
393568.0 414539.0 0
398625.0 413328.0 0
403148.0 415273.0 0
408949.0 415692.0 0
417296.0 413266.0 0
414014.0 416929.0 0
422988.0 414888.0 0
418629.0 417375.0 0
428118.0 413321.0 0
430921.0 417404.0 0
435912.0 416170.0 0
439695.0 415372.0 0
443502.0 416760.0 0
447053.0 413422.0 0
452271.0 414625.0 0
456904.0 413489.0 0
456204.0 417851.0 0
461128.0 415950.0 0
466518.0 415628.0 0
471276.0 415356.0 0
479197.0 415268.0 0
475712.0 415434.0 0
482138.0 412929.0 0
482367.0 417089.0 0
486228.0 415220.0 0
490299.0 417359.0 0
494356.0 415553.0 0
498012.0 416840.0 0
2730.62 422153.0 0
7223.3 418797.0 0
12013.8 417729.0 0
10996.5 422077.0 0
19807.9 419599.0 0
15275.3 420796.0 0
23646.9 420024.0 0
27551.9 418354.0 0
32540.1 420416.0 0
38275.4 421607.0 0
42422.0 419246.0 0
46358.2 419471.0 0
50263.4 419141.0 0
59586.7 420504.0 0
64222.4 422795.0 0
67690.8 420374.0 0
71714.2 420532.0 0
78779.1 420334.0 0
81949.1 418058.0 0
83679.9 420929.0 0
88117.9 419583.0 0
93238.6 418363.0 0
98212.8 421601.0 0
107279.0 421700.0 0
103090.0 422784.0 0
112049.0 420982.0 0
116306.0 419081.0 0
120114.0 422051.0 0
124681.0 420604.0 0
129874.0 418883.0 0
135418.0 422003.0 0
140766.0 418675.0 0
139699.0 422412.0 0
145877.0 419329.0 0
149954.0 419225.0 0
157631.0 419209.0 0
153526.0 421576.0 0
162013.0 419413.0 0
167186.0 420315.0 0
172234.0 422451.0 0
174176.0 418632.0 0
177009.0 420952.0 0
181121.0 419550.0 0
185797.0 421187.0 0
191414.0 420541.0 0
197235.0 421004.0 0
301986.0 418553.0 0
311171.0 419651.0 0
306973.0 421544.0 0
316104.0 419456.0 0
320347.0 422291.0 0
322344.0 417849.0 0
324750.0 421223.0 0
327365.0 417432.0 0
329183.0 422122.0 0
332431.0 418318.0 0
338136.0 418832.0 0
343002.0 422323.0 0
347627.0 419719.0 0
352111.0 417678.0 0
355990.0 420452.0 0
360277.0 420193.0 0
364387.0 419820.0 0
368704.0 421059.0 0
376810.0 418610.0 0
380591.0 417439.0 0
379647.0 421848.0 0
384322.0 420209.0 0
388963.0 417941.0 0
393951.0 420746.0 0
398047.0 417610.0 0
401257.0 420466.0 0
406007.0 419917.0 0
410746.0 420371.0 0
416742.0 421553.0 0
421767.0 420253.0 0
426190.0 419092.0 0
429332.0 421978.0 0
434881.0 419942.0 0
439320.0 419759.0 0
444136.0 421759.0 0
448378.0 418429.0 0
452633.0 418920.0 0
459552.0 420853.0 0
464318.0 420283.0 0
469247.0 419752.0 0
473933.0 419360.0 0
478285.0 418619.0 0
481675.0 421436.0 0
486187.0 419833.0 0
493996.0 419401.0 0
490498.0 422688.0 0
494683.0 423058.0 0
497848.0 420889.0 0
1122.71 425819.0 0
4813.34 427101.0 0
7239.09 423244.0 0
9799.38 426600.0 0
14488.0 425514.0 0
18491.6 423481.0 0
22924.6 423735.0 0
28389.2 423851.0 0
33827.1 425117.0 0
38424.1 426798.0 0
43716.2 423540.0 0
49288.5 423235.0 0
46924.9 427460.0 0
54873.9 423521.0 0
51698.6 428008.0 0
60047.8 425638.0 0
56311.3 428456.0 0
64783.4 427818.0 0
69329.3 424812.0 0
74883.8 423890.0 0
81121.0 424912.0 0
77607.4 427981.0 0
86991.0 425316.0 0
91684.8 428088.0 0
92617.6 423639.0 0
96220.3 426952.0 0
100832.0 426201.0 0
105738.0 426592.0 0
110259.0 425091.0 0
115856.0 423056.0 0
114266.0 426866.0 0
118297.0 425750.0 0
122422.0 426029.0 0
128551.0 425607.0 0
134198.0 426675.0 0
139191.0 425374.0 0
143299.0 423438.0 0
145807.0 426806.0 0
148541.0 423543.0 0
148670.0 427652.0 0
152980.0 427090.0 0
158547.0 424352.0 0
163668.0 423505.0 0
167783.0 425582.0 0
176460.0 425231.0 0
180969.0 423818.0 0
185209.0 426462.0 0
189227.0 424621.0 0
193537.0 425340.0 0
198077.0 426258.0 0
302459.0 422964.0 0
302008.0 427545.0 0
311066.0 424227.0 0
306401.0 425706.0 0
315876.0 424060.0 0
319395.0 427531.0 0
325132.0 426092.0 0
330670.0 426809.0 0
334067.0 423054.0 0
338472.0 424178.0 0
351930.0 422635.0 0
347615.0 424578.0 0
356952.0 425446.0 0
363426.0 424791.0 0
369650.0 426805.0 0
374134.0 422624.0 0
383500.0 424806.0 0
388738.0 423740.0 0
393393.0 425432.0 0
398238.0 424286.0 0
403531.0 424529.0 0
408068.0 423849.0 0
412632.0 425002.0 0
416932.0 427422.0 0
420617.0 424736.0 0
425240.0 423789.0 0
429109.0 425796.0 0
433860.0 424402.0 0
439810.0 425171.0 0
445165.0 427092.0 0
448936.0 423483.0 0
454657.0 423282.0 0
462118.0 425722.0 0
467059.0 423860.0 0
471931.0 424224.0 0
477114.0 422955.0 0
481328.0 426067.0 0
485893.0 424469.0 0
489177.0 427550.0 0
493696.0 426595.0 0
497864.0 425227.0 0
1169.94 428354.0 0
2488.86 431580.0 0
7857.36 431296.0 0
12973.1 430445.0 0
19576.2 428370.0 0
25287.1 428280.0 0
22551.9 432981.0 0
30207.5 428700.0 0
27582.6 433122.0 0
34875.5 430179.0 0
39403.3 431179.0 0
42625.6 428329.0 0
43164.0 432458.0 0
48321.8 432920.0 0
54196.7 432461.0 0
60478.7 431002.0 0
65628.3 433064.0 0
68878.7 429684.0 0
71434.6 432765.0 0
72999.5 428536.0 0
75855.3 432282.0 0
82725.2 430552.0 0
88284.8 430611.0 0
94431.3 431696.0 0
99600.9 430825.0 0
104920.0 432001.0 0
110137.0 429964.0 0
114732.0 431133.0 0
119185.0 429961.0 0
124257.0 430273.0 0
132598.0 430649.0 0
128320.0 431573.0 0
137576.0 429426.0 0
142237.0 428138.0 0
141290.0 432806.0 0
146352.0 431232.0 0
151231.0 431659.0 0
157791.0 430408.0 0
162953.0 428266.0 0
167315.0 430423.0 0
172511.0 428725.0 0
176998.0 428682.0 0
176997.0 432303.0 0
180660.0 429014.0 0
184627.0 430923.0 0
189875.0 429934.0 0
195348.0 429651.0 0
198303.0 432397.0 0
305739.0 430185.0 0
301683.0 431569.0 0
309505.0 428353.0 0
314044.0 428440.0 0
317174.0 432313.0 0
323103.0 431097.0 0
327873.0 430975.0 0
335907.0 427698.0 0
332709.0 431141.0 0
341706.0 428662.0 0
347055.0 428605.0 0
346024.0 432281.0 0
351524.0 427742.0 0
355339.0 431340.0 0
360459.0 430167.0 0
365412.0 430260.0 0
369109.0 431804.0 0
373405.0 431271.0 0
378445.0 427796.0 0
386143.0 428475.0 0
382828.0 432017.0 0
390869.0 428981.0 0
396079.0 429234.0 0
400972.0 428500.0 0
404446.0 428188.0 0
404368.0 431643.0 0
408274.0 428522.0 0
413081.0 430152.0 0
421090.0 429191.0 0
426012.0 428999.0 0
431546.0 429844.0 0
436439.0 428953.0 0
440969.0 430771.0 0
446593.0 431836.0 0
451051.0 428743.0 0
457048.0 428446.0 0
459386.0 432248.0 0
463488.0 430956.0 0
468166.0 428636.0 0
476099.0 428657.0 0
481342.0 431021.0 0
485043.0 428402.0 0
486639.0 432949.0 0
492691.0 431757.0 0
497643.0 429533.0 0
497928.0 433925.0 0
4977.46 434504.0 0
11152.3 436174.0 0
17262.8 434156.0 0
32777.5 435062.0 0
38118.7 435705.0 0
58126.9 435764.0 0
79417.5 435139.0 0
86515.7 433771.0 0
90388.6 434368.0 0
95843.5 436544.0 0
101143.0 436042.0 0
108172.0 435271.0 0
112424.0 434754.0 0
117187.0 434556.0 0
121782.0 433781.0 0
125609.0 434464.0 0
136139.0 435008.0 0
154535.0 434993.0 0
159685.0 435452.0 0
163685.0 433069.0 0
167764.0 434853.0 0
172545.0 434580.0 0
181541.0 433826.0 0
186481.0 434928.0 0
194013.0 434835.0 0
304490.0 435201.0 0
310720.0 433743.0 0
320977.0 435522.0 0
325403.0 434510.0 0
337370.0 433399.0 0
342419.0 434594.0 0
350496.0 432986.0 0
358652.0 434875.0 0
370807.0 434900.0 0
376091.0 434858.0 0
378917.0 432965.0 0
387848.0 433182.0 0
393041.0 433570.0 0
399742.0 433192.0 0
409406.0 433777.0 0
417507.0 433059.0 0
423133.0 433656.0 0
428149.0 433738.0 0
435699.0 433682.0 0
443519.0 435335.0 0
450231.0 434041.0 0
454844.0 433060.0 0
462491.0 435911.0 0
466975.0 433774.0 0
472014.0 433186.0 0
477544.0 434407.0 0
482157.0 435301.0 0
490468.0 436613.0 0
494768.0 436359.0 0
POINT_DATA 5000
SCALARS Radius float 1
LOOKUP_TABLE default
5782.6 5120.0 5529.52 6324.23 5191.63 4861.06 5320.28 4797.52 4796.58 3979.26 4298.67 3471.03 5253.55 5820.48 4862.21 5113.21 3929.19 4107.03 4478.15 5379.87 5925.6 4501.51 4792.73 4736.58 4931.38 3485.26 4329.05 4151.94 4049.23 5337.48 6124.89 5708.81 5252.48 4780.03 5495.39 3996.0 3856.1 4665.12 3383.4 4133.88 4834.9 3850.77 6044.04 5415.48 5085.53 3863.18 2356.98 4998.37 6182.6 5492.18 5258.36 5061.3 3642.12 3163.97 5812.43 5122.66 5906.14 5484.19 7513.1 5254.28 4436.4 5733.48 4672.91 5580.89 3588.44 5645.7 5176.86 6810.52 5840.26 3672.51 6110.27 5561.06 5073.35 3615.22 5670.04 4380.59 3589.27 6716.79 3607.45 5759.91 7613.27 4951.03 5255.32 6037.08 5096.78 6756.95 4129.43 3843.58 3320.52 4727.24 4194.5 4270.53 5082.47 5344.25 4593.7 4150.99 4216.92 4177.94 4742.68 4344.58 5634.83 5495.84 6268.1 5374.51 6739.08 4569.12 5873.69 5960.66 6608.73 5011.84 7034.11 6261.42 4502.5 3771.48 4043.57 4271.69 5681.38 4138.42 3708.04 5513.6 3240.09 4556.36 6082.81 3191.99 4685.34 5601.05 4929.8 3586.91 3103.0 3554.9 4015.92 5542.21 4487.31 3936.02 4044.71 5980.74 4094.62 4927.02 5546.39 5325.36 5484.83 5538.89 5351.6 4730.36 4715.55 5867.73 3951.75 5013.56 4499.64 4375.68 5542.27 5054.98 6030.06 5170.02 3557.27 4927.31 4688.68 4402.52 4517.56 4182.53 5903.42 3955.56 3761.32 4118.05 4366.19 5553.16 2938.66 4940.78 4231.61 4008.92 3942.53 3379.84 4827.82 3997.1 3260.67 5123.52 3038.33 4392.68 4333.2 4295.38 7199.21 4523.7 2240.39 5923.5 5091.39 5293.9 6142.94 3912.37 4602.25 4790.08 4763.45 5344.0 5445.87 3815.26 4704.72 6048.7 4571.7 5896.46 5022.8 3784.5 3780.23 6481.79 5224.12 7042.12 4819.73 6326.39 4471.58 4962.09 3999.48 4359.62 6946.21 2586.12 5433.8 4011.77 5499.11 3633.87 5922.5 5198.77 5987.17 6013.14 2765.2 4901.41 5110.37 5664.98 4382.74 5927.43 4651.28 3693.63 4384.42 4516.43 5481.78 5637.59 4937.14 5043.05 5816.2 5693.81 5109.54 6483.19 3829.13 5945.65 6759.9 5418.62 7021.47 5416.38 6059.59 4955.55 2720.68 5701.86 3563.63 4238.81 4468.59 5885.03 2837.58 5325.02 5200.76 5017.13 4862.64 5185.34 4432.58 6684.56 3968.64 4688.67 2635.86 5292.64 6166.5 5065.13 5936.02 5305.17 4861.08 4003.05 5390.22 4805.87 4712.33 5227.21 5697.78 4667.36 4091.31 6372.62 4254.17 5090.24 5615.42 7565.34 4612.68 4281.49 4973.83 6342.25 6691.39 4840.84 5135.69 4020.32 6045.46 4245.72 5908.1 4541.21 6133.92 3719.84 4178.4 3095.48 4166.08 4123.6 4850.14 5163.55 3382.7 6817.32 4319.79 6098.14 4472.17 3637.61 4203.26 5188.81 4730.41 6057.22 5062.71 6125.34 4527.08 5347.48 4850.01 3970.25 5147.67 3979.82 5011.31 5138.31 5264.06 4659.59 6327.9 4048.37 6355.42 4362.19 5690.56 4948.92 3115.91 3307.12 4493.48 5924.89 4002.16 4174.52 4138.16 3486.22 4684.5 6230.49 6458.82 4601.27 5493.32 5740.68 5926.61 6051.14 5836.15 3261.21 4345.55 6704.06 3653.41 3871.88 5600.93 3856.01 5246.2 4390.66 5279.39 3673.74 4827.23 5205.43 6116.18 7447.37 4924.6 4385.06 4733.32 7184.19 2899.43 2924.37 4290.3 3867.67 5399.73 4660.72 3888.21 5891.05 6038.78 6902.81 6644.76 5629.19 4786.6 5740.84 6445.94 5530.87 4310.18 7134.64 5978.9 4187.56 3629.62 4997.27 4301.06 4877.67 4290.14 6562.18 4156.38 5316.75 7055.53 4164.68 5669.65 5934.22 5624.49 5762.59 7092.87 4666.81 3703.1 3954.91 6471.55 2965.01 6643.85 5501.93 6222.42 5654.31 3745.84 4938.74 5690.26 4156.2 4497.59 5965.78 4374.35 4810.12 5643.58 5215.05 4292.06 3821.72 5577.04 5006.58 4602.86 3688.8 4548.16 3369.23 5449.18 5492.26 5244.78 5762.84 3937.74 4749.8 6084.86 5478.92 4778.34 5551.36 6894.71 3091.3 4414.54 5789.98 6138.47 7054.71 3641.64 5489.43 5747.75 4277.89 5054.25 4796.33 4195.44 5539.32 5360.19 6496.85 4794.96 4874.39 5541.59 4124.71 5728.85 6337.56 4911.47 5803.39 5863.59 4381.97 6257.19 3255.82 5242.73 2812.98 4065.69 5603.15 4695.45 6052.7 3921.18 3798.62 5308.1 3666.57 4907.89 4937.02 4073.93 5655.21 4645.41 4433.59 4320.28 5542.14 4218.06 5480.13 6308.71 4716.19 5514.76 6405.76 3456.98 3498.2 5105.16 3066.13 5448.61 4302.5 6006.16 6009.88 5013.67 5826.04 5339.78 4970.88 4143.78 4763.66 4636.5 4940.42 5923.4 5085.71 5499.39 5644.82 6343.14 5463.38 5945.21 5750.71 5696.88 5607.14 3923.03 5975.63 5252.34 6396.74 4138.46 2775.04 4986.77 6898.19 6318.18 5586.81 4621.75 3948.17 4551.24 5358.59 4220.88 4515.71 6519.71 6640.13 5082.6 5810.84 4230.54 5094.44 3748.24 4655.49 4467.94 4850.81 6038.14 2540.31 6029.66 5527.54 5573.7 5697.4 4727.62 4270.95 4055.8 7325.81 5280.17 6425.26 5143.58 6186.19 4839.34 5083.08 2980.99 6834.49 5525.39 3998.5 5938.34 4024.3 6394.38 5555.28 5169.36 4737.14 4686.65 5834.74 5556.96 5788.23 5581.75 6392.01 3599.45 6730.19 4907.06 3735.44 5163.9 6043.3 5952.75 6332.36 6122.55 2739.94 4931.53 6155.31 4223.33 5911.67 3323.28 6695.82 5794.24 4678.38 5050.65 4827.33 5206.48 5513.57 5729.23 5226.0 3365.82 4538.95 5965.15 4780.2 6090.91 4946.42 5019.93 5081.78 6116.33 6263.44 5774.97 5462.21 5470.77 4831.47 4643.85 4004.04 6062.05 4289.17 5564.02 4274.61 2965.79 4410.55 6035.6 5137.34 4481.53 5330.45 4581.13 3856.59 3610.4 4219.07 6387.01 5367.52 3092.35 4322.15 5210.03 4714.54 3629.96 5478.47 5351.39 6142.37 6061.47 4933.21 5375.47 4723.12 5120.49 5201.36 5262.61 6302.8 5409.61 6038.2 4005.44 5206.78 5555.88 6732.43 5028.96 3866.16 6362.12 4484.76 4840.01 5611.2 7933.0 4455.12 5173.87 4894.16 5380.13 5711.87 5118.27 4941.22 5932.23 5791.61 3369.13 4479.66 3043.85 5367.2 5461.13 4726.76 5839.13 5495.68 5489.34 5002.48 5708.14 5537.72 3920.42 8332.24 4553.56 5329.64 6049.55 5709.62 5835.78 4127.74 2476.04 5133.97 3942.07 7443.72 3937.08 5260.34 4709.35 6586.45 4373.3 4750.78 4163.5 5724.64 5078.86 5100.1 3561.29 4963.34 3295.83 4459.28 4260.92 6250.23 5960.56 4118.84 4020.95 6313.06 3474.39 3493.7 6470.3 4200.03 5082.74 6915.83 6072.45 7099.43 5526.14 5198.29 5423.0 5077.33 4746.52 5413.79 6338.89 6202.55 5025.39 5893.5 4547.19 3320.11 5030.91 6022.17 5119.37 3982.23 6163.38 4566.18 3459.9 4964.09 4809.42 5024.9 4306.53 5659.17 5094.81 5972.06 5713.22 5861.71 4359.04 3183.98 3794.63 4524.28 3778.1 5152.36 4511.82 5826.64 4220.65 6820.42 4816.2 6321.41 4896.52 4751.02 3372.79 5184.56 5282.64 4715.72 4669.66 4808.52 5046.33 5607.24 5053.92 6352.26 3847.38 3818.59 4863.72 6623.85 4262.82 5102.36 4342.9 5065.11 5069.84 4051.44 4241.89 5054.74 5941.72 5991.09 5126.91 6600.94 4788.58 5371.02 6155.1 5876.71 6262.72 5029.78 6515.84 4888.6 2990.77 4739.14 4918.77 4371.99 4219.78 4188.3 3885.86 5235.29 4479.94 6413.02 4863.27 5862.86 6049.79 5374.98 4719.7 6939.12 4735.33 5411.85 5092.37 6444.77 6314.07 4287.63 5315.4 6449.45 3975.31 3689.45 3824.16 5572.95 3868.18 6723.16 5584.06 7111.16 3817.13 5507.24 6851.54 4583.31 4503.89 5806.08 4853.39 4997.27 4093.08 4449.22 5543.27 4717.05 5287.2 6135.57 5998.38 4312.67 5423.8 4270.24 4989.15 5017.78 5015.69 6175.81 4727.24 6677.09 4305.57 6959.81 4829.35 5201.67 4424.7 4089.76 5526.55 3192.41 5215.15 4987.87 3315.57 5804.71 4764.96 5727.3 4242.52 5356.51 4277.88 4087.15 3057.03 4143.08 7500.97 3948.23 5228.18 5787.31 3927.99 5868.82 4978.31 4050.9 4099.77 4537.32 4981.9 4656.78 3600.43 4906.82 5131.24 5196.67 5004.23 6496.67 5474.8 6607.87 3664.11 5117.47 4925.63 5882.65 4434.19 5187.7 4623.61 6261.75 5177.64 4255.31 5453.3 4094.73 4407.9 3492.19 4584.5 5122.63 4703.08 6345.13 5274.19 5516.95 4406.4 4413.85 4844.57 4027.46 4470.98 5776.37 4516.28 3627.82 4044.45 5125.78 5344.43 4373.47 5045.38 5350.88 5372.61 3686.21 6480.17 5023.15 4377.07 3813.22 5101.59 5570.3 4336.42 5243.29 7589.94 3130.65 5628.24 5856.11 3327.49 4109.88 4234.94 4562.29 5013.13 5080.66 3417.33 4926.42 4164.13 4642.34 4520.1 4947.52 5874.89 4293.03 5813.4 4389.21 3791.79 4128.98 4925.44 4754.05 4951.47 6084.93 4307.28 3697.96 4739.42 4723.48 5538.93 5020.12 4745.45 2631.9 5281.28 6255.18 4668.71 4758.21 7228.46 6362.14 6719.88 5978.82 5266.5 4523.88 4066.38 4948.98 5227.52 4414.48 4092.24 5163.02 7144.24 5687.83 6442.69 6320.71 4648.04 3464.83 4721.32 4305.16 3293.56 3163.78 5274.14 4903.82 5746.28 4082.47 5511.6 4338.08 4378.3 6134.99 4989.56 4718.54 4440.57 5548.29 6766.43 2315.64 5916.16 4390.41 5226.56 5599.49 5313.22 3905.51 3999.94 4864.22 3901.8 5759.46 5083.41 3921.08 4190.31 5678.96 5262.19 4244.9 6070.58 6034.41 5452.83 5130.91 5402.24 4519.22 6445.22 3844.9 3695.36 4564.34 3963.86 4871.44 3848.93 5076.35 4306.11 5935.47 3402.32 5903.66 4528.49 5004.67 5365.89 5992.26 3960.8 5070.39 4980.85 5714.58 5110.45 5208.32 5248.77 3296.27 4083.97 4713.25 4607.02 5153.74 4528.09 3895.51 4165.81 5441.96 6291.51 5174.89 5882.89 6246.22 4188.32 5246.61 4100.38 5344.77 5027.98 4899.11 5097.87 4278.07 7267.18 6256.02 5320.92 5269.18 4305.43 4406.1 5034.59 4942.77 4263.33 4454.63 5080.18 5912.61 3279.1 4403.98 4560.84 4729.43 5776.57 4562.74 5683.26 5598.74 5139.5 7493.3 4814.55 3527.05 5698.77 2477.07 6413.11 5529.42 5092.28 4965.89 5659.95 4152.85 2908.7 4453.64 4517.73 5469.47 4419.71 5660.16 3838.47 2588.37 6736.03 6235.57 3623.87 3087.09 6934.37 6113.95 4050.08 4097.57 5017.5 5563.79 6171.13 5511.88 4512.11 7055.42 5486.68 6048.86 5100.25 4285.32 5490.43 5022.28 5197.52 4959.34 4948.5 4527.02 4531.14 5013.42 3838.56 5651.07 6020.48 6375.99 5200.05 5234.29 5313.66 5419.37 4466.03 4511.54 5409.33 5196.0 4923.9 4973.78 3329.99 3947.47 5091.68 4204.84 6243.0 6673.96 3556.85 3161.47 3435.9 6390.78 4288.3 5370.52 4652.29 5774.81 3746.31 5498.32 5527.33 5346.27 6475.1 4969.21 2691.29 2845.98 4880.14 5289.52 5314.85 5941.4 5450.44 6510.17 5742.65 5592.32 5381.16 5565.13 6193.35 6086.96 5233.78 3701.27 5653.9 5046.21 4929.14 5894.61 3979.54 5304.13 5944.09 5833.06 4923.41 4497.31 5384.76 5257.12 4428.78 5243.43 4537.14 5551.9 3757.34 6415.61 4687.64 4888.12 5037.06 4541.8 5175.29 5842.56 5887.15 5412.31 7480.41 3423.15 4890.5 3981.07 5452.42 5328.22 6853.85 2395.5 3497.9 5941.61 5782.48 6248.6 5683.61 3836.45 6894.26 4986.51 5339.38 5178.99 5383.07 4591.87 4790.78 4247.15 6552.22 4602.85 6248.81 5872.05 5273.35 4091.8 2651.49 4645.58 5181.4 5512.23 5275.32 5985.29 4898.94 4178.15 4613.31 4733.04 6119.09 5788.66 7531.29 5069.25 5048.89 5935.03 3991.03 7435.25 6826.57 4788.87 4249.46 4495.87 5965.81 3702.37 6022.72 4643.31 6917.52 5402.21 4989.09 6718.19 4982.31 3848.54 4307.48 5331.02 4871.96 4863.23 4402.67 4470.61 4631.83 4384.88 6887.27 6008.49 4220.46 4806.34 4287.53 5612.21 5945.08 4968.03 3306.14 5490.58 4863.79 4702.06 3830.46 6031.67 4689.15 6138.12 4655.16 5409.66 4345.67 3867.19 4765.72 4642.66 4039.91 4752.14 5329.59 6119.63 4950.97 5512.16 3197.63 4863.96 5191.08 5203.08 5163.77 4488.85 3731.84 4579.69 4901.07 5186.3 3436.15 4151.76 4020.4 3493.47 4721.02 4596.75 4933.65 5443.58 4558.46 5805.86 4049.02 4470.4 5311.03 5255.12 6169.11 5615.35 4027.09 6422.84 4502.18 5379.09 5210.48 4962.77 4853.02 6259.23 5088.44 5670.2 4711.62 4247.23 4114.24 4268.65 5349.31 4694.83 4649.22 5509.42 4354.08 4256.43 5936.36 2682.24 4520.62 3903.75 5229.48 4755.47 4485.99 5127.16 5475.8 5314.69 4244.99 6050.81 5543.46 6185.89 3997.96 4750.17 5660.85 2330.66 3990.25 4177.19 3691.0 4752.51 3587.05 6229.37 5282.91 4425.84 3797.33 7256.35 4800.69 6566.1 3555.86 6386.78 4996.99 4896.39 6081.14 5480.83 4607.85 5128.57 6000.7 3169.67 5604.21 3361.92 6710.88 5395.14 3967.48 6213.04 5235.11 6622.11 3685.13 6790.73 5251.4 5097.69 5857.79 6543.13 5276.7 5036.58 5411.02 4752.9 4287.16 5199.44 4062.5 4435.51 5374.07 4588.7 5683.95 3766.55 3554.48 5010.2 6496.52 5005.85 4216.17 6484.17 4938.72 4254.37 3374.08 4031.78 6098.1 5708.99 5687.85 5346.68 5296.29 4611.53 4285.66 4896.11 5172.53 3872.61 4135.62 5801.99 5534.94 7644.38 7552.94 6101.92 5323.3 4998.21 4662.56 5166.79 2976.22 3405.98 5394.55 5094.52 4946.74 5996.33 5928.32 5415.19 5475.7 4612.62 4016.18 3619.07 5526.75 4275.57 5435.74 6385.23 5327.45 5560.26 6363.92 6205.93 4439.35 3460.94 5830.72 6184.4 3758.07 4373.45 4236.14 4407.87 5733.62 5169.9 5282.51 4460.92 5945.89 4042.28 4105.55 4340.76 6065.22 4221.28 4456.39 5514.84 3633.79 3914.2 5421.53 5937.08 6070.3 5233.29 4312.56 4612.06 5204.04 4750.58 5926.11 6667.68 5211.38 5089.62 4590.55 4741.26 5920.32 4255.85 4732.09 3988.3 4356.25 5149.72 4216.95 5776.96 5464.25 5486.48 5301.47 4617.55 3645.12 5424.88 5415.85 8659.64 5469.13 6027.62 5765.42 6123.03 5966.61 5711.11 4575.94 3546.71 5768.57 5564.23 5950.04 4231.83 2435.33 6401.43 4074.48 4558.47 5020.71 2681.29 5094.48 5839.71 4238.4 4318.48 6132.95 5266.22 4860.33 3685.13 6004.68 4051.34 3361.26 3627.55 6239.84 4635.6 4256.67 3457.48 3931.07 6079.11 6430.39 5417.15 3688.16 4681.72 3949.6 4945.39 3950.63 5661.62 6631.19 6648.68 4467.04 5626.61 5817.25 2983.99 2614.4 5061.98 4537.6 4923.24 4419.61 7177.44 3828.81 5309.98 4082.57 5255.18 5460.65 3004.16 4767.78 5235.17 4421.12 4779.5 4435.36 5254.49 6649.96 4303.19 5784.3 4256.57 6088.68 4643.56 4135.08 5620.74 4778.82 6124.08 5467.84 5053.95 5266.01 5253.37 5767.9 6515.8 5869.4 3685.65 3701.16 4186.6 5895.77 5750.07 6136.49 4757.74 6045.67 4209.49 5742.74 4244.21 4947.24 3875.05 6200.54 5148.58 4199.45 7234.66 6599.66 4055.54 4233.8 6098.95 4997.83 4893.49 5325.44 5021.88 5956.65 4200.09 4498.25 4188.87 5151.21 3735.24 6574.95 6333.29 5731.57 5997.88 5576.92 6408.83 3930.79 4004.35 5226.97 3312.06 5754.18 5180.76 6799.4 5278.36 4409.63 5865.39 4427.28 3082.32 3658.37 7440.72 5376.71 5703.6 6326.18 4807.28 4867.08 4266.03 4713.74 5407.78 4084.49 5449.46 6179.96 6632.99 6113.54 5147.36 6260.79 4563.46 6553.94 5726.66 5652.0 5463.41 5225.33 4929.75 6439.37 6045.22 4614.3 5134.39 3532.3 5769.98 5442.32 2221.99 3580.58 4863.01 5356.79 5657.36 3619.79 5029.47 6306.21 2978.76 2040.66 7016.27 5884.9 3876.21 5689.26 4916.22 6022.7 4940.84 4833.46 4809.67 7248.4 3946.28 3821.94 5984.81 5439.9 5367.73 3540.11 4640.06 3456.47 4652.01 5471.74 5421.64 4207.54 4886.12 6419.12 4976.12 4817.16 5453.98 3991.42 4388.63 5102.75 4597.29 5931.77 5938.17 5398.64 6817.57 4477.04 3614.96 3886.68 5703.74 5662.55 5737.92 4360.23 5365.24 5293.51 4763.96 5008.63 3418.99 5132.68 4480.95 4993.35 6218.95 5521.25 3661.9 5370.85 5107.23 5949.46 3178.54 3776.94 4765.02 5629.39 4448.13 2684.03 5070.29 4768.61 2261.36 5075.55 5280.69 4220.03 6923.84 5227.59 5703.07 4662.43 4630.82 3963.76 4043.66 5528.53 6799.88 3062.43 4540.86 5990.52 5426.78 2967.38 5604.35 4159.35 6477.91 4237.98 3091.67 4081.97 5401.99 5580.92 5973.33 5067.46 3583.21 2511.46 4011.37 2775.69 6505.78 4785.25 5461.55 6519.43 5876.64 5424.46 4857.84 4908.49 4962.21 4858.44 3468.42 4673.35 4771.13 4992.42 5297.19 4351.38 5550.75 5933.7 5280.12 4444.97 3498.16 4247.69 4409.27 4514.39 4588.99 4321.21 3548.39 4344.34 3673.28 4928.27 4858.51 3375.28 5625.65 4301.61 6107.89 4446.84 5660.55 5148.08 4834.87 4514.79 5760.22 3672.21 4795.43 5097.95 5108.06 3573.73 4693.52 6853.04 4745.43 5831.96 4747.55 3056.7 3755.95 6234.32 4586.19 4446.06 3450.93 5323.91 4270.74 6595.03 4558.15 4983.39 5222.16 4690.55 5136.08 5558.68 4802.32 4010.57 4599.38 5246.47 6157.04 6191.29 4522.21 7422.36 5506.19 6719.94 4950.67 5832.37 6166.29 5453.6 5409.63 5294.77 4263.16 4709.05 3077.84 6109.49 4813.08 5860.67 5332.65 3764.1 4835.83 5413.31 6316.56 4332.87 6420.81 4715.58 4450.7 5151.52 5369.08 3101.75 4347.74 4518.04 4009.62 5291.9 2081.58 4874.18 3298.2 4270.15 6865.76 6449.64 6464.8 4684.44 4749.59 5799.69 3809.69 5571.72 3208.96 7051.9 4184.23 4144.57 6834.41 6226.14 5466.33 3000.29 5721.05 4209.31 6242.79 5950.45 5713.03 3583.49 5849.65 5052.84 4366.74 4165.21 5297.16 3184.64 4936.96 5206.33 5530.49 5653.03 3718.69 6192.0 2216.82 4509.89 4940.28 6752.75 5269.38 3004.34 5607.3 2928.82 4914.45 4222.4 4000.43 4698.87 3420.08 4568.41 4912.04 3624.7 4539.07 5464.68 4475.83 2685.81 5591.76 4585.31 5010.04 6625.18 4570.98 5097.45 6293.89 2761.07 5737.75 5742.47 5366.52 3778.02 6552.21 5533.72 5533.42 7132.12 3678.08 5518.57 4187.31 5463.48 3240.51 4527.99 5161.01 4376.7 4298.15 5190.61 4628.4 6051.83 4642.93 4440.81 5941.9 3973.12 6642.76 6024.75 4497.78 5567.93 5987.42 4442.22 6451.33 4669.06 3012.99 6400.08 4743.59 5208.14 3317.83 4396.25 3763.05 5092.24 5549.49 5423.42 4766.06 6605.86 5012.5 5435.19 7093.13 4953.1 5818.95 4093.99 3940.49 4406.05 4680.94 5089.1 5828.35 5876.72 5236.43 5285.07 4884.59 4680.14 4608.41 4083.79 4187.94 5980.59 5021.77 3796.15 4801.8 7216.98 5271.02 5718.28 4601.74 5088.57 5134.67 4215.0 4603.5 4481.76 5452.78 5065.26 4304.41 5885.28 6579.31 5323.55 3022.6 5375.1 4811.76 5313.12 5351.56 4661.03 5160.59 4691.91 5262.35 4320.42 4255.34 4510.8 5064.79 5889.35 4394.56 5896.26 4275.07 5825.38 4185.61 4047.87 4917.99 4367.78 5417.8 5146.37 4836.16 4232.16 5300.96 5151.11 5680.94 5730.33 5545.46 5193.01 4543.1 6550.44 3860.83 8325.01 3764.06 4523.39 5278.56 5434.47 5829.22 5631.14 4243.79 5811.18 5433.65 4008.15 4887.76 4811.32 4286.49 6184.88 5829.32 6405.0 5551.95 3918.87 5789.55 2275.45 4633.05 4901.2 4383.56 4990.79 3562.79 4516.53 4122.92 3604.14 5381.54 4452.54 5810.77 2711.19 5474.15 4028.32 4099.92 3858.06 4511.7 4478.6 4304.63 5263.27 6300.92 4173.54 5599.29 6038.68 5046.12 4807.4 7013.17 3805.67 4590.01 6101.86 6506.86 5580.34 3852.6 5966.42 5775.31 4706.5 5354.66 4647.67 5375.12 4356.36 4892.44 5578.94 7610.49 4286.17 3684.56 6028.09 4172.6 3804.5 5498.42 3984.88 5318.53 4732.09 4281.98 7165.9 5344.83 5480.3 7509.24 4146.81 5388.78 6101.13 4573.72 5099.21 6969.28 5636.4 5698.96 4350.12 4095.75 5227.02 5670.0 4298.45 5222.51 6609.84 4344.51 5135.96 3834.43 3781.77 5658.37 5581.55 4707.06 6074.94 3474.5 4250.88 6348.03 5732.27 4792.39 5146.37 6917.62 4013.38 6137.8 4343.78 5263.3 3352.35 4909.65 6523.86 7693.4 4326.48 3994.07 4219.94 4437.07 5907.46 3449.37 5491.9 4264.91 4659.16 4909.31 6522.59 5711.62 4798.17 5166.79 5425.98 6479.39 2895.63 4997.91 5079.22 4599.81 4714.83 7519.2 6355.68 5484.36 3953.55 4277.24 4063.9 4469.54 4314.56 3928.53 5606.51 5740.65 3834.47 6349.67 6329.53 4227.41 5993.0 4803.57 4110.59 5131.15 3332.49 4847.14 3950.27 4214.44 5116.66 5378.23 4787.97 3746.36 4981.43 6789.23 3989.7 5069.89 4777.03 4157.29 4246.61 5452.36 4609.02 6486.37 4638.18 3344.57 6448.66 5220.76 6945.98 7046.11 3427.63 4449.98 4863.97 6342.48 4840.44 5756.75 5599.7 4587.67 4163.74 3665.95 4296.69 6238.32 3319.67 3603.51 5283.8 4076.59 4428.14 5164.1 6464.15 4972.17 5491.37 4222.77 3783.54 5268.38 3475.67 5527.23 4805.33 7038.89 3863.67 4814.12 5067.56 6069.3 2735.53 5116.6 3747.03 5388.39 2783.85 5335.47 4356.49 4526.81 6740.71 5399.29 5971.22 5533.19 6602.43 3568.28 6063.64 5996.66 4405.42 2995.67 3598.08 5522.21 5698.23 7300.58 3608.06 4923.57 6633.61 5217.95 4867.7 2279.05 4075.28 5291.05 5161.1 4619.2 5166.41 5067.56 2596.96 5701.75 4350.15 4139.3 3516.27 6541.45 4750.49 5078.31 5391.48 4923.43 5009.83 5210.38 5717.8 3629.44 3566.79 5374.67 3299.24 6246.56 4741.28 4215.2 6212.15 6813.72 5327.75 4896.65 4946.23 6083.28 4196.37 5211.6 4453.97 3556.79 5138.2 3503.41 5783.48 4701.5 4504.35 4771.65 5093.82 5951.81 3924.14 6918.35 4834.3 6804.79 6471.42 6372.13 5369.5 5404.01 6016.19 4124.49 4479.11 5714.25 6685.4 5699.53 4850.06 6332.01 7044.29 4234.18 7085.01 5980.95 6193.08 3862.77 5887.01 5168.35 3185.39 3728.18 5633.61 5048.19 4243.26 6799.23 4888.27 4592.15 6487.56 4854.11 4901.44 4998.22 5417.21 6104.26 5583.61 4986.71 7382.3 4022.56 3772.3 5522.75 4855.01 6208.9 3340.09 6061.63 6545.43 4829.35 6760.92 8137.11 5484.32 6650.77 4067.96 4824.12 7104.73 6162.3 3272.75 4264.54 7043.44 4263.78 4643.9 5228.75 6047.14 5003.78 4061.6 2603.64 5107.0 6502.97 4783.07 4852.58 5806.31 5456.71 7317.04 6412.67 7001.83 5012.97 4036.91 5589.37 5439.49 6639.64 5212.43 5454.12 6348.54 4066.57 5642.35 5156.76 6357.47 4891.38 5535.91 3230.13 5955.86 6176.67 5325.96 5412.24 5016.02 4920.21 4581.37 4049.16 5851.61 3936.95 6153.94 6836.82 3858.17 4631.99 4740.98 5128.77 7122.87 5797.36 4153.84 5119.86 5089.26 5084.17 3776.8 5096.43 6156.21 2460.79 4653.83 6171.71 3628.89 6589.82 4668.88 5027.43 5867.64 4438.58 6059.93 5602.53 5073.02 3472.91 4989.2 4711.04 7144.05 4506.18 2970.9 6542.5 4383.47 5971.21 6318.23 4206.98 5174.75 5932.07 6101.57 4793.65 2949.12 4532.89 4533.37 4848.46 5742.09 2779.99 2884.65 5887.38 5807.46 6942.34 3658.05 5478.11 4549.69 6423.81 5526.31 5030.15 6413.15 4058.87 6103.11 5048.55 4984.46 4024.31 5948.71 5844.72 3856.53 3992.97 5460.89 6040.74 5260.85 4054.22 7228.94 5393.65 4961.99 4648.21 4595.12 4393.16 3311.29 6484.43 6192.77 5416.45 6459.51 4955.16 4904.51 4147.31 5989.05 5751.15 5950.88 4441.22 5853.89 6551.93 4140.4 3110.13 4386.8 5446.4 4625.67 4725.01 3485.54 5966.75 3104.96 6735.97 5305.59 3636.15 4330.58 6114.89 5754.6 5135.63 3288.01 4355.83 6870.97 2202.77 5351.86 6056.87 5474.01 4149.55 6201.86 7554.58 3380.69 5166.89 3639.44 5491.63 5725.37 3868.62 4729.42 4844.83 5244.78 5652.87 5483.7 5018.69 6384.7 5952.38 3896.27 5807.52 5963.36 5230.02 5307.35 6016.08 4731.21 3124.7 6102.98 5138.33 3477.1 5769.14 4831.93 5493.89 5261.19 4811.22 4788.08 6379.14 5216.26 3687.65 4749.96 5377.37 5869.67 4311.48 4899.73 3152.86 5457.66 6394.19 5973.89 5518.11 5087.14 4342.18 5169.48 4743.9 6776.22 6064.71 3719.11 4467.13 6060.17 5934.82 5415.45 4385.81 6592.93 6350.71 5096.24 3381.82 7107.63 4023.93 5868.89 5494.28 4099.26 4834.39 3831.52 6106.43 6761.81 4918.76 4208.41 5826.78 2856.55 6214.73 4553.68 3758.22 4268.19 4532.7 3205.68 5561.74 6100.73 4908.75 6556.26 4593.7 4349.13 6818.91 3634.5 5478.95 3851.85 4019.34 4658.24 3623.19 4869.48 4906.11 4387.39 4564.1 5825.55 5509.51 4848.14 5366.22 6193.73 4316.5 3742.11 4192.21 5712.35 3597.43 5701.52 4158.91 5311.55 5321.17 3360.86 4869.25 5545.21 3877.8 6418.11 4501.78 4922.49 5039.12 4824.81 7307.21 5135.5 5788.97 5007.21 5545.59 5206.47 4057.17 7066.96 4263.65 5467.63 5666.95 4127.53 5210.75 5175.89 5361.87 5232.85 6816.66 4473.29 3971.08 6204.65 4482.9 5513.8 3503.65 4392.65 5510.96 6653.07 4745.16 4584.81 5071.98 5719.79 3199.4 4371.08 5254.24 4968.14 4914.03 5086.29 5144.56 5139.18 4278.57 3034.16 5551.43 5049.99 4201.03 4333.87 4458.64 4312.15 3657.69 6015.02 3572.94 5001.58 4820.17 6456.58 5244.98 4034.05 6436.74 5366.11 4384.28 5944.3 5640.72 3619.72 4565.93 4504.52 5615.84 4464.73 6440.38 3274.85 4580.06 4835.97 6419.64 5262.47 4587.7 5196.92 5644.81 4807.35 4568.64 4642.2 6555.44 5293.75 6358.93 2205.51 3894.64 3703.49 4374.74 4757.2 5975.23 4745.79 4211.82 5470.04 6550.4 4891.67 4887.52 6631.28 5350.88 6571.31 5429.3 4944.51 5532.72 4697.91 3220.8 5179.17 5579.39 5270.51 5148.1 7261.51 5224.64 5949.73 4312.48 5527.13 6370.33 5081.08 6318.25 6864.06 5001.87 3644.78 4883.63 4078.93 3814.65 3886.72 7778.01 5127.82 5690.96 5798.38 3862.91 3419.87 4456.26 3908.98 4027.33 5113.6 6328.42 3563.14 5851.63 4954.81 5610.53 5755.15 3926.11 5464.83 5414.58 2781.96 4991.35 3512.94 4994.65 5601.55 5334.36 5750.35 4489.99 3683.86 5658.14 5473.72 7124.45 5144.44 2617.39 4062.56 5034.69 4198.94 3217.67 5079.64 6003.78 5684.25 5438.92 3766.69 5110.11 5188.53 4882.66 4521.75 4027.63 5603.68 4526.34 5610.95 5042.75 4598.92 5241.22 4979.52 5490.75 4407.79 5214.63 3495.68 5783.94 7362.42 4202.77 5836.14 6008.81 5510.9 4583.52 4505.28 3492.83 5585.14 7039.98 6006.89 5792.98 4983.3 5910.86 6239.68 5805.1 4456.11 5782.43 4810.98 5026.76 5091.22 6282.38 5212.92 5556.0 5748.9 3742.31 4608.34 5695.79 3622.8 4431.23 4467.0 4258.98 6545.99 3903.91 4929.6 3919.62 4368.28 4945.0 4548.45 5730.61 4508.18 5064.67 3717.47 5969.37 4928.35 4509.46 6163.54 5212.37 3538.53 996.652 6500.49 4244.49 5036.98 4120.07 4813.33 3840.21 5569.2 6746.66 5420.67 5635.32 4827.61 4316.45 5409.08 5481.64 5673.75 5360.67 6647.08 6263.3 3422.29 4501.05 4537.03 6548.29 3990.96 5352.24 4326.06 5034.46 5793.12 5469.17 5473.05 4373.2 6711.21 6280.13 5244.22 5832.29 4438.76 4960.64 5401.4 5053.15 5124.17 7320.78 4234.88 4708.31 3873.92 4092.07 5347.9 5657.55 5727.79 5188.82 5043.14 4717.73 5072.5 4749.18 3663.0 4546.96 6304.49 4420.6 4475.38 5287.25 5917.34 5740.98 4728.55 4554.68 4658.11 4551.26 5114.07 7142.95 4559.74 4383.68 6618.21 4504.86 6200.63 4583.94 1937.5 3844.54 4337.32 2628.22 5965.58 3352.34 5058.51 4901.29 4050.03 4952.52 3429.57 5410.33 5661.6 6099.28 5285.75 5385.03 4169.15 4778.37 5134.17 5968.54 4904.35 5592.54 3247.97 5124.34 4114.2 4904.37 4358.81 4651.64 5757.29 5016.46 6224.13 5061.75 3769.24 3743.76 5153.18 3425.69 4971.29 2606.51 3864.92 6119.99 4159.81 4446.58 5372.82 4402.17 4775.49 4681.29 5749.6 3845.9 4174.44 4834.44 4213.05 4224.3 4928.85 4316.0 5424.55 5134.72 4770.51 3787.08 4462.87 5630.9 6139.64 4140.92 4585.04 6570.35 4242.63 7407.91 6666.67 6063.44 5046.31 5849.53 4680.69 4420.11 5863.0 4802.98 4833.55 7224.99 3242.31 4898.29 5372.25 5730.2 3234.26 4830.13 3494.16 5370.9 4074.16 4529.77 4325.13 6172.27 5390.33 5078.73 5278.54 5729.0 5729.92 5275.57 4179.87 4786.66 4761.84 3661.67 5510.45 4730.14 3994.39 5906.57 5499.59 5667.51 6331.74 4198.9 5431.29 5325.91 5235.87 4700.07 5273.37 3904.07 5553.94 6502.99 4392.75 4921.1 4191.01 5577.41 6511.37 4012.92 4218.16 4933.49 4692.32 4474.83 5236.24 3127.83 3269.54 4051.18 4651.99 6127.39 4972.18 5329.76 4124.76 7200.89 3908.56 5265.63 5684.88 4431.06 6523.78 4645.86 5620.88 4941.52 5900.0 4262.74 3783.79 4248.14 5317.19 5279.19 4016.6 5192.92 7050.08 5891.25 5370.1 5902.67 5393.76 4236.86 3684.15 7123.04 4128.1 7541.76 4932.29 4990.23 3784.94 4506.66 4439.71 4141.21 4064.58 4833.67 5157.38 4646.51 4546.44 6203.03 4732.37 5713.36 4704.92 4287.25 3987.69 3814.16 4589.06 4216.44 3999.5 4346.07 4013.86 6102.49 5836.26 6015.22 6061.85 6449.06 5241.75 4731.53 4577.73 5640.12 4147.49 5760.98 4954.76 4642.74 5764.52 4390.64 4045.67 4608.01 6005.95 4308.49 4930.17 4581.1 6241.77 4085.96 5762.82 7360.12 6223.98 5821.49 5617.29 3035.06 5580.44 4262.19 5998.13 4597.88 4763.4 5454.11 6010.59 2955.36 4618.73 3220.29 5426.4 5951.86 5023.41 3791.41 952.938 5702.4 4184.21 5473.89 6089.45 5265.21 4985.3 4966.07 4400.14 4666.12 6219.34 4920.88 4177.47 2918.64 5345.73 4770.63 5678.58 4385.49 5114.23 5495.0 5512.44 4454.74 4826.52 2904.46 4685.4 3763.9 4288.45 5419.57 4081.34 5384.86 3770.22 3402.44 4848.98 5150.84 5184.98 5087.97 5339.82 4519.03 5460.57 5110.27 4745.44 4612.68 6649.52 4232.33 5462.6 4747.68 5770.92 3093.38 5095.52 4878.93 2002.78 4941.02 5806.61 3682.35 5182.13 3965.3 6110.48 5515.73 4125.9 4564.41 5247.01 5853.12 4841.7 5810.17 3450.07 4657.24 4271.07 5674.63 5340.05 5759.79 4639.8 4212.15 4263.18 4489.29 4301.93 4924.07 5120.92 3200.6 4918.64 6206.98 5162.67 4636.53 3646.95 5537.61 6084.88 4491.96 4199.44 4397.06 4467.51 4479.5 6261.67 3435.13 5065.78 5703.34 4521.42 6668.98 3977.98 6043.34 4939.56 4128.93 4959.72 4712.17 4845.91 4723.71 4461.67 5784.37 3142.09 3954.77 6793.1 6016.87 6715.73 5209.55 4678.7 3306.84 3484.81 5308.33 6710.14 4598.54 4896.43 4462.35 6638.25 5078.59 4775.04 2403.72 3228.27 4721.98 5252.82 3543.98 4053.12 5056.26 5878.55 4014.44 6604.72 6002.77 4431.46 3794.47 4610.55 3207.84 4967.02 4614.49 5400.69 4462.5 5573.31 5004.68 3808.04 4023.88 4405.61 5348.11 6273.6 5003.3 3668.93 4009.24 3756.96 6245.52 5077.29 6740.35 4550.92 6023.07 6506.63 5995.4 5218.42 5188.22 4512.07 4196.62 5984.8 3986.41 3469.18 6240.42 5146.0 4788.7 4607.18 3956.24 7558.99 4142.1 5043.14 5333.04 5445.91 4521.99 4812.59 6842.54 7115.67 5675.45 3361.11 6038.56 2807.46 5599.16 4179.8 3488.34 5658.35 5428.24 5684.05 5800.81 5166.05 3125.13 7035.54 5866.91 6019.35 6075.99 5191.26 4184.47 4841.23 2804.54 3372.95 5819.0 6347.72 3460.93 6334.53 5580.95 3549.92 3393.59 4032.06 5246.81 5089.1 5888.95 5394.78 3463.34 5122.38 2853.68 5262.85 5329.84 4998.37 6559.82 3879.83 6565.95 4577.98 5886.81 4708.17 2741.2 3779.45 5167.53 5763.05 5357.39 4252.18 6296.54 5797.21 4208.37 3825.48 5124.86 4629.02 5469.35 5117.64 4313.38 6598.99 5250.56 3633.58 2468.16 6294.14 4339.97 5203.75 5169.09 4691.15 2459.88 4210.24 5470.67 5901.71 5342.9 5225.11 5252.22 5733.12 5043.34 6436.29 5136.87 7145.73 4168.52 5233.76 6405.69 3669.32 4762.1 4140.04 3495.3 5890.25 5700.79 4726.2 5034.05 4816.51 4711.15 4658.59 3810.68 6478.35 3990.94 4756.8 5477.8 5463.06 4176.32 5260.52 3185.09 5532.75 4241.68 6949.65 2945.34 5676.61 5846.95 5064.23 5268.15 5701.63 4603.04 4870.94 4620.95 5368.93 4488.39 4927.73 5914.5 6006.16 5721.14 4608.62 5407.96 5084.5 4987.28 4071.75 6562.03 4815.47 4759.99 3899.7 5134.33 5214.4 3629.49 5766.05 4705.68 5695.44 3916.42 3835.81 2832.83 5827.3 6036.99 3010.1 3825.98 4589.22 5087.03 4667.84 3906.41 4123.08 4512.6 4260.38 4636.45 4932.27 6793.49 6060.19 4962.35 4493.79 4932.56 5638.7 4279.44 5024.32 5813.79 4644.88 5790.42 4983.1 7350.26 5591.77 6224.85 4556.19 5403.97 4795.08 5106.46 6562.92 4068.31 3671.06 3612.44 4983.43 4850.5 4683.28 6549.8 2820.07 5129.68 4825.73 5076.84 4659.88 5288.33 5811.26 4871.77 5062.77 5685.74 5069.9 4884.93 6028.63 3673.6 5146.1 6215.87 6485.77 6060.06 5866.42 5544.27 5393.43 6896.55 4685.65 5377.01 6470.23 5939.22 4668.8 4271.93 4215.05 5322.11 5125.17 4697.49 4859.01 4604.1 5735.08 5524.45 7133.44 4426.02 3953.26 4750.81 4282.11 4474.39 5467.51 5459.92 4625.53 5453.77 4096.47 4357.11 5005.6 5114.67 5486.89 6069.78 5589.53 7208.19 4549.51 3587.93 5196.08 4975.85 4517.29 4095.83 5695.25 5323.95 4495.75 6171.01 5716.42 6229.83 5796.26 4468.26 4523.81 5578.18 5293.37 5271.88 5933.54 6121.56 5559.79 7168.2 4602.57 3419.07 4571.74 3763.85 3565.32 5740.78 5710.33 4096.86 4796.12 3622.48 5344.44 5001.51 6432.8 4626.72 5115.42 5549.71 5131.77 3186.07 4410.82 4369.86 4967.51 4368.12 6443.99 2646.13 4365.58 3889.98 5193.58 3720.7 5399.43 5490.64 5034.34 5698.53 3769.2 3422.21 4507.46 5036.14 3468.45 4474.96 4758.76 4084.87 4790.63 5259.29 3584.05 4916.75 4818.53 5097.85 5584.64 6189.04 6224.64 4221.03 3799.55 5638.51 5082.66 4550.77 3563.33 4337.93 3550.88 5536.0 6786.37 5537.34 5884.99 3667.93 5192.49 3487.31 4899.19 6643.4 4674.9 5058.34 4028.22 3918.94 3392.26 5575.11 5293.13 5487.63 3852.82 4507.36 5138.93 3768.46 6945.69 6406.8 7086.69 5648.78 5368.66 6875.73 5501.73 4436.48 4697.24 5226.42 6081.3 5615.35 5117.52 3967.76 6311.89 4217.36 6734.39 5679.74 5942.45 4851.18 4150.76 4228.53 4165.36 6123.46 5368.52 5005.72 5155.28 5205.38 5388.73 4764.83 1969.87 3132.34 4949.55 4600.71 3957.38 5262.79 4494.15 5927.2 5035.71 4710.88 4419.79 5300.17 5407.69 5152.78 3869.39 5960.5 5534.23 4117.9 4753.76 6025.77 4638.09 4781.9 6815.96 4441.91 5339.6 5330.26 5828.25 5917.08 4725.11 5483.37 3626.86 5418.12 6371.96 5322.07 5076.11 5990.75 5600.21 4984.17 4656.01 5781.62 6589.13 4037.86 2347.41 5602.62 3543.37 4542.16 2030.03 2809.19 5628.97 4916.7 4104.04 5353.66 2638.82 5030.33 5593.79 5025.42 4965.24 5234.2 6379.38 6257.79 5327.05 5438.55 4849.5 5353.23 4434.65 5977.66 5209.5 5106.33 5065.74 5791.25 5198.94 4873.23 4028.35 6731.89 5464.05 5879.24 2980.31 5410.6 3148.79 6348.93 6824.53 5997.91 4332.64 5385.86 4742.82 6791.86 4082.4 4209.0 4820.68 5482.76 5173.82 3745.02 7212.97 6297.99 4211.36 5378.24 3604.31 3856.73 4450.49 5817.74 5887.71 5367.05 5647.11 4088.72 3945.62 3743.85 6236.46 5342.17 6379.3 5015.67 3795.63 5189.4 4576.71 6538.04 4894.15 6157.59 5201.3 4345.51 4048.73 6223.33 6022.78 4087.32 4009.68 6647.85 5726.42 2569.12 7025.09 2549.95 4433.12 5461.72 4361.24 7336.37 6599.28 5099.9 2960.5 4975.32 5118.86 4298.7 3902.48 4183.4 4304.64 6030.39 6170.9 4733.79 5833.78 3799.01 4823.06 5758.98 5254.49 5288.64 6213.24 6883.86 5987.88 3579.59 6161.94 4065.28 6142.88 5057.59 4461.14 5111.26 5285.6 4574.54 5575.11 5490.54 5615.06 4841.28 5203.54 4047.95 5507.38 6142.94 6889.5 4416.87 5001.69 6581.56 4057.4 4052.43 3980.46 4896.67 5383.9 3934.11 5158.44 3886.56 4466.22 4496.51 6153.71 6561.94 5259.21 5092.93 5934.05 2803.01 5770.07 4714.66 4444.0 5101.6 6771.18 6182.19 5327.39 7415.84 4981.81 4138.59 5714.51 4970.55 4938.33 4484.78 4621.33 5527.27 5104.39 4612.13 5847.91 4934.66 5846.6 4109.44 4903.84 4290.49 4557.1 6688.53 4605.39 5927.1 6175.27 5876.51 4103.76 4286.61 4094.63 4733.41 2932.52 5264.83 4603.66 5453.2 4969.68 5136.51 3901.53 6815.51 5232.16 4422.23 4457.05 3989.26 6031.22 3618.64 4930.72 5485.84 5728.58 6424.77 4887.73 4335.79 5453.69 5918.95 5432.04 4538.89 5689.56 6556.86 4449.73 5848.41 4090.28 4246.83 5517.65 5114.51 5129.4 3303.49 4655.37 4161.32 4622.73 5585.25 5256.75 5161.74 6351.89 5932.28 5560.23 5783.38 4139.39 3043.77 5237.55 3909.94 5088.64 6589.8 4905.53 4151.74 6920.92 7392.65 3729.16 5319.1 3783.36 3757.23 6828.8 4181.93 6570.43 3350.99 3820.19 4979.5 5236.69 4586.82 3133.28 4745.37 5939.29 6200.05 5418.98 4034.41 5859.17 4052.49 5061.74 5326.03 5522.34 6189.67 4420.35 5717.45 4948.96 5256.82 4013.86 4061.87 4645.93 5165.31 5448.64 3798.09 4585.37 4288.5 6417.61 5715.51 3721.69 4511.05 3456.3 6074.39 5317.83 4256.08 5881.93 4399.52 4460.89 4554.24 3939.96 4867.12 5910.66 6520.19 5141.03 4637.3 1458.87 4840.44 8123.59 4819.83 5765.14 4767.54 5157.73 4541.22 4946.08 4984.01 3539.68 4696.03 6217.33 6177.68 4698.7 6270.59 2848.44 6045.26 6500.45 4907.55 5084.76 6666.34 6605.11 4757.87 3557.46 6636.43 5431.14 5313.86 6298.8 3689.24 5178.07 5189.91 5151.19 5777.26 4171.02 5703.84 7012.36 3530.82 5797.32 5028.06 4886.99 4002.99 5159.67 3921.27 3161.1 3702.45 4746.15 6275.25 3720.38 4758.84 4731.37 5023.61 3976.0 4672.86 6530.78 6463.71 5059.37 5009.21 4742.35 4574.03 5394.79 5290.37 5645.54 5850.38 6264.03 5264.08 4526.87 3562.8 4227.66 4691.01 5192.82 4174.22 3573.84 3038.91 4067.89 3922.28 6294.09 4571.57 5131.07 3445.92 4121.07 4197.87 5524.28 5105.54 6026.04 5731.43 6353.81 3518.14 3414.67 5444.36 4150.44 5044.68 5771.98 5899.78 2649.69 5000.74 5117.83 5772.57 5268.27 4813.81 3882.37 5244.95 4634.25 5901.8 6351.48 5395.12 5783.69 3830.7 6210.0 5432.4 3483.61 5350.9 4262.52 6738.9 5992.06 4157.1 8052.53 4970.12 6044.01 6369.66 5973.57 5734.07 6241.48 3997.68 6033.28 5957.82 4801.16 6286.27 5071.38 6327.54 5121.08 2927.84 5616.66 5688.77 4802.36 5368.28 5466.13 6229.64 4220.43 6263.87 5075.23 4975.56 5743.8 7282.36 3826.01 4645.91 5581.01 3928.99 6834.92 6379.33 5130.57 5971.95 5652.73 3979.46 6321.97 3985.93 6412.84 6509.54 6119.0 3792.06 5128.59 4993.49 4293.3 5587.3 3572.73 4864.38 6583.37 3688.83 5631.32 6892.33 4505.3 4491.26 5793.14 4452.36 4609.65 4511.34 4068.41 4832.21 5410.73 4379.91 4942.63 6139.74 4975.57 7066.26 3057.3 4730.97 4594.89 5245.95 3677.85 5821.42 4515.02 3463.53 4924.52 6126.03 2970.24 5314.67 6044.69 5563.47 5658.05 6593.1 4000.51 5462.1 6032.45 5011.37 4026.03 6908.32 3467.11 4817.75 6153.26 5637.53 4848.15 5523.81 4095.4 5648.59 4718.61 5188.57 3873.79 5357.33 5717.67 5252.37 5515.59 3224.81 4499.54 5037.58 7430.48 5640.67 5545.68 6080.69 5555.89 4967.93 4766.47 4871.1 5678.08 5922.62 5872.45 4414.09 5125.45 3784.68 4188.16 3717.22 6305.9 6649.21 5507.07 2943.17 4654.92 5327.71 4880.78 4322.56 5257.38 5509.09 5625.02 5212.05 5479.86 4829.77 4444.92 6959.88 4125.75 5971.9 5749.53 5090.48 5247.73 5402.45 5034.02 5582.28 5945.25 6071.59 2589.19 3856.4 6079.55 5485.61 4137.16 4937.36 5308.4 5310.33 4569.32 6126.5 6322.0 6345.2 6007.1 5488.96 5704.61 3188.21 5128.03 3720.92 4793.06 5087.3 6637.38 6188.33 6111.23 6916.18 6150.31 5873.62 5214.71 4996.91 4677.84 4811.11 3920.44 5379.52 4450.51 4866.8 3851.47 4966.74 5651.46 4959.94 1635.31 4066.36 5639.4 3162.27 6033.93 4083.24 5516.37 2827.92 5092.44 4441.44 5432.2 4232.44 5336.61 3312.3 4612.4 5563.09 6381.58 4439.09 3282.57 4798.13 5212.2 5108.42 6697.45 4630.5 6296.36 4432.32 4451.76 7885.41 3775.38 4046.22 5782.25 6457.89 4844.2 6572.17 3751.73 6118.13 3374.62 4926.62 4420.3 6332.64 3917.09 6009.93 6492.44 4083.1 4613.32 5270.1 3482.73 5191.29 4947.64 4063.26 4957.99 5345.05 4997.89 4542.62 3470.69 4859.95 5286.55 5522.18 5223.1 3873.72 4850.49 4981.55 4592.49 3625.98 6188.62 6474.5 4702.32 4414.06 4763.04 3746.62 4413.56 4532.67 4876.37 5316.05 2513.38 4769.62 4908.32 5260.13 3995.08 4649.5 5019.84 5181.31 4696.06 5985.75 5475.83 6189.29 4149.17 5984.55 4329.8 6581.13 5803.3 4034.88 5108.84 4582.12 3511.5 4295.25 4520.14 5067.92 5357.14 5919.27 4850.95 5374.09 6271.22 3421.81 5378.75 3920.64 6186.24 5822.7 5786.06 3780.07 4137.41 3868.69 5466.49 5447.74 5007.41 6033.72 3768.62 3692.99 6213.74 2329.93 4369.87 6938.87 5412.07 6185.73 4806.99 6520.96 3771.91 5856.43 5217.62 3465.03 6178.19 4746.19 4616.81 5715.25 4362.94 4611.21 6545.78 4469.82 4870.14 3354.94 4404.87 5237.27 5767.65 4750.76 5003.49 4907.03 4104.97 5497.27 4575.72 4081.77 5114.61 2181.29 4987.01 4706.31 4202.12 2694.25 4735.99 4739.56 4203.68 5145.39 3996.93 5130.56 6351.95 5195.09 5200.1 7679.2 5093.28 4881.51 6131.52 4132.08 4311.92 6009.88 4699.77 5093.41 5144.23 6842.35 5464.34 6153.07 3621.63 5801.89 5908.57 5944.52 7296.47 5050.2 4821.41 4924.53 5616.11 4499.52 3874.12 4810.74 4028.13 3900.93 5784.38 4457.73 6476.35 6260.58 4067.24 5728.27 3053.19 5672.46 5202.33 3074.49 4487.51 6805.02 5354.48 7394.47 4729.45 6261.13 4167.55 4720.34 5244.47 4865.11 4731.16 5510.89 6470.87 4495.33 5282.67 4159.89 5178.55 5747.9 4038.17 5146.69 4907.48 6818.23 4488.41 6679.12 5652.19 5512.57 5806.74 6578.62 3878.8 4813.55 6284.12 4796.04 3839.0 5229.56 5349.85 5799.86 5172.1 4672.34 6052.22 5376.41 5003.63 2932.2 4695.7 5105.72 4944.08 4082.01 5269.39 3964.03 4216.33 5832.72 5617.91 4948.21 4444.95 5161.02 4721.2 3124.49 6265.48 5003.81 6262.18 3818.37 4701.03 3352.46 5434.04 5125.53 3997.52 4444.54 5779.9 2626.41 4909.74 5310.33 6729.99 6664.54 5161.73 3922.98 5259.48 4777.96 5254.93 4803.4 6833.5 6608.94 5742.39 2613.78 4780.16 3834.01 4433.23 5738.37 4813.24 5759.19 5847.27 3113.64 4490.2 4304.75 5480.86 6139.9 6571.26 4246.24 4919.13 4600.81 5640.63 5168.97 4900.26 4358.06 5783.88 5093.51 5002.38 6705.93 6201.49 5449.09 5502.14 4605.61 4465.56 4131.08 5386.95 3864.19 4287.93 5332.11 5315.71 6203.24 6158.93 5081.65 4823.14 5438.5 4621.32 5699.4 5237.76 4698.94 4286.84 3948.21 5669.15 5296.05 6011.4 3330.85 5056.32 5533.52 5410.33 4747.24 4380.86 4909.13 5576.16 4305.35 5648.02 3308.75 5210.22 2451.27 5677.42 3903.9 4929.35 5606.22 3943.77 5242.38 6081.35 5459.52 4609.98 5566.5 5663.36 4752.31 6225.05 5240.97 5579.04 4276.59 5405.6 5994.21 5403.81 5082.25 4759.38 6964.78 4374.05 5299.03 5036.84 4565.36 5813.68 4025.08 4008.67 5040.9 3618.53 4770.21 8013.28 3846.55 3796.73 5417.07 3082.16 5656.84 2892.36 5981.54 6789.66 4739.41 5312.2 4706.59 5734.84 5551.79 3982.31 4950.07 4720.22 5402.81 4333.23 5561.63 4328.76 4124.33 5940.5 6568.45 5004.22 5647.93 4280.92 5154.74 4696.92 6437.99 6898.8 6632.04 6540.57 4893.72 6004.72 4072.4 5373.78 5345.65 4489.18 5863.36 4632.75 4752.94 4994.98 3950.53 6423.96 6058.13 5894.69 5263.86 6988.4 6635.51 4060.17 6051.35 5302.53 5543.67 4287.61 4867.13 4604.34 4439.17 2701.42 4502.12 5442.79 5051.39 6673.92 5151.68 4633.59 4884.94 5733.59 5362.15 4455.61 4738.72 3695.72 6874.6 5106.9 5569.85 5523.96 3929.35 4223.53 4884.93 4733.37 6960.97 4287.15 5282.51 5504.65 5669.41 5732.11 3919.47 5596.68 4868.66 5159.9 4004.39 5283.65 4644.68 4987.48 5943.61 4248.58 5911.29 5416.41 4694.27 6760.64 2515.5 4849.21 5177.88 3793.83 6981.47 4582.24 3916.15 5145.13 3860.8 3747.96 5611.29 4726.5 4521.88 5103.3 4601.54 4963.88 7263.57 3832.09 4122.2 5705.96 5267.65 5739.69 4790.16 3509.34 5360.88 7360.62 4985.45 4977.64 4983.56 5699.51 4714.52 2489.44 4587.19 5499.37 4883.13 4836.76 5551.09 5755.98 4501.1 5581.47 4384.91 6550.61 4987.01 4277.54 4713.56 6094.34 6779.82 4739.5 3999.81 6210.48 6377.45 4863.27 4182.05 3255.93 6853.07 6327.61 5575.8 5268.93 5306.31 4535.94 3037.72 4523.9 5126.08 5604.0 3760.4 4951.02 4602.7 3783.35 4037.16 6395.63 5479.17 5020.37 4542.25 4414.23 5233.88 4785.55 5245.4 6189.81 5438.6 7370.52 5467.05 3724.23 5888.94 4727.98 5175.88 4516.26 3647.26 3731.58 3166.37 5369.42 5207.08 5205.53 5543.05 6028.89 5333.16 4888.17 5392.85 5077.2 4274.05 5275.27 5529.09 4531.46 5925.82 5448.68 4072.95 4491.62 3865.5 
SCALARS Velocity float 1
LOOKUP_TABLE default
1.1919 1.19182 1.19191 1.19193 1.19189 1.19184 1.19178 1.1918 1.19182 1.19187 1.19193 1.19185 1.19186 1.19178 1.19187 1.19186 1.19178 1.19185 1.19178 1.1918 1.19178 1.19178 1.19181 1.19178 1.19178 1.19179 1.19178 1.19178 1.19177 1.19183 1.19181 1.19178 1.19178 1.19177 1.19178 1.19178 1.19178 1.19178 1.19178 1.1918 1.19182 1.19184 1.19184 1.19184 1.19182 1.1918 1.19177 1.19181 1.1918 1.19178 1.19184 1.19178 1.19177 1.1919 1.19185 1.19179 1.1918 1.19182 1.19178 1.19183 1.19177 1.19185 1.19186 1.19178 1.19177 1.19178 1.1918 1.19179 1.19188 1.19186 1.19178 1.19195 1.19183 1.19177 1.19178 1.19178 1.19178 1.19182 1.19174 1.19191 1.1918 1.19192 1.19193 1.19187 1.1918 1.19182 1.1919 1.19188 1.19185 1.19188 1.19178 1.19183 1.19183 1.19188 1.19182 1.19181 1.19178 1.19177 1.19183 1.1919 1.19198 1.19184 1.19185 1.19183 1.19181 1.19203 1.19194 1.19183 1.19187 1.19191 1.19192 1.19186 1.19187 1.19189 1.19188 1.19178 1.1918 1.19178 1.19178 1.19182 1.19178 1.19178 1.19179 1.19178 1.19186 1.19178 1.19184 1.19178 1.19178 1.19178 1.19179 1.19178 1.19178 1.19178 1.19178 1.19179 1.19182 1.19184 1.19185 1.19185 1.19184 1.19183 1.19181 1.19179 1.19183 1.19181 1.19184 1.19183 1.19176 1.19186 1.19189 1.1918 1.19176 1.1919 1.19185 1.19181 1.19181 1.19179 1.19189 1.19202 1.19201 1.19177 1.19178 1.19183 1.1918 1.19188 1.19186 1.19178 1.19197 1.19184 1.19178 1.19178 1.19184 1.1918 1.19193 1.19177 1.1918 1.1919 1.19198 1.19201 1.19192 1.19191 1.19191 1.1919 1.19181 1.1918 1.19192 1.19177 1.19186 1.19176 1.1919 1.19186 1.19191 1.19178 1.19183 1.19174 1.19185 1.19194 1.19177 1.19184 1.19182 1.19185 1.19183 1.19183 1.19182 1.1918 1.19178 1.19197 1.19188 1.19196 1.19191 1.19195 1.19186 1.19179 1.19188 1.19182 1.19179 1.19194 1.19178 1.19182 1.19178 1.19178 1.19179 1.19178 1.19186 1.19178 1.19183 1.19179 1.19185 1.19178 1.1918 1.19178 1.19176 1.1918 1.19178 1.19181 1.19181 1.19184 1.19185 1.19186 1.19184 1.19182 1.19181 1.19179 1.19182 1.19178 1.19184 1.19184 1.19178 1.19186 1.19189 1.1918 1.19176 1.19177 1.1919 1.19183 1.19181 1.1918 1.19191 1.19208 1.19184 1.19179 1.19188 1.19192 1.19183 1.1919 1.19186 1.19184 1.19199 1.19184 1.1919 1.19184 1.19203 1.1918 1.19194 1.19179 1.19185 1.19179 1.19185 1.192 1.19193 1.1919 1.1918 1.19192 1.19178 1.19192 1.19187 1.19191 1.19178 1.19185 1.1919 1.19209 1.1918 1.19183 1.19186 1.19176 1.1918 1.19202 1.19183 1.19197 1.19185 1.19173 1.19182 1.19183 1.19178 1.19194 1.19191 1.19185 1.19189 1.19198 1.19198 1.19194 1.19186 1.19179 1.19186 1.19178 1.19178 1.19192 1.19182 1.19182 1.19184 1.19177 1.19179 1.19175 1.19186 1.19183 1.19183 1.19185 1.19181 1.19177 1.19178 1.19178 1.1918 1.19181 1.19181 1.19192 1.19185 1.19183 1.19184 1.19186 1.19184 1.1918 1.19187 1.1918 1.19183 1.19179 1.19183 1.19167 1.19187 1.19187 1.19187 1.19179 1.19178 1.19188 1.1919 1.19183 1.19186 1.19188 1.19188 1.19196 1.19211 1.19183 1.1918 1.19189 1.19189 1.19186 1.19178 1.19178 1.19202 1.19178 1.19214 1.19188 1.19199 1.19184 1.19181 1.19194 1.19179 1.19182 1.192 1.19189 1.19187 1.19189 1.19191 1.19169 1.19195 1.19191 1.19186 1.19198 1.19181 1.1921 1.19182 1.19189 1.1921 1.19183 1.19191 1.19207 1.19179 1.19198 1.19205 1.19182 1.19196 1.19182 1.19184 1.19185 1.19182 1.192 1.19191 1.19184 1.19188 1.19197 1.19195 1.19195 1.19193 1.19183 1.19197 1.19184 1.19166 1.19177 1.19193 1.19181 1.19183 1.19188 1.19186 1.19178 1.19181 1.19177 1.19185 1.19177 1.19183 1.19186 1.19181 1.19177 1.19196 1.1918 1.19177 1.19181 1.1918 1.19185 1.19179 1.1918 1.19184 1.19186 1.19184 1.19179 1.19186 1.19186 1.19182 1.19183 1.19177 1.19175 1.19181 1.19165 1.19182 1.19196 1.19185 1.19169 1.19191 1.19182 1.19186 1.19187 1.19189 1.19209 1.19183 1.1918 1.19189 1.19184 1.19185 1.19178 1.19177 1.19176 1.19196 1.19206 1.192 1.19183 1.19175 1.19194 1.19178 1.19186 1.19192 1.19178 1.19182 1.19184 1.19201 1.19201 1.19193 1.19169 1.1919 1.1919 1.19191 1.19198 1.19193 1.19176 1.19212 1.19198 1.19198 1.19189 1.19203 1.19183 1.19169 1.19186 1.1919 1.19185 1.19186 1.19174 1.192 1.19186 1.19186 1.19182 1.192 1.19178 1.19182 1.19186 1.19195 1.19195 1.19191 1.19182 1.19197 1.19183 1.19161 1.1918 1.19178 1.19198 1.19192 1.19187 1.1918 1.19182 1.19185 1.19188 1.19181 1.19183 1.19185 1.19181 1.19174 1.19196 1.19181 1.1918 1.19182 1.19185 1.19178 1.1918 1.19177 1.19181 1.19184 1.19184 1.19182 1.19181 1.19187 1.19181 1.19178 1.19174 1.1918 1.1918 1.19179 1.19182 1.19179 1.19183 1.1918 1.19185 1.19211 1.19186 1.19203 1.19207 1.19179 1.19181 1.19189 1.19181 1.19174 1.19176 1.19176 1.19169 1.19195 1.19204 1.19185 1.19208 1.19178 1.19169 1.19193 1.19186 1.19192 1.19192 1.19177 1.19193 1.19204 1.192 1.19198 1.19199 1.19177 1.1919 1.19183 1.19189 1.19207 1.19211 1.19174 1.19199 1.19183 1.19194 1.19174 1.1919 1.19178 1.19186 1.1918 1.19178 1.19199 1.19186 1.19166 1.19181 1.19199 1.19185 1.19183 1.19193 1.19189 1.19182 1.19197 1.19181 1.19188 1.19162 1.19181 1.19181 1.19172 1.19177 1.19178 1.19177 1.19182 1.19188 1.19186 1.19187 1.19183 1.19173 1.1918 1.19179 1.19181 1.19188 1.19186 1.19181 1.19182 1.19178 1.19178 1.19179 1.1918 1.19176 1.19181 1.19183 1.19185 1.19182 1.19182 1.19188 1.19181 1.19186 1.19171 1.19181 1.1918 1.19178 1.19183 1.19178 1.19174 1.19195 1.19199 1.19185 1.19201 1.19203 1.19206 1.1918 1.19184 1.1919 1.19181 1.19165 1.19175 1.19169 1.19178 1.19184 1.1926 1.19201 1.19173 1.19177 1.19175 1.19202 1.19194 1.19175 1.19188 1.19176 1.19192 1.19185 1.19204 1.19187 1.19193 1.19186 1.19197 1.19225 1.19206 1.19211 1.19207 1.19187 1.19169 1.19196 1.1918 1.19193 1.19173 1.19189 1.19175 1.19184 1.19178 1.19189 1.19177 1.19187 1.19167 1.19181 1.19178 1.19178 1.19175 1.19182 1.19188 1.19166 1.19187 1.19186 1.19194 1.19175 1.19196 1.19179 1.19179 1.19172 1.19183 1.1917 1.19185 1.19193 1.19181 1.19182 1.19181 1.19178 1.19188 1.19179 1.19182 1.19175 1.19183 1.19178 1.19183 1.19169 1.19178 1.19181 1.19182 1.19184 1.19181 1.19181 1.19188 1.19183 1.19189 1.19173 1.19201 1.19176 1.19176 1.19183 1.19172 1.19176 1.19183 1.19202 1.1918 1.19188 1.192 1.19203 1.19203 1.19178 1.19209 1.19202 1.19238 1.19174 1.19211 1.19178 1.19171 1.19184 1.192 1.19196 1.19187 1.19155 1.19178 1.19201 1.19193 1.19187 1.19176 1.19191 1.19181 1.19184 1.19202 1.19187 1.19193 1.19187 1.19183 1.19191 1.1921 1.19194 1.19183 1.19168 1.19197 1.19187 1.19186 1.19177 1.19195 1.19185 1.19187 1.19165 1.19197 1.19177 1.19199 1.19199 1.19179 1.19184 1.19178 1.19172 1.19178 1.19187 1.19168 1.1917 1.19182 1.19182 1.19178 1.19179 1.19177 1.19175 1.19172 1.19185 1.19176 1.19165 1.19198 1.19186 1.19181 1.19181 1.19175 1.19175 1.19185 1.19181 1.19179 1.19182 1.19174 1.19182 1.19168 1.19178 1.1918 1.19181 1.19185 1.1918 1.1918 1.19187 1.19182 1.19188 1.19181 1.19198 1.19179 1.19194 1.19177 1.19187 1.19175 1.19185 1.19201 1.19181 1.19178 1.19195 1.19197 1.19198 1.19181 1.19205 1.19206 1.19213 1.19204 1.19223 1.19203 1.19173 1.19157 1.19193 1.19192 1.19184 1.19155 1.19201 1.19177 1.19197 1.19182 1.19186 1.19176 1.19189 1.19183 1.19178 1.19185 1.19198 1.19189 1.19183 1.19187 1.1919 1.19201 1.19192 1.19191 1.19178 1.19182 1.19198 1.19187 1.19185 1.19181 1.19194 1.19189 1.1916 1.19177 1.19196 1.19176 1.19202 1.19187 1.19176 1.19162 1.19167 1.19172 1.1917 1.19172 1.19185 1.19159 1.19177 1.19193 1.19177 1.19171 1.19178 1.19183 1.19181 1.19173 1.1919 1.19183 1.19165 1.19178 1.19186 1.19179 1.1918 1.19174 1.19175 1.19184 1.19181 1.19179 1.19184 1.19179 1.19175 1.19174 1.19167 1.19178 1.19179 1.19179 1.19178 1.19174 1.19177 1.19182 1.19178 1.19178 1.19179 1.19181 1.19186 1.19178 1.19177 1.19209 1.19152 1.19202 1.19201 1.19183 1.19178 1.19188 1.19195 1.1922 1.19226 1.19202 1.19204 1.19205 1.19215 1.19203 1.19181 1.19208 1.19208 1.19169 1.19161 1.19166 1.19192 1.19192 1.19185 1.19136 1.19197 1.19197 1.19175 1.19187 1.19182 1.19192 1.1918 1.19133 1.19195 1.19183 1.19185 1.19189 1.19184 1.19189 1.19165 1.19193 1.19191 1.19189 1.19168 1.19202 1.1916 1.19187 1.19163 1.19163 1.19179 1.19195 1.19175 1.19179 1.19208 1.19187 1.19175 1.19171 1.19174 1.19164 1.19172 1.1919 1.19203 1.19205 1.19177 1.19187 1.19175 1.19178 1.19173 1.19183 1.19181 1.19173 1.19179 1.19189 1.19185 1.19182 1.19168 1.19184 1.19178 1.1918 1.19173 1.19172 1.19183 1.19181 1.19179 1.19184 1.19178 1.19176 1.19176 1.19185 1.19189 1.19175 1.19191 1.19178 1.19179 1.19184 1.19172 1.19173 1.19177 1.1918 1.19178 1.19179 1.19177 1.19182 1.19188 1.19184 1.19173 1.19209 1.19225 1.19147 1.19173 1.19195 1.19197 1.19193 1.19182 1.1921 1.19217 1.19192 1.19225 1.19207 1.19198 1.19201 1.19207 1.19186 1.19138 1.19209 1.19161 1.19139 1.19152 1.19188 1.19184 1.19171 1.19194 1.19202 1.19174 1.19169 1.19178 1.19184 1.19184 1.19204 1.19176 1.19157 1.19184 1.19164 1.19202 1.19181 1.19184 1.19187 1.19185 1.19185 1.19178 1.19185 1.19178 1.1917 1.19178 1.19204 1.19166 1.19186 1.19163 1.19178 1.19193 1.19114 1.19199 1.19211 1.19194 1.19195 1.19166 1.19182 1.19175 1.19164 1.19175 1.19191 1.19183 1.19171 1.19176 1.19174 1.19173 1.1917 1.19176 1.19182 1.19182 1.19178 1.19177 1.19176 1.19179 1.19184 1.19188 1.19176 1.19172 1.1917 1.19182 1.1918 1.19179 1.19184 1.19177 1.19178 1.19189 1.19178 1.19177 1.19184 1.19172 1.19179 1.19178 1.19181 1.19171 1.19174 1.19178 1.19182 1.19187 1.19178 1.19173 1.19228 1.19194 1.19194 1.19187 1.19178 1.19178 1.19197 1.19221 1.19207 1.19214 1.19197 1.192 1.19177 1.19189 1.19202 1.19138 1.19177 1.19172 1.19183 1.19178 1.19191 1.1919 1.19181 1.1919 1.19157 1.19183 1.19176 1.1918 1.19184 1.19176 1.19168 1.19174 1.19173 1.19184 1.19177 1.1918 1.19187 1.19182 1.1915 1.19178 1.19144 1.19174 1.19176 1.1916 1.19153 1.19185 1.19188 1.19132 1.19139 1.19193 1.19192 1.19212 1.19173 1.19194 1.19169 1.19186 1.19179 1.19164 1.19173 1.19189 1.19166 1.19171 1.19174 1.19172 1.19186 1.19172 1.19179 1.19194 1.19166 1.19193 1.19168 1.19173 1.19178 1.19174 1.19174 1.19171 1.19169 1.19182 1.19178 1.19179 1.19169 1.19178 1.19189 1.19185 1.19182 1.19187 1.19181 1.19178 1.1918 1.19175 1.19176 1.19171 1.19175 1.19174 1.19183 1.19148 1.19164 1.19196 1.19204 1.19168 1.19198 1.1921 1.19191 1.19182 1.19178 1.19223 1.19194 1.1923 1.19216 1.19178 1.19176 1.19194 1.19195 1.19215 1.19142 1.19183 1.19165 1.19177 1.19197 1.19179 1.19174 1.19218 1.19179 1.1917 1.19174 1.19178 1.19177 1.1916 1.19174 1.19183 1.19169 1.19167 1.19176 1.19173 1.19183 1.19159 1.1918 1.19169 1.19144 1.19179 1.19172 1.19159 1.19153 1.19169 1.19187 1.19131 1.1914 1.19136 1.19192 1.19191 1.1918 1.19206 1.19171 1.19186 1.19168 1.19179 1.19181 1.19173 1.19178 1.1915 1.19172 1.19176 1.19174 1.19176 1.19186 1.19174 1.19179 1.19169 1.19174 1.19185 1.19182 1.19165 1.19173 1.19174 1.19178 1.19182 1.19178 1.19174 1.19167 1.19161 1.19182 1.19179 1.19168 1.19172 1.19182 1.19191 1.19186 1.19181 1.19182 1.19176 1.19174 1.19172 1.19171 1.19183 1.19172 1.1917 1.1919 1.19186 1.19208 1.19209 1.19178 1.19155 1.19194 1.19185 1.19191 1.19216 1.1922 1.192 1.19201 1.19208 1.19205 1.19218 1.19205 1.19187 1.19185 1.19204 1.19178 1.19195 1.19211 1.19265 1.19264 1.19213 1.19212 1.19139 1.19144 1.19202 1.192 1.19177 1.1916 1.19194 1.19226 1.19181 1.19176 1.19157 1.19169 1.19171 1.19178 1.19168 1.19181 1.19176 1.19174 1.19171 1.19181 1.19162 1.19155 1.19179 1.19174 1.19172 1.19169 1.19159 1.19152 1.19187 1.19131 1.19177 1.19185 1.19179 1.19196 1.19194 1.19169 1.1918 1.19178 1.19177 1.19177 1.19148 1.19161 1.19167 1.19164 1.19178 1.19186 1.19185 1.19178 1.19176 1.19172 1.19175 1.19179 1.19165 1.19173 1.19176 1.19176 1.19181 1.19176 1.19172 1.1917 1.19163 1.19183 1.19179 1.19168 1.19178 1.19177 1.19179 1.19171 1.19181 1.19184 1.19179 1.1919 1.1917 1.19171 1.19196 1.19132 1.19166 1.19223 1.19197 1.19148 1.19162 1.19175 1.19215 1.19198 1.19212 1.192 1.19202 1.19223 1.19214 1.19202 1.19198 1.1918 1.19175 1.19198 1.19196 1.19169 1.19214 1.19211 1.19233 1.19143 1.19207 1.192 1.19177 1.19201 1.19185 1.19193 1.19129 1.1917 1.19173 1.19224 1.19183 1.19162 1.19154 1.19171 1.19173 1.19178 1.19167 1.19171 1.19173 1.19173 1.19167 1.19171 1.19163 1.1916 1.19168 1.19173 1.19175 1.19172 1.19157 1.19174 1.19176 1.19181 1.19161 1.19178 1.19173 1.19171 1.19195 1.19192 1.19168 1.19179 1.19169 1.1918 1.19185 1.19179 1.1918 1.19151 1.19155 1.1916 1.19176 1.19178 1.19176 1.19173 1.19179 1.19169 1.19179 1.19176 1.19174 1.19179 1.19172 1.19177 1.1917 1.19178 1.19179 1.19172 1.19179 1.19181 1.19179 1.19168 1.19178 1.19179 1.1917 1.19171 1.19185 1.19182 1.19187 1.19187 1.19184 1.19195 1.19169 1.19153 1.19213 1.19194 1.19211 1.19179 1.19177 1.19219 1.19197 1.19206 1.19179 1.19171 1.19189 1.19227 1.19199 1.19207 1.19212 1.19173 1.19168 1.19173 1.19156 1.19195 1.19171 1.19205 1.19225 1.19144 1.19205 1.19211 1.19206 1.19181 1.19178 1.19128 1.19167 1.19179 1.1917 1.19189 1.19194 1.19159 1.19154 1.19159 1.19173 1.1917 1.19173 1.19169 1.19162 1.19167 1.19161 1.19188 1.19167 1.19163 1.19175 1.19169 1.1916 1.19175 1.19158 1.19173 1.19185 1.19165 1.19178 1.19164 1.19169 1.19191 1.19168 1.19177 1.19169 1.19183 1.19179 1.19175 1.19181 1.1915 1.19156 1.19162 1.19157 1.19176 1.19176 1.19174 1.19178 1.1917 1.19179 1.19178 1.19179 1.19177 1.19174 1.19179 1.19179 1.19173 1.19169 1.19164 1.19183 1.19168 1.19183 1.19175 1.19167 1.19169 1.19198 1.19197 1.19183 1.19183 1.19193 1.19188 1.19169 1.19178 1.19178 1.1917 1.19209 1.19206 1.19186 1.19174 1.19239 1.19155 1.19225 1.19207 1.19194 1.19181 1.19199 1.19219 1.1921 1.19188 1.19185 1.19209 1.19178 1.19212 1.19203 1.19165 1.19163 1.19168 1.19172 1.1917 1.19184 1.19158 1.19166 1.19119 1.1917 1.19171 1.19178 1.19173 1.19172 1.19159 1.19165 1.19161 1.19189 1.19167 1.1918 1.19181 1.19169 1.1916 1.19156 1.19147 1.19161 1.19183 1.19162 1.19167 1.19163 1.19169 1.1916 1.19173 1.19172 1.19168 1.19178 1.19175 1.19174 1.19176 1.1918 1.19177 1.1917 1.19165 1.19158 1.19153 1.19158 1.19176 1.19174 1.19178 1.19169 1.19179 1.19178 1.19174 1.19178 1.19173 1.19166 1.19166 1.19168 1.19164 1.19178 1.19178 1.19167 1.19173 1.19176 1.19166 1.19169 1.19185 1.19178 1.19163 1.19169 1.19187 1.19189 1.19198 1.19155 1.19196 1.19184 1.19244 1.19178 1.19211 1.19203 1.19205 1.19176 1.19186 1.1918 1.19235 1.19149 1.19191 1.19198 1.19195 1.19201 1.19188 1.1918 1.19184 1.1921 1.19226 1.19224 1.19175 1.19179 1.19179 1.19176 1.19194 1.19215 1.19167 1.19166 1.19178 1.19165 1.1921 1.1921 1.19194 1.1915 1.19168 1.19148 1.19171 1.19178 1.19178 1.19177 1.19181 1.19182 1.19167 1.19171 1.19162 1.19159 1.19169 1.19165 1.19186 1.19168 1.19168 1.1916 1.1917 1.1915 1.19162 1.19182 1.19162 1.19166 1.19161 1.19191 1.19169 1.1917 1.19173 1.19178 1.19178 1.19178 1.19177 1.19178 1.19178 1.19171 1.19165 1.19157 1.1915 1.19158 1.19157 1.19156 1.19168 1.19172 1.19179 1.19169 1.19174 1.19178 1.19173 1.19173 1.19175 1.19173 1.19166 1.19166 1.19168 1.1917 1.19178 1.19179 1.19178 1.19172 1.19176 1.19165 1.19173 1.19208 1.19208 1.19183 1.19168 1.19186 1.19185 1.19191 1.19173 1.19165 1.1925 1.19214 1.192 1.19211 1.19192 1.19173 1.19233 1.19215 1.19178 1.19196 1.19181 1.19204 1.19177 1.19199 1.19214 1.19183 1.19186 1.19183 1.19178 1.19183 1.19219 1.19174 1.19176 1.19183 1.19198 1.19207 1.1916 1.19144 1.19174 1.19177 1.1919 1.19148 1.19167 1.19147 1.19178 1.19178 1.19172 1.19198 1.19169 1.19181 1.1918 1.1917 1.19169 1.19157 1.1918 1.19163 1.19178 1.19167 1.19169 1.1917 1.19166 1.1915 1.19177 1.19173 1.19171 1.1916 1.19176 1.19163 1.19167 1.19167 1.19175 1.19179 1.19176 1.19175 1.19181 1.1918 1.1918 1.19152 1.19154 1.1916 1.19178 1.19173 1.19155 1.19167 1.19178 1.1918 1.19177 1.19177 1.19177 1.19177 1.19177 1.19173 1.19174 1.19175 1.19173 1.1918 1.19174 1.19173 1.19179 1.19178 1.19168 1.19178 1.1919 1.19178 1.19178 1.19178 1.19165 1.19172 1.1917 1.19179 1.19176 1.19182 1.19179 1.1916 1.19194 1.19169 1.19187 1.19186 1.19182 1.19186 1.19179 1.19236 1.19202 1.19176 1.19212 1.19178 1.19212 1.19196 1.19216 1.19208 1.19193 1.19175 1.19193 1.19193 1.19196 1.19208 1.19186 1.19192 1.19195 1.19176 1.1915 1.19219 1.19178 1.19177 1.19161 1.19155 1.19157 1.19144 1.19185 1.19167 1.19177 1.19191 1.19189 1.19152 1.19171 1.19151 1.19173 1.19177 1.19173 1.1918 1.19181 1.19167 1.19158 1.1916 1.1919 1.19163 1.1916 1.1917 1.19164 1.19172 1.19164 1.1916 1.1915 1.19178 1.19158 1.19173 1.19191 1.19171 1.19166 1.19159 1.19175 1.19178 1.19163 1.19166 1.19175 1.19178 1.19175 1.19176 1.19167 1.19172 1.19155 1.19172 1.19176 1.19172 1.19177 1.19174 1.19177 1.19178 1.19179 1.19178 1.19179 1.1918 1.19168 1.1919 1.19192 1.19176 1.19171 1.19185 1.19167 1.19176 1.1918 1.19176 1.19181 1.19171 1.19171 1.19176 1.1916 1.19188 1.19182 1.19179 1.19179 1.19206 1.19205 1.19197 1.19241 1.19214 1.19175 1.19165 1.19126 1.19173 1.19201 1.19263 1.19172 1.19169 1.19196 1.19185 1.19194 1.19148 1.19223 1.19178 1.19172 1.19154 1.1916 1.19154 1.19142 1.1918 1.19195 1.19165 1.19185 1.19158 1.19164 1.1916 1.19154 1.19175 1.19177 1.19171 1.19179 1.19168 1.19157 1.1916 1.19178 1.19171 1.19167 1.19161 1.19178 1.1919 1.19189 1.1917 1.19178 1.1916 1.19182 1.19173 1.1917 1.19167 1.19182 1.19168 1.19157 1.19163 1.19165 1.19175 1.19178 1.19178 1.19177 1.19176 1.19177 1.19176 1.19176 1.19176 1.19175 1.19178 1.19154 1.19172 1.19177 1.19172 1.19177 1.19177 1.19174 1.19174 1.19176 1.19172 1.19171 1.1918 1.19175 1.19179 1.19177 1.19178 1.19182 1.19179 1.19183 1.19179 1.19162 1.19164 1.1917 1.19155 1.19186 1.19185 1.1919 1.19181 1.19166 1.19165 1.19178 1.19196 1.19189 1.192 1.19178 1.1921 1.19207 1.19202 1.19178 1.19177 1.19168 1.19174 1.19133 1.19174 1.19255 1.19162 1.1917 1.19197 1.192 1.19168 1.19144 1.19201 1.19211 1.19151 1.19197 1.1915 1.19157 1.19155 1.19173 1.19149 1.19168 1.19179 1.19197 1.19195 1.19161 1.19187 1.19155 1.1918 1.1918 1.19172 1.19146 1.19169 1.19181 1.19168 1.19154 1.19171 1.19173 1.19173 1.19169 1.19177 1.19179 1.19177 1.1917 1.19169 1.19178 1.1917 1.19167 1.19178 1.19178 1.19159 1.19163 1.19165 1.19175 1.19178 1.19178 1.19177 1.19176 1.19177 1.19175 1.19178 1.19178 1.19155 1.19178 1.19173 1.19177 1.19178 1.19178 1.19178 1.19177 1.19178 1.19178 1.19174 1.19174 1.19176 1.19178 1.19178 1.19176 1.19178 1.19176 1.19165 1.19175 1.19175 1.1918 1.19164 1.19161 1.19181 1.19171 1.19164 1.19154 1.19161 1.19158 1.19174 1.19163 1.19186 1.19163 1.19176 1.19164 1.19182 1.19166 1.19215 1.19195 1.19182 1.19166 1.19198 1.19126 1.19175 1.19167 1.19148 1.19205 1.19178 1.19135 1.19145 1.19149 1.19171 1.19186 1.19152 1.19169 1.19169 1.19178 1.19157 1.1914 1.19176 1.1916 1.19159 1.19176 1.19179 1.19168 1.19178 1.19182 1.19178 1.19169 1.19179 1.19171 1.19172 1.19171 1.1916 1.19168 1.19168 1.19169 1.19177 1.19174 1.19178 1.1918 1.1917 1.19168 1.19175 1.1917 1.19164 1.1917 1.19164 1.19175 1.19175 1.19178 1.19177 1.19178 1.19178 1.19178 1.19176 1.19177 1.19178 1.19178 1.19178 1.19173 1.19177 1.19178 1.19178 1.19178 1.19178 1.19174 1.19176 1.19176 1.19178 1.19177 1.19178 1.19174 1.19178 1.19165 1.19167 1.19182 1.19179 1.19166 1.19173 1.19161 1.19152 1.19157 1.19153 1.19168 1.19137 1.19167 1.19159 1.19171 1.19163 1.19179 1.19187 1.19224 1.19193 1.192 1.19162 1.1914 1.19158 1.192 1.19115 1.19162 1.19184 1.19172 1.19137 1.19131 1.19102 1.19176 1.19151 1.19199 1.19137 1.19173 1.19171 1.19179 1.19163 1.19173 1.19158 1.1916 1.19162 1.19166 1.19163 1.1918 1.1918 1.19178 1.1917 1.19169 1.19178 1.19179 1.19181 1.19171 1.1916 1.19169 1.19175 1.19175 1.19177 1.19175 1.1917 1.19175 1.1917 1.19156 1.19155 1.19168 1.1917 1.19164 1.19175 1.19177 1.19178 1.19178 1.19177 1.19176 1.19173 1.19178 1.19178 1.19178 1.19176 1.19176 1.19177 1.19176 1.19172 1.19167 1.19166 1.19178 1.19148 1.19164 1.19171 1.19159 1.19156 1.19121 1.19151 1.19145 1.19157 1.19149 1.1916 1.19171 1.19224 1.19184 1.19153 1.19153 1.19141 1.19162 1.19188 1.19109 1.19181 1.1917 1.19149 1.19171 1.19137 1.19135 1.19152 1.19152 1.19103 1.19124 1.19122 1.19155 1.19169 1.19177 1.19174 1.19158 1.1916 1.19166 1.19156 1.19167 1.19178 1.1917 1.19179 1.1917 1.19169 1.19168 1.19177 1.19167 1.19178 1.19166 1.19172 1.19175 1.19169 1.1917 1.19176 1.19171 1.19176 1.19156 1.19158 1.19168 1.19175 1.19182 1.19138 1.19176 1.19163 1.19189 1.19182 1.19193 1.19199 1.19183 1.19186 1.19179 1.19186 1.19206 1.19127 1.19157 1.19148 1.19165 1.19131 1.19124 1.19146 1.19158 1.19173 1.19184 1.19136 1.19154 1.19192 1.19187 1.19191 1.1916 1.19175 1.19195 1.19198 1.19181 1.19186 1.19184 1.19202 1.19168 1.19199 1.1917 1.19142 1.19148 1.19159 1.19115 1.19127 1.19158 1.19197 1.19168 1.19147 1.19168 1.19193 1.19198 1.1918 1.19193 1.19133 1.19166 1.19161 1.19177 1.19178 1.19137 1.19117 1.19168 1.19124 1.19156 1.19167 1.19178 1.19182 1.19166 1.19139 1.19163 1.19184 1.19136 1.19148 1.19183 1.19164 1.19195 1.19196 1.19195 1.19175 1.19194 1.1918 1.19133 1.19165 1.19178 1.19184 1.19149 1.19127 1.19106 1.19146 1.19178 1.19181 1.19168 1.1916 1.19188 1.19147 1.19179 1.19156 1.19194 1.19201 1.19162 1.19206 1.19172 1.19193 1.1915 1.19108 1.19187 1.19211 1.19178 1.19178 1.19178 1.19178 1.19178 1.19178 1.19178 1.19178 1.19178 1.19178 1.19177 1.19167 1.19165 1.19198 1.19155 1.19175 1.19151 1.19148 1.19194 1.19208 1.19171 1.19197 1.19167 1.19177 1.19149 1.19206 1.19192 1.19188 1.19192 1.19178 1.19178 1.19178 1.19178 1.19178 1.19178 1.19178 1.19178 1.19178 1.19178 1.19178 1.19178 1.19178 1.19178 1.19178 1.19178 1.19178 1.19178 1.19178 1.19178 1.19178 1.19178 1.19178 1.19178 1.19178 1.19178 1.19178 1.19178 1.19178 1.19178 1.19178 1.19178 1.19178 1.19178 1.19178 1.19178 1.19173 1.19168 1.19159 1.19161 1.19172 1.19219 1.19168 1.19146 1.19147 1.19272 1.19239 1.19145 1.19163 1.19174 1.19223 1.1916 1.19143 1.19165 1.1917 1.19206 1.19229 1.19207 1.19198 1.19187 1.19188 1.19178 1.19178 1.19178 1.19178 1.19178 1.19178 1.19178 1.19178 1.19178 1.19178 1.19178 1.19178 1.19178 1.19178 1.19178 1.19178 1.19178 1.19178 1.19178 1.19178 1.19178 1.19178 1.19178 1.19178 1.19178 1.19178 1.19178 1.19178 1.19234 1.19159 1.19146 1.19189 1.19141 1.19148 1.19134 1.19216 1.19209 1.19166 1.1914 1.19202 1.19136 1.19152 1.19159 1.19178 1.19182 1.1921 1.19192 1.19181 1.1916 1.19261 1.19174 1.192 1.19178 1.19178 1.19178 1.19178 1.19178 1.19178 1.19178 1.19178 1.19178 1.19178 1.19178 1.19178 1.19178 1.19178 1.19178 1.19178 1.19178 1.19178 1.19178 1.19178 1.19178 1.19178 1.19178 1.19178 1.19178 1.19178 1.19178 1.19178 1.19178 1.19178 1.19178 1.19178 1.19178 1.19178 1.19178 1.19178 1.19178 1.19178 1.19178 1.19178 1.19178 1.19178 1.19178 1.1918 1.1918 1.1919 1.19154 1.19158 1.19202 1.1915 1.19184 1.19185 1.19143 1.19151 1.19163 1.19213 1.19185 1.19142 1.19095 1.19132 1.19148 1.19154 1.19218 1.19246 1.19194 1.19198 1.19159 1.19177 1.19177 1.19178 1.19178 1.19178 1.19178 1.19178 1.19178 1.19178 1.19178 1.19178 1.19178 1.19178 1.19178 1.19178 1.19178 1.19178 1.19178 1.19178 1.19178 1.19178 1.19178 1.19178 1.19178 1.19178 1.19178 1.19178 1.19178 1.19178 1.19178 1.19178 1.19178 1.19178 1.19178 1.19178 1.19178 1.19178 1.19178 1.19178 1.19178 1.19178 1.19178 1.19178 1.19178 1.19178 1.19178 1.19178 1.19178 1.19178 1.19176 1.19177 1.19156 1.19127 1.19166 1.19171 1.19183 1.19149 1.19203 1.19181 1.19148 1.19104 1.19178 1.19125 1.19204 1.19193 1.19232 1.19159 1.19211 1.19141 1.19176 1.19182 1.19178 1.19178 1.19178 1.19178 1.19178 1.19178 1.19178 1.19178 1.19178 1.19178 1.19178 1.19178 1.19178 1.19178 1.19178 1.19178 1.19178 1.19178 1.19178 1.19178 1.19178 1.19178 1.19178 1.19178 1.19178 1.19178 1.19178 1.19178 1.19178 1.19178 1.19178 1.19178 1.19178 1.19178 1.19178 1.19178 1.19178 1.19178 1.19178 1.19178 1.19178 1.19178 1.19178 1.19178 1.19178 1.19178 1.19178 1.19175 1.19175 1.19183 1.19285 1.19158 1.19195 1.19156 1.19147 1.1915 1.19215 1.19235 1.19164 1.1918 1.19173 1.19201 1.19197 1.19132 1.19132 1.1922 1.1923 1.19177 1.19184 1.19159 1.19208 1.19163 1.19178 1.19177 1.19178 1.19177 1.19178 1.19178 1.19178 1.19178 1.19178 1.19178 1.19178 1.19178 1.19178 1.19178 1.19178 1.19178 1.19178 1.19178 1.19178 1.19178 1.19178 1.19178 1.19178 1.19178 1.19178 1.19178 1.19178 1.19178 1.19178 1.19178 1.19178 1.19178 1.19178 1.19178 1.19178 1.19178 1.19178 1.19178 1.19178 1.19178 1.19178 1.19178 1.19178 1.19178 1.19178 1.19178 1.19178 1.19178 1.19178 1.19178 1.19178 1.19178 1.19178 1.19132 1.19177 1.19192 1.19161 1.19033 1.19216 1.1921 1.19234 1.19227 1.19282 1.19202 1.19203 1.19216 1.19208 1.1922 1.19166 1.19179 1.19182 1.19183 1.19155 1.19247 1.19166 1.19193 1.19218 1.19168 1.19178 1.19178 1.19178 1.19178 1.19178 1.19178 1.19178 1.19178 1.19178 1.19178 1.19178 1.19178 1.19178 1.19178 1.19178 1.19178 1.19178 1.19178 1.19178 1.19178 1.19178 1.19178 1.19178 1.19178 1.19178 1.19178 1.19178 1.19178 1.19178 1.19178 1.19178 1.19178 1.19178 1.19178 1.19178 1.19178 1.19178 1.19178 1.19178 1.19178 1.19178 1.19186 1.19189 1.19324 1.19174 1.19085 1.19165 1.19195 1.19216 1.19158 1.19137 1.1925 1.19224 1.19217 1.19197 1.19163 1.19225 1.19178 1.19178 1.19267 1.19237 1.19109 1.19178 1.19178 1.19178 1.19178 1.19178 1.19178 1.19178 1.19178 1.19178 1.19178 1.19178 1.19178 1.19178 1.19178 1.19178 1.19178 1.19178 1.19178 1.19178 1.19178 1.19178 1.19178 1.19178 1.19178 1.19178 1.19178 1.19178 1.19178 1.19178 1.19178 1.19178 1.19178 1.19178 1.19178 1.19178 1.19178 1.19178 1.19212 1.19199 1.19158 1.19256 1.19377 1.19129 1.19228 1.19176 1.19163 1.19214 1.19184 1.19189 1.19156 1.19152 1.19187 1.19196 1.19191 1.19181 1.19178 1.19178 1.19178 1.19178 1.19178 1.19178 1.19178 1.19178 1.19178 1.19178 1.19178 1.19178 1.19178 1.19178 1.19178 1.19178 1.19178 1.19178 1.19178 1.19178 1.19178 1.19178 1.19178 1.19178 1.19178 1.19178 1.19178 1.19178 1.19178 1.19178 1.19178 1.19178 1.19178 1.19178 1.19178 1.19178 1.19178 1.19178 1.19178 1.19178 1.19178 1.19178 1.19178 1.19154 1.19185 1.19169 1.19189 1.19226 1.19177 1.19205 1.19132 1.19274 1.19236 1.19194 1.19168 1.1912 1.19269 1.19213 1.19179 1.19156 1.19174 1.19179 1.1921 1.19178 1.19178 1.19178 1.19178 1.19178 1.19178 1.19178 1.19178 1.19178 1.19178 1.19177 1.19178 1.19178 1.19178 1.19178 1.19178 1.19178 1.19178 1.19178 1.19178 1.19178 1.19178 1.19178 1.19178 1.19178 1.19178 1.19178 1.19178 1.19178 1.19178 1.19178 1.19178 1.19178 1.19178 1.19178 1.19178 1.19178 1.19178 1.19178 1.19178 1.19177 1.19162 1.19193 1.19267 1.19181 1.19162 1.19205 1.19288 1.19198 1.19201 1.19114 1.19194 1.19142 1.19101 1.19284 1.19197 1.19164 1.1916 1.19178 1.19168 1.19161 1.19178 1.19178 1.19178 1.19178 1.19178 1.19178 1.19178 1.19178 1.19178 1.19178 1.19178 1.19178 1.19178 1.19178 1.19178 1.19178 1.19178 1.19178 1.19178 1.19178 1.19178 1.19178 1.19178 1.19178 1.19178 1.19178 1.19178 1.19178 1.19178 1.19178 1.19178 1.19178 1.19166 1.19193 1.1923 1.1918 1.19156 1.19158 1.19212 1.19154 1.19182 1.19199 1.19215 1.19158 1.19152 1.19101 1.19235 1.19243 1.19179 1.19198 1.19129 1.19158 1.19174 1.19163 1.19178 1.19178 1.19178 1.19178 1.19178 1.19178 1.19178 1.19178 1.19178 1.19178 1.19178 1.19178 1.19178 1.19178 1.19178 1.19178 1.19178 1.19178 1.19178 1.19178 1.19178 1.19129 1.19127 1.19154 1.19086 1.19213 1.19161 1.19156 1.19197 1.19162 1.19077 1.19125 1.19165 1.19142 1.19089 1.19135 1.18992 1.19224 1.19181 1.19154 1.19176 1.19124 1.19186 1.19184 1.19178 1.19178 1.19178 1.19178 1.19178 1.19178 1.19178 1.19178 1.19178 1.19178 1.19178 1.19178 1.19178 1.19178 1.19178 1.19178 1.19178 1.19178 1.19178 1.19178 1.19178 1.19178 1.19178 1.19037 1.19097 1.19077 1.19145 1.19165 1.1916 1.19113 1.19054 1.19139 1.19146 1.19241 1.18999 1.19186 1.19206 1.19178 1.19165 1.19189 1.1912 1.19111 1.19178 1.19178 1.19178 1.19178 1.19178 1.19178 1.19178 1.19178 1.19178 1.19178 1.19178 1.19178 1.19178 1.19178 1.19178 1.1921 1.19154 1.19056 1.19055 1.19027 1.19181 1.19163 1.19085 1.19089 1.19027 1.19081 1.19091 1.19165 1.19298 1.19142 1.18911 1.19178 1.19117 1.19179 1.19153 1.19178 1.19178 1.19178 1.19178 1.19178 1.19178 1.19178 1.19178 1.19178 1.19178 1.19178 1.19178 1.19178 1.19179 1.19198 1.1913 1.19112 1.19187 1.19148 1.19183 1.19162 1.19071 1.19165 1.1904 1.19101 1.19233 1.19131 1.19159 1.19163 1.1902 1.19178 1.19063 1.19178 1.19151 1.19135 1.19178 1.19178 1.19178 1.19178 1.19178 1.19178 1.19178 2.22334 2.30003 1.46862 1.19178 0.163702 0.0100698 0.0915724 0.0790507 0.190487 0.278534 0.0666823 0.0430191 0.0430945 0.086109 0.0687235 0.0555846 0.0588377 0.0390005 0.0337712 0.0464986 0.0441245 0.0277338 0.0379026 0.0409001 0.049105 0.0381757 0.00598322 0.0121147 0.0521377 0.0305731 0.0802886 0.101137 1.19178 0.0443124 0.0372708 0.017219 0.02639 0.0487264 0.153484 0.266525 0.398658 0.192834 0.148453 0.137143 0.0981128 0.121473 0.132093 0.589739 3.95492 1.19168 0.463914 0.0998346 0.274232 1.19129 1.19064 1.19173 1.19178 1.19178 1.19177 1.19082 1.19276 1.19178 1.19108 1.19284 1.19125 1.1911 1.19106 1.19189 1.18979 1.19178 0.0487005 0.0377289 0.110484 0.0405628 0.0871924 0.0699455 0.121401 0.103448 0.145455 1.19178 1.19178 0.257083 1.19178 0.473278 0.811703 2.42803 2.17524 0.567376 0.461807 1.19178 0.27897 0.244502 0.0760941 0.0493954 0.112539 0.0912972 0.0677505 0.0952218 1.19178 0.153484 0.12441 0.143351 0.180897 1.19178 0.260001 0.39083 0.297088 0.173028 0.144822 0.0939602 0.212856 0.136451 0.0786443 0.142048 0.130086 0.12721 0.14304 0.0430149 0.0384372 0.0153015 1.27177 0.778354 1.2336 0.605512 1.06304 0.201481 0.484422 0.962727 0.083917 0.319417 0.297933 0.123653 0.224552 0.152396 0.172073 0.0767375 0.256456 0.238148 0.295649 0.106596 0.225941 0.0766198 0.124142 0.159838 0.107811 0.0844321 0.0947292 0.0604356 0.0472285 0.0406154 0.0507363 0.0319196 0.0269053 0.0180718 0.0377423 0.0303995 0.0217428 0.023184 0.0161223 0.0434928 0.0419139 0.0365299 0.0432924 0.0560108 0.0621758 0.0545072 0.06775 0.0318473 0.0699426 0.0231708 0.0241741 0.0108208 0.00604471 0.00872148 0.0285581 0.0174022 0.0301276 0.0149012 0.0167657 0.0309714 0.0926595 0.0540595 0.121983 0.172503 0.0118742 0.123723 0.181434 0.0836611 0.126338 0.0649694 0.0636024 0.170844 0.196008 0.433161 0.519626 0.384833 0.756834 0.914423 1.65247 0.417619 1.75914 0.843856 0.866962 0.339857 0.20804 0.0502442 0.023766 1.19178 1.19148 1.19142 1.19155 1.19186 1.19189 1.19166 1.19112 1.19185 1.19158 1.19092 1.19083 1.19178 1.19131 1.19114 1.1917 1.19366 1.19175 1.19051 1.19256 1.18989 1.19204 0.029196 0.0314617 0.0204198 0.0375025 0.0124417 0.149085 0.0891777 0.0814068 0.0293612 0.110585 0.0938551 0.144354 0.105671 0.091007 0.141845 0.307322 0.100009 0.465076 0.736818 0.231192 0.264472 0.433818 1.67854 0.496075 0.0991425 0.557449 0.334451 0.309232 0.414224 0.336094 0.183677 0.24853 0.143142 0.159656 0.0693854 0.0403913 0.100945 0.0749401 0.105681 0.0159258 0.0953215 0.186159 0.0285886 0.0689548 0.122051 0.0688085 0.0573628 0.0509285 0.0821635 0.107985 0.306742 0.19989 0.323777 0.115616 0.15765 0.335612 0.133203 0.1613 0.157954 0.215942 0.0562496 0.0415648 0.0832782 0.0358321 0.167302 0.0779209 0.0779782 0.182978 0.0968992 0.138227 0.0696745 0.119366 0.0646791 0.141205 0.0199161 0.0707624 0.109921 0.0259524 0.0437339 1.14388 0.77303 0.701257 0.510674 0.708243 0.400203 0.38661 0.310781 0.3336 0.276726 0.296115 0.173831 0.165094 0.129281 0.131429 0.174122 0.164825 0.148924 0.134348 0.143295 0.12028 0.0968407 0.131329 0.109 0.0848367 0.0520184 0.061167 0.0622789 0.0376853 0.0371672 0.0442567 0.0295855 0.0227156 0.035552 0.0434859 0.0193738 0.0350485 0.0347556 0.018501 0.0419875 0.045147 0.0379602 0.0368039 0.0271221 0.0296778 0.0317737 0.0510443 0.04529 0.00821777 0.0160997 0.00634692 0.0338493 0.0489646 0.0359563 0.0352122 0.0403628 0.112695 0.0819776 0.101273 0.0537373 0.0945552 0.0443681 0.130732 0.172023 0.27408 0.1841 0.317255 0.431861 0.0741902 0.153462 0.0660533 1.19186 1.19149 1.19224 1.19262 1.1906 1.19118 1.19182 1.19078 1.18976 1.19156 1.18855 1.20008 1.18119 1.21611 1.17367 1.24043 1.19104 1.18936 1.19162 0.0490109 0.0383847 0.0822013 0.0495414 0.14676 0.131174 0.0559464 0.109909 0.194925 0.0891199 0.11745 0.109577 0.0242715 0.280465 0.117379 0.239299 0.401945 0.234636 0.276732 0.218688 0.233175 0.464069 0.807728 0.509507 0.433665 0.553085 0.474725 0.284459 0.290726 0.241116 0.150712 0.107327 0.126072 0.0435441 0.0657537 0.0714656 0.0716966 0.147147 0.149665 0.0982733 0.0464703 0.114209 0.0313349 0.223323 0.0811871 0.0534228 0.0521612 0.0927403 0.10668 0.0611718 0.0445691 0.137491 0.0823057 0.0528502 0.0183692 0.0974878 0.108893 0.0849854 0.0852265 0.0647336 0.0350474 0.137014 0.0672323 0.0182299 0.0436885 0.0425396 0.0646601 0.359348 0.506486 0.446785 0.348917 0.319034 0.124835 0.195096 0.213889 0.19376 0.285344 0.180753 0.142402 0.135207 0.149798 0.100122 0.131345 0.0875004 0.0765954 0.0689988 0.082127 0.0638792 0.0614312 0.0334619 0.0460184 0.0338896 0.0288019 0.0490366 0.0437377 0.0315323 0.0334868 0.0267428 0.0287623 0.0170095 0.0416667 0.0362011 0.0361175 0.0336949 0.0280825 0.0396342 0.0381833 0.0154497 0.0275918 0.0266151 0.0379201 0.0523843 0.0554897 0.0555523 0.0569183 0.0478847 0.0724994 0.0515283 0.068955 0.0559066 0.0698379 0.0646388 0.0941479 0.113592 0.197093 0.0864047 0.0350451 0.0274842 0.0143383 0.0454679 1.19136 1.18722 1.25624 1.07896 0.0510385 0.0922341 0.0710661 0.0579005 0.0572984 0.0953102 0.0950712 0.0960014 0.0788205 0.108539 0.0995442 0.135007 0.0754925 0.0396762 0.0600885 0.22803 0.2874 0.267588 0.390487 0.35626 0.384755 0.340038 0.380647 0.395162 0.192047 0.340506 0.312306 0.230017 0.19855 0.279071 0.113009 0.0919812 0.141746 0.0710122 0.0515854 0.0206702 0.0286088 0.0946306 0.164251 0.137062 0.0257231 0.0853257 0.0180562 0.0478777 0.0690118 0.051204 0.0452445 0.0496828 0.0707804 0.0709789 0.0417268 0.0537542 0.0967667 0.0403125 0.0557018 0.0692872 0.0935607 0.0146733 0.0721923 0.113657 0.0494543 0.047508 0.0775108 0.0570812 0.0319158 0.0301554 0.0554045 0.145771 0.3168 0.267524 0.209202 0.0907162 0.204678 0.183866 0.206192 0.157392 0.126803 0.130131 0.135838 0.105797 0.105591 0.079425 0.0704026 0.0559489 0.0601004 0.0560486 0.047343 0.0374726 0.0297065 0.0321576 0.0383179 0.0306238 0.0244867 0.0226384 0.0241232 0.0195555 0.0164958 0.018387 0.0365227 0.031639 0.0367048 0.0407858 0.0428841 0.0387806 0.05291 0.0661345 0.0669279 0.0761544 0.0645227 0.0615314 0.0438874 0.0458425 0.0390731 0.0276205 0.0623681 0.155593 0.066905 0.0577186 0.0513858 0.0577098 0.0446809 0.0313134 0.0298428 0.0196749 0.107492 0.0864323 0.0780243 0.097731 0.0875097 0.0691504 0.0836066 0.114156 0.120848 0.116726 0.11809 0.130701 0.0631935 0.109362 0.0707648 0.140727 0.18629 0.169296 0.233203 0.223426 0.331569 0.315307 0.261156 0.293981 0.316116 0.271196 0.215943 0.311207 0.268006 0.186239 0.23946 0.142789 0.0878176 0.0654444 0.0467261 0.0144629 0.0280929 0.0551235 0.101779 0.0330629 0.0180241 0.0504411 0.0216583 0.0202545 0.0259105 0.0438112 0.0866117 0.0930599 0.0961012 0.0782866 0.0775926 0.0608347 0.117789 0.0952143 0.0858463 0.0536251 0.107641 0.102627 0.0926772 0.0336113 0.0355427 0.0328353 0.0366727 0.0346304 0.079357 0.0289045 0.0542856 0.0621536 0.112126 0.158645 0.164801 0.138508 0.176524 0.134284 0.143932 0.122159 0.102152 0.095061 0.099657 0.0706772 0.065225 0.060034 0.0359223 0.0347134 0.0349665 0.0256425 0.0233987 0.0184379 0.0183478 0.0200572 0.00783693 0.0218508 0.0219786 0.0170341 0.0222752 0.0211419 0.0199827 0.0296046 0.0308546 0.027214 0.0297068 0.0312512 0.0469255 0.0531372 0.073158 0.0633774 0.0680201 0.0733262 0.0538674 0.0323463 0.0328762 0.028404 0.0275884 0.0265955 0.00618684 0.0174456 0.0333654 0.0360256 0.0366599 0.0219504 0.0336044 0.0448976 0.0891869 0.101627 0.102519 0.0974549 0.113864 0.0851493 0.0985435 0.0847378 0.108758 0.119165 0.134495 0.142039 0.161866 0.127736 0.136015 0.159288 0.237083 0.283068 0.26675 0.258552 0.238343 0.221105 0.19683 0.1685 0.1342 0.131688 0.055499 0.0991767 0.0165612 0.041929 0.0185643 0.0229191 0.0342845 0.0564169 0.0275702 0.0702057 0.0405926 0.0815324 0.103169 0.0691584 0.123525 0.0861152 0.098726 0.0794489 0.0882822 0.100458 0.123384 0.163054 0.092846 0.0223492 0.054784 0.031963 0.032321 0.0253888 0.0471269 0.0426602 0.0768234 0.158109 0.157525 0.171374 0.152386 0.15462 0.13225 0.112426 0.121056 0.108651 0.0824757 0.0966832 0.0981305 0.0683476 0.0612297 0.0410617 0.0496402 0.0302859 0.0345099 0.0199322 0.0144543 0.00576027 0.00657888 0.0122336 0.00639946 0.0216795 0.0239286 0.0281027 0.0293501 0.032712 0.0280733 0.0467789 0.0582203 0.0629763 0.0622063 0.063861 0.0681452 0.0610218 0.0591421 0.0372971 0.0371326 0.0335782 0.0128516 0.0103869 0.0101356 0.00796242 0.021815 0.00889245 0.00665321 0.0180335 0.0411641 0.0743143 0.106951 0.11721 0.116442 0.114581 0.086912 0.120714 0.10353 0.12963 0.125456 0.153034 0.192541 0.125759 0.136139 0.177717 0.240287 0.223611 0.185762 0.138225 0.181717 0.151042 0.185857 0.129359 0.151807 0.142964 0.117139 0.0909372 0.0406764 0.106041 0.00626971 0.0419037 0.022889 0.0401836 0.0377531 0.0587086 0.0628637 0.111834 0.0970664 0.105041 0.126083 0.140424 0.0973505 0.240305 0.218419 0.0905126 0.14401 0.0629611 0.122968 0.162797 0.184316 0.187553 0.172531 0.22717 0.088425 0.0594255 0.0878983 0.051493 0.0541117 0.0609735 0.0682398 0.119435 0.160759 0.178773 0.172796 0.179825 0.131663 0.127271 0.11499 0.10824 0.0989701 0.101087 0.0959233 0.0793962 0.100231 0.0880916 0.0962156 0.0862487 0.0574795 0.0460149 0.0714722 0.0293222 0.0453727 0.0449134 0.0897244 0.0226465 0.0143818 0.0136173 0.0174378 0.0354758 0.0345638 0.0342933 0.0283397 0.0284366 0.0327424 0.030921 0.04369 0.0457752 0.0531713 0.0563651 0.0563108 0.0629743 0.0642713 0.0585479 0.0745758 0.0450011 0.0537527 0.0430328 0.0484571 0.0516158 0.0544286 0.0333793 0.0180435 0.00283292 0.0271027 0.0226015 0.0291154 0.0300392 0.0255827 0.0516866 0.023783 0.0969603 0.0690488 0.111483 0.111267 0.111023 0.118671 0.122116 0.133357 0.138654 0.124296 0.140814 0.144391 0.199896 0.0874928 0.121165 0.158252 0.158921 0.178731 0.160172 0.173472 0.23157 0.217164 0.149789 0.102606 0.144501 0.141877 0.109804 0.113862 0.0969323 0.0898298 0.0792544 0.0648062 0.0464933 0.0554205 0.0782094 0.0894035 0.0998666 0.146596 0.051001 0.0968757 0.175509 0.229674 0.200442 0.11099 0.192904 0.258897 0.252063 0.178897 0.116231 0.178314 0.123598 0.0678348 0.0408868 0.0602918 0.0813489 0.134185 0.115104 0.135644 0.148467 0.157434 0.177044 0.139428 0.106198 0.118755 0.105326 0.108658 0.104069 0.107944 0.0945901 0.0906195 0.0803399 0.0629094 0.0489803 0.0374831 0.0289187 0.101776 0.0737012 0.0578545 0.0431066 0.0501264 0.0362931 0.0265042 0.0384573 0.0299247 0.0384781 0.0403734 0.0276648 0.0347902 0.0420647 0.0547879 0.057599 0.0643205 0.0611587 0.0656561 0.0609799 0.054613 0.0426195 0.0564877 0.0328833 0.0321185 0.00843081 0.0192036 0.00763857 0.0205075 0.0340381 0.0246126 0.0109165 0.0238584 0.0304496 0.0293274 0.0326857 0.0725028 0.117321 0.111617 0.130055 0.147903 0.156786 0.151463 0.144142 0.165039 0.166671 0.119698 0.127247 0.158849 0.152078 0.158796 0.172928 0.17139 0.183783 0.124703 0.11175 0.112013 0.0898049 0.0849011 0.0773632 0.0598818 0.0486776 0.0720807 0.0523848 0.034808 0.0880842 0.0875369 0.0252587 0.024429 0.0874877 0.128556 0.203331 0.159216 0.181272 0.17594 0.147661 0.105454 0.0911614 0.0916314 0.138916 0.104161 0.0601528 0.0614667 0.0398797 0.0879355 0.11151 0.130853 0.13397 0.127155 0.102377 0.119927 0.103665 0.103537 0.106504 0.106196 0.102813 0.0862501 0.0807077 0.0493657 0.0384217 0.0432498 0.0548464 0.0412204 0.047631 0.0480144 0.0494399 0.0438005 0.0461243 0.0463768 0.0519259 0.0393193 0.0318664 0.046979 0.0569487 0.0663042 0.068574 0.0616328 0.0639552 0.0632495 0.0608003 0.0499527 0.0619556 0.0596633 0.0362955 0.0229019 0.0044084 0.00855639 0.0187361 0.0375055 0.0296238 0.034741 0.0814539 0.109685 0.122665 0.122631 0.162404 0.154217 0.18122 0.178369 0.173514 0.160646 0.153724 0.160986 0.153658 0.164675 0.192892 0.147677 0.163243 0.165933 0.174487 0.144524 0.165444 0.131956 0.11586 0.10977 0.0776199 0.0848513 0.0641527 0.0300001 0.111259 0.0518813 0.0847348 0.0881176 0.0501682 0.0946625 0.111796 0.143044 0.216772 0.181614 0.118849 0.0824938 0.0350899 0.0384229 0.0658129 0.0576862 0.0683285 0.0535427 0.0824057 0.121416 0.115504 0.1282 0.12779 0.133907 0.128724 0.105477 0.105608 0.103834 0.106812 0.0988021 0.0904718 0.0777891 0.080921 0.0536846 0.0650601 0.0436226 0.0509252 0.0331069 0.0288263 0.0525564 0.0535351 0.0628146 0.04512 0.0392176 0.0482253 0.0483878 0.0522788 0.0575823 0.0526148 0.0402505 0.0517064 0.0551646 0.0550936 0.0695878 0.0678536 0.0605944 0.0587817 0.0587235 0.0596153 0.0626754 0.0630209 0.058944 0.0697166 0.0504862 0.0169465 0.0133962 0.0350901 0.0278334 0.0343726 0.0362172 0.09262 0.0891785 0.114311 0.113577 0.136774 0.171961 0.189328 0.181539 0.169866 0.167307 0.178645 0.173896 0.214413 0.176484 0.164086 0.195852 0.156939 0.133075 0.124922 0.11426 0.0951464 0.0631522 0.0227181 0.124707 0.140468 0.116183 0.0450409 0.0237185 0.0911866 0.13652 0.128583 0.192332 0.154083 0.0941198 0.0591508 0.0200274 0.0563637 0.0280917 0.0151646 0.086171 0.140053 0.129648 0.142231 0.140133 0.139881 0.114074 0.109861 0.122737 0.110913 0.114286 0.10915 0.0914189 0.0845728 0.0831407 0.0745769 0.0544532 0.047398 0.0381917 0.0248373 0.0402182 0.0403525 0.0567973 0.0252292 0.0252025 0.0495541 0.049621 0.0555643 0.0542595 0.0569852 0.0560944 0.063331 0.0643472 0.0676028 0.0506343 0.0523132 0.0439396 0.0571338 0.0700727 0.0582604 0.0661154 0.050875 0.04083 0.0304178 0.0485888 0.0328269 0.0480313 0.0358142 0.0408772 0.0457817 0.102671 0.0854938 0.105383 0.122491 0.165294 0.180846 0.201327 0.176865 0.181257 0.17829 0.193359 0.1976 0.189813 0.159841 0.205714 0.179309 0.182892 0.149253 0.199075 0.163 0.204236 0.153088 0.12967 0.124106 0.112161 0.123857 0.0937509 0.109992 0.135088 0.102441 0.0738682 0.0905884 0.144378 0.155681 0.161932 0.178138 0.236826 0.161478 0.0739568 0.0513171 0.018459 0.00682951 0.0560118 0.0956395 0.175614 0.208786 0.146424 0.126845 0.128624 0.108852 0.0828604 0.0574122 0.0291395 0.0110112 0.0550406 0.0592455 0.0588735 0.0714347 0.0686275 0.0764267 0.0687358 0.0693803 0.0437494 0.0642991 0.057703 0.0778264 0.0703334 0.0642635 0.058697 0.035249 0.0381979 0.101492 0.113615 0.166253 0.198497 0.181771 0.188255 0.20773 0.19152 0.182967 0.161973 0.2064 0.175574 0.166835 0.134508 0.197368 0.178088 0.123066 0.0953516 0.429678 0.160759 0.161336 0.152431 0.18092 0.110873 0.0452657 0.0493116 0.0299932 0.180262 0.127105 
SCALARS Stress float 1
LOOKUP_TABLE default
-12613700000.0 -12563900000.0 -12651900000.0 -12641900000.0 -12590800000.0 -12598100000.0 -12550600000.0 -12557000000.0 -12568600000.0 -12570000000.0 -12740800000.0 -12563400000.0 -12585400000.0 -12549700000.0 -12594400000.0 -12592700000.0 -12555400000.0 -12563800000.0 -12549700000.0 -12557500000.0 -12549700000.0 -12549700000.0 -12560500000.0 -12549700000.0 -12549700000.0 -12551400000.0 -12549700000.0 -12551300000.0 -12555100000.0 -12574300000.0 -12585600000.0 -12570700000.0 -12563900000.0 -12559000000.0 -12554700000.0 -12550800000.0 -12549700000.0 -12549700000.0 -12549700000.0 -12554800000.0 -12561200000.0 -12564600000.0 -12585500000.0 -12572900000.0 -12597500000.0 -12553600000.0 -12550100000.0 -12561200000.0 -12561500000.0 -12550600000.0 -12569500000.0 -12550400000.0 -12551200000.0 -12564800000.0 -12608000000.0 -12600400000.0 -12588700000.0 -12602500000.0 -12556800000.0 -12570400000.0 -12556300000.0 -12600600000.0 -12598000000.0 -12552900000.0 -12552400000.0 -12553300000.0 -12561800000.0 -12559900000.0 -12599100000.0 -12566800000.0 -12561100000.0 -12629000000.0 -12582100000.0 -12564600000.0 -12562800000.0 -12559100000.0 -12557500000.0 -12588700000.0 -12578300000.0 -12619300000.0 -12571300000.0 -12714300000.0 -12674700000.0 -12700300000.0 -12687300000.0 -12671500000.0 -12670100000.0 -12568000000.0 -12558900000.0 -12647400000.0 -12549700000.0 -12561500000.0 -12600800000.0 -12586600000.0 -12569200000.0 -12558700000.0 -12557600000.0 -12553700000.0 -12577400000.0 -12589500000.0 -12699800000.0 -12676800000.0 -12673800000.0 -12628100000.0 -12584500000.0 -12847200000.0 -13154800000.0 -12812100000.0 -12874800000.0 -13008800000.0 -13083900000.0 -12949700000.0 -12623100000.0 -12599300000.0 -12596800000.0 -12549700000.0 -12577600000.0 -12551200000.0 -12549700000.0 -12590000000.0 -12549700000.0 -12549700000.0 -12558800000.0 -12549700000.0 -12570000000.0 -12549700000.0 -12640600000.0 -12549700000.0 -12549700000.0 -12549700000.0 -12553600000.0 -12550300000.0 -12549700000.0 -12551100000.0 -12556800000.0 -12576500000.0 -12585000000.0 -12629400000.0 -12630200000.0 -12690400000.0 -12674300000.0 -12760900000.0 -12582000000.0 -12563400000.0 -12589400000.0 -12613300000.0 -12600200000.0 -12597000000.0 -12562200000.0 -12586900000.0 -12685300000.0 -12565200000.0 -12605300000.0 -12635600000.0 -12623100000.0 -12598500000.0 -12600000000.0 -12554000000.0 -12629900000.0 -12608500000.0 -12749600000.0 -12550100000.0 -12549700000.0 -12578000000.0 -12573100000.0 -12682500000.0 -12583100000.0 -12549700000.0 -12706400000.0 -12587600000.0 -12549700000.0 -12549700000.0 -12566800000.0 -12601600000.0 -12570400000.0 -12552400000.0 -12681100000.0 -12736700000.0 -12776900000.0 -12831700000.0 -12725800000.0 -12859800000.0 -12565800000.0 -12679800000.0 -12593100000.0 -12571100000.0 -12951100000.0 -12553200000.0 -12634000000.0 -12594100000.0 -12698900000.0 -12796900000.0 -12717500000.0 -12549700000.0 -12581200000.0 -12673100000.0 -12634300000.0 -12981800000.0 -12708600000.0 -12682600000.0 -12678400000.0 -12792500000.0 -12834300000.0 -12774700000.0 -12789100000.0 -12624300000.0 -12549700000.0 -12984500000.0 -12993600000.0 -12995600000.0 -12840200000.0 -12564700000.0 -12942600000.0 -12688800000.0 -12766800000.0 -12683600000.0 -12691800000.0 -12661000000.0 -12564800000.0 -12633700000.0 -12549800000.0 -12550900000.0 -12569400000.0 -12549700000.0 -12611200000.0 -12549700000.0 -12668300000.0 -12552600000.0 -12564400000.0 -12549700000.0 -12571600000.0 -12570900000.0 -12574600000.0 -12584600000.0 -12602200000.0 -12645200000.0 -12640600000.0 -12745400000.0 -12711100000.0 -12819600000.0 -12597900000.0 -12826300000.0 -12720500000.0 -12671300000.0 -12733000000.0 -12550700000.0 -12556700000.0 -12680400000.0 -12549700000.0 -12608400000.0 -12745700000.0 -12570800000.0 -12558700000.0 -12554900000.0 -12795200000.0 -12695900000.0 -12602500000.0 -12569800000.0 -12698700000.0 -13086000000.0 -12692500000.0 -12665000000.0 -12641400000.0 -12757800000.0 -12772600000.0 -13147100000.0 -12987100000.0 -13007700000.0 -13007800000.0 -12685900000.0 -12765300000.0 -12819400000.0 -12833800000.0 -12764200000.0 -12822100000.0 -12733900000.0 -12751100000.0 -12606300000.0 -12867100000.0 -13529500000.0 -13373900000.0 -13655100000.0 -12611200000.0 -12651200000.0 -12598300000.0 -13468800000.0 -13097100000.0 -13045200000.0 -12788400000.0 -12775000000.0 -13075000000.0 -12833400000.0 -12768200000.0 -12648600000.0 -13006500000.0 -12561700000.0 -12627200000.0 -12578000000.0 -12709800000.0 -12596400000.0 -12849400000.0 -12812900000.0 -12808600000.0 -12803300000.0 -12549700000.0 -13305200000.0 -12590800000.0 -12640400000.0 -12790600000.0 -13250200000.0 -12760400000.0 -12980800000.0 -13061600000.0 -12611500000.0 -12761000000.0 -12549700000.0 -12596700000.0 -12710600000.0 -12639900000.0 -12648900000.0 -12676600000.0 -12616100000.0 -12638400000.0 -12614100000.0 -12738500000.0 -12652900000.0 -12760100000.0 -12608900000.0 -12590700000.0 -12577200000.0 -12549700000.0 -12552600000.0 -12560900000.0 -12567800000.0 -12555100000.0 -12602200000.0 -12685700000.0 -12735100000.0 -12645900000.0 -13027200000.0 -12949300000.0 -13024500000.0 -12963900000.0 -12981500000.0 -13128900000.0 -13130800000.0 -12908100000.0 -12820600000.0 -12762400000.0 -13052200000.0 -12615600000.0 -12566000000.0 -12745900000.0 -12635000000.0 -12835800000.0 -12561000000.0 -12796100000.0 -12610400000.0 -12978600000.0 -12928700000.0 -13590900000.0 -12682300000.0 -12638100000.0 -12750000000.0 -12646000000.0 -13100000000.0 -12549700000.0 -12549700000.0 -12818200000.0 -12549700000.0 -13102900000.0 -13092400000.0 -12943000000.0 -12900700000.0 -12773200000.0 -13362300000.0 -13297600000.0 -13247500000.0 -13328700000.0 -12705300000.0 -13198100000.0 -13912200000.0 -13786300000.0 -13693600000.0 -13940700000.0 -12578600000.0 -12562900000.0 -13045400000.0 -13050300000.0 -13208900000.0 -12948500000.0 -13186100000.0 -12822300000.0 -12717700000.0 -13805700000.0 -13123600000.0 -12730400000.0 -12996900000.0 -13185600000.0 -13238600000.0 -13513100000.0 -12745400000.0 -12581900000.0 -12572900000.0 -12721400000.0 -12574000000.0 -13817700000.0 -13432800000.0 -13042200000.0 -13707100000.0 -12757600000.0 -12870600000.0 -12635900000.0 -13072000000.0 -12844300000.0 -12893700000.0 -12600000000.0 -12592100000.0 -12857000000.0 -12763800000.0 -12615500000.0 -12859000000.0 -12707400000.0 -12592100000.0 -12603600000.0 -12555400000.0 -12693100000.0 -12552700000.0 -12717700000.0 -12786700000.0 -12663000000.0 -12611900000.0 -12625800000.0 -12597200000.0 -12557100000.0 -12636400000.0 -12589300000.0 -12885700000.0 -12789800000.0 -12672200000.0 -12594900000.0 -13100100000.0 -13436100000.0 -13218900000.0 -12606700000.0 -12847800000.0 -12642500000.0 -12626000000.0 -12644900000.0 -12966300000.0 -12616800000.0 -12768100000.0 -13041400000.0 -13585200000.0 -13418600000.0 -12653500000.0 -12958900000.0 -12606500000.0 -13007100000.0 -13316800000.0 -12641200000.0 -13852700000.0 -12896600000.0 -12707800000.0 -13017300000.0 -12656400000.0 -13371000000.0 -12549700000.0 -12560000000.0 -12592600000.0 -12970500000.0 -13828900000.0 -12607900000.0 -12569000000.0 -13164300000.0 -13117600000.0 -12589700000.0 -12689900000.0 -13283600000.0 -13520200000.0 -13095600000.0 -13469400000.0 -13561200000.0 -12646500000.0 -13026400000.0 -13118400000.0 -13122100000.0 -13905800000.0 -13505700000.0 -13518400000.0 -12578200000.0 -12552500000.0 -13116300000.0 -12572900000.0 -14039000000.0 -13797300000.0 -13927200000.0 -14001800000.0 -13263700000.0 -13421400000.0 -13211800000.0 -12598300000.0 -12701900000.0 -12562100000.0 -13465100000.0 -13067200000.0 -12920000000.0 -12973500000.0 -13577000000.0 -12549700000.0 -13577300000.0 -12625900000.0 -13842200000.0 -13883400000.0 -13219500000.0 -13262000000.0 -13193900000.0 -13064800000.0 -12828200000.0 -12958900000.0 -12597900000.0 -12586800000.0 -13216600000.0 -13317900000.0 -13221100000.0 -13180900000.0 -13173100000.0 -13131700000.0 -13054400000.0 -13389400000.0 -13221700000.0 -13201600000.0 -13297900000.0 -13399000000.0 -13050200000.0 -13063100000.0 -12910400000.0 -13010600000.0 -12550700000.0 -12605800000.0 -12678200000.0 -12560800000.0 -13736900000.0 -12652400000.0 -12600900000.0 -12731600000.0 -12906600000.0 -12848100000.0 -12554300000.0 -12595300000.0 -12554800000.0 -13046500000.0 -12951200000.0 -12637300000.0 -12800800000.0 -13539000000.0 -13510500000.0 -13593900000.0 -12604500000.0 -14235000000.0 -13170300000.0 -14131300000.0 -12961400000.0 -13078900000.0 -13689600000.0 -13259800000.0 -12652400000.0 -13044000000.0 -13277000000.0 -13478300000.0 -13662600000.0 -15063000000.0 -13657200000.0 -13746500000.0 -13432300000.0 -12969900000.0 -12970300000.0 -12840800000.0 -14812300000.0 -13394400000.0 -13447700000.0 -12904300000.0 -13766300000.0 -12727100000.0 -13223800000.0 -15134500000.0 -13002400000.0 -12945000000.0 -12664500000.0 -13433500000.0 -13251500000.0 -14721700000.0 -12824800000.0 -12861100000.0 -13544600000.0 -13125900000.0 -12951900000.0 -13077000000.0 -12549700000.0 -12903300000.0 -12709900000.0 -12658200000.0 -13775800000.0 -13189000000.0 -13104900000.0 -13150800000.0 -14582200000.0 -15882000000.0 -13272300000.0 -14834200000.0 -13306700000.0 -13145300000.0 -13295100000.0 -12775000000.0 -13765400000.0 -12667000000.0 -12874800000.0 -12645400000.0 -12632600000.0 -13609700000.0 -12772600000.0 -12551200000.0 -12561400000.0 -12825000000.0 -12802100000.0 -12672300000.0 -12964900000.0 -12709100000.0 -12617100000.0 -12767000000.0 -12553600000.0 -12573300000.0 -12966400000.0 -12880400000.0 -12994700000.0 -13101900000.0 -13073700000.0 -13408200000.0 -13297800000.0 -12875100000.0 -12966600000.0 -13235600000.0 -12784000000.0 -12677900000.0 -12684800000.0 -12767900000.0 -12579900000.0 -12908500000.0 -12725000000.0 -12737500000.0 -13197400000.0 -13182700000.0 -12889700000.0 -13009300000.0 -13031800000.0 -12627100000.0 -13071600000.0 -13138000000.0 -13660500000.0 -13333600000.0 -14404200000.0 -13387800000.0 -13034200000.0 -13422600000.0 -13003500000.0 -13064200000.0 -13097500000.0 -12932100000.0 -12549700000.0 -12564100000.0 -12758100000.0 -14517600000.0 -12999500000.0 -12946600000.0 -14231900000.0 -14386000000.0 -14383600000.0 -12564200000.0 -14325200000.0 -14105100000.0 -14004300000.0 -14522700000.0 -14783900000.0 -14917200000.0 -15335200000.0 -14644100000.0 -15406600000.0 -13936100000.0 -13750600000.0 -13773100000.0 -14859100000.0 -13003900000.0 -13002900000.0 -13284700000.0 -13133700000.0 -13165900000.0 -13064700000.0 -13340900000.0 -12607800000.0 -13075600000.0 -12549700000.0 -13732300000.0 -12598100000.0 -12600700000.0 -12564200000.0 -12971900000.0 -12549700000.0 -12549700000.0 -15648400000.0 -15702000000.0 -15547700000.0 -14284800000.0 -14208300000.0 -12687900000.0 -13924200000.0 -14191300000.0 -14044000000.0 -14273300000.0 -13520700000.0 -13517600000.0 -13338400000.0 -13290200000.0 -13139400000.0 -12916500000.0 -12670200000.0 -13105500000.0 -12671900000.0 -12831100000.0 -12910800000.0 -12946900000.0 -12751800000.0 -12552600000.0 -12724000000.0 -12592200000.0 -12804300000.0 -12644400000.0 -13185100000.0 -13027400000.0 -13499200000.0 -12744200000.0 -12713700000.0 -12755600000.0 -12924800000.0 -12760600000.0 -12837400000.0 -12644400000.0 -12989400000.0 -12687400000.0 -12792700000.0 -12730000000.0 -12754900000.0 -12652800000.0 -12726400000.0 -12926500000.0 -13097500000.0 -14088500000.0 -14527600000.0 -14146400000.0 -15069800000.0 -14439300000.0 -13038100000.0 -13051400000.0 -12677600000.0 -12923100000.0 -12667900000.0 -12549700000.0 -12801000000.0 -12713200000.0 -15180200000.0 -12884300000.0 -13050400000.0 -13242500000.0 -12549700000.0 -13330500000.0 -13046600000.0 -13552200000.0 -13023900000.0 -13216300000.0 -13850100000.0 -13353900000.0 -14542800000.0 -13336700000.0 -13109300000.0 -13970000000.0 -13215800000.0 -14074500000.0 -13202900000.0 -15914800000.0 -12601200000.0 -12625300000.0 -13286400000.0 -13903900000.0 -12987600000.0 -12885000000.0 -13586100000.0 -13201300000.0 -12999400000.0 -13362200000.0 -13965200000.0 -12551900000.0 -12635200000.0 -12793400000.0 -12556200000.0 -13109300000.0 -12549700000.0 -14966900000.0 -15051800000.0 -13269700000.0 -12948600000.0 -12663700000.0 -12766300000.0 -14113300000.0 -12549700000.0 -13244100000.0 -13201800000.0 -13204400000.0 -13110400000.0 -12591200000.0 -12621900000.0 -12744600000.0 -12669600000.0 -12874400000.0 -12905400000.0 -13097900000.0 -12571900000.0 -12991900000.0 -12909500000.0 -12619900000.0 -12755000000.0 -13104800000.0 -13079200000.0 -13025200000.0 -13029600000.0 -13241600000.0 -13588700000.0 -13128400000.0 -13331000000.0 -13568000000.0 -13093600000.0 -13165000000.0 -13636700000.0 -13911700000.0 -13827600000.0 -13635700000.0 -13463600000.0 -13688600000.0 -13669300000.0 -13857600000.0 -13944200000.0 -13529700000.0 -13865100000.0 -14719900000.0 -12549700000.0 -13624800000.0 -13609400000.0 -14636100000.0 -12691900000.0 -14301800000.0 -14235300000.0 -12603800000.0 -14280400000.0 -13883900000.0 -13620300000.0 -13668300000.0 -14079000000.0 -13913600000.0 -12586600000.0 -12771000000.0 -12887200000.0 -13057700000.0 -12559000000.0 -13544900000.0 -13272300000.0 -13922300000.0 -12968600000.0 -13643000000.0 -12847900000.0 -12549700000.0 -13293800000.0 -14036500000.0 -13715600000.0 -12967100000.0 -13356300000.0 -13902900000.0 -13443800000.0 -13745900000.0 -16304500000.0 -12549700000.0 -16994300000.0 -13848000000.0 -13898700000.0 -13263300000.0 -12558100000.0 -12610200000.0 -13885900000.0 -13059500000.0 -12562500000.0 -13754200000.0 -13085900000.0 -13302000000.0 -12669000000.0 -13398300000.0 -14417600000.0 -12962600000.0 -13018000000.0 -12569700000.0 -14586400000.0 -13746100000.0 -12639000000.0 -12603400000.0 -12834300000.0 -14141400000.0 -13077300000.0 -12947100000.0 -12562900000.0 -12556400000.0 -12703200000.0 -12865500000.0 -12622300000.0 -12575300000.0 -12549700000.0 -12906400000.0 -13004200000.0 -13064200000.0 -12901400000.0 -12567700000.0 -12889400000.0 -12710800000.0 -12972000000.0 -12928600000.0 -12552100000.0 -12606400000.0 -12683300000.0 -12663100000.0 -12550100000.0 -13175300000.0 -13299500000.0 -12550300000.0 -13293500000.0 -12605900000.0 -13209500000.0 -12549700000.0 -12550300000.0 -13002200000.0 -12560000000.0 -13295500000.0 -12549700000.0 -12551400000.0 -12614300000.0 -13229900000.0 -13249600000.0 -13551700000.0 -14524800000.0 -12549700000.0 -13559000000.0 -13633200000.0 -12614200000.0 -12766300000.0 -14488600000.0 -13502500000.0 -13478000000.0 -14827200000.0 -12941100000.0 -12657800000.0 -13041100000.0 -13558700000.0 -12680800000.0 -13283300000.0 -12624500000.0 -14043000000.0 -12834100000.0 -13461300000.0 -12976800000.0 -13483200000.0 -14241600000.0 -13928000000.0 -15766600000.0 -15075900000.0 -15016100000.0 -14895600000.0 -14744100000.0 -15217100000.0 -15054700000.0 -15043700000.0 -15564200000.0 -15619300000.0 -16730100000.0 -13363500000.0 -17752400000.0 -15343000000.0 -14627200000.0 -14180500000.0 -13278300000.0 -12702700000.0 -13863900000.0 -13030300000.0 -12983100000.0 -12883700000.0 -13718200000.0 -12553500000.0 -13249000000.0 -13508700000.0 -12721500000.0 -12739900000.0 -13125300000.0 -12741500000.0 -12683100000.0 -14894800000.0 -13932700000.0 -12567300000.0 -13728600000.0 -12856000000.0 -12936500000.0 -14005300000.0 -12549700000.0 -12988000000.0 -12644300000.0 -12682200000.0 -12607000000.0 -12564700000.0 -13010200000.0 -12960600000.0 -12745200000.0 -12739900000.0 -12949800000.0 -12682000000.0 -13396400000.0 -12821300000.0 -12657300000.0 -12966400000.0 -12817400000.0 -12695900000.0 -12861000000.0 -12556000000.0 -12711200000.0 -12706500000.0 -12565000000.0 -12744500000.0 -12596400000.0 -12704000000.0 -12551600000.0 -13514900000.0 -12560800000.0 -13029700000.0 -12952600000.0 -13272100000.0 -13435800000.0 -12559200000.0 -12572800000.0 -13022500000.0 -13006100000.0 -13675200000.0 -12626200000.0 -12645700000.0 -12879300000.0 -12837500000.0 -13100100000.0 -12861300000.0 -13305500000.0 -12942300000.0 -14942000000.0 -12968800000.0 -14312100000.0 -14480300000.0 -14296600000.0 -15668100000.0 -16908000000.0 -15438600000.0 -15761600000.0 -15320600000.0 -14119200000.0 -13415400000.0 -12772100000.0 -13473400000.0 -13470500000.0 -13370800000.0 -15015700000.0 -14421700000.0 -12875800000.0 -13247100000.0 -14727300000.0 -13494400000.0 -12772000000.0 -12549700000.0 -14596200000.0 -13489600000.0 -13137500000.0 -13259300000.0 -12683000000.0 -13997300000.0 -13645000000.0 -12823200000.0 -14313800000.0 -12768200000.0 -12599100000.0 -15292500000.0 -14987000000.0 -14989300000.0 -14552900000.0 -12549700000.0 -14114800000.0 -12549700000.0 -14628000000.0 -16829600000.0 -13564400000.0 -12595500000.0 -12561600000.0 -13642700000.0 -12701900000.0 -13034400000.0 -12710700000.0 -13745800000.0 -15257600000.0 -12639300000.0 -13234600000.0 -13019700000.0 -13201200000.0 -14485300000.0 -13821000000.0 -12562800000.0 -14064600000.0 -14323700000.0 -13194700000.0 -13344800000.0 -13307100000.0 -13560600000.0 -13317100000.0 -13266900000.0 -13341900000.0 -12779300000.0 -12852500000.0 -13142200000.0 -13449800000.0 -12585900000.0 -13640600000.0 -13009900000.0 -13053900000.0 -13330300000.0 -13129000000.0 -13179500000.0 -13167200000.0 -13185000000.0 -12549700000.0 -13556800000.0 -12589300000.0 -13644400000.0 -12602000000.0 -12785700000.0 -12785600000.0 -13374800000.0 -13465800000.0 -12998900000.0 -13227200000.0 -12818300000.0 -12593100000.0 -13634700000.0 -12549700000.0 -12556600000.0 -13586000000.0 -13517700000.0 -13139800000.0 -14640200000.0 -12549700000.0 -12549700000.0 -14779400000.0 -16899700000.0 -14426400000.0 -12711300000.0 -14579500000.0 -14206700000.0 -13809800000.0 -13941100000.0 -14146600000.0 -13085200000.0 -12989300000.0 -12798500000.0 -13732500000.0 -12549700000.0 -14384800000.0 -15107900000.0 -14531200000.0 -12862500000.0 -14535800000.0 -15659200000.0 -16387800000.0 -13552100000.0 -13704900000.0 -13970300000.0 -12654300000.0 -15193900000.0 -13007100000.0 -13262100000.0 -14074800000.0 -12965400000.0 -13140200000.0 -13010600000.0 -12699900000.0 -15883800000.0 -13092000000.0 -15676300000.0 -14188800000.0 -14976300000.0 -15426800000.0 -17148900000.0 -12970700000.0 -16555100000.0 -16275700000.0 -16862200000.0 -16605300000.0 -16867200000.0 -16626500000.0 -13653000000.0 -14195100000.0 -15605200000.0 -15402800000.0 -15766700000.0 -16918200000.0 -14345600000.0 -14897400000.0 -13010400000.0 -13278200000.0 -12914800000.0 -12841200000.0 -12803100000.0 -12872000000.0 -12628600000.0 -12627000000.0 -12664500000.0 -13310100000.0 -13089000000.0 -13019400000.0 -13049300000.0 -14167400000.0 -12675600000.0 -12869100000.0 -12978600000.0 -12549700000.0 -12773700000.0 -12630300000.0 -13582100000.0 -13579300000.0 -12614100000.0 -13854400000.0 -13630700000.0 -13268800000.0 -13345100000.0 -13268000000.0 -13430400000.0 -12590000000.0 -13717400000.0 -13110100000.0 -12705700000.0 -12934600000.0 -12916500000.0 -12995400000.0 -13333400000.0 -13841600000.0 -13627800000.0 -14708300000.0 -13186700000.0 -13514000000.0 -14808300000.0 -12549700000.0 -16841200000.0 -15295200000.0 -14198600000.0 -16475300000.0 -14796700000.0 -15426500000.0 -12972000000.0 -12880700000.0 -12991400000.0 -14643600000.0 -13890100000.0 -13773200000.0 -13084400000.0 -15723100000.0 -12940000000.0 -12572000000.0 -14183700000.0 -13117400000.0 -14181600000.0 -12559100000.0 -12550900000.0 -13858000000.0 -14519100000.0 -16767700000.0 -14478400000.0 -13978500000.0 -12922800000.0 -13704900000.0 -12851400000.0 -13118100000.0 -12857400000.0 -12836900000.0 -16160000000.0 -13856500000.0 -14936900000.0 -12819500000.0 -12681300000.0 -13483500000.0 -12597000000.0 -13308800000.0 -13052500000.0 -12759400000.0 -12616000000.0 -13389700000.0 -14068600000.0 -14141400000.0 -13614000000.0 -13808100000.0 -13952100000.0 -12862900000.0 -12560700000.0 -12562400000.0 -12610400000.0 -12549700000.0 -15239000000.0 -12595300000.0 -12918100000.0 -12977400000.0 -13029900000.0 -12982500000.0 -12653400000.0 -12796900000.0 -12601100000.0 -12572100000.0 -12916900000.0 -12955300000.0 -12665800000.0 -12694800000.0 -12673600000.0 -12784800000.0 -12887800000.0 -12549700000.0 -13686400000.0 -13451200000.0 -13237600000.0 -13576400000.0 -13398400000.0 -13340900000.0 -13487100000.0 -12881700000.0 -12972500000.0 -13129800000.0 -12859800000.0 -13079300000.0 -12761800000.0 -12563200000.0 -13699600000.0 -12686200000.0 -12566400000.0 -12580900000.0 -12781900000.0 -12899200000.0 -12609600000.0 -12779600000.0 -14179900000.0 -12549700000.0 -13082400000.0 -13066600000.0 -12568300000.0 -14733100000.0 -12874300000.0 -16282900000.0 -12844300000.0 -12799300000.0 -15122900000.0 -15722000000.0 -17333300000.0 -17013200000.0 -12604100000.0 -12614000000.0 -17690700000.0 -14860900000.0 -13581800000.0 -13526100000.0 -12606100000.0 -13255800000.0 -12672500000.0 -12790900000.0 -13181900000.0 -12679400000.0 -12802000000.0 -15408600000.0 -13026400000.0 -13799600000.0 -14947600000.0 -13778400000.0 -14235800000.0 -12755800000.0 -15403900000.0 -14680800000.0 -13643900000.0 -13917900000.0 -14092500000.0 -13610100000.0 -14805600000.0 -13242900000.0 -12572100000.0 -13283900000.0 -12650100000.0 -13719500000.0 -14566400000.0 -13506200000.0 -15060800000.0 -14444000000.0 -14929900000.0 -14220500000.0 -14052400000.0 -13202100000.0 -15191100000.0 -14374300000.0 -13829100000.0 -13322100000.0 -12945000000.0 -12839500000.0 -12594200000.0 -12563400000.0 -12604300000.0 -12564700000.0 -13013200000.0 -15406400000.0 -14335800000.0 -14314500000.0 -13142000000.0 -12821700000.0 -12802300000.0 -13385600000.0 -13096700000.0 -12747800000.0 -12720300000.0 -13118400000.0 -12580100000.0 -12624300000.0 -12556700000.0 -12679900000.0 -12796100000.0 -12663700000.0 -13423200000.0 -12634200000.0 -12593900000.0 -12747200000.0 -12560400000.0 -12746500000.0 -12564100000.0 -12554700000.0 -13123200000.0 -12849200000.0 -13843900000.0 -14550700000.0 -13006100000.0 -12610000000.0 -13584700000.0 -12891300000.0 -13122400000.0 -12670900000.0 -12585100000.0 -14371200000.0 -12716800000.0 -13016500000.0 -14405600000.0 -14380800000.0 -14074700000.0 -15621100000.0 -12850200000.0 -15615100000.0 -13164800000.0 -16200100000.0 -18372000000.0 -16139500000.0 -18044700000.0 -12702400000.0 -12565300000.0 -15849800000.0 -17078200000.0 -12651300000.0 -12613800000.0 -12868200000.0 -14245200000.0 -12816100000.0 -12687700000.0 -12961200000.0 -12939500000.0 -13385600000.0 -16112300000.0 -15986900000.0 -14183100000.0 -16073200000.0 -13692600000.0 -13412300000.0 -13321500000.0 -14899400000.0 -12767500000.0 -12691200000.0 -13136500000.0 -12556600000.0 -13155000000.0 -14179800000.0 -12574300000.0 -13506800000.0 -14744200000.0 -12977300000.0 -13026300000.0 -13440900000.0 -14000900000.0 -13810600000.0 -15380200000.0 -13569000000.0 -14602000000.0 -13056600000.0 -13865700000.0 -14709900000.0 -14937500000.0 -12549700000.0 -13737000000.0 -12931500000.0 -13983600000.0 -13451300000.0 -13594300000.0 -13887300000.0 -12784000000.0 -12609000000.0 -12649500000.0 -12653900000.0 -12666500000.0 -12927100000.0 -14612300000.0 -14112300000.0 -12935400000.0 -12549700000.0 -13265600000.0 -13065900000.0 -12870300000.0 -12988400000.0 -13006800000.0 -13036800000.0 -13075300000.0 -13078800000.0 -12846900000.0 -12803800000.0 -13555700000.0 -12549700000.0 -12883800000.0 -12594100000.0 -12553700000.0 -12782400000.0 -13206300000.0 -12706600000.0 -12549700000.0 -12994300000.0 -12960700000.0 -12840700000.0 -12789800000.0 -13532000000.0 -13378700000.0 -13007800000.0 -13032500000.0 -13456900000.0 -13704400000.0 -12814900000.0 -12928200000.0 -12865900000.0 -13267100000.0 -12800300000.0 -12632200000.0 -14862900000.0 -13233700000.0 -12619500000.0 -13589700000.0 -12589100000.0 -14463700000.0 -13641500000.0 -13925100000.0 -13119400000.0 -22577200000.0 -14812800000.0 -12559500000.0 -12553000000.0 -14899300000.0 -17027500000.0 -12591900000.0 -13079900000.0 -14833100000.0 -13283200000.0 -13916100000.0 -12623400000.0 -16601800000.0 -13790700000.0 -12549700000.0 -12657900000.0 -13873300000.0 -12564500000.0 -13140400000.0 -13202900000.0 -13505900000.0 -14903700000.0 -12718400000.0 -12682400000.0 -13383000000.0 -14309900000.0 -13842100000.0 -13132100000.0 -12857800000.0 -14576100000.0 -13678500000.0 -13499800000.0 -14306800000.0 -13344200000.0 -13670400000.0 -14579300000.0 -13832400000.0 -14400000000.0 -12572600000.0 -12561200000.0 -12810400000.0 -13612100000.0 -12549700000.0 -13147500000.0 -13195400000.0 -13645300000.0 -12736100000.0 -13585800000.0 -12735500000.0 -12602900000.0 -12671300000.0 -12563300000.0 -12581100000.0 -12781600000.0 -13545600000.0 -13385800000.0 -13799300000.0 -12553300000.0 -13228100000.0 -12823900000.0 -12696900000.0 -12818000000.0 -12616500000.0 -12756600000.0 -12822000000.0 -12630000000.0 -12647300000.0 -12841100000.0 -12693600000.0 -12581400000.0 -13183500000.0 -13149000000.0 -13135100000.0 -13338100000.0 -13451100000.0 -12682500000.0 -12707600000.0 -12690300000.0 -12877200000.0 -13368700000.0 -13303900000.0 -13796700000.0 -13410400000.0 -13092300000.0 -13133500000.0 -12795000000.0 -12549700000.0 -13490200000.0 -15516100000.0 -13930800000.0 -13893600000.0 -14378900000.0 -12992100000.0 -14164900000.0 -14448700000.0 -13781200000.0 -14927200000.0 -16043200000.0 -15888800000.0 -14774900000.0 -14902600000.0 -20336000000.0 -13641200000.0 -16974000000.0 -13287100000.0 -17097400000.0 -14660300000.0 -13497500000.0 -13624700000.0 -14070600000.0 -13550200000.0 -13615700000.0 -13159900000.0 -14358900000.0 -13121400000.0 -13004000000.0 -14146100000.0 -13758400000.0 -12549700000.0 -12555300000.0 -13478900000.0 -13143000000.0 -14353900000.0 -13658800000.0 -13312400000.0 -14147500000.0 -12599400000.0 -12553500000.0 -14547200000.0 -13309500000.0 -13627300000.0 -13815800000.0 -14666300000.0 -14461100000.0 -14757100000.0 -14487200000.0 -12778000000.0 -14614200000.0 -12653900000.0 -13442300000.0 -13844800000.0 -12685700000.0 -12602400000.0 -12650900000.0 -12631500000.0 -12627200000.0 -12656400000.0 -12569400000.0 -12713800000.0 -12575200000.0 -13370400000.0 -13605800000.0 -12929600000.0 -12895400000.0 -12708800000.0 -12670300000.0 -12771500000.0 -12652500000.0 -12693500000.0 -12918900000.0 -12832100000.0 -12836700000.0 -12919100000.0 -12941900000.0 -12647800000.0 -12606100000.0 -12550800000.0 -12570700000.0 -12657700000.0 -12651400000.0 -13398800000.0 -13324300000.0 -13157900000.0 -13992500000.0 -12549700000.0 -13217600000.0 -13394500000.0 -13718600000.0 -13234000000.0 -12814800000.0 -12787600000.0 -14031000000.0 -13789800000.0 -14055700000.0 -12549700000.0 -13222200000.0 -15888900000.0 -13473000000.0 -12586500000.0 -12556600000.0 -13231200000.0 -13051500000.0 -12556000000.0 -14663600000.0 -14918000000.0 -13958400000.0 -24776600000.0 -12607800000.0 -16856700000.0 -17971300000.0 -14664800000.0 -15482600000.0 -14815500000.0 -15294600000.0 -17310800000.0 -12572700000.0 -14278600000.0 -14757200000.0 -12747300000.0 -12767800000.0 -12992700000.0 -12549700000.0 -14582900000.0 -13160200000.0 -12679600000.0 -13129000000.0 -13312300000.0 -13638100000.0 -13806300000.0 -12969100000.0 -12620900000.0 -12549700000.0 -12556700000.0 -12571200000.0 -12739400000.0 -13024600000.0 -13436800000.0 -13659400000.0 -13264600000.0 -12940100000.0 -13773400000.0 -13124600000.0 -13736200000.0 -12897700000.0 -12796700000.0 -12583500000.0 -13109100000.0 -12917100000.0 -12995600000.0 -12577900000.0 -13303900000.0 -14757400000.0 -14908500000.0 -15543500000.0 -12619500000.0 -12601200000.0 -12549700000.0 -12549700000.0 -12632600000.0 -12571000000.0 -12564500000.0 -12564000000.0 -12584000000.0 -12681700000.0 -13074200000.0 -12890400000.0 -13227100000.0 -12592200000.0 -13208200000.0 -12926000000.0 -12588200000.0 -12588800000.0 -12664300000.0 -12604600000.0 -12656400000.0 -12579200000.0 -12604400000.0 -12575000000.0 -12601500000.0 -12599100000.0 -12647000000.0 -12713300000.0 -12566400000.0 -12554600000.0 -12556100000.0 -12549700000.0 -12556000000.0 -12931000000.0 -12989000000.0 -12559500000.0 -12593400000.0 -13259700000.0 -13422300000.0 -14077200000.0 -14407600000.0 -15556500000.0 -12923100000.0 -14887100000.0 -13065300000.0 -14753700000.0 -15355900000.0 -15188900000.0 -14817200000.0 -13896700000.0 -13080500000.0 -14368400000.0 -13200700000.0 -17242900000.0 -15856200000.0 -16753000000.0 -20583400000.0 -17759600000.0 -18287200000.0 -19274900000.0 -12841100000.0 -14531300000.0 -15770200000.0 -16421200000.0 -16390400000.0 -13917500000.0 -15745900000.0 -17442600000.0 -15037200000.0 -15608700000.0 -13210000000.0 -14428000000.0 -14506800000.0 -12752600000.0 -12799600000.0 -12843500000.0 -12975100000.0 -13083800000.0 -13076900000.0 -12550800000.0 -12549700000.0 -12921600000.0 -12705700000.0 -13000200000.0 -12728100000.0 -12675100000.0 -13095300000.0 -12593100000.0 -13701900000.0 -12746500000.0 -13409700000.0 -12549700000.0 -13435200000.0 -13239000000.0 -12905700000.0 -13135000000.0 -12890400000.0 -12711000000.0 -13082000000.0 -13107100000.0 -14104700000.0 -13329000000.0 -13372600000.0 -13779000000.0 -13488900000.0 -12640500000.0 -12798000000.0 -12780900000.0 -12779300000.0 -12633800000.0 -12726400000.0 -12565100000.0 -12709600000.0 -12727100000.0 -13125500000.0 -12549700000.0 -12980000000.0 -12756500000.0 -12818300000.0 -12629800000.0 -12564000000.0 -12792200000.0 -12551900000.0 -12655500000.0 -12746800000.0 -12844900000.0 -12574100000.0 -12552100000.0 -12567000000.0 -12552300000.0 -12567600000.0 -12565100000.0 -12599800000.0 -12598800000.0 -12550000000.0 -12622700000.0 -12554700000.0 -12568000000.0 -12551700000.0 -12563300000.0 -12552300000.0 -12564600000.0 -12714300000.0 -12702100000.0 -13114900000.0 -13273800000.0 -12572100000.0 -14127900000.0 -12927400000.0 -12762800000.0 -12852300000.0 -15118100000.0 -14954800000.0 -13160800000.0 -12625400000.0 -14656500000.0 -15115700000.0 -18020300000.0 -12568200000.0 -15916000000.0 -14168200000.0 -16680800000.0 -13420800000.0 -12714500000.0 -12657600000.0 -13778200000.0 -14885500000.0 -19756900000.0 -18716900000.0 -17687600000.0 -18087400000.0 -12839300000.0 -18315800000.0 -15138400000.0 -17811000000.0 -13381900000.0 -13553200000.0 -12549700000.0 -18125300000.0 -12597200000.0 -15044100000.0 -14592300000.0 -12688300000.0 -12778500000.0 -12628300000.0 -12737900000.0 -12983400000.0 -12921500000.0 -12987300000.0 -13076600000.0 -13015700000.0 -12956700000.0 -12558100000.0 -12631700000.0 -12794400000.0 -12671900000.0 -13198700000.0 -12949200000.0 -12922900000.0 -12716000000.0 -12980700000.0 -12842800000.0 -13333300000.0 -13206200000.0 -12845000000.0 -12698900000.0 -12800800000.0 -12909300000.0 -12557700000.0 -12885300000.0 -12880000000.0 -12611100000.0 -13019500000.0 -12839200000.0 -13381600000.0 -12553600000.0 -12550800000.0 -14325400000.0 -13018200000.0 -12782300000.0 -12549800000.0 -12587200000.0 -12731800000.0 -12583300000.0 -12597300000.0 -13027000000.0 -12962700000.0 -12773000000.0 -12788500000.0 -12692900000.0 -12735300000.0 -12638000000.0 -12549700000.0 -12633700000.0 -12551800000.0 -12680900000.0 -12734000000.0 -12569600000.0 -12697400000.0 -12606800000.0 -12566300000.0 -12665300000.0 -12771500000.0 -12624000000.0 -12857300000.0 -12601800000.0 -12555600000.0 -13412900000.0 -13072200000.0 -14198200000.0 -13788800000.0 -14141400000.0 -15144000000.0 -13366400000.0 -13320100000.0 -13138800000.0 -14858400000.0 -13695400000.0 -13051700000.0 -15864600000.0 -17822000000.0 -14353600000.0 -16592000000.0 -14388300000.0 -13642500000.0 -20527000000.0 -13069000000.0 -25195000000.0 -12919900000.0 -12592800000.0 -18036900000.0 -13534400000.0 -12751600000.0 -15007200000.0 -12549700000.0 -16739300000.0 -13587700000.0 -12887000000.0 -13373200000.0 -13099800000.0 -13140200000.0 -12884000000.0 -12705800000.0 -13655800000.0 -13114100000.0 -12727700000.0 -13127400000.0 -12555500000.0 -12969800000.0 -13076600000.0 -12597000000.0 -12839600000.0 -12619200000.0 -12709400000.0 -12738800000.0 -12549700000.0 -12913400000.0 -12898900000.0 -13537000000.0 -12549700000.0 -12694900000.0 -12802500000.0 -12570300000.0 -12551800000.0 -12692000000.0 -12908000000.0 -12900500000.0 -13208000000.0 -13252600000.0 -12698500000.0 -13079900000.0 -13953200000.0 -12976300000.0 -12862600000.0 -12639900000.0 -12550300000.0 -12560800000.0 -12588200000.0 -12606000000.0 -12572700000.0 -12597300000.0 -12577000000.0 -12592200000.0 -12577400000.0 -12549700000.0 -12704500000.0 -12675300000.0 -12595000000.0 -12613300000.0 -12623100000.0 -12642400000.0 -12697200000.0 -12739900000.0 -12703000000.0 -12659500000.0 -12682800000.0 -12650700000.0 -12722100000.0 -12675200000.0 -12728200000.0 -12803900000.0 -12958200000.0 -13105700000.0 -12999000000.0 -13699200000.0 -13398800000.0 -13945800000.0 -12709800000.0 -13156600000.0 -12595900000.0 -14491300000.0 -14362300000.0 -14837100000.0 -12708100000.0 -13880900000.0 -13028400000.0 -16480400000.0 -14838900000.0 -15374000000.0 -12609100000.0 -13216700000.0 -13270400000.0 -18268700000.0 -12549700000.0 -16050600000.0 -15362500000.0 -13509200000.0 -14689600000.0 -12552700000.0 -13039100000.0 -21951700000.0 -12663900000.0 -12744300000.0 -12682800000.0 -18355200000.0 -14745500000.0 -15127800000.0 -16630100000.0 -15209200000.0 -14235900000.0 -15070600000.0 -15405800000.0 -15203800000.0 -13668800000.0 -13566400000.0 -13651900000.0 -13377500000.0 -13692800000.0 -13407300000.0 -13505400000.0 -13086900000.0 -13646200000.0 -12602300000.0 -12580000000.0 -12974500000.0 -12788800000.0 -12763400000.0 -12562000000.0 -13170900000.0 -12725100000.0 -12706800000.0 -12859200000.0 -12681900000.0 -12732600000.0 -13196500000.0 -13028000000.0 -12709000000.0 -12919700000.0 -12876500000.0 -12550800000.0 -12649700000.0 -12770200000.0 -12556600000.0 -12698400000.0 -13509800000.0 -12722800000.0 -12818400000.0 -12604300000.0 -12549700000.0 -12549700000.0 -12552200000.0 -12564700000.0 -12559100000.0 -12552700000.0 -12549700000.0 -12549700000.0 -12584900000.0 -12549700000.0 -12603000000.0 -12551300000.0 -12549800000.0 -12549700000.0 -12549700000.0 -12551100000.0 -12556200000.0 -12549700000.0 -12597500000.0 -12601200000.0 -12694600000.0 -12551700000.0 -12676700000.0 -12599200000.0 -12636700000.0 -12658500000.0 -12708200000.0 -12696300000.0 -13584200000.0 -12713700000.0 -13016400000.0 -12917900000.0 -12826200000.0 -13381800000.0 -13752500000.0 -13205500000.0 -13080300000.0 -13433800000.0 -12566300000.0 -14619600000.0 -15415600000.0 -12560100000.0 -14183400000.0 -16053200000.0 -17156200000.0 -17948300000.0 -18718800000.0 -21906300000.0 -17165000000.0 -20705300000.0 -12673700000.0 -13630100000.0 -22533700000.0 -12561700000.0 -16890400000.0 -18630000000.0 -21155600000.0 -16636600000.0 -18167100000.0 -13504100000.0 -15804900000.0 -14110900000.0 -13255700000.0 -12599000000.0 -12722600000.0 -12549700000.0 -12765300000.0 -13222300000.0 -13320500000.0 -13937300000.0 -13282900000.0 -12710700000.0 -12717600000.0 -12634400000.0 -12549900000.0 -12643700000.0 -12549700000.0 -12920800000.0 -12648700000.0 -12681800000.0 -12571700000.0 -12724100000.0 -13196300000.0 -12703900000.0 -12572600000.0 -12707200000.0 -12724900000.0 -12632300000.0 -12549700000.0 -12590000000.0 -12583300000.0 -12722100000.0 -12557900000.0 -13115900000.0 -12983600000.0 -12831600000.0 -12784700000.0 -12565600000.0 -12558000000.0 -12549700000.0 -12571700000.0 -12549700000.0 -12550200000.0 -12553100000.0 -12569400000.0 -12552500000.0 -12549700000.0 -12549700000.0 -12549700000.0 -12576400000.0 -12550200000.0 -12549700000.0 -12549700000.0 -12549700000.0 -12551500000.0 -12581700000.0 -12566000000.0 -12565900000.0 -12571700000.0 -12570300000.0 -12558200000.0 -12593700000.0 -12562200000.0 -12700300000.0 -12596400000.0 -12671400000.0 -12588200000.0 -12889900000.0 -12713100000.0 -13062300000.0 -13196400000.0 -13482200000.0 -13608000000.0 -13598900000.0 -13928300000.0 -12896600000.0 -16241900000.0 -15035700000.0 -15643700000.0 -16496000000.0 -12630100000.0 -13992800000.0 -16752300000.0 -18307000000.0 -20180000000.0 -21845700000.0 -24241600000.0 -19972300000.0 -17863400000.0 -18130200000.0 -15484700000.0 -13721700000.0 -14641600000.0 -17630200000.0 -15166700000.0 -14579200000.0 -13240600000.0 -13157300000.0 -12694400000.0 -13067800000.0 -12587400000.0 -12562900000.0 -12680200000.0 -12621300000.0 -12716300000.0 -13089300000.0 -13173100000.0 -12579300000.0 -12973800000.0 -12684100000.0 -12774600000.0 -12680500000.0 -12619400000.0 -12824700000.0 -12550700000.0 -12555100000.0 -12625600000.0 -12567000000.0 -12917000000.0 -12559600000.0 -12698700000.0 -12596600000.0 -12582400000.0 -12614600000.0 -12986500000.0 -12904000000.0 -13062800000.0 -13151200000.0 -12885500000.0 -12628100000.0 -12697200000.0 -12562200000.0 -12553700000.0 -12556200000.0 -12549700000.0 -12549800000.0 -12550300000.0 -12556200000.0 -12559500000.0 -12549700000.0 -12550100000.0 -12553200000.0 -12572000000.0 -12573000000.0 -12555000000.0 -12565400000.0 -12581000000.0 -12650500000.0 -12613000000.0 -12586400000.0 -12692900000.0 -12579000000.0 -12631700000.0 -12709900000.0 -12830400000.0 -12880300000.0 -12662800000.0 -12851500000.0 -13505100000.0 -14585300000.0 -13257500000.0 -17252600000.0 -14882400000.0 -16864700000.0 -13838600000.0 -16681900000.0 -14293200000.0 -15319700000.0 -17975100000.0 -14893300000.0 -15959900000.0 -19418900000.0 -13061400000.0 -14319500000.0 -14284700000.0 -13773400000.0 -18981600000.0 -12662400000.0 -13196200000.0 -12914600000.0 -13097800000.0 -13080700000.0 -12597400000.0 -12557700000.0 -12564100000.0 -12602000000.0 -12608900000.0 -12563800000.0 -12792500000.0 -12730900000.0 -12549700000.0 -12589900000.0 -12578800000.0 -12579400000.0 -12624700000.0 -12613900000.0 -12606800000.0 -12660000000.0 -12550300000.0 -12689500000.0 -12662800000.0 -12562900000.0 -12566800000.0 -12578100000.0 -12567200000.0 -12616900000.0 -12572700000.0 -12562000000.0 -12801200000.0 -12787100000.0 -12670800000.0 -13369100000.0 -13471300000.0 -12973600000.0 -16198200000.0 -14342800000.0 -17277000000.0 -15492700000.0 -15447300000.0 -14653100000.0 -15442900000.0 -20754500000.0 -12562200000.0 -15118000000.0 -15047300000.0 -18772700000.0 -14981400000.0 -13848100000.0 -14286400000.0 -14092800000.0 -17695400000.0 -17910800000.0 -12643800000.0 -13578400000.0 -13446200000.0 -14134000000.0 -15075400000.0 -13336500000.0 -13707300000.0 -12714800000.0 -20100100000.0 -15289200000.0 -16086900000.0 -12591100000.0 -14863200000.0 -13989000000.0 -13329700000.0 -25651000000.0 -17628200000.0 -19665700000.0 -17172500000.0 -13806400000.0 -14514300000.0 -13986100000.0 -19085200000.0 -12971900000.0 -14534000000.0 -14454700000.0 -16878900000.0 -15843700000.0 -13212000000.0 -17141100000.0 -19656900000.0 -24556800000.0 -15025300000.0 -17270100000.0 -15337800000.0 -14593000000.0 -12549700000.0 -14158800000.0 -17752400000.0 -12747000000.0 -12710800000.0 -12835500000.0 -12744400000.0 -12549700000.0 -13543700000.0 -13279100000.0 -14231400000.0 -14400900000.0 -17781600000.0 -15859600000.0 -16510800000.0 -12578800000.0 -15700500000.0 -12942100000.0 -12838900000.0 -12941500000.0 -23569100000.0 -14832300000.0 -12555700000.0 -13205600000.0 -17523600000.0 -12549700000.0 -13534000000.0 -14367900000.0 -16218300000.0 -12973800000.0 -12727100000.0 -12549700000.0 -12832500000.0 -14302800000.0 -13714300000.0 -14906800000.0 -15052600000.0 -13367500000.0 -16459600000.0 -14829300000.0 -14814600000.0 -24154000000.0 -13571100000.0 -14419300000.0 -13247600000.0 -13980300000.0 -16534300000.0 -13385900000.0 -12792500000.0 -12549700000.0 -12549700000.0 -12549700000.0 -12549700000.0 -12549700000.0 -12549700000.0 -12549700000.0 -12549700000.0 -12549700000.0 -12549700000.0 -12781000000.0 -13726400000.0 -13300400000.0 -13530000000.0 -14723600000.0 -13584500000.0 -15182300000.0 -15491900000.0 -13769800000.0 -15249900000.0 -14343300000.0 -14124000000.0 -16854100000.0 -18240600000.0 -18597500000.0 -14721400000.0 -14099800000.0 -13069000000.0 -12788200000.0 -12549700000.0 -12549700000.0 -12549700000.0 -12549700000.0 -12549700000.0 -12549700000.0 -12549700000.0 -12549700000.0 -12549700000.0 -12549700000.0 -12549700000.0 -12549700000.0 -12549700000.0 -12549700000.0 -12549700000.0 -12549700000.0 -12549700000.0 -12549700000.0 -12549700000.0 -12549700000.0 -12549700000.0 -12549700000.0 -12549700000.0 -12549700000.0 -12549700000.0 -12549700000.0 -12549700000.0 -12549700000.0 -12549700000.0 -12549700000.0 -12549700000.0 -12549700000.0 -12549700000.0 -12550000000.0 -12549700000.0 -12549700000.0 -12622800000.0 -13644000000.0 -13244800000.0 -13271800000.0 -12599700000.0 -13536300000.0 -15449200000.0 -18770200000.0 -17825300000.0 -16599500000.0 -15783600000.0 -25695400000.0 -16512300000.0 -12798500000.0 -14269800000.0 -13420100000.0 -12701700000.0 -18796000000.0 -14622200000.0 -12718100000.0 -14378600000.0 -12591000000.0 -15615300000.0 -12908400000.0 -12606500000.0 -12549700000.0 -12549700000.0 -12549700000.0 -12549700000.0 -12549700000.0 -12549700000.0 -12549700000.0 -12549700000.0 -12549700000.0 -12549700000.0 -12549700000.0 -12549700000.0 -12549700000.0 -12549700000.0 -12549700000.0 -12549700000.0 -12549700000.0 -12549700000.0 -12549700000.0 -12549700000.0 -12549700000.0 -12549700000.0 -12549700000.0 -12549700000.0 -12549700000.0 -12549700000.0 -12549700000.0 -12550800000.0 -13011900000.0 -13680700000.0 -14083800000.0 -15369400000.0 -15868100000.0 -14632300000.0 -13020900000.0 -15107000000.0 -14390900000.0 -19988900000.0 -21733800000.0 -15498500000.0 -16231800000.0 -17806600000.0 -15825700000.0 -12986600000.0 -12560800000.0 -13111400000.0 -16128200000.0 -12671200000.0 -12623300000.0 -13070800000.0 -12799700000.0 -12631800000.0 -12553400000.0 -12549700000.0 -12549700000.0 -12549700000.0 -12549700000.0 -12549700000.0 -12549700000.0 -12549700000.0 -12549700000.0 -12549700000.0 -12549700000.0 -12549700000.0 -12549700000.0 -12549700000.0 -12549700000.0 -12549700000.0 -12549700000.0 -12549700000.0 -12549700000.0 -12549700000.0 -12549700000.0 -12549700000.0 -12549700000.0 -12549700000.0 -12549700000.0 -12549700000.0 -12549700000.0 -12549700000.0 -12549700000.0 -12549700000.0 -12549700000.0 -12549700000.0 -12549700000.0 -12549700000.0 -12549700000.0 -12549700000.0 -12549700000.0 -12549700000.0 -12549700000.0 -12549700000.0 -12549700000.0 -12549700000.0 -12549700000.0 -12578800000.0 -12702700000.0 -12767200000.0 -12880900000.0 -13939400000.0 -13116900000.0 -14848300000.0 -16001000000.0 -15144800000.0 -14508400000.0 -16234500000.0 -14930100000.0 -17514600000.0 -17289400000.0 -16689200000.0 -18676500000.0 -18432700000.0 -16042400000.0 -17252500000.0 -12981000000.0 -15470900000.0 -16014600000.0 -13542400000.0 -12568600000.0 -12586700000.0 -12557800000.0 -12549700000.0 -12549700000.0 -12549700000.0 -12549700000.0 -12549700000.0 -12549700000.0 -12549700000.0 -12549700000.0 -12549700000.0 -12549700000.0 -12549700000.0 -12549700000.0 -12549700000.0 -12549700000.0 -12549700000.0 -12549700000.0 -12549700000.0 -12549700000.0 -12549700000.0 -12549700000.0 -12549700000.0 -12549700000.0 -12549700000.0 -12549700000.0 -12549700000.0 -12549700000.0 -12549700000.0 -12549700000.0 -12549700000.0 -12549700000.0 -12549700000.0 -12549700000.0 -12549700000.0 -12549700000.0 -12549700000.0 -12549700000.0 -12549700000.0 -12549700000.0 -12549700000.0 -12549700000.0 -12549700000.0 -12549700000.0 -12549700000.0 -12549700000.0 -12549700000.0 -12549700000.0 -12551500000.0 -12556100000.0 -12618000000.0 -13132300000.0 -12780900000.0 -13878100000.0 -16325000000.0 -12587900000.0 -15125300000.0 -16869600000.0 -17999800000.0 -14073600000.0 -18386900000.0 -12549700000.0 -15845700000.0 -21359800000.0 -16114800000.0 -15740600000.0 -13601400000.0 -12949700000.0 -12661000000.0 -12598000000.0 -12563100000.0 -12550300000.0 -12550000000.0 -12549800000.0 -12549700000.0 -12549700000.0 -12549700000.0 -12549700000.0 -12549700000.0 -12549700000.0 -12549700000.0 -12549700000.0 -12549700000.0 -12549700000.0 -12549700000.0 -12549700000.0 -12549700000.0 -12549700000.0 -12549700000.0 -12549700000.0 -12549700000.0 -12549700000.0 -12549700000.0 -12549700000.0 -12549700000.0 -12549700000.0 -12549700000.0 -12549700000.0 -12549700000.0 -12549700000.0 -12549700000.0 -12549700000.0 -12549700000.0 -12549700000.0 -12549700000.0 -12549700000.0 -12549700000.0 -12549700000.0 -12549700000.0 -12549700000.0 -12549700000.0 -12549700000.0 -12549700000.0 -12549700000.0 -12549700000.0 -12549700000.0 -12549700000.0 -12549700000.0 -12563200000.0 -12652600000.0 -12728300000.0 -13287800000.0 -12891800000.0 -13035600000.0 -13092900000.0 -12842600000.0 -19173100000.0 -18064700000.0 -16589300000.0 -14739400000.0 -20091100000.0 -16203600000.0 -14262100000.0 -14204000000.0 -18185400000.0 -12621200000.0 -17445300000.0 -16509100000.0 -12662600000.0 -19584200000.0 -15267600000.0 -13537600000.0 -12617100000.0 -12549700000.0 -12557300000.0 -12553200000.0 -12551200000.0 -12549700000.0 -12549700000.0 -12549700000.0 -12549700000.0 -12549700000.0 -12549700000.0 -12549700000.0 -12549700000.0 -12549700000.0 -12549700000.0 -12549700000.0 -12549700000.0 -12549700000.0 -12549700000.0 -12549700000.0 -12549700000.0 -12549700000.0 -12549700000.0 -12549700000.0 -12549700000.0 -12549700000.0 -12549700000.0 -12549700000.0 -12549700000.0 -12549700000.0 -12549700000.0 -12549700000.0 -12549700000.0 -12549700000.0 -12549700000.0 -12549700000.0 -12549700000.0 -12549700000.0 -12549700000.0 -12549700000.0 -12549700000.0 -12549700000.0 -12549700000.0 -12549700000.0 -12549700000.0 -12549700000.0 -12549700000.0 -12549700000.0 -12549700000.0 -12549700000.0 -12549700000.0 -12549700000.0 -12549700000.0 -12549700000.0 -12856400000.0 -14077600000.0 -15215200000.0 -12596900000.0 -17282200000.0 -12645300000.0 -14365600000.0 -14977500000.0 -17947500000.0 -12962500000.0 -19441900000.0 -13625600000.0 -13592900000.0 -17387000000.0 -13199500000.0 -15809000000.0 -15931700000.0 -22879300000.0 -14307500000.0 -14955200000.0 -13467400000.0 -12648900000.0 -12666600000.0 -12846300000.0 -12577500000.0 -12549700000.0 -12549700000.0 -12549700000.0 -12549700000.0 -12549700000.0 -12549700000.0 -12549700000.0 -12549700000.0 -12549700000.0 -12549700000.0 -12549700000.0 -12549700000.0 -12549700000.0 -12549700000.0 -12549700000.0 -12549700000.0 -12549700000.0 -12549700000.0 -12549700000.0 -12549700000.0 -12549700000.0 -12549700000.0 -12549700000.0 -12549700000.0 -12549700000.0 -12549700000.0 -12549700000.0 -12549700000.0 -12549700000.0 -12549700000.0 -12549700000.0 -12549700000.0 -12549700000.0 -12549700000.0 -12549700000.0 -12549700000.0 -12549700000.0 -12549700000.0 -12549700000.0 -12549700000.0 -12549700000.0 -12707700000.0 -17969300000.0 -14778000000.0 -12862200000.0 -13786900000.0 -13659700000.0 -13347800000.0 -16630900000.0 -12608700000.0 -16314300000.0 -17421200000.0 -16203700000.0 -15220500000.0 -12643200000.0 -19537000000.0 -22053100000.0 -12549700000.0 -12549700000.0 -12871300000.0 -13868500000.0 -12987500000.0 -12549700000.0 -12549700000.0 -12549700000.0 -12549700000.0 -12549700000.0 -12549700000.0 -12549700000.0 -12549700000.0 -12549700000.0 -12549700000.0 -12549700000.0 -12549700000.0 -12549700000.0 -12549700000.0 -12549700000.0 -12549700000.0 -12549700000.0 -12549700000.0 -12549700000.0 -12549700000.0 -12549700000.0 -12549700000.0 -12549700000.0 -12549700000.0 -12549700000.0 -12549700000.0 -12549700000.0 -12549700000.0 -12549700000.0 -12549700000.0 -12549700000.0 -12549700000.0 -12549700000.0 -12549700000.0 -12549700000.0 -12549700000.0 -12549700000.0 -12853000000.0 -14811300000.0 -16182800000.0 -17853500000.0 -13545000000.0 -12878700000.0 -13314800000.0 -12555400000.0 -16703500000.0 -15085100000.0 -15524400000.0 -14533900000.0 -19064800000.0 -16750400000.0 -23846300000.0 -16555500000.0 -16185300000.0 -12906800000.0 -12549700000.0 -12549700000.0 -12549700000.0 -12549700000.0 -12549700000.0 -12549700000.0 -12549700000.0 -12549700000.0 -12549700000.0 -12549700000.0 -12549700000.0 -12549700000.0 -12549700000.0 -12549700000.0 -12549700000.0 -12549700000.0 -12549700000.0 -12549700000.0 -12549700000.0 -12549700000.0 -12549700000.0 -12549700000.0 -12549700000.0 -12549700000.0 -12549700000.0 -12549700000.0 -12549700000.0 -12549700000.0 -12549700000.0 -12549700000.0 -12549700000.0 -12549700000.0 -12549700000.0 -12549700000.0 -12549700000.0 -12549700000.0 -12549700000.0 -12549700000.0 -12549700000.0 -12549700000.0 -12549700000.0 -12549700000.0 -12549700000.0 -12938500000.0 -14104000000.0 -13715000000.0 -12604400000.0 -14144100000.0 -13848600000.0 -15191700000.0 -15330200000.0 -20951500000.0 -21922800000.0 -19097400000.0 -26181400000.0 -18024700000.0 -23041900000.0 -16753500000.0 -14435400000.0 -17424400000.0 -16091000000.0 -13105100000.0 -13162500000.0 -12549700000.0 -12549700000.0 -12549700000.0 -12549700000.0 -12549700000.0 -12549700000.0 -12549700000.0 -12549700000.0 -12549700000.0 -12549700000.0 -12549600000.0 -12549700000.0 -12549700000.0 -12549700000.0 -12549700000.0 -12549700000.0 -12549700000.0 -12549700000.0 -12549700000.0 -12549700000.0 -12549700000.0 -12549700000.0 -12549700000.0 -12549700000.0 -12549700000.0 -12549700000.0 -12549700000.0 -12549700000.0 -12549700000.0 -12549700000.0 -12549700000.0 -12549700000.0 -12549700000.0 -12549700000.0 -12549700000.0 -12549700000.0 -12549700000.0 -12549700000.0 -12549700000.0 -12549700000.0 -12760800000.0 -12601800000.0 -14092100000.0 -17891100000.0 -12561400000.0 -12927600000.0 -13218200000.0 -14511500000.0 -17166900000.0 -14499400000.0 -15420300000.0 -21831600000.0 -21069400000.0 -14532800000.0 -20103400000.0 -18625900000.0 -14102200000.0 -15203800000.0 -12797200000.0 -12573100000.0 -12595600000.0 -12549700000.0 -12549700000.0 -12549700000.0 -12549700000.0 -12549700000.0 -12549700000.0 -12549700000.0 -12549700000.0 -12549700000.0 -12549700000.0 -12549700000.0 -12549700000.0 -12549700000.0 -12549700000.0 -12549700000.0 -12549700000.0 -12549700000.0 -12549700000.0 -12549700000.0 -12549700000.0 -12549700000.0 -12549700000.0 -12549700000.0 -12549700000.0 -12549700000.0 -12549700000.0 -12549700000.0 -12549700000.0 -12549700000.0 -12549700000.0 -12549700000.0 -12549700000.0 -12767400000.0 -14164800000.0 -17776800000.0 -12590200000.0 -17640800000.0 -12587600000.0 -13330700000.0 -13312200000.0 -16469200000.0 -15339900000.0 -14385500000.0 -18578700000.0 -15592300000.0 -14362700000.0 -22699200000.0 -23663900000.0 -15826200000.0 -17191200000.0 -15214200000.0 -15621900000.0 -14648700000.0 -12567600000.0 -12549700000.0 -12549700000.0 -12549700000.0 -12549700000.0 -12549700000.0 -12549700000.0 -12549700000.0 -12549700000.0 -12549700000.0 -12549700000.0 -12549700000.0 -12549700000.0 -12549700000.0 -12549700000.0 -12549700000.0 -12549700000.0 -12549700000.0 -12549700000.0 -12549700000.0 -12549700000.0 -12549700000.0 -16672800000.0 -18204700000.0 -12639800000.0 -18395400000.0 -18931700000.0 -19421400000.0 -23436200000.0 -19478500000.0 -12608900000.0 -21240400000.0 -22988400000.0 -13710200000.0 -25325600000.0 -23315000000.0 -27376000000.0 -13896400000.0 -18368000000.0 -12856500000.0 -13649500000.0 -12641100000.0 -14454000000.0 -13463500000.0 -13540200000.0 -12549700000.0 -12549700000.0 -12549700000.0 -12549700000.0 -12549700000.0 -12549700000.0 -12549700000.0 -12549700000.0 -12549700000.0 -12549700000.0 -12549700000.0 -12549700000.0 -12549700000.0 -12549700000.0 -12549700000.0 -12549700000.0 -12549700000.0 -12549700000.0 -12549700000.0 -12549700000.0 -12549700000.0 -12549700000.0 -12549700000.0 -15017200000.0 -14363400000.0 -14475100000.0 -13963400000.0 -14708400000.0 -17633800000.0 -18972500000.0 -23244300000.0 -21502100000.0 -12669100000.0 -12626200000.0 -23838400000.0 -17003900000.0 -17635100000.0 -12549700000.0 -12560000000.0 -14393200000.0 -13204000000.0 -12860000000.0 -12549700000.0 -12549700000.0 -12549700000.0 -12549700000.0 -12549700000.0 -12549700000.0 -12549700000.0 -12549700000.0 -12549700000.0 -12549700000.0 -12549700000.0 -12549700000.0 -12549700000.0 -12549700000.0 -12549700000.0 -13012300000.0 -14327800000.0 -14984600000.0 -13858000000.0 -14387600000.0 -14105400000.0 -14340200000.0 -16441800000.0 -13681100000.0 -14366400000.0 -14728300000.0 -13119000000.0 -17819400000.0 -13762500000.0 -14012300000.0 -22021600000.0 -12549700000.0 -18620900000.0 -15187200000.0 -12807100000.0 -12549700000.0 -12549700000.0 -12549700000.0 -12549700000.0 -12549700000.0 -12549700000.0 -12549700000.0 -12549700000.0 -12549700000.0 -12549700000.0 -12549700000.0 -12549700000.0 -12549700000.0 -12677400000.0 -12771300000.0 -13127500000.0 -14965400000.0 -12633000000.0 -12666900000.0 -12823900000.0 -13001500000.0 -14411100000.0 -12792000000.0 -13601600000.0 -14252100000.0 -12616000000.0 -16086700000.0 -13131800000.0 -16064000000.0 -17396100000.0 -12549700000.0 -20037900000.0 -12549700000.0 -13372600000.0 -12879100000.0 -12549700000.0 -12549700000.0 -12549700000.0 -12549700000.0 -12549700000.0 -12549700000.0 -12549700000.0 -699903000000.0 -541006000000.0 -229054000000.0 -12549700000.0 -4.0522e+12 -3.95273e+12 -3.55223e+12 -3.55815e+12 -2.95879e+12 -3.84035e+12 -5.53903e+12 -3.17367e+12 -3.52162e+12 -5.38146e+12 -4.89714e+12 -3.28465e+12 -4.79393e+12 -2.38515e+12 -4.41493e+12 -5.02446e+12 -6.15092e+12 -2.77949e+12 -4.74943e+12 -5.72881e+12 -4.37337e+12 -4.40811e+12 -4.93829e+12 -4.29084e+12 -4.32258e+12 -3.91574e+12 -4.75304e+12 -4.03401e+12 -12549700000.0 -5.97044e+12 -5.53745e+12 -5.21847e+12 -3.6039e+12 -4.30655e+12 -4.415e+12 -4.32391e+12 -3.45263e+12 -6.0031e+12 -4.02844e+12 -3.67688e+12 -3.346e+12 -4.26083e+12 -3.9443e+12 -2.43571e+12 -2.50954e+12 -12586100000.0 -4.09459e+12 -1.82188e+12 -2.29378e+12 -12607700000.0 -13897400000.0 -12570000000.0 -12549700000.0 -12549700000.0 -12630200000.0 -13847500000.0 -13171300000.0 -12549700000.0 -14153900000.0 -13129400000.0 -18146200000.0 -15770800000.0 -16908900000.0 -14398300000.0 -17191200000.0 -12549700000.0 -2.59048e+12 -3.4477e+12 -4.8783e+12 -3.46538e+12 -4.60365e+12 -5.38457e+12 -4.02403e+12 -4.59285e+12 -4.22458e+12 -12549700000.0 -12549700000.0 -5.36598e+12 -12549700000.0 -4.75742e+12 -3.55291e+12 -663558000000.0 -5.33962e+12 -3.51647e+12 -2.55021e+12 -12549700000.0 -3.73442e+12 -3.83574e+12 -4.07851e+12 -6.17427e+12 -2.60259e+12 -4.1346e+12 -3.93577e+12 -3.8602e+12 -12549700000.0 -4.01124e+12 -5.09393e+12 -3.86472e+12 -4.57522e+12 -12549700000.0 -4.49397e+12 -3.73542e+12 -4.69439e+12 -2.88119e+12 -4.21364e+12 -5.87134e+12 -6.41555e+12 -6.26883e+12 -5.87259e+12 -5.32216e+12 -5.22378e+12 -6.80111e+12 -4.48312e+12 -5.0792e+12 -6.48181e+12 -4.34785e+12 -2.87602e+12 -4.8323e+12 -2.84443e+12 -4.02459e+12 -6.38919e+12 -3.65634e+12 -5.93876e+12 -5.33408e+12 -4.69686e+12 -7.44434e+12 -1.09291e+13 -5.18677e+12 -3.71218e+12 -5.44873e+12 -4.51683e+12 -4.80157e+12 -6.68082e+12 -6.5993e+12 -4.94388e+12 -6.84254e+12 -4.25064e+12 -4.85169e+12 -5.84872e+12 -5.98809e+12 -7.40303e+12 -9.0124e+12 -7.29874e+12 -1.10576e+13 -5.09331e+12 -3.83694e+12 -6.39738e+12 -5.71147e+12 -5.23854e+12 -4.53638e+12 -7.64275e+12 -7.2809e+12 -5.42217e+12 -9.18096e+12 -8.02584e+12 -8.98481e+12 -8.31629e+12 -5.39224e+12 -5.30415e+12 -7.47594e+12 -6.89516e+12 -6.75038e+12 -7.96943e+12 -6.39801e+12 -7.21038e+12 -1.11968e+13 -5.73548e+12 -3.52614e+12 -5.03979e+12 -4.07189e+12 -3.72826e+12 -7.62744e+12 -7.26208e+12 -4.97261e+12 -6.07653e+12 -3.80305e+12 -6.87359e+12 -6.34416e+12 -9.51233e+12 -5.88079e+12 -6.85353e+12 -7.54394e+12 -6.62688e+12 -3.04028e+12 -5.40376e+12 -5.00394e+12 -5.89461e+12 -5.17976e+12 -9.3425e+12 -2.40701e+12 -5.02647e+12 -4.21071e+12 -6.10244e+12 -3.70839e+12 -6.50184e+12 -6.94886e+12 -6.04917e+12 -6.94807e+12 -3.94831e+12 -3.18567e+12 -4.80982e+12 -3.72451e+12 -2.13429e+12 -12549700000.0 -12625000000.0 -13093400000.0 -12926900000.0 -12730900000.0 -12649300000.0 -12600800000.0 -13247500000.0 -12574200000.0 -13414400000.0 -16664600000.0 -17913700000.0 -12549700000.0 -12677400000.0 -16255600000.0 -12593400000.0 -15364000000.0 -13036500000.0 -13848900000.0 -13726200000.0 -15647500000.0 -13439900000.0 -5.11571e+12 -8.13636e+12 -3.8677e+12 -6.7569e+12 -3.40298e+12 -6.47788e+12 -1.04631e+13 -5.70057e+12 -6.40696e+12 -4.4083e+12 -3.99937e+12 -3.20842e+12 -7.2977e+12 -4.61005e+12 -7.13236e+12 -4.00319e+12 -3.26577e+12 -6.14807e+12 -4.15999e+12 -9.91538e+12 -6.73215e+12 -1.06153e+13 -6.23275e+12 -7.28546e+12 -1.00211e+13 -7.39812e+12 -5.00223e+12 -5.79947e+12 -6.6864e+12 -6.47927e+12 -7.24136e+12 -6.22645e+12 -4.64225e+12 -9.17937e+12 -4.99668e+12 -1.01018e+13 -7.71412e+12 -7.80282e+12 -5.70283e+12 -4.61186e+12 -4.9376e+12 -4.65336e+12 -8.33858e+12 -6.81805e+12 -6.39903e+12 -6.84013e+12 -6.21407e+12 -7.12526e+12 -5.33765e+12 -1.52306e+12 -2.89608e+12 -5.63373e+12 -4.93552e+12 -4.4209e+12 -6.41558e+12 -5.27041e+12 -8.56015e+12 -6.88689e+12 -5.67724e+12 -5.13603e+12 -6.32231e+12 -7.23312e+12 -6.6394e+12 -3.76034e+12 -8.31779e+12 -7.0959e+12 -4.90486e+12 -6.05569e+12 -7.83943e+12 -6.02891e+12 -6.08495e+12 -9.84034e+12 -5.68004e+12 -6.92051e+12 -7.57438e+12 -8.66296e+12 -7.84832e+12 -4.13591e+12 -5.51076e+12 -2.57905e+12 -4.73257e+12 -8.12699e+12 -6.39301e+12 -5.88719e+12 -7.67758e+12 -6.94244e+12 -5.48524e+12 -5.16223e+12 -7.33031e+12 -8.86135e+12 -4.64094e+12 -1.86555e+12 -6.34696e+12 -3.58226e+12 -4.4325e+12 -1.68445e+12 -2.43101e+12 -6.66301e+12 -5.31855e+12 -4.14272e+12 -6.01285e+12 -2.42591e+12 -5.88583e+12 -7.16259e+12 -6.05927e+12 -5.77295e+12 -6.13184e+12 -9.01651e+12 -8.71319e+12 -6.39848e+12 -6.33409e+12 -5.89927e+12 -7.03557e+12 -4.8973e+12 -7.8345e+12 -6.08814e+12 -6.17067e+12 -5.80251e+12 -7.59309e+12 -6.38758e+12 -5.43503e+12 -4.47808e+12 -8.29205e+12 -6.31539e+12 -7.35061e+12 -2.93483e+12 -6.22253e+12 -2.99548e+12 -8.48003e+12 -9.95821e+12 -7.83908e+12 -5.06473e+12 -7.06304e+12 -5.4477e+12 -9.60368e+12 -4.40272e+12 -4.27851e+12 -5.56881e+12 -6.5326e+12 -6.37789e+12 -4.02528e+12 -1.09354e+13 -8.35178e+12 -4.38984e+12 -6.35053e+12 -3.67379e+12 -3.90503e+12 -4.67458e+12 -6.85097e+12 -4.6622e+12 -12624400000.0 -13015100000.0 -13064900000.0 -13144800000.0 -13360500000.0 -14290100000.0 -14846300000.0 -15983900000.0 -14482900000.0 -15183800000.0 -17329700000.0 -19096800000.0 -24893900000.0 -35138200000.0 -47977000000.0 -71406800000.0 -13394900000.0 -13677900000.0 -12953800000.0 -5.36785e+12 -4.60633e+12 -3.98966e+12 -8.85028e+12 -7.89191e+12 -2.20723e+12 -1.02003e+13 -2.32658e+12 -4.87336e+12 -6.86846e+12 -4.79319e+12 -1.0488e+13 -8.55645e+12 -6.17619e+12 -3.12348e+12 -5.34508e+12 -6.3366e+12 -4.2785e+12 -3.62998e+12 -4.36507e+12 -5.32571e+12 -7.36139e+12 -8.53345e+12 -5.51147e+12 -7.54153e+12 -3.86849e+12 -5.73337e+12 -7.67495e+12 -6.54579e+12 -6.46946e+12 -9.11651e+12 -9.20483e+12 -7.63555e+12 -3.72353e+12 -7.94017e+12 -4.59331e+12 -8.38123e+12 -6.12569e+12 -4.82829e+12 -6.2858e+12 -6.40945e+12 -5.15995e+12 -6.19287e+12 -6.58938e+12 -6.59608e+12 -5.56575e+12 -6.09717e+12 -4.43458e+12 -7.36353e+12 -8.27317e+12 -1.04414e+13 -5.12887e+12 -6.03862e+12 -8.6319e+12 -3.90035e+12 -3.94726e+12 -3.69513e+12 -5.82998e+12 -6.16416e+12 -4.10855e+12 -5.87771e+12 -3.99242e+12 -4.97536e+12 -4.9689e+12 -7.37561e+12 -8.92729e+12 -4.49008e+12 -4.15281e+12 -7.02861e+12 -2.10458e+12 -6.79252e+12 -5.10012e+12 -4.30676e+12 -6.09927e+12 -8.83852e+12 -7.16736e+12 -6.01704e+12 -9.93895e+12 -5.03371e+12 -3.72626e+12 -6.56446e+12 -4.60587e+12 -5.87229e+12 -4.89354e+12 -5.12175e+12 -6.4262e+12 -5.72312e+12 -5.00892e+12 -6.23351e+12 -5.01515e+12 -6.76586e+12 -4.10142e+12 -5.18788e+12 -4.01872e+12 -4.71533e+12 -8.50159e+12 -4.1591e+12 -7.38133e+12 -8.11679e+12 -7.17566e+12 -4.02859e+12 -4.23552e+12 -3.43377e+12 -4.7754e+12 -2.21822e+12 -5.88782e+12 -4.28278e+12 -6.45712e+12 -5.10826e+12 -5.71725e+12 -3.96955e+12 -8.92685e+12 -5.89301e+12 -4.66917e+12 -4.11392e+12 -3.92083e+12 -7.02641e+12 -3.116e+12 -4.82997e+12 -6.13283e+12 -6.90849e+12 -7.97315e+12 -5.48685e+12 -4.56464e+12 -6.16719e+12 -6.79829e+12 -5.80874e+12 -4.53387e+12 -6.56382e+12 -5.54401e+12 -12743600000.0 -89842400000.0 -96705800000.0 -96110800000.0 -4.75863e+12 -4.91177e+12 -3.86804e+12 -3.10396e+12 -4.31738e+12 -4.41203e+12 -4.74919e+12 -5.54512e+12 -5.90234e+12 -6.26452e+12 -7.23059e+12 -7.31557e+12 -6.38e+12 -6.6129e+12 -4.16505e+12 -2.45967e+12 -5.40295e+12 -3.41537e+12 -5.72646e+12 -7.47293e+12 -5.32527e+12 -4.06267e+12 -8.53839e+12 -1.03504e+13 -3.42797e+12 -6.02213e+12 -2.97394e+12 -3.84148e+12 -9.11288e+12 -3.75247e+12 -8.22421e+12 -3.00263e+12 -3.63796e+12 -5.43523e+12 -5.11668e+12 -4.63554e+12 -2.57012e+12 -5.00046e+12 -7.50617e+12 -7.66747e+12 -6.37555e+12 -3.63091e+12 -6.83819e+12 -4.06374e+12 -5.77079e+12 -6.11624e+12 -6.32264e+12 -7.551e+12 -4.47823e+12 -5.90893e+12 -5.68909e+12 -5.98688e+12 -3.68955e+12 -3.8049e+12 -4.73743e+12 -5.67287e+12 -5.38178e+12 -3.56477e+12 -4.31012e+12 -4.46634e+12 -7.1611e+12 -6.48139e+12 -3.29731e+12 -4.3666e+12 -3.116e+12 -7.39156e+12 -4.30838e+12 -3.11639e+12 -6.48182e+12 -3.75049e+12 -4.21387e+12 -4.92095e+12 -4.38867e+12 -4.28992e+12 -6.81768e+12 -7.88266e+12 -4.44192e+12 -4.08431e+12 -626748000000.0 -4.17818e+12 -9.78734e+12 -4.99316e+12 -5.35929e+12 -4.18279e+12 -4.8654e+12 -3.81948e+12 -4.63586e+12 -5.08954e+12 -2.9712e+12 -4.2789e+12 -7.01186e+12 -6.19867e+12 -4.70142e+12 -7.31039e+12 -2.69846e+12 -6.85001e+12 -8.09572e+12 -4.83183e+12 -5.09421e+12 -7.43013e+12 -7.26124e+12 -4.20164e+12 -2.69128e+12 -7.92719e+12 -6.61822e+12 -5.70526e+12 -7.15056e+12 -3.23792e+12 -5.13826e+12 -5.1278e+12 -4.83725e+12 -5.52141e+12 -3.74964e+12 -6.08309e+12 -7.45738e+12 -2.72641e+12 -5.79702e+12 -4.50715e+12 -4.60218e+12 -3.4302e+12 -5.21606e+12 -3.5505e+12 -2.21473e+12 -2.02737e+12 -5.19265e+12 -4.68923e+12 -3.36599e+12 -4.26091e+12 -4.21693e+12 -4.76302e+12 -3.40018e+12 -3.95924e+12 -8.26583e+12 -6.28411e+12 -4.96282e+12 -4.1011e+12 -4.08262e+12 -3.70696e+12 -5.69011e+12 -4.93072e+12 -5.61719e+12 -6.1079e+12 -7.02261e+12 -5.03382e+12 -4.01655e+12 -2.82199e+12 -3.83578e+12 -4.05481e+12 -5.1637e+12 -3.34771e+12 -2.85733e+12 -2.25943e+12 -3.10115e+12 -3.714e+12 -6.1123e+12 -4.0846e+12 -5.065e+12 -3.01352e+12 -3.31765e+12 -3.63821e+12 -5.49871e+12 -5.6519e+12 -6.76673e+12 -5.90531e+12 -7.33724e+12 -2.95228e+12 -2.61913e+12 -4.54136e+12 -3.49239e+12 -4.47193e+12 -5.99168e+12 -6.12146e+12 -2.28182e+12 -4.3546e+12 -5.00582e+12 -5.86227e+12 -5.25208e+12 -4.38719e+12 -3.0954e+12 -4.83811e+12 -4.41793e+12 -5.87825e+12 -7.65609e+12 -4.83254e+12 -6.44072e+12 -3.15137e+12 -7.06082e+12 -5.01103e+12 -1.99541e+12 -5.79196e+12 -2.39771e+12 -5.79658e+12 -6.17329e+12 -2.95988e+12 -9.9634e+12 -3.85308e+12 -6.65317e+12 -6.09353e+12 -5.38277e+12 -5.90868e+12 -5.92955e+12 -4.23634e+12 -5.79248e+12 -5.62888e+12 -4.94608e+12 -6.12697e+12 -5.21234e+12 -6.37641e+12 -4.93729e+12 -1.72129e+12 -5.51359e+12 -4.88035e+12 -3.75855e+12 -4.8993e+12 -5.29741e+12 -6.82372e+12 -4.1487e+12 -5.76402e+12 -3.71999e+12 -4.84088e+12 -6.03185e+12 -8.54561e+12 -3.32009e+12 -4.0975e+12 -5.32598e+12 -3.14655e+12 -6.82047e+12 -5.72846e+12 -3.94538e+12 -6.38123e+12 -5.2853e+12 -3.43741e+12 -6.45836e+12 -3.5374e+12 -7.4463e+12 -6.52934e+12 -6.37569e+12 -3.04679e+12 -4.71706e+12 -4.3769e+12 -2.96093e+12 -5.49447e+12 -2.11064e+12 -2.84057e+12 -6.17041e+12 -1.78983e+12 -4.64592e+12 -6.69369e+12 -4.07439e+12 -3.33216e+12 -5.57784e+12 -3.49405e+12 -3.36447e+12 -3.51923e+12 -3.2699e+12 -3.62664e+12 -3.42352e+12 -3.70633e+12 -3.99351e+12 -6.51475e+12 -3.63779e+12 -8.03976e+12 -2.57595e+12 -3.29683e+12 -3.50634e+12 -4.75451e+12 -2.66766e+12 -5.2385e+12 -3.29397e+12 -2.47639e+12 -4.96289e+12 -5.90367e+12 -1.93169e+12 -4.80772e+12 -5.75832e+12 -5.75463e+12 -4.57748e+12 -6.49926e+12 -2.37419e+12 -5.98756e+12 -5.37302e+12 -4.42972e+12 -2.85417e+12 -6.89654e+12 -2.84094e+12 -4.02125e+12 -6.31016e+12 -4.84237e+12 -3.48382e+12 -5.22178e+12 -3.19902e+12 -5.36631e+12 -3.76414e+12 -5.61943e+12 -3.34702e+12 -4.67206e+12 -5.76953e+12 -4.25413e+12 -5.28147e+12 -2.86144e+12 -3.22848e+12 -2.72659e+12 -6.30385e+12 -3.97125e+12 -4.29493e+12 -5.7043e+12 -3.79319e+12 -4.67613e+12 -2.9943e+12 -4.57264e+12 -5.31743e+12 -5.75652e+12 -4.17046e+12 -3.46962e+12 -4.29727e+12 -3.05216e+12 -3.44781e+12 -2.46718e+12 -3.37948e+12 -5.35261e+12 -3.77621e+12 -1.552e+12 -3.05414e+12 -4.27969e+12 -3.52968e+12 -3.06204e+12 -4.28926e+12 -2.87933e+12 -3.04604e+12 -3.9283e+12 -4.26124e+12 -3.77804e+12 -2.75993e+12 -6.27372e+12 -3.05813e+12 -4.19912e+12 -5.36604e+12 -3.75444e+12 -4.30573e+12 -3.47688e+12 -3.9242e+12 -4.65279e+12 -5.82543e+12 -5.0363e+12 -709271000000.0 -2.56818e+12 -5.04679e+12 -4.96083e+12 -3.24976e+12 -4.15945e+12 -4.42405e+12 -4.27187e+12 -2.24736e+12 -4.00897e+12 -5.30711e+12 -6.46564e+12 -4.03817e+12 -4.66476e+12 -4.48067e+12 -1.55204e+12 -4.0473e+12 -2.47296e+12 -2.69961e+12 -3.59693e+12 -6.71322e+12 -5.22241e+12 -5.85327e+12 -6.59406e+12 -5.47399e+12 -4.83409e+12 -4.1099e+12 -2.78633e+12 -3.24307e+12 -3.5797e+12 -2.46655e+12 -3.50724e+12 -2.30007e+12 -3.79104e+12 -2.83881e+12 -3.14408e+12 -3.65542e+12 -3.08676e+12 -757911000000.0 -3.09947e+12 -3.8517e+12 -1.45817e+12 -4.68227e+12 -3.05553e+12 -4.51091e+12 -2.02417e+12 -3.24804e+12 -3.16897e+12 -4.23164e+12 -2.38516e+12 -4.31958e+12 -2.46386e+12 -3.18493e+12 -4.13382e+12 -5.08769e+12 -2.73442e+12 -1.54559e+12 -3.46252e+12 -3.53896e+12 -4.1777e+12 -5.57464e+12 -3.28153e+12 -5.16918e+12 -2.74556e+12 -3.30802e+12 -6.9891e+12 -2.62993e+12 -2.21039e+12 -3.09161e+12 -3.81871e+12 -1.96458e+12 -4.52889e+12 -2.39486e+12 -4.62242e+12 -1.95786e+12 -3.04045e+12 -2.68898e+12 -3.78388e+12 -2.67607e+12 -5.05722e+12 -4.58591e+12 -2.2156e+12 -2.43691e+12 -2.67653e+12 -1.65851e+12 -3.96047e+12 -3.69972e+12 -2.48176e+12 -3.0575e+12 -3.29081e+12 -4.21207e+12 -2.64797e+12 -2.81501e+12 -3.43086e+12 -3.7593e+12 -2.88458e+12 -3.28727e+12 -2.24391e+12 -2.87898e+12 -2.77024e+12 -2.48787e+12 -1.92344e+12 -3.72496e+12 -4.84225e+12 -3.3991e+12 -1.77426e+12 -2.0929e+12 -2.5634e+12 -3.46008e+12 -2.80328e+12 -2.93592e+12 -3.51087e+12 -1.11403e+12 -2.89762e+12 -2.60115e+12 -3.20835e+12 -1.59469e+12 -3.04072e+12 -2.84903e+12 -3.79033e+12 -2.7696e+12 -3.59873e+12 -4.32384e+12 -5.25249e+12 -2.96147e+12 -5.2023e+12 -3.38827e+12 -4.47839e+12 -2.82404e+12 -3.18053e+12 -2.59667e+12 -2.80963e+12 -1.92942e+12 -1.55744e+12 -3.14103e+12 -3.20963e+12 -3.68972e+12 -5.2793e+12 -2.47003e+12 -3.46683e+12 -4.28514e+12 -2.09086e+12 -3.20795e+12 -2.60353e+12 -5.13015e+12 -3.16005e+12 -4.6911e+12 -1.51751e+12 -2.16601e+12 -2.92775e+12 -2.77079e+12 -2.21922e+12 -2.57668e+12 -4.38144e+12 -2.59271e+12 -1.91914e+12 -4.11316e+12 -1.06237e+12 -2.11244e+12 -5.04614e+12 -2.74968e+12 -4.47028e+12 -4.04769e+12 -5.32329e+12 -2.18084e+12 -3.52772e+12 -3.61852e+12 -1.62598e+12 -3.33653e+12 -2.95919e+12 -3.54494e+12 -3.74261e+12 -2.35171e+12 -2.75404e+12 -3.68848e+12 -2.98218e+12 -3.08138e+12 -1.66152e+12 -2.43746e+12 -2.6429e+12 -4.45986e+12 -3.59772e+12 -3.24382e+12 -2.17632e+12 -2.05492e+12 -2.62904e+12 -2.18849e+12 -2.27463e+12 -2.8071e+12 -234471000000.0 -2.39266e+12 -2.43267e+12 -2.02669e+12 -1.67871e+12 -2.56943e+12 -1.89638e+12 -2.21997e+12 -2.14103e+12 -1.72779e+12 -2.63476e+12 -2.81878e+12 -2.78066e+12 -2.27206e+12 -5.3104e+12 -3.2076e+12 -2.41166e+12 -2.49157e+12 -2.21762e+12 -1.67258e+12 -3.23509e+12 -3.72489e+12 -2.46315e+12 -2.79012e+12 -3.97093e+12 -2.99573e+12 -4.74722e+12 -1.37732e+12 -4.16741e+12 -4.01144e+12 -4.49989e+12 -5.40409e+12 -3.30185e+12 -2.75616e+12 -2.61615e+12 -2.47972e+12 -2.58621e+12 -1.89909e+12 -2.82119e+12 -1.88521e+12 -1.27127e+12 -3.1884e+12 -1.67386e+12 -3.87157e+12 -3.79398e+12 -2.18162e+12 -3.13248e+12 -1.14203e+12 -4.28569e+12 -1.9161e+12 -779424000000.0 -1.62369e+12 -3.46937e+12 -2.74106e+12 -5.23207e+12 -1.76749e+12 -3.76396e+12 -2.0288e+12 -1.85601e+12 -2.70304e+12 -1.37607e+12 -1.38756e+12 -3.42432e+12 -3.33528e+12 -2.0106e+12 -2.20359e+12 -2.4952e+12 -2.96277e+12 -1.61734e+12 -2.43304e+12 -2.96191e+12 -2.28993e+12 -4.79757e+12 -3.16262e+12 -4.29435e+12 -3.01515e+12 -3.48784e+12 -3.19103e+12 -3.31592e+12 -1.46228e+12 -2.42401e+12 -3.53456e+12 -2.75893e+12 -2.15803e+12 -2.6316e+12 -3.15959e+12 -3.02573e+12 -3.97943e+12 -1.78474e+12 -3.30766e+12 -3.01724e+12 -2.31318e+12 -1.14772e+12 -2.63668e+12 -3.51576e+12 -2.95418e+12 -1.17668e+12 -2.64297e+12 -1.16445e+12 -1.54543e+12 -1.91601e+12 -2.0531e+12 -2.31068e+12 -828386000000.0 -2.1622e+12 -1.79843e+12 -1.35725e+12 -3.53803e+12 -1.64613e+12 -1.81968e+12 -1.42037e+12 -2.0593e+12 -1.06236e+12 -2.01257e+12 -1.62132e+12 -1.69106e+12 -1.90376e+12 -2.61447e+12 -1.36569e+12 -2.50976e+12 -2.61922e+12 -5.55388e+12 -2.87076e+12 -2.13608e+12 -1.35895e+12 -1.89946e+12 -2.37579e+12 -2.41605e+12 -1.18985e+12 -4.52295e+12 -2.49807e+12 -1.9376e+12 -1.02279e+12 -1.58038e+12 -1.59027e+12 -1.90443e+12 -3.17326e+12 -1.2135e+12 -2.65448e+12 -1.45138e+12 -1.03096e+12 -1.57222e+12 -2.22196e+12 -1.2454e+12 -3.13396e+12 -2.07823e+12 -1.01727e+12 -2.68021e+12 -1.65769e+12 -2.17507e+12 -1.15392e+12 -2.26585e+12 -2.23956e+12 -3.37716e+12 -1.6834e+12 -1.57789e+12 -2.97484e+12 -2.92789e+12 -2.40913e+12 -2.84813e+12 -2.11304e+12 -868655000000.0 -1.82059e+12 -1.51182e+12 -1.59362e+12 -1.4673e+12 -2.35839e+12 -2.36251e+12 -4.01922e+12 -2.53223e+12 -2.8862e+12 -2.20946e+12 -2.86079e+12 -1.51485e+12 -1.93387e+12 -2.31396e+12 -1.81607e+12 -1.52819e+12 -2.04198e+12 -2.46649e+12 -1.66664e+12 -3.35019e+12 -1.36735e+12 -2.76045e+12 -2.8254e+12 -2.84197e+12 -1.58817e+12 -1.76341e+12 -2.41784e+12 -3.09886e+12 -1.79676e+12 -1.65193e+12 -1.06057e+12 -2.25149e+12 -319232000000.0 -2.17291e+12 -1.32456e+12 -1.26819e+12 -2.14147e+12 -1.48009e+12 -1.28658e+12 -2.26653e+12 -1.55592e+12 -865562000000.0 -1.23962e+12 -1.92987e+12 -1.43723e+12 -2.44017e+12 -1.0715e+12 -2.18357e+12 -809767000000.0 -1.53921e+12 -1.59814e+12 -1.23736e+12 -1.4158e+12 -1.02173e+12 -2.51481e+12 -1.09836e+12 -2.02054e+12 -1.00022e+12 -1.35667e+12 -1.93325e+12 -623826000000.0 -1.5694e+12 -1.21821e+12 -1.03122e+12 -1.25897e+12 -2.1658e+12 -1.20703e+12 -710037000000.0 -1.57258e+12 -283434000000.0 -1.84051e+12 -431048000000.0 -1.43877e+12 -2.97543e+12 -2.5365e+12 -1.65691e+12 -1.87922e+12 -2.94348e+12 -2.51271e+12 -1.16338e+12 -1.05842e+12 -990526000000.0 -1.13185e+12 -558327000000.0 -1.90664e+12 -653837000000.0 -604453000000.0 -1.58365e+12 -2.24338e+12 -1.05571e+12 -2.31862e+12 -1.51369e+12 -1.5857e+12 -1.31146e+12 -1.44405e+12 -1.66509e+12 -1.95779e+12 -2.87578e+12 -1.80092e+12 -922842000000.0 -1.03037e+12 -860999000000.0 -1.66391e+12 -2.06525e+12 -2.17472e+12 -827182000000.0 -1.37693e+12 -766082000000.0 -1.17775e+12 -2.19639e+12 -1.99984e+12 -1.717e+12 -2.31417e+12 -2.80948e+12 -1.31806e+12 -930979000000.0 -2.41641e+12 -2.08113e+12 -2.14463e+12 -669382000000.0 -911742000000.0 -946190000000.0 -1.0654e+12 -451318000000.0 -193758000000.0 -1.12649e+12 -329427000000.0 -2.10082e+12 -877424000000.0 -502139000000.0 -1.08602e+12 -669932000000.0 -1.21394e+12 -970891000000.0 -1.28969e+12 -296788000000.0 -677397000000.0 -509091000000.0 -655280000000.0 -243669000000.0 -528090000000.0 -159208000000.0 -955291000000.0 -348689000000.0 -1.02929e+12 -575202000000.0 -908908000000.0 -1.00957e+12 -965320000000.0 -896562000000.0 -680550000000.0 -1.00347e+12 -847536000000.0 -1.00605e+12 -522230000000.0 -951386000000.0 -822368000000.0 -549819000000.0 -870813000000.0 -715401000000.0 -837027000000.0 -1.10768e+12 -1.01118e+12 -1.983e+12 -483740000000.0 -343819000000.0 -990062000000.0 -525124000000.0 -1.82663e+12 -1.10214e+12 -363561000000.0 -1.30021e+12 -362182000000.0 -743888000000.0 -1.9244e+12 -466765000000.0 -468890000000.0 -769304000000.0 -432146000000.0 -887454000000.0 -1.46906e+12 -868381000000.0 -525287000000.0 -1.56938e+12 -840796000000.0 -1.40275e+12 -899770000000.0 -352914000000.0 -834298000000.0 -1.74767e+12 -1.24905e+12 -361120000000.0 -652988000000.0 -1.2297e+12 -968308000000.0 -454994000000.0 -174268000000.0 -1.02393e+12 -731383000000.0 -1.35273e+12 -771721000000.0 -881258000000.0 -1.15325e+12 -692132000000.0 -452422000000.0 -1.23777e+12 -714580000000.0 -707177000000.0 -1.04608e+12 -974025000000.0 -2.01597e+12 -305252000000.0 -1.11051e+12 -707543000000.0 -1.16742e+12 -759851000000.0 -168331000000.0 -79661200000.0 -634358000000.0 -779129000000.0 -414603000000.0 -243507000000.0 -262401000000.0 -209635000000.0 -70586200000.0 -176280000000.0 -251375000000.0 -355687000000.0 -195838000000.0 -284637000000.0 -173932000000.0 -138435000000.0 -134671000000.0 -462680000000.0 -403388000000.0 -353235000000.0 -462309000000.0 -184636000000.0 -301570000000.0 -195295000000.0 -231654000000.0 -465815000000.0 -236163000000.0 -627570000000.0 -318074000000.0 -180574000000.0 -722966000000.0 -339256000000.0 -403127000000.0 -164426000000.0 -87230800000.0 -112611000000.0 -183465000000.0 -350340000000.0 -338925000000.0 -234281000000.0 -260799000000.0 -457088000000.0 -365192000000.0 -345565000000.0 -193890000000.0 -217591000000.0 -217756000000.0 -516219000000.0 -285724000000.0 -483230000000.0 -694154000000.0 -388391000000.0 -226580000000.0 -194057000000.0 -126090000000.0 