# vtk DataFile Version 2.0
Time step 1
ASCII
DATASET UNSTRUCTURED_GRID
POINTS 5000 float
2500.0 247526.0 0
7675.39 247466.0 0
12316.4 247666.0 0
16671.1 246937.0 0
22220.6 247256.0 0
27851.9 245737.0 0
33031.2 247274.0 0
38016.1 247578.0 0
42575.4 247752.0 0
47500.0 247706.0 0
52137.1 247667.0 0
57087.4 246579.0 0
62763.5 247377.0 0
67994.7 247726.0 0
72648.8 247140.0 0
77500.0 247538.0 0
82500.0 247494.0 0
87479.5 247519.0 0
92500.0 247644.0 0
97387.2 247699.0 0
101492.0 247611.0 0
106171.0 247243.0 0
111895.0 247366.0 0
117807.0 247450.0 0
123283.0 247615.0 0
128295.0 247836.0 0
133313.0 246844.0 0
138034.0 247832.0 0
142500.0 247771.0 0
147500.0 247559.0 0
152501.0 247721.0 0
157500.0 247695.0 0
162511.0 247367.0 0
166985.0 247879.0 0
171987.0 246175.0 0
177798.0 246161.0 0
183051.0 246564.0 0
187548.0 247303.0 0
192500.0 248388.0 0
196396.0 247318.0 0
201970.0 246642.0 0
207825.0 247078.0 0
213196.0 247602.0 0
218360.0 247677.0 0
222767.0 247851.0 0
226178.0 247779.0 0
230715.0 246962.0 0
236138.0 247602.0 0
241551.0 246695.0 0
246390.0 250271.0 0
252513.0 248246.0 0
258790.0 248906.0 0
263506.0 249528.0 0
268482.0 249064.0 0
273614.0 249013.0 0
278506.0 247690.0 0
281988.0 250620.0 0
286344.0 249164.0 0
291709.0 249651.0 0
297366.0 247735.0 0
303590.0 248778.0 0
307983.0 250556.0 0
312496.0 248728.0 0
318266.0 249240.0 0
323523.0 249287.0 0
327793.0 249290.0 0
332351.0 249061.0 0
337285.0 249075.0 0
341122.0 249701.0 0
346106.0 248872.0 0
351055.0 249807.0 0
355606.0 249483.0 0
362069.0 248426.0 0
368025.0 249943.0 0
372024.0 246675.0 0
377060.0 248434.0 0
382611.0 249056.0 0
388112.0 248993.0 0
393845.0 247814.0 0
398754.0 250002.0 0
403346.0 247514.0 0
408263.0 248804.0 0
412500.0 249261.0 0
417500.0 249156.0 0
422463.0 249150.0 0
427292.0 249088.0 0
432632.0 247604.0 0
437537.0 249128.0 0
442472.0 248775.0 0
446983.0 248412.0 0
451388.0 249152.0 0
455895.0 249145.0 0
460835.0 249100.0 0
466323.0 249348.0 0
472089.0 248733.0 0
477490.0 247689.0 0
482044.0 249857.0 0
486433.0 246956.0 0
492077.0 248723.0 0
497625.0 247196.0 0
2245.31 254827.0 0
5895.19 252387.0 0
10891.4 253314.0 0
16940.9 254443.0 0
22620.3 254634.0 0
28172.2 252713.0 0
34410.7 254596.0 0
39754.2 254256.0 0
43870.9 254434.0 0
47730.2 253874.0 0
52500.0 254149.0 0
57799.0 253648.0 0
62677.7 254193.0 0
67505.7 253944.0 0
72422.5 253812.0 0
77500.0 254275.0 0
82116.0 253938.0 0
87726.2 253579.0 0
92500.0 254284.0 0
97220.1 254155.0 0
102467.0 253818.0 0
107985.0 253638.0 0
112500.0 254221.0 0
117500.0 254302.0 0
122500.0 254225.0 0
127500.0 254172.0 0
132451.0 254117.0 0
137520.0 254133.0 0
142598.0 253864.0 0
147326.0 254149.0 0
152318.0 253810.0 0
157318.0 253466.0 0
161777.0 253851.0 0
166967.0 253815.0 0
172471.0 252963.0 0
177875.0 252964.0 0
183115.0 252274.0 0
188223.0 253294.0 0
193210.0 253934.0 0
197918.0 253634.0 0
203454.0 253987.0 0
208870.0 254038.0 0
213322.0 253616.0 0
217502.0 254133.0 0
221976.0 254222.0 0
226898.0 253413.0 0
232153.0 254037.0 0
237656.0 254578.0 0
243237.0 254511.0 0
248121.0 254567.0 0
252355.0 254789.0 0
256975.0 253492.0 0
262499.0 254105.0 0
267500.0 254245.0 0
271842.0 253059.0 0
276885.0 253359.0 0
282541.0 254330.0 0
287500.0 254199.0 0
292521.0 254223.0 0
297939.0 253263.0 0
302727.0 254528.0 0
307500.0 254339.0 0
312501.0 254393.0 0
317500.0 254152.0 0
322500.0 254172.0 0
327500.0 254179.0 0
332500.0 254251.0 0
337500.0 254111.0 0
342652.0 253154.0 0
347597.0 253786.0 0
352469.0 253912.0 0
357519.0 254254.0 0
362553.0 253849.0 0
366214.0 254169.0 0
372887.0 253418.0 0
379011.0 252914.0 0
382472.0 254552.0 0
387681.0 253996.0 0
392794.0 253739.0 0
397345.0 253903.0 0
402325.0 253591.0 0
407696.0 253025.0 0
412500.0 254126.0 0
417500.0 254114.0 0
422455.0 253926.0 0
427400.0 254165.0 0
432837.0 252866.0 0
437500.0 254193.0 0
442801.0 253173.0 0
447462.0 252526.0 0
451914.0 253780.0 0
457238.0 254066.0 0
462626.0 254351.0 0
466945.0 254014.0 0
470525.0 254967.0 0
475495.0 254060.0 0
481119.0 255027.0 0
486957.0 253594.0 0
492342.0 255616.0 0
497037.0 252708.0 0
2158.27 259558.0 0
6789.1 257444.0 0
12592.6 259396.0 0
17046.2 259677.0 0
21152.3 259020.0 0
26858.9 259553.0 0
32538.4 259055.0 0
37958.3 259088.0 0
42598.2 258900.0 0
47269.7 258608.0 0
51696.2 259470.0 0
56415.6 259269.0 0
61938.7 259182.0 0
67483.1 258790.0 0
73412.1 259476.0 0
78328.1 259459.0 0
82126.6 258665.0 0
87110.2 259107.0 0
92531.5 259035.0 0
97546.2 258681.0 0
102630.0 259580.0 0
107898.0 258401.0 0
112500.0 259141.0 0
117104.0 259111.0 0
121186.0 258810.0 0
126156.0 258903.0 0
131536.0 259864.0 0
136698.0 259490.0 0
141382.0 258167.0 0
146620.0 259024.0 0
152124.0 260204.0 0
156921.0 258013.0 0
162220.0 260006.0 0
167008.0 261459.0 0
170497.0 258230.0 0
176631.0 258939.0 0
182408.0 257461.0 0
188169.0 259461.0 0
194220.0 258871.0 0
199862.0 258644.0 0
203978.0 259951.0 0
207561.0 258836.0 0
212813.0 258382.0 0
217500.0 259224.0 0
222500.0 259151.0 0
227298.0 258403.0 0
232655.0 259491.0 0
237500.0 259366.0 0
242117.0 259617.0 0
247501.0 258901.0 0
252572.0 259755.0 0
257633.0 258152.0 0
262580.0 258887.0 0
267358.0 258838.0 0
272850.0 258376.0 0
279391.0 257585.0 0
283348.0 259318.0 0
287111.0 259454.0 0
291154.0 259173.0 0
296803.0 258363.0 0
302441.0 259826.0 0
307825.0 258916.0 0
313354.0 259645.0 0
318362.0 259127.0 0
322714.0 258470.0 0
327335.0 259090.0 0
332340.0 259140.0 0
337037.0 259011.0 0
341809.0 257669.0 0
347148.0 258260.0 0
352187.0 258777.0 0
356372.0 259507.0 0
361397.0 258397.0 0
366661.0 258388.0 0
371407.0 259588.0 0
377805.0 258836.0 0
384348.0 258171.0 0
388649.0 260735.0 0
392535.0 258666.0 0
397275.0 258338.0 0
402738.0 259633.0 0
408879.0 258551.0 0
414217.0 259991.0 0
418878.0 259067.0 0
423906.0 258917.0 0
428007.0 260648.0 0
432420.0 258501.0 0
437276.0 259744.0 0
442045.0 258388.0 0
447864.0 257513.0 0
453703.0 258840.0 0
458596.0 259309.0 0
462521.0 258933.0 0
467500.0 259304.0 0
472524.0 258445.0 0
477839.0 258831.0 0
482680.0 259733.0 0
487583.0 260342.0 0
491752.0 259701.0 0
496766.0 259128.0 0
2182.12 264202.0 0
8159.64 263171.0 0
13314.2 264051.0 0
17562.2 263653.0 0
22166.2 263614.0 0
26736.3 265263.0 0
32141.1 263359.0 0
37620.7 264208.0 0
43207.2 263924.0 0
48693.6 263382.0 0
53537.3 264273.0 0
58778.4 264081.0 0
63169.2 264139.0 0
67708.2 264411.0 0
72400.8 264541.0 0
77011.6 263591.0 0
82059.4 263679.0 0
87204.9 264237.0 0
92150.1 264316.0 0
97622.6 264035.0 0
102640.0 265318.0 0
107621.0 263848.0 0
112955.0 263763.0 0
117953.0 263720.0 0
123206.0 263125.0 0
127500.0 264300.0 0
132597.0 264810.0 0
137555.0 263873.0 0
142503.0 264058.0 0
147552.0 263860.0 0
152955.0 264994.0 0
157415.0 263371.0 0
161249.0 264857.0 0
165269.0 265267.0 0
171029.0 264289.0 0
177180.0 265406.0 0
182415.0 262888.0 0
186783.0 265038.0 0
191653.0 264564.0 0
196939.0 263652.0 0
202575.0 263983.0 0
208403.0 264451.0 0
214202.0 263880.0 0
218693.0 264503.0 0
222333.0 263426.0 0
227976.0 263946.0 0
233480.0 264188.0 0
237267.0 263365.0 0
242500.0 264188.0 0
247370.0 264123.0 0
252141.0 264649.0 0
256665.0 263033.0 0
261127.0 263038.0 0
266022.0 263394.0 0
271472.0 264611.0 0
278039.0 263083.0 0
283921.0 264894.0 0
288073.0 262865.0 0
292552.0 264431.0 0
298790.0 264673.0 0
303828.0 264517.0 0
307500.0 264343.0 0
312484.0 264141.0 0
316823.0 264255.0 0
321520.0 263128.0 0
326292.0 264526.0 0
330465.0 264145.0 0
335129.0 265308.0 0
340517.0 263117.0 0
346633.0 264570.0 0
353144.0 264354.0 0
358149.0 263157.0 0
362593.0 264244.0 0
367423.0 262926.0 0
372035.0 265210.0 0
377753.0 265823.0 0
382928.0 263562.0 0
387388.0 264835.0 0
392832.0 264525.0 0
399080.0 264109.0 0
403763.0 264812.0 0
407478.0 263786.0 0
412217.0 264409.0 0
416814.0 264190.0 0
421344.0 264345.0 0
425855.0 264192.0 0
431216.0 264641.0 0
437943.0 263773.0 0
442584.0 263933.0 0
447195.0 262589.0 0
451301.0 263741.0 0
456074.0 264156.0 0
461741.0 263908.0 0
467333.0 264727.0 0
472737.0 263378.0 0
478978.0 264326.0 0
484827.0 264414.0 0
488845.0 265505.0 0
492064.0 263490.0 0
496853.0 265481.0 0
1704.12 269336.0 0
6770.27 269246.0 0
11614.4 267688.0 0
17139.0 268743.0 0
23064.5 268902.0 0
28821.6 268716.0 0
33395.5 269092.0 0
38203.2 268653.0 0
42297.6 269736.0 0
47270.2 268374.0 0
52268.8 269477.0 0
56685.6 268388.0 0
62607.9 268900.0 0
67976.9 269618.0 0
72665.7 268661.0 0
77637.3 268816.0 0
82916.1 268675.0 0
87695.0 269065.0 0
92500.0 269207.0 0
97492.9 269629.0 0
102132.0 269246.0 0
106522.0 269556.0 0
111900.0 268562.0 0
117217.0 269109.0 0
122617.0 268386.0 0
127364.0 268838.0 0
131594.0 269319.0 0
136867.0 268511.0 0
142369.0 269963.0 0
147108.0 268208.0 0
151977.0 269692.0 0
158041.0 268882.0 0
163575.0 269513.0 0
167112.0 268600.0 0
171095.0 270222.0 0
176814.0 271490.0 0
182898.0 269233.0 0
189226.0 269359.0 0
193715.0 268711.0 0
198366.0 269071.0 0
203298.0 268958.0 0
207737.0 270049.0 0
212473.0 269093.0 0
216769.0 267993.0 0
221477.0 268268.0 0
226573.0 269805.0 0
232363.0 269138.0 0
238206.0 267956.0 0
243277.0 268510.0 0
248241.0 269517.0 0
252986.0 269222.0 0
257740.0 268310.0 0
262705.0 266929.0 0
267538.0 268841.0 0
272673.0 270393.0 0
278407.0 269560.0 0
283464.0 269484.0 0
288536.0 268156.0 0
293102.0 269360.0 0
297155.0 270534.0 0
302549.0 269065.0 0
307378.0 269176.0 0
312260.0 268867.0 0
317476.0 268684.0 0
322957.0 268688.0 0
327822.0 269252.0 0
331594.0 268622.0 0
337632.0 269374.0 0
342086.0 268563.0 0
347299.0 270435.0 0
352196.0 270012.0 0
357678.0 268515.0 0
363271.0 269092.0 0
367580.0 267822.0 0
371335.0 270185.0 0
375572.0 270600.0 0
382616.0 269168.0 0
387380.0 269029.0 0
391809.0 270689.0 0
397537.0 269838.0 0
402883.0 268830.0 0
408914.0 268394.0 0
413384.0 268883.0 0
417500.0 269233.0 0
422502.0 269224.0 0
427419.0 268374.0 0
431309.0 270010.0 0
436041.0 268310.0 0
441739.0 269439.0 0
447960.0 268176.0 0
453716.0 269088.0 0
458926.0 269065.0 0
464265.0 269408.0 0
468856.0 269367.0 0
473224.0 268704.0 0
477756.0 270101.0 0
482236.0 269141.0 0
486887.0 269328.0 0
492214.0 269421.0 0
497484.0 270983.0 0
2582.22 273469.0 0
7781.6 275229.0 0
12399.8 272136.0 0
17524.5 274448.0 0
23038.1 274607.0 0
27980.9 272776.0 0
32813.9 274709.0 0
38198.9 273433.0 0
42678.2 274701.0 0
47506.4 274258.0 0
53075.1 274211.0 0
58826.6 273521.0 0
64002.3 274457.0 0
67500.0 274383.0 0
71773.0 272600.0 0
76002.9 273807.0 0
82014.0 274264.0 0
88503.1 274000.0 0
93234.5 274289.0 0
97488.1 274249.0 0
102040.0 274106.0 0
106898.0 274824.0 0
111436.0 273354.0 0
115767.0 273708.0 0
121276.0 274314.0 0
127779.0 274316.0 0
133528.0 273813.0 0
138842.0 274371.0 0
143765.0 274535.0 0
148230.0 273385.0 0
152888.0 274228.0 0
157193.0 274574.0 0
161990.0 273621.0 0
167054.0 273891.0 0
172635.0 275801.0 0
176976.0 275681.0 0
181247.0 275561.0 0
186774.0 274117.0 0
192264.0 273910.0 0
197749.0 274616.0 0
202688.0 273361.0 0
206879.0 274606.0 0
210919.0 274364.0 0
216438.0 273625.0 0
222590.0 273522.0 0
227924.0 275477.0 0
233387.0 276169.0 0
236744.0 272809.0 0
241748.0 274628.0 0
246991.0 274691.0 0
251527.0 273565.0 0
257070.0 274390.0 0
263117.0 272307.0 0
268510.0 274167.0 0
272942.0 275266.0 0
277719.0 275221.0 0
282181.0 273407.0 0
287171.0 274352.0 0
293010.0 273904.0 0
298035.0 275577.0 0
301999.0 272780.0 0
306494.0 273799.0 0
311531.0 274830.0 0
316940.0 273747.0 0
322367.0 274563.0 0
327853.0 274107.0 0
333610.0 273326.0 0
338093.0 275054.0 0
343013.0 274440.0 0
348517.0 275275.0 0
352522.0 274294.0 0
355976.0 272992.0 0
360839.0 273443.0 0
366895.0 273938.0 0
372934.0 275171.0 0
379387.0 273942.0 0
383730.0 273588.0 0
387482.0 273783.0 0
391651.0 275430.0 0
396655.0 275738.0 0
400969.0 274343.0 0
405825.0 273562.0 0
412246.0 273690.0 0
418168.0 274252.0 0
423165.0 275124.0 0
427380.0 272626.0 0
432223.0 274572.0 0
436991.0 273394.0 0
441749.0 274870.0 0
446986.0 274185.0 0
452613.0 274299.0 0
458367.0 274529.0 0
462647.0 274279.0 0
466535.0 273664.0 0
471677.0 274359.0 0
476958.0 274727.0 0
482342.0 274495.0 0
487791.0 274162.0 0
492656.0 274839.0 0
497525.0 275840.0 0
2658.19 279181.0 0
8102.09 281113.0 0
13050.6 277904.0 0
17973.0 280985.0 0
23247.7 280144.0 0
28163.7 277988.0 0
33096.0 280182.0 0
37971.0 278606.0 0
42662.9 278947.0 0
49103.5 278862.0 0
53118.1 279290.0 0
57953.5 279339.0 0
62766.6 278653.0 0
66348.9 278829.0 0
71566.6 277924.0 0
77906.9 278944.0 0
83385.2 279831.0 0
88075.1 278914.0 0
93065.7 279046.0 0
98027.7 279163.0 0
102429.0 279155.0 0
106335.0 279161.0 0
111296.0 278601.0 0
117097.0 278399.0 0
122735.0 279580.0 0
127463.0 279224.0 0
132311.0 278929.0 0
136622.0 279795.0 0
141134.0 279507.0 0
146370.0 278412.0 0
151936.0 279061.0 0
157817.0 279868.0 0
162952.0 278162.0 0
167935.0 278906.0 0
172391.0 281083.0 0
176837.0 279368.0 0
181457.0 281127.0 0
186152.0 279304.0 0
191760.0 279808.0 0
197452.0 279995.0 0
202845.0 278733.0 0
207671.0 278603.0 0
212062.0 278837.0 0
217118.0 279914.0 0
223112.0 279741.0 0
228687.0 281359.0 0
232998.0 280598.0 0
237923.0 279476.0 0
243229.0 279926.0 0
247771.0 279402.0 0
251567.0 279072.0 0
255576.0 280319.0 0
262244.0 279280.0 0
268254.0 279088.0 0
272841.0 279791.0 0
277690.0 280381.0 0
282369.0 278416.0 0
287494.0 280368.0 0
292702.0 279209.0 0
297492.0 280465.0 0
302568.0 278746.0 0
308271.0 279555.0 0
313124.0 279242.0 0
317500.0 279167.0 0
323059.0 280045.0 0
327346.0 279321.0 0
331588.0 279255.0 0
336617.0 278876.0 0
341582.0 280509.0 0
347074.0 280272.0 0
352181.0 278833.0 0
357057.0 277459.0 0
362061.0 278900.0 0
367328.0 279658.0 0
371729.0 280064.0 0
377529.0 280776.0 0
383860.0 278007.0 0
388424.0 279975.0 0
392977.0 279879.0 0
398009.0 281505.0 0
403033.0 278977.0 0
408639.0 278959.0 0
413974.0 278711.0 0
417500.0 279487.0 0
421153.0 278883.0 0
427697.0 279050.0 0
433322.0 278880.0 0
437777.0 278136.0 0
442498.0 279623.0 0
448118.0 279939.0 0
453527.0 279199.0 0
458062.0 279486.0 0
462499.0 279189.0 0
467403.0 278612.0 0
472774.0 279777.0 0
478609.0 279299.0 0
482924.0 279290.0 0
487500.0 279105.0 0
492500.0 279265.0 0
497862.0 280379.0 0
2133.27 284630.0 0
6868.43 286912.0 0
13186.7 284257.0 0
17903.8 285831.0 0
21659.2 284479.0 0
27495.6 284039.0 0
32285.5 284534.0 0
37192.7 284177.0 0
42149.6 285466.0 0
46254.7 282843.0 0
51388.7 284492.0 0
57138.2 285413.0 0
63212.9 283820.0 0
67940.7 282117.0 0
72815.1 284864.0 0
78943.5 284581.0 0
84106.5 285139.0 0
89047.0 283673.0 0
93948.9 285158.0 0
97906.0 283317.0 0
101681.0 285186.0 0
106397.0 283552.0 0
112020.0 284778.0 0
118455.0 283884.0 0
123994.0 284110.0 0
128649.0 282932.0 0
133569.0 284713.0 0
138107.0 284155.0 0
142212.0 284640.0 0
147641.0 283901.0 0
153115.0 284556.0 0
157592.0 284908.0 0
162441.0 283648.0 0
167635.0 283807.0 0
171335.0 284837.0 0
177533.0 284340.0 0
182629.0 285821.0 0
187278.0 284246.0 0
191811.0 285166.0 0
196752.0 285313.0 0
202008.0 284296.0 0
207468.0 283544.0 0
213230.0 284452.0 0
219626.0 284880.0 0
224674.0 285126.0 0
228421.0 285448.0 0
232467.0 284360.0 0
237558.0 284860.0 0
242236.0 283942.0 0
246686.0 284212.0 0
251403.0 283171.0 0
257622.0 285528.0 0
262439.0 285036.0 0
267830.0 284682.0 0
273571.0 284682.0 0
279009.0 285530.0 0
284480.0 284673.0 0
289240.0 285278.0 0
293085.0 284056.0 0
297138.0 285370.0 0
302604.0 284567.0 0
307596.0 284765.0 0
311974.0 283086.0 0
316541.0 283955.0 0
321282.0 284924.0 0
326490.0 284283.0 0
331707.0 284504.0 0
337300.0 284648.0 0
343363.0 285381.0 0
347582.0 284888.0 0
352179.0 283887.0 0
356898.0 282537.0 0
362235.0 284795.0 0
367541.0 284524.0 0
372090.0 284500.0 0
378089.0 287187.0 0
382730.0 284328.0 0
387394.0 284543.0 0
392437.0 284516.0 0
396195.0 286298.0 0
401026.0 285824.0 0
406366.0 284928.0 0
412010.0 283367.0 0
417227.0 283439.0 0
422728.0 283855.0 0
427956.0 285486.0 0
432367.0 283371.0 0
437940.0 283563.0 0
443661.0 284628.0 0
449335.0 286100.0 0
454269.0 283761.0 0
459787.0 284840.0 0
464456.0 285075.0 0
468089.0 283747.0 0
472723.0 284750.0 0
477454.0 284074.0 0
482500.0 284141.0 0
487500.0 284153.0 0
492259.0 283951.0 0
496693.0 284877.0 0
2108.17 289043.0 0
6698.74 292609.0 0
12112.4 290284.0 0
17658.0 290174.0 0
22888.8 289182.0 0
28719.7 290049.0 0
32803.3 287883.0 0
36518.5 289952.0 0
41405.2 289716.0 0
47104.7 289283.0 0
52797.9 289185.0 0
57235.0 291429.0 0
61830.5 289187.0 0
67484.8 288929.0 0
73265.9 291520.0 0
78072.4 289379.0 0
82780.3 290171.0 0
88630.2 289576.0 0
93833.3 289653.0 0
97581.6 288897.0 0
101287.0 289411.0 0
105941.0 288946.0 0
110644.0 289923.0 0
115929.0 289689.0 0
121935.0 288982.0 0
128183.0 288932.0 0
133516.0 289558.0 0
137375.0 288219.0 0
141985.0 289896.0 0
148032.0 290301.0 0
153546.0 289374.0 0
157955.0 289118.0 0
162970.0 289471.0 0
168276.0 288515.0 0
173174.0 288278.0 0
177409.0 289182.0 0
181416.0 290206.0 0
186266.0 289387.0 0
191292.0 289634.0 0
196086.0 290645.0 0
201703.0 289940.0 0
207653.0 289496.0 0
212674.0 289428.0 0
217370.0 289855.0 0
222108.0 289419.0 0
226630.0 289325.0 0
231480.0 288946.0 0
236274.0 289714.0 0
241641.0 288874.0 0
246914.0 289067.0 0
252426.0 288665.0 0
257571.0 290570.0 0
263496.0 290218.0 0
269343.0 290306.0 0
274285.0 289617.0 0
278972.0 290708.0 0
282855.0 288947.0 0
287488.0 290069.0 0
292484.0 288942.0 0
297280.0 290465.0 0
302666.0 289728.0 0
307500.0 289262.0 0
312111.0 288236.0 0
317542.0 288607.0 0
323206.0 289924.0 0
328128.0 289175.0 0
332975.0 289543.0 0
337939.0 289883.0 0
342500.0 289312.0 0
346864.0 289291.0 0
350758.0 288039.0 0
356528.0 288756.0 0
362106.0 289940.0 0
367019.0 289217.0 0
373329.0 289696.0 0
377847.0 291463.0 0
382991.0 289504.0 0
387918.0 288982.0 0
392495.0 289012.0 0
397789.0 290148.0 0
403226.0 290100.0 0
407882.0 289905.0 0
412149.0 288392.0 0
416953.0 288557.0 0
420726.0 290609.0 0
424720.0 289180.0 0
431498.0 288873.0 0
437253.0 289598.0 0
443141.0 290137.0 0
449432.0 292311.0 0
453316.0 288993.0 0
457513.0 290187.0 0
462478.0 289849.0 0
467759.0 289030.0 0
472840.0 289319.0 0
477572.0 289025.0 0
482408.0 289178.0 0
486735.0 288842.0 0
491891.0 289059.0 0
497492.0 289838.0 0
2006.77 293341.0 0
8986.98 296660.0 0
12983.4 295528.0 0
16583.9 294158.0 0
20520.4 293814.0 0
25222.1 294243.0 0
31889.2 294377.0 0
37780.8 295483.0 0
43388.2 294196.0 0
48587.3 295287.0 0
53380.5 294339.0 0
57735.4 296101.0 0
62560.3 294412.0 0
67241.8 294426.0 0
71013.6 296369.0 0
78575.5 294374.0 0
83681.8 294947.0 0
87731.3 294511.0 0
92508.1 294059.0 0
97311.1 293291.0 0
102699.0 294111.0 0
107639.0 293515.0 0
112244.0 294141.0 0
117833.0 295140.0 0
123079.0 294328.0 0
127577.0 294244.0 0
132651.0 294571.0 0
138293.0 293617.0 0
142842.0 294752.0 0
147343.0 296205.0 0
152035.0 294224.0 0
156721.0 294134.0 0
161654.0 294332.0 0
166663.0 293325.0 0
172940.0 294292.0 0
178296.0 294443.0 0
183128.0 294850.0 0
188941.0 294352.0 0
193523.0 294347.0 0
199001.0 294253.0 0
203027.0 295196.0 0
207361.0 294748.0 0
212450.0 294085.0 0
217937.0 294886.0 0
222500.0 294245.0 0
227535.0 294171.0 0
232500.0 294158.0 0
237661.0 294296.0 0
242434.0 294556.0 0
247157.0 293788.0 0
252887.0 294831.0 0
257929.0 294834.0 0
262700.0 296334.0 0
267646.0 294611.0 0
272098.0 294061.0 0
276402.0 294466.0 0
282630.0 293351.0 0
287332.0 295260.0 0
292599.0 293573.0 0
298312.0 295077.0 0
302500.0 294206.0 0
307179.0 294151.0 0
312409.0 293787.0 0
317650.0 293438.0 0
322211.0 295038.0 0
326396.0 294049.0 0
330346.0 294149.0 0
336008.0 294765.0 0
341128.0 293296.0 0
345437.0 294711.0 0
351050.0 293608.0 0
357267.0 295523.0 0
363576.0 294942.0 0
369642.0 294141.0 0
375030.0 294940.0 0
379790.0 295072.0 0
383876.0 295019.0 0
387859.0 293398.0 0
392711.0 294089.0 0
397335.0 294474.0 0
401410.0 294141.0 0
405923.0 294304.0 0
411965.0 294003.0 0
417836.0 293601.0 0
422961.0 294668.0 0
427904.0 292827.0 0
433186.0 294410.0 0
439281.0 295555.0 0
444575.0 294827.0 0
447894.0 297032.0 0
454704.0 294162.0 0
458622.0 294377.0 0
462382.0 294267.0 0
466653.0 294412.0 0
472384.0 293949.0 0
477751.0 294386.0 0
482731.0 294177.0 0
487556.0 293615.0 0
492507.0 294561.0 0
497860.0 294434.0 0
2940.68 298358.0 0
7710.21 300911.0 0
12357.4 299986.0 0
16479.3 298134.0 0
21322.2 298758.0 0
27270.3 299677.0 0
32739.7 299360.0 0
36075.0 300396.0 0
42132.1 299267.0 0
48258.6 300723.0 0
53465.5 299165.0 0
58917.2 299867.0 0
62714.7 298830.0 0
67174.8 298984.0 0
72577.6 300217.0 0
77381.3 299995.0 0
82540.3 298964.0 0
86530.1 298207.0 0
91550.4 298915.0 0
96959.2 298452.0 0
101529.0 299576.0 0
106486.0 298513.0 0
112396.0 299602.0 0
118059.0 300279.0 0
123268.0 299555.0 0
128419.0 298644.0 0
133179.0 300027.0 0
138614.0 299362.0 0
143757.0 299330.0 0
147365.0 300586.0 0
152554.0 298942.0 0
157500.0 299189.0 0
162800.0 298447.0 0
167887.0 298590.0 0
172345.0 300053.0 0
177468.0 299019.0 0
182488.0 299850.0 0
187117.0 299399.0 0
192224.0 299124.0 0
197833.0 299117.0 0
202752.0 299285.0 0
207207.0 299557.0 0
212162.0 299066.0 0
217373.0 300063.0 0
222693.0 299090.0 0
227848.0 299213.0 0
233074.0 299157.0 0
237812.0 298615.0 0
242165.0 299155.0 0
247012.0 298717.0 0
251441.0 299407.0 0
255747.0 299146.0 0
259849.0 300303.0 0
267370.0 299977.0 0
272217.0 298016.0 0
277021.0 299726.0 0
282987.0 298764.0 0
288093.0 299735.0 0
292745.0 299187.0 0
297373.0 299209.0 0
302030.0 298851.0 0
306995.0 299034.0 0
311823.0 298940.0 0
316688.0 298228.0 0
320965.0 299672.0 0
326568.0 299074.0 0
333036.0 300201.0 0
338683.0 299962.0 0
343785.0 299253.0 0
348662.0 299250.0 0
353364.0 299861.0 0
359129.0 300580.0 0
363615.0 300397.0 0
368041.0 299358.0 0
372698.0 299063.0 0
377791.0 299795.0 0
382454.0 298932.0 0
387031.0 298234.0 0
391640.0 298809.0 0
396209.0 299237.0 0
401391.0 299024.0 0
406479.0 299024.0 0
411417.0 300023.0 0
416817.0 298722.0 0
421949.0 299953.0 0
428091.0 298942.0 0
434865.0 299727.0 0
438975.0 300361.0 0
443521.0 299712.0 0
447590.0 299918.0 0
452309.0 299141.0 0
457763.0 298001.0 0
462374.0 299013.0 0
467420.0 299386.0 0
472726.0 299211.0 0
477671.0 299226.0 0
482500.0 299347.0 0
487606.0 298566.0 0
492037.0 299162.0 0
497008.0 299122.0 0
3024.49 304223.0 0
7921.88 305183.0 0
11367.1 304671.0 0
16394.1 303919.0 0
22777.3 304435.0 0
27592.3 304844.0 0
32051.9 303426.0 0
37906.9 305669.0 0
44122.8 304683.0 0
48857.6 306090.0 0
51986.7 303682.0 0
56365.4 303398.0 0
61551.2 303606.0 0
67201.9 304466.0 0
72842.4 304892.0 0
77636.5 305595.0 0
81603.9 303304.0 0
87427.8 303717.0 0
93301.3 305123.0 0
98712.0 303805.0 0
103757.0 303902.0 0
108529.0 303846.0 0
113531.0 304964.0 0
118506.0 305335.0 0
123406.0 304558.0 0
128198.0 303699.0 0
132827.0 304514.0 0
137460.0 304824.0 0
142560.0 303354.0 0
146606.0 304434.0 0
150757.0 303178.0 0
155617.0 303984.0 0
161080.0 303252.0 0
167215.0 304444.0 0
172963.0 304439.0 0
178146.0 304440.0 0
183393.0 304647.0 0
188726.0 304279.0 0
193586.0 304062.0 0
198402.0 304768.0 0
203235.0 304018.0 0
207985.0 304644.0 0
212959.0 304079.0 0
217720.0 305214.0 0
222500.0 304260.0 0
227500.0 304178.0 0
232578.0 304007.0 0
236991.0 302893.0 0
241266.0 304273.0 0
246460.0 304269.0 0
252910.0 304390.0 0
257982.0 304411.0 0
262413.0 304184.0 0
268125.0 304770.0 0
272312.0 302662.0 0
276480.0 304687.0 0
282510.0 304461.0 0
287442.0 304080.0 0
292568.0 304628.0 0
297133.0 303622.0 0
301579.0 304536.0 0
306713.0 303879.0 0
311804.0 304011.0 0
317625.0 303772.0 0
323305.0 304184.0 0
327447.0 304248.0 0
331973.0 304651.0 0
336024.0 305045.0 0
341203.0 304698.0 0
345689.0 303428.0 0
350245.0 304324.0 0
355857.0 305087.0 0
361820.0 305042.0 0
367269.0 304581.0 0
372521.0 303887.0 0
377545.0 305491.0 0
382878.0 303636.0 0
388751.0 303172.0 0
393257.0 304321.0 0
397467.0 304031.0 0
402603.0 304639.0 0
407559.0 303609.0 0
412103.0 304941.0 0
417333.0 304652.0 0
422074.0 304465.0 0
426490.0 304931.0 0
432041.0 304261.0 0
437874.0 304795.0 0
443361.0 304799.0 0
447800.0 303338.0 0
452418.0 304990.0 0
457422.0 302870.0 0
462619.0 304284.0 0
467867.0 304384.0 0
472749.0 304450.0 0
477764.0 303964.0 0
482392.0 304350.0 0
487453.0 303951.0 0
493002.0 303998.0 0
497839.0 303840.0 0
2378.4 309492.0 0
7022.83 309156.0 0
11787.7 309013.0 0
17094.2 310126.0 0
22857.0 310484.0 0
28298.9 309249.0 0
33315.9 307530.0 0
38744.5 310696.0 0
42738.6 309983.0 0
47114.9 309661.0 0
51982.5 309557.0 0
57206.0 308388.0 0
63191.0 309475.0 0
68593.2 309520.0 0
71532.1 309580.0 0
75616.2 310322.0 0
81345.7 309189.0 0
87204.9 310333.0 0
92121.9 309594.0 0
96813.5 309373.0 0
101976.0 308240.0 0
107571.0 309916.0 0
113439.0 309918.0 0
118498.0 310343.0 0
123530.0 309566.0 0
128629.0 308750.0 0
133471.0 308993.0 0
137811.0 310305.0 0
142005.0 308057.0 0
146255.0 309446.0 0
151472.0 308851.0 0
157390.0 308980.0 0
163103.0 308970.0 0
170307.0 309253.0 0
174826.0 310005.0 0
179014.0 309209.0 0
182529.0 309318.0 0
186478.0 309139.0 0
191799.0 309058.0 0
197217.0 310310.0 0
202405.0 309129.0 0
206820.0 309246.0 0
211098.0 309321.0 0
215645.0 309539.0 0
220984.0 309510.0 0
226715.0 309610.0 0
231699.0 308080.0 0
237737.0 308921.0 0
243854.0 309260.0 0
248763.0 309306.0 0
253892.0 310551.0 0
257302.0 307661.0 0
260353.0 309442.0 0
265491.0 308900.0 0
272218.0 308949.0 0
279142.0 309398.0 0
284802.0 309035.0 0
289259.0 308418.0 0
292518.0 310781.0 0
296831.0 308637.0 0
301635.0 310787.0 0
306313.0 309111.0 0
312369.0 309967.0 0
318397.0 309491.0 0
323556.0 309118.0 0
328300.0 307923.0 0
333019.0 309133.0 0
337610.0 309631.0 0
341625.0 309217.0 0
346397.0 308412.0 0
352472.0 309914.0 0
359011.0 309624.0 0
363773.0 309869.0 0
368248.0 309419.0 0
372507.0 308814.0 0
376655.0 310382.0 0
380943.0 309145.0 0
386536.0 309227.0 0
392946.0 309102.0 0
398331.0 309298.0 0
402862.0 309520.0 0
407759.0 308905.0 0
413686.0 309706.0 0
419063.0 310071.0 0
423093.0 309234.0 0
428855.0 309491.0 0
433874.0 309210.0 0
438370.0 309931.0 0
442413.0 308843.0 0
447299.0 308585.0 0
452436.0 309963.0 0
457658.0 308631.0 0
462906.0 309094.0 0
467787.0 309628.0 0
472721.0 309155.0 0
477488.0 308998.0 0
482537.0 308957.0 0
487558.0 309457.0 0
492551.0 308990.0 0
497592.0 308328.0 0
2472.89 314434.0 0
7689.02 314042.0 0
12021.7 314235.0 0
15889.9 315301.0 0
21071.3 315719.0 0
26681.1 314479.0 0
33745.9 312575.0 0
39612.2 314849.0 0
44407.4 314761.0 0
48463.0 314211.0 0
52747.3 314645.0 0
58645.8 313329.0 0
62800.1 314441.0 0
67500.0 314159.0 0
72148.1 313859.0 0
77685.3 314548.0 0
82366.1 314548.0 0
86943.0 315863.0 0
92488.2 314199.0 0
97541.9 314362.0 0
102662.0 313917.0 0
107280.0 315526.0 0
111238.0 314078.0 0
115970.0 314761.0 0
121173.0 314833.0 0
126730.0 314142.0 0
132478.0 314020.0 0
137112.0 314598.0 0
142134.0 313782.0 0
147488.0 313564.0 0
152028.0 315130.0 0
156814.0 313964.0 0
161512.0 314321.0 0
166799.0 313469.0 0
172065.0 313994.0 0
177540.0 314399.0 0
183065.0 313185.0 0
188611.0 314204.0 0
193718.0 314234.0 0
198007.0 315296.0 0
202500.0 314151.0 0
207500.0 314149.0 0
212370.0 314128.0 0
217665.0 314197.0 0
222746.0 314422.0 0
227248.0 314564.0 0
232422.0 314393.0 0
238567.0 314775.0 0
242663.0 314112.0 0
246914.0 313744.0 0
251917.0 315426.0 0
257215.0 314716.0 0
262311.0 313722.0 0
267693.0 314081.0 0
273051.0 315728.0 0
278789.0 315416.0 0
283078.0 313173.0 0
288066.0 313816.0 0
293269.0 314890.0 0
298425.0 314717.0 0
302500.0 314552.0 0
307500.0 314157.0 0
312527.0 315678.0 0
316496.0 314453.0 0
321383.0 314246.0 0
327767.0 313669.0 0
333688.0 314188.0 0
338003.0 315405.0 0
341456.0 313299.0 0
347016.0 314850.0 0
352800.0 314957.0 0
358232.0 315150.0 0
362971.0 313918.0 0
367733.0 314722.0 0
373172.0 313794.0 0
377840.0 314847.0 0
383119.0 314692.0 0
388717.0 315005.0 0
393586.0 314346.0 0
397852.0 313878.0 0
402408.0 314122.0 0
407868.0 314680.0 0
413595.0 315082.0 0
417793.0 314026.0 0
420949.0 314597.0 0
425927.0 314631.0 0
431922.0 313859.0 0
436609.0 313947.0 0
442048.0 313655.0 0
448160.0 314903.0 0
453025.0 314027.0 0
457951.0 314987.0 0
463374.0 313570.0 0
468026.0 314880.0 0
472341.0 313941.0 0
477050.0 314170.0 0
481851.0 313223.0 0
486335.0 314219.0 0
491453.0 314174.0 0
496957.0 313627.0 0
2866.41 319556.0 0
7935.02 319092.0 0
12500.0 319148.0 0
17847.8 319896.0 0
22421.3 320139.0 0
26570.3 319442.0 0
31217.2 318171.0 0
36232.2 318354.0 0
42500.0 319198.0 0
47443.7 318541.0 0
51507.2 318869.0 0
56836.0 318718.0 0
62540.7 318490.0 0
67233.5 319262.0 0
72589.1 319075.0 0
78185.6 319163.0 0
82707.3 319157.0 0
87272.5 319953.0 0
90925.6 319381.0 0
95981.1 319361.0 0
101843.0 319615.0 0
107446.0 320381.0 0
112637.0 318696.0 0
118255.0 319452.0 0
123169.0 319307.0 0
127558.0 319189.0 0
132067.0 319480.0 0
137014.0 319120.0 0
141426.0 320341.0 0
145930.0 318431.0 0
151060.0 320508.0 0
155845.0 318665.0 0
161665.0 320595.0 0
168811.0 319614.0 0
175147.0 320046.0 0
180458.0 319898.0 0
184899.0 317911.0 0
189504.0 319405.0 0
194112.0 318850.0 0
198722.0 320092.0 0
203805.0 319128.0 0
207941.0 319378.0 0
212204.0 319060.0 0
217196.0 319556.0 0
222607.0 319139.0 0
227701.0 319120.0 0
232536.0 318673.0 0
236959.0 319610.0 0
242578.0 318833.0 0
248040.0 318597.0 0
252623.0 319608.0 0
257318.0 319893.0 0
262624.0 319007.0 0
267454.0 318612.0 0
271389.0 321220.0 0
276610.0 320368.0 0
283887.0 318261.0 0
288942.0 318669.0 0
293063.0 319455.0 0
297275.0 319089.0 0
302305.0 318243.0 0
307500.0 319207.0 0
311433.0 319716.0 0
317497.0 319152.0 0
322538.0 319906.0 0
327464.0 319143.0 0
332186.0 319539.0 0
336928.0 319367.0 0
341971.0 318817.0 0
347787.0 320428.0 0
351948.0 319330.0 0
356080.0 320056.0 0
363185.0 318850.0 0
368161.0 319958.0 0
372326.0 318920.0 0
377177.0 319877.0 0
381714.0 319339.0 0
386201.0 319883.0 0
391873.0 319700.0 0
397819.0 319162.0 0
403441.0 319115.0 0
408090.0 319804.0 0
412467.0 319719.0 0
417259.0 318920.0 0
422123.0 318800.0 0
427042.0 320748.0 0
433073.0 319606.0 0
438714.0 318091.0 0
443867.0 318885.0 0
448587.0 320902.0 0
452831.0 318589.0 0
457217.0 320600.0 0
462417.0 319294.0 0
467370.0 319457.0 0
471814.0 318536.0 0
476184.0 318977.0 0
481297.0 318471.0 0
486872.0 319263.0 0
492124.0 319645.0 0
497523.0 319210.0 0
2460.6 324964.0 0
7485.51 324026.0 0
11669.6 324473.0 0
15531.3 324210.0 0
20284.1 324600.0 0
25464.3 324661.0 0
32277.3 324834.0 0
38928.1 322663.0 0
42924.5 326237.0 0
47868.9 323796.0 0
53046.5 322859.0 0
58054.0 324832.0 0
63779.1 323672.0 0
69351.4 324221.0 0
74257.8 324709.0 0
78728.9 323941.0 0
82763.9 324211.0 0
87225.0 324477.0 0
92728.5 324082.0 0
98361.9 324879.0 0
103714.0 324249.0 0
107500.0 324504.0 0
112147.0 324374.0 0
118738.0 324513.0 0
122582.0 324412.0 0
127951.0 323767.0 0
132494.0 323826.0 0
137357.0 323942.0 0
141584.0 324539.0 0
146779.0 324263.0 0
152219.0 325749.0 0
157002.0 324500.0 0
161284.0 326247.0 0
166094.0 325710.0 0
172539.0 324466.0 0
178247.0 323755.0 0
183146.0 324887.0 0
188457.0 323908.0 0
192886.0 324177.0 0
197500.0 324239.0 0
202500.0 324180.0 0
207672.0 322995.0 0
212430.0 324088.0 0
217852.0 324000.0 0
222012.0 324129.0 0
226791.0 324057.0 0
232107.0 322957.0 0
238063.0 324348.0 0
242708.0 324110.0 0
248070.0 323483.0 0
252351.0 323391.0 0
256806.0 324735.0 0
260917.0 323707.0 0
266095.0 323510.0 0
272808.0 325126.0 0
275903.0 324665.0 0
281295.0 323844.0 0
287430.0 323459.0 0
292876.0 324326.0 0
298175.0 323602.0 0
304126.0 322983.0 0
308880.0 324527.0 0
313449.0 323157.0 0
317592.0 323822.0 0
322043.0 325199.0 0
327043.0 323832.0 0
332500.0 324324.0 0
337130.0 324038.0 0
342113.0 324326.0 0
347130.0 324775.0 0
351668.0 323586.0 0
356829.0 324690.0 0
362681.0 325083.0 0
368042.0 324150.0 0
373075.0 324230.0 0
378386.0 324523.0 0
382382.0 323771.0 0
387207.0 325523.0 0
392407.0 324946.0 0
396613.0 324370.0 0
401326.0 324032.0 0
406402.0 323986.0 0
411692.0 324713.0 0
417380.0 324213.0 0
422518.0 323645.0 0
426979.0 326264.0 0
432065.0 325380.0 0
437856.0 323416.0 0
443808.0 324565.0 0
448766.0 325391.0 0
453272.0 324059.0 0
458119.0 324644.0 0
462005.0 324265.0 0
467011.0 324354.0 0
472244.0 323438.0 0
477766.0 323709.0 0
483559.0 323299.0 0
487759.0 323670.0 0
491758.0 324669.0 0
496640.0 324558.0 0
2337.7 329777.0 0
6978.45 329262.0 0
11387.8 329278.0 0
16414.6 329557.0 0
22171.7 329516.0 0
26836.8 329266.0 0
31668.3 332511.0 0
38070.0 329678.0 0
43847.1 330757.0 0
47417.6 328883.0 0
52298.6 328391.0 0
57653.2 330733.0 0
62839.5 328993.0 0
67683.7 329679.0 0
72734.5 329351.0 0
77877.8 329087.0 0
83350.3 328923.0 0
88577.1 329370.0 0
92889.1 328913.0 0
96799.6 329456.0 0
102239.0 329719.0 0
107256.0 328030.0 0
111746.0 330592.0 0
116600.0 328698.0 0
121435.0 329701.0 0
127039.0 329156.0 0
132679.0 328657.0 0
138115.0 328782.0 0
143780.0 329547.0 0
148932.0 328902.0 0
153087.0 330281.0 0
157623.0 329401.0 0
162603.0 329488.0 0
167350.0 331029.0 0
171253.0 329447.0 0
176195.0 328495.0 0
182281.0 330536.0 0
187757.0 328897.0 0
192858.0 328954.0 0
198067.0 329111.0 0
202551.0 329833.0 0
206816.0 327828.0 0
210940.0 330646.0 0
216225.0 329279.0 0
221765.0 328407.0 0
226369.0 329538.0 0
232279.0 329017.0 0
238236.0 329090.0 0
242274.0 332443.0 0
246454.0 328677.0 0
252945.0 328463.0 0
258370.0 329826.0 0
263358.0 328759.0 0
269055.0 328329.0 0
273605.0 328583.0 0
277741.0 328026.0 0
282949.0 330055.0 0
288196.0 328643.0 0
292655.0 330020.0 0
297003.0 328509.0 0
302568.0 329421.0 0
308114.0 329415.0 0
312366.0 327733.0 0
317810.0 329168.0 0
323563.0 330402.0 0
328598.0 328800.0 0
333818.0 329238.0 0
339072.0 329404.0 0
344157.0 329070.0 0
348968.0 329248.0 0
353257.0 327752.0 0
358316.0 330112.0 0
363595.0 330570.0 0
368081.0 328809.0 0
372351.0 329013.0 0
376938.0 329254.0 0
382384.0 328445.0 0
387498.0 329934.0 0
392500.0 329222.0 0
397088.0 329159.0 0
402357.0 329343.0 0
407768.0 329009.0 0
412324.0 329310.0 0
416557.0 329377.0 0
422121.0 329218.0 0
427506.0 330306.0 0
430887.0 329951.0 0
436447.0 329488.0 0
442781.0 330521.0 0
447296.0 328843.0 0
451887.0 329958.0 0
456960.0 328709.0 0
462317.0 329321.0 0
467686.0 329545.0 0
472985.0 328599.0 0
478200.0 329061.0 0
482860.0 327676.0 0
488270.0 328588.0 0
493216.0 329254.0 0
498209.0 328851.0 0
2747.74 334569.0 0
8146.39 334283.0 0
12627.3 334192.0 0
17048.5 334314.0 0
21091.9 334301.0 0
26013.6 335215.0 0
34048.6 337930.0 0
37467.4 335015.0 0
41952.4 334605.0 0
47637.0 334453.0 0
53293.5 334039.0 0
58843.8 335853.0 0
63612.6 334126.0 0
68294.2 334260.0 0
72449.1 334129.0 0
77313.8 334164.0 0
82144.3 334145.0 0
86380.4 333100.0 0
91382.7 333714.0 0
96817.5 333879.0 0
101657.0 335653.0 0
107604.0 335348.0 0
113594.0 335377.0 0
117172.0 333492.0 0
121228.0 334485.0 0
126000.0 334852.0 0
132173.0 334533.0 0
137897.0 334572.0 0
142975.0 335050.0 0
147910.0 333403.0 0
152852.0 334916.0 0
157698.0 334267.0 0
162825.0 334013.0 0
167739.0 335987.0 0
172576.0 333981.0 0
178027.0 333737.0 0
182293.0 335711.0 0
186284.0 333558.0 0
192477.0 333950.0 0
197495.0 334211.0 0
201983.0 334004.0 0
207608.0 334015.0 0
212748.0 334300.0 0
217493.0 335249.0 0
222234.0 333205.0 0
227571.0 334460.0 0
233044.0 334537.0 0
237905.0 334290.0 0
242379.0 336048.0 0
246891.0 333846.0 0
251524.0 334104.0 0
256096.0 333652.0 0
261385.0 334732.0 0
266902.0 332977.0 0
272087.0 333049.0 0
277615.0 333553.0 0
282664.0 336132.0 0
287832.0 333884.0 0
292759.0 334879.0 0
297759.0 333769.0 0
302556.0 334975.0 0
307080.0 334234.0 0
313094.0 333775.0 0
317952.0 333922.0 0
321937.0 335883.0 0
328680.0 334211.0 0
332935.0 334342.0 0
336577.0 334058.0 0
342074.0 334496.0 0
347418.0 334221.0 0
352903.0 333132.0 0
357647.0 335174.0 0
362301.0 335341.0 0
367591.0 334113.0 0
373299.0 333759.0 0
378030.0 334338.0 0
382287.0 333631.0 0
387500.0 334473.0 0
392500.0 334172.0 0
396449.0 334335.0 0
400165.0 333790.0 0
406201.0 334847.0 0
412762.0 333827.0 0
418321.0 334290.0 0
423380.0 334511.0 0
428136.0 334150.0 0
432949.0 334331.0 0
437689.0 335043.0 0
441718.0 334903.0 0
447421.0 334113.0 0
452006.0 335182.0 0
456594.0 333601.0 0
461486.0 335047.0 0
466250.0 334731.0 0
470524.0 333212.0 0
475702.0 333779.0 0
482129.0 333488.0 0
488184.0 334034.0 0
492598.0 335606.0 0
497129.0 333411.0 0
2500.0 339233.0 0
7470.18 339104.0 0
12326.2 338245.0 0
17628.7 338705.0 0
22500.0 339226.0 0
26295.9 339743.0 0
30386.1 341073.0 0
37455.1 340094.0 0
41871.0 339728.0 0
46746.6 339999.0 0
51817.0 339335.0 0
56965.7 339906.0 0
62459.3 339559.0 0
67843.8 339142.0 0
72879.3 338645.0 0
77066.5 339298.0 0
81764.4 339302.0 0
87445.0 338046.0 0
92879.5 339390.0 0
97805.3 339160.0 0
102880.0 340737.0 0
107192.0 340409.0 0
111512.0 339555.0 0
117265.0 339172.0 0
123060.0 339147.0 0
128700.0 339917.0 0
133978.0 339749.0 0
137854.0 339307.0 0
142169.0 339234.0 0
148093.0 339084.0 0
153449.0 339780.0 0
157979.0 338733.0 0
162414.0 339128.0 0
166284.0 340291.0 0
172148.0 338215.0 0
177854.0 339199.0 0
183237.0 340605.0 0
188127.0 338344.0 0
193630.0 339527.0 0
198592.0 338463.0 0
203617.0 339021.0 0
208890.0 339576.0 0
213390.0 338389.0 0
217509.0 339649.0 0
222678.0 338645.0 0
226880.0 339414.0 0
231285.0 339718.0 0
236677.0 338876.0 0
241181.0 339896.0 0
245503.0 338000.0 0
250836.0 339261.0 0
256732.0 339393.0 0
262382.0 340595.0 0
266535.0 337808.0 0
272381.0 338810.0 0
278141.0 339272.0 0
283619.0 341343.0 0
288789.0 339431.0 0
293775.0 339315.0 0
298491.0 339026.0 0
302748.0 338862.0 0
307071.0 339330.0 0
312313.0 339985.0 0
317446.0 338580.0 0
322356.0 340702.0 0
326422.0 338764.0 0
331989.0 338598.0 0
337884.0 339287.0 0
343114.0 339724.0 0
346684.0 339184.0 0
351339.0 339225.0 0
358004.0 339538.0 0
362586.0 340217.0 0
367345.0 339461.0 0
372654.0 339351.0 0
377591.0 339145.0 0
382986.0 338695.0 0
387603.0 339182.0 0
391133.0 340038.0 0
395411.0 338836.0 0
401365.0 338598.0 0
405522.0 341033.0 0
410752.0 339720.0 0
417212.0 340176.0 0
423457.0 340024.0 0
428826.0 338856.0 0
433438.0 339157.0 0
438542.0 340030.0 0
444032.0 338581.0 0
448512.0 339431.0 0
451896.0 339378.0 0
456898.0 339597.0 0
462406.0 339678.0 0
466443.0 340087.0 0
470768.0 338156.0 0
476545.0 340044.0 0
482795.0 339957.0 0
488464.0 339215.0 0
492674.0 339227.0 0
496999.0 339098.0 0
2557.96 343960.0 0
7767.18 343522.0 0
12915.9 342757.0 0
17291.4 343545.0 0
22389.4 343477.0 0
27423.3 344086.0 0
33491.6 344973.0 0
38080.5 344070.0 0
42801.0 345047.0 0
47500.0 344286.0 0
51827.6 344982.0 0
58057.7 344625.0 0
63599.6 345064.0 0
68193.1 344211.0 0
72908.3 343250.0 0
77418.9 344257.0 0
80781.7 344332.0 0
86407.3 344245.0 0
92910.2 344420.0 0
98354.4 344494.0 0
102955.0 344749.0 0
107598.0 344186.0 0
112501.0 344141.0 0
117516.0 344877.0 0
122500.0 344245.0 0
126807.0 344932.0 0
132287.0 344287.0 0
137259.0 343882.0 0
141168.0 344892.0 0
145205.0 344159.0 0
151199.0 343762.0 0
157043.0 344045.0 0
162864.0 343546.0 0
167878.0 344662.0 0
173393.0 343677.0 0
179128.0 345157.0 0
183251.0 344452.0 0
186968.0 343623.0 0
191990.0 344518.0 0
197075.0 343308.0 0
202090.0 344257.0 0
207568.0 344910.0 0
213020.0 342656.0 0
217498.0 344209.0 0
221555.0 343555.0 0
226836.0 343974.0 0
231457.0 344718.0 0
236794.0 344333.0 0
241465.0 344637.0 0
246688.0 343824.0 0
253262.0 344800.0 0
258084.0 344582.0 0
262388.0 345316.0 0
267745.0 342642.0 0
273132.0 344861.0 0
278286.0 344151.0 0
285186.0 345544.0 0
288763.0 344044.0 0
292183.0 342858.0 0
296574.0 343806.0 0
302434.0 343800.0 0
308133.0 344349.0 0
313648.0 345677.0 0
318682.0 343337.0 0
323106.0 345247.0 0
328335.0 343960.0 0
334154.0 343699.0 0
338129.0 344901.0 0
342776.0 344989.0 0
348224.0 343853.0 0
354226.0 344114.0 0
358456.0 344357.0 0
362435.0 344305.0 0
366848.0 344553.0 0
372135.0 344753.0 0
377572.0 343396.0 0
381365.0 343262.0 0
386947.0 344167.0 0
391712.0 343494.0 0
396729.0 344616.0 0
402217.0 342643.0 0
407709.0 345134.0 0
413073.0 345587.0 0
418014.0 345384.0 0
421997.0 344985.0 0
427612.0 343212.0 0
431909.0 344191.0 0
436866.0 345465.0 0
442514.0 343980.0 0
447989.0 343904.0 0
453134.0 344481.0 0
457947.0 345378.0 0
462292.0 344052.0 0
466565.0 344374.0 0
471474.0 343682.0 0
477591.0 345878.0 0
481875.0 344853.0 0
486215.0 343911.0 0
492051.0 344203.0 0
497853.0 344336.0 0
1863.28 348122.0 0
6579.68 348446.0 0
12274.3 348041.0 0
18123.0 348561.0 0
23742.1 348315.0 0
29344.2 348396.0 0
34508.2 349946.0 0
38948.1 349019.0 0
42965.0 349772.0 0
47368.9 348969.0 0
51898.8 349825.0 0
56766.1 349838.0 0
61945.2 350144.0 0
66480.2 349292.0 0
71572.4 348365.0 0
77051.5 347812.0 0
82181.9 349330.0 0
88205.6 350611.0 0
93313.5 348524.0 0
97500.0 349320.0 0
102500.0 349113.0 0
107510.0 348675.0 0
112421.0 348478.0 0
117500.0 349514.0 0
122468.0 348557.0 0
127608.0 349944.0 0
132515.0 349119.0 0
137746.0 348809.0 0
142227.0 348778.0 0
147970.0 349087.0 0
153205.0 348096.0 0
157588.0 349964.0 0
162224.0 348423.0 0
166581.0 349126.0 0
171711.0 349286.0 0
176725.0 349503.0 0
180823.0 349619.0 0
185477.0 348584.0 0
190934.0 349267.0 0
195993.0 348819.0 0
201748.0 349901.0 0
206895.0 350155.0 0
212707.0 348574.0 0
218338.0 350167.0 0
223000.0 348277.0 0
227930.0 349764.0 0
232999.0 349084.0 0
238200.0 350188.0 0
243587.0 349208.0 0
248572.0 349130.0 0
252663.0 350384.0 0
256522.0 348487.0 0
260929.0 350038.0 0
267440.0 349149.0 0
273013.0 350536.0 0
276565.0 349226.0 0
281336.0 348193.0 0
286639.0 349880.0 0
292221.0 347980.0 0
298238.0 349600.0 0
303349.0 348838.0 0
307664.0 349208.0 0
312199.0 351277.0 0
318002.0 349329.0 0
322708.0 349436.0 0
327356.0 349465.0 0
331950.0 348193.0 0
337196.0 349105.0 0
341606.0 350174.0 0
347114.0 349466.0 0
353084.0 349325.0 0
358229.0 348398.0 0
363174.0 348930.0 0
367934.0 348929.0 0
372500.0 349580.0 0
376791.0 347549.0 0
383105.0 348472.0 0
388505.0 349404.0 0
393035.0 348233.0 0
397196.0 349394.0 0
402186.0 347519.0 0
408449.0 349818.0 0
412713.0 350534.0 0
417500.0 349218.0 0
422845.0 349070.0 0
428282.0 347798.0 0
432500.0 349403.0 0
439083.0 349669.0 0
443695.0 348555.0 0
448100.0 348988.0 0
452500.0 349188.0 0
457444.0 349925.0 0
461993.0 349214.0 0
466706.0 349181.0 0
472573.0 349415.0 0
477493.0 350854.0 0
482066.0 349522.0 0
487715.0 348955.0 0
492986.0 350268.0 0
497704.0 349165.0 0
3410.23 353822.0 0
8671.12 354927.0 0
12529.3 353355.0 0
17893.6 354698.0 0
23435.3 353686.0 0
28606.8 353984.0 0
33171.8 354130.0 0
37874.7 354247.0 0
43019.0 354195.0 0
47582.7 354077.0 0
52116.2 354372.0 0
56986.7 355159.0 0
61772.2 354824.0 0
66309.8 354334.0 0
71485.6 354194.0 0
78020.9 354627.0 0
83925.5 354308.0 0
87625.7 355690.0 0
93695.7 352659.0 0
98799.4 353923.0 0
103431.0 354738.0 0
108000.0 353712.0 0
113281.0 353400.0 0
117862.0 354223.0 0
122791.0 352918.0 0
127424.0 354921.0 0
131828.0 353864.0 0
135949.0 352742.0 0
140548.0 353373.0 0
145717.0 354151.0 0
152406.0 354113.0 0
158085.0 354849.0 0
162827.0 353587.0 0
168346.0 353585.0 0
173948.0 354684.0 0
179035.0 353373.0 0
183706.0 354552.0 0
188503.0 352713.0 0
193490.0 354375.0 0
198430.0 353657.0 0
202638.0 354700.0 0
207374.0 355228.0 0
212776.0 354955.0 0
217846.0 354565.0 0
222485.0 353589.0 0
227219.0 354384.0 0
232285.0 354480.0 0
237193.0 354933.0 0
241816.0 354327.0 0
247045.0 353440.0 0
251557.0 354406.0 0
256721.0 353977.0 0
261855.0 354485.0 0
266743.0 355867.0 0
272618.0 355099.0 0
277665.0 354223.0 0
282478.0 353370.0 0
287361.0 354974.0 0
293288.0 354370.0 0
298605.0 354649.0 0
303188.0 353704.0 0
308063.0 354141.0 0
311484.0 355776.0 0
315749.0 355420.0 0
320527.0 353945.0 0
326058.0 354945.0 0
333078.0 354232.0 0
338942.0 354983.0 0
343170.0 354217.0 0
347011.0 354364.0 0
351379.0 354520.0 0
357260.0 353692.0 0
362731.0 353993.0 0
367901.0 353785.0 0
373059.0 353320.0 0
377724.0 352474.0 0
382583.0 354512.0 0
387746.0 354284.0 0
392412.0 353099.0 0
397390.0 353763.0 0
403153.0 353778.0 0
407728.0 354193.0 0
411492.0 355001.0 0
416365.0 354183.0 0
421474.0 353768.0 0
426907.0 352939.0 0
431593.0 355201.0 0
436244.0 353420.0 0
442645.0 354005.0 0
449472.0 354660.0 0
454824.0 354088.0 0
458971.0 354549.0 0
462892.0 353402.0 0
467163.0 354096.0 0
471486.0 354312.0 0
475931.0 354569.0 0
480663.0 355086.0 0
486246.0 354494.0 0
491717.0 354615.0 0
496775.0 354470.0 0
2964.79 360352.0 0
8048.81 359051.0 0
13176.3 358580.0 0
17797.9 360679.0 0
22595.0 359161.0 0
27932.6 359010.0 0
33291.5 358933.0 0
38309.9 359258.0 0
42500.0 359259.0 0
47500.0 359095.0 0
52500.0 359154.0 0
57512.2 360438.0 0
62690.3 359280.0 0
66954.7 359290.0 0
72921.5 360165.0 0
78297.0 360429.0 0
82462.8 359084.0 0
86943.4 359588.0 0
91872.3 357967.0 0
97587.9 359198.0 0
102254.0 359257.0 0
107407.0 359561.0 0
113415.0 358768.0 0
117719.0 359681.0 0
121677.0 357974.0 0
126466.0 360111.0 0
130666.0 358002.0 0
136283.0 358376.0 0
142340.0 358308.0 0
148162.0 359785.0 0
153279.0 359455.0 0
157302.0 359252.0 0
162775.0 359680.0 0
168751.0 358984.0 0
173944.0 359849.0 0
178742.0 358376.0 0
183271.0 360102.0 0
188524.0 358302.0 0
193617.0 359485.0 0
198140.0 358645.0 0
202957.0 359115.0 0
206733.0 359506.0 0
210657.0 359516.0 0
216422.0 358932.0 0
222297.0 359439.0 0
228139.0 358961.0 0
232581.0 359069.0 0
237231.0 359657.0 0
242338.0 359215.0 0
247572.0 358754.0 0
253153.0 358679.0 0
257864.0 359294.0 0
261635.0 358253.0 0
265193.0 360898.0 0
272271.0 359681.0 0
276301.0 358655.0 0
282119.0 359225.0 0
287453.0 359352.0 0
291641.0 359790.0 0
297130.0 358926.0 0
304256.0 359301.0 0
308681.0 359502.0 0
312896.0 359714.0 0
317779.0 359393.0 0
322500.0 359381.0 0
328975.0 359425.0 0
333215.0 360300.0 0
337202.0 359102.0 0
341176.0 358580.0 0
346104.0 358947.0 0
352132.0 360376.0 0
357243.0 358920.0 0
361896.0 358908.0 0
367290.0 360058.0 0
372125.0 357965.0 0
377689.0 358003.0 0
383685.0 360509.0 0
388749.0 360095.0 0
392816.0 358183.0 0
398386.0 359468.0 0
403643.0 358718.0 0
407500.0 359326.0 0
411715.0 359271.0 0
415807.0 358965.0 0
420916.0 359243.0 0
427383.0 359372.0 0
432837.0 359167.0 0
437953.0 359212.0 0
444052.0 359878.0 0
448848.0 360800.0 0
453535.0 358887.0 0
458298.0 358624.0 0
462219.0 357510.0 0
466504.0 359165.0 0
471571.0 358762.0 0
477544.0 359094.0 0
482567.0 360144.0 0
489732.0 358529.0 0
493309.0 359704.0 0
497366.0 360264.0 0
2090.73 365446.0 0
6176.27 364466.0 0
11468.0 364520.0 0
17614.5 365119.0 0
22689.5 364718.0 0
28094.3 363977.0 0
33207.2 364281.0 0
38179.1 363884.0 0
43134.2 364137.0 0
47515.2 364178.0 0
52500.0 364097.0 0
57532.8 364869.0 0
62295.5 364333.0 0
67591.7 363601.0 0
71916.5 365826.0 0
77200.2 364524.0 0
81823.3 364140.0 0
86413.4 363771.0 0
91864.7 364268.0 0
97930.8 364576.0 0
102842.0 363841.0 0
107305.0 365455.0 0
111593.0 363415.0 0
116048.0 363544.0 0
121354.0 363761.0 0
126526.0 364987.0 0
131968.0 363839.0 0
137918.0 364219.0 0
143320.0 363906.0 0
149430.0 365190.0 0
153464.0 363328.0 0
157756.0 364105.0 0
162142.0 365228.0 0
166505.0 363705.0 0
171271.0 363639.0 0
176665.0 364305.0 0
181481.0 364159.0 0
186756.0 364579.0 0
192051.0 363107.0 0
197023.0 364478.0 0
202370.0 362745.0 0
207979.0 364297.0 0
213653.0 363248.0 0
218292.0 363102.0 0
222113.0 364812.0 0
226610.0 363809.0 0
232286.0 364049.0 0
237249.0 366217.0 0
241026.0 363653.0 0
246679.0 364776.0 0
252781.0 364193.0 0
257576.0 363455.0 0
262343.0 365389.0 0
269478.0 363819.0 0
273647.0 366016.0 0
277021.0 363264.0 0
282128.0 366007.0 0
288263.0 364117.0 0
294232.0 364395.0 0
300134.0 363600.0 0
303658.0 367000.0 0
307546.0 364176.0 0
312902.0 364793.0 0
317960.0 363909.0 0
322219.0 365072.0 0
326174.0 363266.0 0
331270.0 364933.0 0
336395.0 363789.0 0
342215.0 363966.0 0
347895.0 364221.0 0
352245.0 365843.0 0
357453.0 364223.0 0
362999.0 363887.0 0
367551.0 365435.0 0
372208.0 363185.0 0
377582.0 363691.0 0
382303.0 366775.0 0
387749.0 364936.0 0
393295.0 363757.0 0
398056.0 366117.0 0
403730.0 364127.0 0
409186.0 365037.0 0
413546.0 363430.0 0
417940.0 364619.0 0
422149.0 364325.0 0
427322.0 365949.0 0
432407.0 363821.0 0
436481.0 363889.0 0
442408.0 364967.0 0
447341.0 364037.0 0
451734.0 364612.0 0
455789.0 363050.0 0
461734.0 363763.0 0
468387.0 364611.0 0
474284.0 363679.0 0
479387.0 364045.0 0
482432.0 366921.0 0
487322.0 363964.0 0
493697.0 364654.0 0
498389.0 364612.0 0
2370.52 369571.0 0
3120.26 374112.0 0
6610.51 369311.0 0
7499.65 374302.0 0
11520.5 371232.0 0
13803.9 376153.0 0
16871.6 369542.0 0
17253.9 374047.0 0
21272.4 369485.0 0
22388.8 374743.0 0
26081.0 368752.0 0
27904.0 373291.0 0
31959.9 369534.0 0
32636.8 375183.0 0
37722.9 368956.0 0
38105.0 374280.0 0
42832.9 369234.0 0
43243.8 374186.0 0
48296.9 369050.0 0
47956.0 374437.0 0
52981.0 369276.0 0
52500.0 374208.0 0
57499.7 369128.0 0
57228.7 374128.0 0
62500.2 369189.0 0
62289.6 373480.0 0
67366.7 369199.0 0
66944.2 374386.0 0
73772.6 369813.0 0
71959.0 374420.0 0
77241.4 368910.0 0
77405.3 372942.0 0
81139.9 369209.0 0
82500.0 374360.0 0
86783.0 368925.0 0
87210.5 374231.0 0
92874.6 370705.0 0
91718.1 376360.0 0
98330.1 369616.0 0
97500.0 374199.0 0
102999.0 368585.0 0
102500.0 374116.0 0
107181.0 370934.0 0
106681.0 374919.0 0
112081.0 368667.0 0
111076.0 374299.0 0
117559.0 367994.0 0
117536.0 373572.0 0
122486.0 370332.0 0
126841.0 368918.0 0
122714.0 375606.0 0
127196.0 374034.0 0
131111.0 369973.0 0
132109.0 375279.0 0
135119.0 368194.0 0
137207.0 375087.0 0
140150.0 369891.0 0
143977.0 374036.0 0
146747.0 369689.0 0
148905.0 375298.0 0
153404.0 369282.0 0
154146.0 374932.0 0
159263.0 369035.0 0
158417.0 373712.0 0
162886.0 371577.0 0
162346.0 375707.0 0
166764.0 368809.0 0
166657.0 374051.0 0
172184.0 368536.0 0
172279.0 374258.0 0
177626.0 370730.0 0
177887.0 376610.0 0
183058.0 369129.0 0
181526.0 374072.0 0
188142.0 370267.0 0
185728.0 374656.0 0
192533.0 367656.0 0
191991.0 373681.0 0
197002.0 370989.0 0
197790.0 376022.0 0
202449.0 367755.0 0
201734.0 373135.0 0
207618.0 370571.0 0
206916.0 375167.0 0
213014.0 368938.0 0
211545.0 374545.0 0
218483.0 367770.0 0
217393.0 373422.0 0
223481.0 369443.0 0
223371.0 375074.0 0
229072.0 369337.0 0
228828.0 374750.0 0
234050.0 368932.0 0
233890.0 373615.0 0
237413.0 370376.0 0
238000.0 374484.0 0
241588.0 368863.0 0
242409.0 374586.0 0
247137.0 370909.0 0
249106.0 375657.0 0
252714.0 369619.0 0
253337.0 374590.0 0
257478.0 367975.0 0
257815.0 373025.0 0
262143.0 370700.0 0
260632.0 375819.0 0
267974.0 369809.0 0
264725.0 375234.0 0
273740.0 370431.0 0
271343.0 374592.0 0
278075.0 369650.0 0
277194.0 375030.0 0
282817.0 372272.0 0
282283.0 376949.0 0
286516.0 369160.0 0
288008.0 374367.0 0
291405.0 369713.0 0
294364.0 374609.0 0
297903.0 369596.0 0
299541.0 375121.0 0
303299.0 370787.0 0
303816.0 374479.0 0
307769.0 369458.0 0
307500.0 374236.0 0
312453.0 369635.0 0
312012.0 373936.0 0
316740.0 368340.0 0
316889.0 372889.0 0
320908.0 369189.0 0
322768.0 373583.0 0
327008.0 369628.0 0
327390.0 375594.0 0
333438.0 370122.0 0
332157.0 374586.0 0
338422.0 367882.0 0
338275.0 372358.0 0
342639.0 369606.0 0
342563.0 374579.0 0
347294.0 369158.0 0
347235.0 374055.0 0
352409.0 370425.0 0
351981.0 375318.0 0
357439.0 369904.0 0
356352.0 374185.0 0
362453.0 368788.0 0
360968.0 373698.0 0
366692.0 369606.0 0
366931.0 374657.0 0
371133.0 368893.0 0
376694.0 369155.0 0
373256.0 374196.0 0
379571.0 374552.0 0
382659.0 371354.0 0
384700.0 375576.0 0
386586.0 369921.0 0
389121.0 374381.0 0
391929.0 369645.0 0
393674.0 376309.0 0
396668.0 370109.0 0
397251.0 373744.0 0
401654.0 370525.0 0
401139.0 376475.0 0
407187.0 368891.0 0
406729.0 374261.0 0
411936.0 368530.0 0
413418.0 374477.0 0
417054.0 369162.0 0
418627.0 374822.0 0
422619.0 369648.0 0
421965.0 374303.0 0
427468.0 371149.0 0
425880.0 375186.0 0
432251.0 369414.0 0
430844.0 374495.0 0
437672.0 368107.0 0
437112.0 374377.0 0
442320.0 370379.0 0
443565.0 374931.0 0
447721.0 368501.0 0
448747.0 374555.0 0
451886.0 371246.0 0
453620.0 374562.0 0
456184.0 368619.0 0
458521.0 374440.0 0
461925.0 370279.0 0
463178.0 374189.0 0
466642.0 369369.0 0
467303.0 374160.0 0
472470.0 370135.0 0
472071.0 376289.0 0
478188.0 369103.0 0
477091.0 373255.0 0
481621.0 370466.0 0
481581.0 374286.0 0
486617.0 370679.0 0
487068.0 376089.0 0
491936.0 369559.0 0
492020.0 374120.0 0
497106.0 369495.0 0
497213.0 375136.0 0
2587.32 379199.0 0
6966.8 379255.0 0
11185.4 379693.0 0
17421.8 379049.0 0
21818.4 379898.0 0
27831.2 378957.0 0
33677.9 379679.0 0
37889.3 379428.0 0
42500.0 379181.0 0
46927.4 379133.0 0
51594.0 379046.0 0
56427.3 379283.0 0
61934.7 379429.0 0
68025.7 379169.0 0
73203.3 379438.0 0
78706.6 378616.0 0
83157.6 378937.0 0
87181.7 379009.0 0
91239.9 380824.0 0
97500.0 379149.0 0
102500.0 379141.0 0
107500.0 379130.0 0
112216.0 379057.0 0
117389.0 379513.0 0
122539.0 380225.0 0
126678.0 378991.0 0
131437.0 381001.0 0
136334.0 379512.0 0
141598.0 378676.0 0
147302.0 380762.0 0
152662.0 379615.0 0
158534.0 379480.0 0
163631.0 379734.0 0
167804.0 378795.0 0
173294.0 380577.0 0
178389.0 380952.0 0
181440.0 379184.0 0
186387.0 380198.0 0
192829.0 379366.0 0
198037.0 380339.0 0
202758.0 378189.0 0
207773.0 379016.0 0
212183.0 379639.0 0
217561.0 379375.0 0
222735.0 380481.0 0
228051.0 380095.0 0
233051.0 378561.0 0
237198.0 378951.0 0
241505.0 380152.0 0
245944.0 378437.0 0
252180.0 379397.0 0
257741.0 378745.0 0
262517.0 379355.0 0
268352.0 379378.0 0
273417.0 379287.0 0
277684.0 380581.0 0
282149.0 380409.0 0
285895.0 378890.0 0
291540.0 379681.0 0
297719.0 380346.0 0
302560.0 378492.0 0
306380.0 380398.0 0
311582.0 379073.0 0
317686.0 378722.0 0
323209.0 378393.0 0
326861.0 382472.0 0
331279.0 379046.0 0
337384.0 378142.0 0
343712.0 380083.0 0
348661.0 378564.0 0
352841.0 380104.0 0
357955.0 378682.0 0
362870.0 378097.0 0
366512.0 380021.0 0
371216.0 379745.0 0
376795.0 379804.0 0
382843.0 379275.0 0
387666.0 379438.0 0
392190.0 380253.0 0
397076.0 379784.0 0
403014.0 381349.0 0
408332.0 380027.0 0
413056.0 380128.0 0
417300.0 379310.0 0
422475.0 378768.0 0
428027.0 379771.0 0
432951.0 378459.0 0
437251.0 380464.0 0
442416.0 379821.0 0
447293.0 380279.0 0
451655.0 378948.0 0
456966.0 380358.0 0
462426.0 378504.0 0
467620.0 379414.0 0
472202.0 381445.0 0
477226.0 378075.0 0
482637.0 379401.0 0
487580.0 380648.0 0
492658.0 378408.0 0
497577.0 379835.0 0
3401.52 385179.0 0
8961.01 384202.0 0
13568.9 384073.0 0
18539.8 384051.0 0
22909.5 383990.0 0
27385.6 385021.0 0
32689.5 384127.0 0
37630.6 384146.0 0
42370.2 384175.0 0
47619.7 384051.0 0
52644.1 383777.0 0
57071.2 383941.0 0
61345.9 385379.0 0
65702.4 384190.0 0
70742.0 384126.0 0
76965.7 385002.0 0
83409.8 383212.0 0
89026.5 384631.0 0
93971.4 383236.0 0
98199.0 384288.0 0
102747.0 384115.0 0
106525.0 384547.0 0
111392.0 384210.0 0
118040.0 385800.0 0
122819.0 384359.0 0
126932.0 384250.0 0
132500.0 386238.0 0
137041.0 384170.0 0
143134.0 384644.0 0
147391.0 384767.0 0
152981.0 384756.0 0
157581.0 384773.0 0
162138.0 384160.0 0
167382.0 383894.0 0
172278.0 386418.0 0
176873.0 384821.0 0
180931.0 383654.0 0
185010.0 386022.0 0
190266.0 384644.0 0
195629.0 384583.0 0
201502.0 384379.0 0
207669.0 383945.0 0
213147.0 384568.0 0
218798.0 385288.0 0
223940.0 384699.0 0
228043.0 386272.0 0
232661.0 383727.0 0
237405.0 382877.0 0
241407.0 385680.0 0
246910.0 383442.0 0
251761.0 383912.0 0
257109.0 385046.0 0
263244.0 383734.0 0
268331.0 384459.0 0
273898.0 384838.0 0
279321.0 384668.0 0
282903.0 385599.0 0
287336.0 384204.0 0
292803.0 385331.0 0
296821.0 384976.0 0
302500.0 384135.0 0
307519.0 384266.0 0
312896.0 383777.0 0
317656.0 384743.0 0
322551.0 384312.0 0
329339.0 385872.0 0
332382.0 384137.0 0
337994.0 384471.0 0
342774.0 385139.0 0
346506.0 384427.0 0
351040.0 384817.0 0
356018.0 383643.0 0
362266.0 383997.0 0
368653.0 384391.0 0
373685.0 385087.0 0
379092.0 384932.0 0
383784.0 383303.0 0
387781.0 384213.0 0
392414.0 384064.0 0
397526.0 384321.0 0
401772.0 385819.0 0
406263.0 384980.0 0
411105.0 384676.0 0
416650.0 384975.0 0
422438.0 384225.0 0
427847.0 385357.0 0
433272.0 384007.0 0
438588.0 385438.0 0
443665.0 384898.0 0
448490.0 384670.0 0
453324.0 384697.0 0
458268.0 385278.0 0
462987.0 384436.0 0
467662.0 384204.0 0
471055.0 385619.0 0
476938.0 383978.0 0
482424.0 384642.0 0
487090.0 385348.0 0
492126.0 383501.0 0
497619.0 384544.0 0
2321.16 389940.0 0
6152.73 390145.0 0
11184.7 388974.0 0
17233.3 389444.0 0
22235.3 388916.0 0
27454.9 390961.0 0
33494.8 389521.0 0
38577.5 389282.0 0
43034.6 389187.0 0
47560.0 389352.0 0
52593.4 388497.0 0
57500.0 389297.0 0
62803.1 389535.0 0
67531.0 389007.0 0
72620.4 388822.0 0
76563.4 390643.0 0
82103.1 389746.0 0
88033.6 389177.0 0
93688.8 388281.0 0
98294.3 388993.0 0
102488.0 388805.0 0
107119.0 389201.0 0
112915.0 389982.0 0
118071.0 391655.0 0
122739.0 389364.0 0
127452.0 388974.0 0
131390.0 389386.0 0
135426.0 389329.0 0
140862.0 390195.0 0
149104.0 388538.0 0
153714.0 388871.0 0
157785.0 389333.0 0
162500.0 389168.0 0
167643.0 388948.0 0
171581.0 390969.0 0
177496.0 389399.0 0
181660.0 389375.0 0
186950.0 391734.0 0
192486.0 389425.0 0
197410.0 389232.0 0
202781.0 390724.0 0
208597.0 389505.0 0
213883.0 389631.0 0
218963.0 390505.0 0
223856.0 389533.0 0
228597.0 390337.0 0
233026.0 388923.0 0
237424.0 388542.0 0
241960.0 389684.0 0
245967.0 389052.0 0
251757.0 388821.0 0
257394.0 390887.0 0
261191.0 388895.0 0
266202.0 389059.0 0
272483.0 389630.0 0
276978.0 389169.0 0
281199.0 389187.0 0
285998.0 389854.0 0
291855.0 389902.0 0
297183.0 389564.0 0
302894.0 389100.0 0
307868.0 389341.0 0
312279.0 387852.0 0
316603.0 390102.0 0
322094.0 388914.0 0
327196.0 388857.0 0
331513.0 389150.0 0
336431.0 390145.0 0
342914.0 389336.0 0
347500.0 389161.0 0
351895.0 389556.0 0
357521.0 387872.0 0
361616.0 390369.0 0
366424.0 388860.0 0
371599.0 390165.0 0
377525.0 390708.0 0
384002.0 389013.0 0
389765.0 389997.0 0
394728.0 388505.0 0
399516.0 389191.0 0
403377.0 389935.0 0
407891.0 389567.0 0
412909.0 389355.0 0
417747.0 390035.0 0
422524.0 389409.0 0
428258.0 390095.0 0
432246.0 388813.0 0
436539.0 389908.0 0
441708.0 389609.0 0
446994.0 389125.0 0
451862.0 389477.0 0
457352.0 389908.0 0
462580.0 389801.0 0
467686.0 388966.0 0
472769.0 389370.0 0
477734.0 389638.0 0
483071.0 389446.0 0
487570.0 389502.0 0
492955.0 389392.0 0
497576.0 388984.0 0
2741.33 393976.0 0
8372.79 394574.0 0
13990.8 394082.0 0
18991.9 394633.0 0
23080.3 393862.0 0
28095.1 396177.0 0
32408.2 394314.0 0
37500.0 394344.0 0
41899.5 393984.0 0
46196.7 394371.0 0
51391.1 393829.0 0
56922.6 394375.0 0
61724.6 393772.0 0
66712.6 394585.0 0
72731.4 394322.0 0
78715.1 394592.0 0
82724.5 395189.0 0
86424.8 393270.0 0
91425.0 393912.0 0
97620.0 393579.0 0
103801.0 394568.0 0
108927.0 393328.0 0
113926.0 395343.0 0
117474.0 395040.0 0
122114.0 393778.0 0
126943.0 394097.0 0
132172.0 394225.0 0
136666.0 393975.0 0
141262.0 396153.0 0
146740.0 393894.0 0
152718.0 392890.0 0
157437.0 394231.0 0
161802.0 394393.0 0
167451.0 394867.0 0
173505.0 394943.0 0
178297.0 394204.0 0
182627.0 394711.0 0
185888.0 396974.0 0
193975.0 394338.0 0
198348.0 393646.0 0
202591.0 396437.0 0
207267.0 394610.0 0
211515.0 393557.0 0
216170.0 394748.0 0
221411.0 394468.0 0
226742.0 394828.0 0
231431.0 393031.0 0
236719.0 393922.0 0
242551.0 393363.0 0
247950.0 394291.0 0
253348.0 394181.0 0
257963.0 396100.0 0
262805.0 393827.0 0
269319.0 394782.0 0
275232.0 393418.0 0
279403.0 393170.0 0
283487.0 394700.0 0
288915.0 394406.0 0
293648.0 393879.0 0
298008.0 394946.0 0
302312.0 393665.0 0
306980.0 394312.0 0
311980.0 393601.0 0
318126.0 394255.0 0
322898.0 394550.0 0
328153.0 393591.0 0
332549.0 393271.0 0
337057.0 395995.0 0
342490.0 393414.0 0
346693.0 394317.0 0
350514.0 394025.0 0
356255.0 393553.0 0
364091.0 394610.0 0
368762.0 394585.0 0
373225.0 394407.0 0
377698.0 396667.0 0
381499.0 393878.0 0
387243.0 394217.0 0
392768.0 394133.0 0
397720.0 392996.0 0
402002.0 393969.0 0
406704.0 394622.0 0
411759.0 394126.0 0
416743.0 394748.0 0
421300.0 393606.0 0
425888.0 394012.0 0
431622.0 393950.0 0
437230.0 394809.0 0
442837.0 395134.0 0
448644.0 394096.0 0
454011.0 393995.0 0
459164.0 394576.0 0
463154.0 394024.0 0
467495.0 394083.0 0
472500.0 394146.0 0
479238.0 394108.0 0
483461.0 393917.0 0
487661.0 394183.0 0
491884.0 394176.0 0
497162.0 393321.0 0
2403.07 399019.0 0
6875.24 399205.0 0
12187.7 399927.0 0
17335.5 398921.0 0
22196.6 398638.0 0
27066.3 400387.0 0
31784.8 398995.0 0
36795.7 399264.0 0
42256.3 399128.0 0
47681.8 399107.0 0
52752.8 399387.0 0
57687.8 399266.0 0
62470.6 398622.0 0
66541.9 398983.0 0
70775.7 400512.0 0
76024.8 399043.0 0
81060.5 399789.0 0
87240.3 398952.0 0
94309.5 398885.0 0
99513.7 399193.0 0
103344.0 399349.0 0
108062.0 397880.0 0
112856.0 400274.0 0
117526.0 398991.0 0
122539.0 398298.0 0
127505.0 399332.0 0
132456.0 398913.0 0
136965.0 399231.0 0
143160.0 401077.0 0
148493.0 399316.0 0
153752.0 397906.0 0
158130.0 399315.0 0
162500.0 399518.0 0
167152.0 400995.0 0
172381.0 399226.0 0
176850.0 399161.0 0
181643.0 398915.0 0
185427.0 400763.0 0
190893.0 399569.0 0
197498.0 398685.0 0
202271.0 401181.0 0
207012.0 399974.0 0
212052.0 398363.0 0
218030.0 400219.0 0
223161.0 399214.0 0
227289.0 399557.0 0
231758.0 398113.0 0
236423.0 399155.0 0
241188.0 399075.0 0
246895.0 399895.0 0
252541.0 399578.0 0
257645.0 401047.0 0
261863.0 398995.0 0
266448.0 400297.0 0
273359.0 399997.0 0
278229.0 397639.0 0
281684.0 399523.0 0
286248.0 399867.0 0
292221.0 398920.0 0
297885.0 400441.0 0
302854.0 398041.0 0
307546.0 399321.0 0
312765.0 399767.0 0
318282.0 398914.0 0
322516.0 400518.0 0
326894.0 398804.0 0
332010.0 397641.0 0
336746.0 400822.0 0
342910.0 398426.0 0
348045.0 399865.0 0
352656.0 398849.0 0
358891.0 399075.0 0
363744.0 399298.0 0
367992.0 398728.0 0
372539.0 398682.0 0
377398.0 401082.0 0
382705.0 397591.0 0
386538.0 399098.0 0
390804.0 398740.0 0
396995.0 398345.0 0
403120.0 399062.0 0
408366.0 399118.0 0
412810.0 399141.0 0
417023.0 399303.0 0
421796.0 398668.0 0
428150.0 398852.0 0
433504.0 399203.0 0
438697.0 399950.0 0
443266.0 399967.0 0
447500.0 399263.0 0
451807.0 398563.0 0
456739.0 398356.0 0
461976.0 398832.0 0
467258.0 398795.0 0
471438.0 399929.0 0
476448.0 398544.0 0
483387.0 399064.0 0
488571.0 398996.0 0
493472.0 398119.0 0
497869.0 398093.0 0
2437.63 403826.0 0
7804.38 404280.0 0
13653.5 405092.0 0
17139.5 402923.0 0
23045.8 403913.0 0
27789.0 405016.0 0
32757.7 404160.0 0
37799.9 404126.0 0
42500.0 404260.0 0
47361.2 404125.0 0
52520.1 404833.0 0
57457.0 404071.0 0
63296.7 403170.0 0
67276.1 404280.0 0
73393.2 404499.0 0
77500.0 404338.0 0
82257.9 404611.0 0
86647.3 404694.0 0
91199.1 403335.0 0
96580.8 404282.0 0
102168.0 403383.0 0
108027.0 403386.0 0
113059.0 405929.0 0
117026.0 403439.0 0
122356.0 404025.0 0
127941.0 404226.0 0
133224.0 403592.0 0
138287.0 403713.0 0
142429.0 405969.0 0
146962.0 404163.0 0
152656.0 403750.0 0
158448.0 404183.0 0
163344.0 404235.0 0
167496.0 404867.0 0
171547.0 403878.0 0
176829.0 404143.0 0
182272.0 404392.0 0
187479.0 404343.0 0
192328.0 405797.0 0
197606.0 404696.0 0
202184.0 405445.0 0
206446.0 404952.0 0
211522.0 403858.0 0
216359.0 405152.0 0
220835.0 404573.0 0
225816.0 403679.0 0
231566.0 404123.0 0
237653.0 403749.0 0
242804.0 405898.0 0
248451.0 405468.0 0
253997.0 404730.0 0
258454.0 405293.0 0
262850.0 404219.0 0
268318.0 405348.0 0
273379.0 405369.0 0
278613.0 403373.0 0
284154.0 405093.0 0
288552.0 404207.0 0
292612.0 403989.0 0
296584.0 405167.0 0
302744.0 403942.0 0
308313.0 404199.0 0
313195.0 405075.0 0
318423.0 403861.0 0
322389.0 404393.0 0
326649.0 404567.0 0
332173.0 402930.0 0
336295.0 404521.0 0
340599.0 404797.0 0
345775.0 403695.0 0
351209.0 404416.0 0
357129.0 404233.0 0
361877.0 403195.0 0
367001.0 404088.0 0
373149.0 404314.0 0
377972.0 405452.0 0
382727.0 402911.0 0
388364.0 404008.0 0
393381.0 402884.0 0
398624.0 404056.0 0
403728.0 405017.0 0
408630.0 403864.0 0
413641.0 404408.0 0
418549.0 403548.0 0
423129.0 403503.0 0
427478.0 403994.0 0
432583.0 404450.0 0
437229.0 402772.0 0
442376.0 404017.0 0
446407.0 403825.0 0
451718.0 404203.0 0
457222.0 403184.0 0
462383.0 405112.0 0
467922.0 403891.0 0
472279.0 403493.0 0
476428.0 404323.0 0
481227.0 403857.0 0
486489.0 404322.0 0
492030.0 402756.0 0
497438.0 402908.0 0
2720.21 409238.0 0
8035.1 410097.0 0
13283.4 410036.0 0
18935.2 407965.0 0
24405.3 408500.0 0
28764.5 409665.0 0
33663.5 409306.0 0
38646.1 409173.0 0
42500.0 409375.0 0
47203.1 409127.0 0
51799.9 410002.0 0
56318.5 409212.0 0
61219.2 407734.0 0
66856.3 409120.0 0
73047.6 409683.0 0
78545.1 409647.0 0
82079.8 408533.0 0
86447.7 409582.0 0
92003.1 408379.0 0
97374.5 409663.0 0
102843.0 408974.0 0
108869.0 409561.0 0
113832.0 410040.0 0
116970.0 408918.0 0
120915.0 409230.0 0
126162.0 409407.0 0
132040.0 409954.0 0
136792.0 408140.0 0
140768.0 410769.0 0
147009.0 409489.0 0
153509.0 410203.0 0
159073.0 409084.0 0
163644.0 409437.0 0
167905.0 408497.0 0
172670.0 408996.0 0
177591.0 409088.0 0
182326.0 409074.0 0
187004.0 409460.0 0
193208.0 411014.0 0
197453.0 409482.0 0
203324.0 409631.0 0
207510.0 409218.0 0
211736.0 409027.0 0
217434.0 409335.0 0
221943.0 409224.0 0
227226.0 409253.0 0
233639.0 409463.0 0
238708.0 408887.0 0
242234.0 410518.0 0
245754.0 409729.0 0
252075.0 409780.0 0
256632.0 408696.0 0
262500.0 409219.0 0
266987.0 410514.0 0
271620.0 409444.0 0
276559.0 409197.0 0
282444.0 409358.0 0
287720.0 408412.0 0
292790.0 408806.0 0
297622.0 409071.0 0
302472.0 409813.0 0
306942.0 408782.0 0
311345.0 410023.0 0
316910.0 408762.0 0
322067.0 409141.0 0
326891.0 410073.0 0
333107.0 409309.0 0
338537.0 408973.0 0
342823.0 409690.0 0
347612.0 408363.0 0
352076.0 409336.0 0
357206.0 410029.0 0
362231.0 407647.0 0
366610.0 409398.0 0
371154.0 409457.0 0
376251.0 409875.0 0
381452.0 408812.0 0
386541.0 408657.0 0
391829.0 408194.0 0
398012.0 410000.0 0
402244.0 408634.0 0
406218.0 409702.0 0
411143.0 408620.0 0
415952.0 409375.0 0
421493.0 408487.0 0
427305.0 409220.0 0
432755.0 410967.0 0
437871.0 407420.0 0
443366.0 410210.0 0
447703.0 407570.0 0
451853.0 409850.0 0
457398.0 408963.0 0
462002.0 410790.0 0
466685.0 410150.0 0
471637.0 407849.0 0
477027.0 410226.0 0
482263.0 408204.0 0
486131.0 410914.0 0
491097.0 408496.0 0
497174.0 408665.0 0
2507.74 414493.0 0
7651.9 414435.0 0
11754.6 415011.0 0
17338.4 413941.0 0
22356.8 412578.0 0
27462.7 414200.0 0
32315.5 413526.0 0
37500.0 414193.0 0
42509.3 413793.0 0
47378.3 414366.0 0
51201.1 414900.0 0
56580.8 414033.0 0
62918.3 414080.0 0
68762.1 414243.0 0
72727.0 414935.0 0
76898.5 414224.0 0
82038.0 413068.0 0
87176.7 414928.0 0
93581.9 413577.0 0
98967.5 414675.0 0
103976.0 414019.0 0
108709.0 415178.0 0
113374.0 414029.0 0
117959.0 413039.0 0
122879.0 413609.0 0
127525.0 414686.0 0
132454.0 414715.0 0
137176.0 414198.0 0
143884.0 414132.0 0
148067.0 414580.0 0
152584.0 415895.0 0
157649.0 414618.0 0
162500.0 414056.0 0
167838.0 413887.0 0
172965.0 413449.0 0
177444.0 413997.0 0
182704.0 413555.0 0
188098.0 415031.0 0
192646.0 415245.0 0
196188.0 414407.0 0
200828.0 414054.0 0
206314.0 413868.0 0
212336.0 414560.0 0
217921.0 413841.0 0
222531.0 414265.0 0
227057.0 414455.0 0
231754.0 414253.0 0
237052.0 413783.0 0
241972.0 414211.0 0
247623.0 415060.0 0
253555.0 414578.0 0
258065.0 412849.0 0
262762.0 413965.0 0
267579.0 415712.0 0
273383.0 413742.0 0
279448.0 413759.0 0
283666.0 414406.0 0
288170.0 413179.0 0
292699.0 413503.0 0
297205.0 413661.0 0
301756.0 414713.0 0
307500.0 414147.0 0
313093.0 414885.0 0
317912.0 413853.0 0
322341.0 413984.0 0
326783.0 415475.0 0
332188.0 415471.0 0
336624.0 413781.0 0
340786.0 414048.0 0
346932.0 414216.0 0
353162.0 413827.0 0
358022.0 415054.0 0
363225.0 413325.0 0
369056.0 414328.0 0
373417.0 413166.0 0
376450.0 414967.0 0
381620.0 414866.0 0
388644.0 413176.0 0
393545.0 412926.0 0
397444.0 415233.0 0
402713.0 414600.0 0
408402.0 414401.0 0
412598.0 412867.0 0
416841.0 414298.0 0
422113.0 414514.0 0
427499.0 414602.0 0
432138.0 416283.0 0
437386.0 414771.0 0
442923.0 415702.0 0
448127.0 413756.0 0
453656.0 414248.0 0
458497.0 414899.0 0
463762.0 414869.0 0
468359.0 414896.0 0
472708.0 414090.0 0
478098.0 415713.0 0
481870.0 413143.0 0
485575.0 415630.0 0
490170.0 414165.0 0
497270.0 414685.0 0
2295.06 419269.0 0
7115.38 418656.0 0
11943.6 419791.0 0
17097.7 419453.0 0
23287.1 418399.0 0
28675.6 419445.0 0
32365.3 417554.0 0
36781.1 418577.0 0
42175.9 419200.0 0
47992.4 419012.0 0
52618.2 419147.0 0
57288.2 419519.0 0
62655.5 420332.0 0
67704.8 418903.0 0
72746.2 419305.0 0
77524.4 418930.0 0
81891.4 418103.0 0
86153.0 419863.0 0
91355.1 418693.0 0
97461.1 420126.0 0
102261.0 418280.0 0
106582.0 419600.0 0
111616.0 419487.0 0
117169.0 418588.0 0
123690.0 419510.0 0
129101.0 419792.0 0
132565.0 419034.0 0
137079.0 419331.0 0
142506.0 418467.0 0
148280.0 419936.0 0
153171.0 419867.0 0
156895.0 419551.0 0
161436.0 418616.0 0
166318.0 419911.0 0
172403.0 418882.0 0
178735.0 419171.0 0
184006.0 418571.0 0
188235.0 419743.0 0
192327.0 419193.0 0
197093.0 419187.0 0
202445.0 419286.0 0
207709.0 418868.0 0
212895.0 420468.0 0
218239.0 418957.0 0
222580.0 419314.0 0
226757.0 419317.0 0
232117.0 419439.0 0
237490.0 419095.0 0
242636.0 418859.0 0
247277.0 421312.0 0
252170.0 419457.0 0
257490.0 418179.0 0
262401.0 418598.0 0
266437.0 421252.0 0
271982.0 419322.0 0
276839.0 417815.0 0
280955.0 419573.0 0
286182.0 418317.0 0
292480.0 418867.0 0
298656.0 418917.0 0
303932.0 418722.0 0
308665.0 419311.0 0
312708.0 418941.0 0
317488.0 419472.0 0
322398.0 417989.0 0
325720.0 420443.0 0
330562.0 420602.0 0
336365.0 419577.0 0
342448.0 419112.0 0
347466.0 419874.0 0
351884.0 418850.0 0
356926.0 419867.0 0
363022.0 419964.0 0
368892.0 419633.0 0
373126.0 417325.0 0
377524.0 419095.0 0
381995.0 421112.0 0
386846.0 418583.0 0
393008.0 418263.0 0
398870.0 420280.0 0
403783.0 419908.0 0
408197.0 419249.0 0
413008.0 417612.0 0
418003.0 419101.0 0
423159.0 420005.0 0
428413.0 419637.0 0
433371.0 420859.0 0
438011.0 420372.0 0
442389.0 420181.0 0
446720.0 418690.0 0
451468.0 418403.0 0
456244.0 419424.0 0
461155.0 419517.0 0
465679.0 419307.0 0
470306.0 419261.0 0
475761.0 420304.0 0
482020.0 419853.0 0
487923.0 419754.0 0
493173.0 418458.0 0
497927.0 419988.0 0
2381.81 424176.0 0
6504.99 423278.0 0
10742.3 424366.0 0
15502.2 424384.0 0
21983.4 424750.0 0
27672.8 424065.0 0
33512.8 422234.0 0
38231.8 424278.0 0
42591.7 424546.0 0
47224.2 424382.0 0
52791.7 423846.0 0
57126.5 424397.0 0
60848.0 425262.0 0
65803.4 424509.0 0
70655.1 423900.0 0
76091.7 424408.0 0
82111.6 423433.0 0
87562.6 425142.0 0
93170.3 424158.0 0
98277.7 425159.0 0
102739.0 423210.0 0
107936.0 424222.0 0
113386.0 424705.0 0
118959.0 424132.0 0
124285.0 425870.0 0
129090.0 423976.0 0
133397.0 423828.0 0
137637.0 423947.0 0
141977.0 423394.0 0
146781.0 425543.0 0
152499.0 423819.0 0
157500.0 424165.0 0
162588.0 423697.0 0
168035.0 424027.0 0
173388.0 424105.0 0
177289.0 423923.0 0
182180.0 423560.0 0
187500.0 424218.0 0
192528.0 423830.0 0
197476.0 423520.0 0
202607.0 424873.0 0
207635.0 423524.0 0
211725.0 425142.0 0
216553.0 424517.0 0
221678.0 423854.0 0
226409.0 424191.0 0
231214.0 424658.0 0
237101.0 424900.0 0
242782.0 423910.0 0
246624.0 425575.0 0
252089.0 424366.0 0
256822.0 423613.0 0
262301.0 424197.0 0
265853.0 425952.0 0
270512.0 425018.0 0
276753.0 423929.0 0
282484.0 423914.0 0
287435.0 424183.0 0
292983.0 424874.0 0
297741.0 425903.0 0
302001.0 423482.0 0
307353.0 425295.0 0
312760.0 423479.0 0
318529.0 425963.0 0
323949.0 424474.0 0
327820.0 424057.0 0
332814.0 423689.0 0
335877.0 424893.0 0
340454.0 424418.0 0
346048.0 424840.0 0
352602.0 425000.0 0
358998.0 425043.0 0
364465.0 426136.0 0
368898.0 424348.0 0
373595.0 422719.0 0
378745.0 425175.0 0
383470.0 425368.0 0
388401.0 424513.0 0
394415.0 424146.0 0
398945.0 425553.0 0
402428.0 423846.0 0
407505.0 424708.0 0
413539.0 423310.0 0
419292.0 423986.0 0
424004.0 424894.0 0
428720.0 424689.0 0
432748.0 424683.0 0
437500.0 424779.0 0
441360.0 424383.0 0
446557.0 423604.0 0
452980.0 424117.0 0
458602.0 423859.0 0
462755.0 424378.0 0
467122.0 423773.0 0
471443.0 423933.0 0
475510.0 425682.0 0
480433.0 425208.0 0
485827.0 425069.0 0
491701.0 423723.0 0
497255.0 424965.0 0
1788.32 428267.0 0
6759.16 428583.0 0
12564.7 428947.0 0
18056.9 428995.0 0
23297.7 430075.0 0
27758.2 428993.0 0
32148.1 427137.0 0
37500.0 429544.0 0
42524.7 428851.0 0
47500.0 429733.0 0
51733.7 428132.0 0
57239.4 428890.0 0
62380.1 430170.0 0
67103.2 429119.0 0
72287.0 429284.0 0
77790.1 429956.0 0
83435.3 429019.0 0
88199.9 429987.0 0
93320.8 429771.0 0
98477.5 429522.0 0
103556.0 428450.0 0
108907.0 429093.0 0
113357.0 429590.0 0
117943.0 429822.0 0
122072.0 429517.0 0
127350.0 428976.0 0
131663.0 428592.0 0
136801.0 428057.0 0
142066.0 428643.0 0
146933.0 430557.0 0
152356.0 429621.0 0
157667.0 429263.0 0
162028.0 428830.0 0
167167.0 428707.0 0
172244.0 428085.0 0
177530.0 429444.0 0
183172.0 428928.0 0
187609.0 429100.0 0
192283.0 428989.0 0
197926.0 428164.0 0
202922.0 430834.0 0
207208.0 428079.0 0
211839.0 429800.0 0
216992.0 430231.0 0
222105.0 429086.0 0
227507.0 429209.0 0
232855.0 429579.0 0
238144.0 431027.0 0
243857.0 429419.0 0
249110.0 428565.0 0
253158.0 430328.0 0
258475.0 429133.0 0
263714.0 429284.0 0
267872.0 429523.0 0
272452.0 429932.0 0
277779.0 430171.0 0
283237.0 428816.0 0
288690.0 429629.0 0
293827.0 429964.0 0
298126.0 429951.0 0
302826.0 429066.0 0
307648.0 430276.0 0
312907.0 429735.0 0
317498.0 430578.0 0
320841.0 430843.0 0
325071.0 429058.0 0
331159.0 428244.0 0
337287.0 429192.0 0
342971.0 430450.0 0
348895.0 429773.0 0
353159.0 431359.0 0
356833.0 429560.0 0
361267.0 430320.0 0
366510.0 430826.0 0
371331.0 428714.0 0
376637.0 430012.0 0
381831.0 429631.0 0
387751.0 430870.0 0
394503.0 430281.0 0
399279.0 431700.0 0
403068.0 428949.0 0
407924.0 430303.0 0
412075.0 428632.0 0
416708.0 427908.0 0
421435.0 429050.0 0
426758.0 429728.0 0
432153.0 428885.0 0
437415.0 428927.0 0
441951.0 428751.0 0
446922.0 429341.0 0
452361.0 429891.0 0
458146.0 429308.0 0
463390.0 429343.0 0
468029.0 428951.0 0
472603.0 429199.0 0
478045.0 429135.0 0
482103.0 429336.0 0
486350.0 430374.0 0
491692.0 429475.0 0
497458.0 430267.0 0
2475.27 432688.0 0
7513.65 434699.0 0
12522.2 433899.0 0
17885.1 435031.0 0
23656.4 434980.0 0
27997.3 433418.0 0
33366.2 432538.0 0
37851.3 435009.0 0
42395.6 433892.0 0
47910.6 434149.0 0
53157.5 432436.0 0
57741.1 434366.0 0
62374.5 435281.0 0
67652.7 434213.0 0
72871.8 434737.0 0
77225.0 435088.0 0
81265.3 433595.0 0
85583.9 434389.0 0
90799.1 435221.0 0
96589.8 434004.0 0
101482.0 433055.0 0
106651.0 433769.0 0
111745.0 433629.0 0
116678.0 436229.0 0
121784.0 433560.0 0
126878.0 433129.0 0
132240.0 434597.0 0
138377.0 433675.0 0
143653.0 433452.0 0
147710.0 435471.0 0
152318.0 435222.0 0
156424.0 433585.0 0
161538.0 434247.0 0
167087.0 434301.0 0
172805.0 433607.0 0
177971.0 436222.0 0
183236.0 434515.0 0
188130.0 433211.0 0
192742.0 434968.0 0
198690.0 435063.0 0
203553.0 435294.0 0
207938.0 433780.0 0
213980.0 434607.0 0
218272.0 434424.0 0
222500.0 434158.0 0
227508.0 434424.0 0
232792.0 434749.0 0
238322.0 435915.0 0
242651.0 434867.0 0
248065.0 433502.0 0
252354.0 434302.0 0
256492.0 434546.0 0
262113.0 433441.0 0
266683.0 433674.0 0
271036.0 434530.0 0
276020.0 435376.0 0
282040.0 434096.0 0
287600.0 435300.0 0
293876.0 434779.0 0
298022.0 434185.0 0
302566.0 434698.0 0
307492.0 434307.0 0
312459.0 435213.0 0
316554.0 433976.0 0
321882.0 435268.0 0
327610.0 434425.0 0
334653.0 433791.0 0
339022.0 434466.0 0
342589.0 436144.0 0
347214.0 434093.0 0
351351.0 434886.0 0
357854.0 434498.0 0
363259.0 434682.0 0
367527.0 434825.0 0
373026.0 435003.0 0
379234.0 435024.0 0
383426.0 433768.0 0
386434.0 436131.0 0
391762.0 436238.0 0
397347.0 434788.0 0
402170.0 434562.0 0
406969.0 434571.0 0
412224.0 434041.0 0
417654.0 432664.0 0
422798.0 434540.0 0
427587.0 434478.0 0
432103.0 434128.0 0
437268.0 434188.0 0
442993.0 434022.0 0
448958.0 434453.0 0
454947.0 434148.0 0
459371.0 435198.0 0
463188.0 434110.0 0
467758.0 434242.0 0
472709.0 433661.0 0
478179.0 433747.0 0
482853.0 434244.0 0
487092.0 434266.0 0
491910.0 435368.0 0
497470.0 435502.0 0
2537.66 437881.0 0
7339.37 440487.0 0
11050.7 438268.0 0
14482.1 439369.0 0
21583.8 439924.0 0
27587.0 438454.0 0
34026.3 438151.0 0
39054.7 439226.0 0
43454.6 438630.0 0
47818.5 439458.0 0
52335.0 437518.0 0
57486.7 438946.0 0
62584.8 440049.0 0
67270.8 439564.0 0
71493.1 439334.0 0
75736.2 439300.0 0
81400.9 439105.0 0
86783.3 439141.0 0
91815.6 441290.0 0
97450.9 439295.0 0
103251.0 438278.0 0
109237.0 438877.0 0
113827.0 440674.0 0
117907.0 440819.0 0
122061.0 438522.0 0
127013.0 438450.0 0
131383.0 439494.0 0
135856.0 439037.0 0
142742.0 438878.0 0
148706.0 440555.0 0
154025.0 439252.0 0
158143.0 438406.0 0
163634.0 438493.0 0
168074.0 439775.0 0
173003.0 438924.0 0
176749.0 440513.0 0
182456.0 440261.0 0
188011.0 438373.0 0
192711.0 439730.0 0
197419.0 440209.0 0
202558.0 439432.0 0
207578.0 439188.0 0
212184.0 439052.0 0
217435.0 439008.0 0
222828.0 439156.0 0
227360.0 438533.0 0
231605.0 439788.0 0
236480.0 439668.0 0
241113.0 439657.0 0
246325.0 439087.0 0
252194.0 439190.0 0
257414.0 439474.0 0
262453.0 438423.0 0
267906.0 438556.0 0
273157.0 439977.0 0
278409.0 440072.0 0
282893.0 438607.0 0
286850.0 440679.0 0
291954.0 439653.0 0
297446.0 438805.0 0
302515.0 439889.0 0
307420.0 438849.0 0
312188.0 439282.0 0
317206.0 438929.0 0
322241.0 440299.0 0
326995.0 440428.0 0
332379.0 439292.0 0
338396.0 439269.0 0
343057.0 439899.0 0
346955.0 438759.0 0
351453.0 438718.0 0
355806.0 439546.0 0
361503.0 440120.0 0
368167.0 439985.0 0
373852.0 440483.0 0
377494.0 439207.0 0
382500.0 439316.0 0
387710.0 439799.0 0
391429.0 441708.0 0
396633.0 439316.0 0
400961.0 439497.0 0
405845.0 439268.0 0
411085.0 439794.0 0
416971.0 438260.0 0
422659.0 440249.0 0
427197.0 438470.0 0
431796.0 439399.0 0
437291.0 439985.0 0
442174.0 439217.0 0
447076.0 439431.0 0
452178.0 438247.0 0
457177.0 439313.0 0
462015.0 438756.0 0
466854.0 439784.0 0
471357.0 437853.0 0
476516.0 439404.0 0
482253.0 439184.0 0
487660.0 439105.0 0
494115.0 440411.0 0
498374.0 439779.0 0
2079.25 442416.0 0
8166.77 445455.0 0
12558.0 443239.0 0
17196.8 442902.0 0
21085.8 444707.0 0
25832.3 443764.0 0
32030.9 443803.0 0
37753.2 445593.0 0
41854.4 443164.0 0
46238.5 444945.0 0
52498.9 443914.0 0
59299.5 443937.0 0
64498.8 444236.0 0
69341.2 444138.0 0
73234.0 444723.0 0
76871.7 443928.0 0
82033.5 445235.0 0
87142.9 443784.0 0
92303.6 445563.0 0
96636.9 445060.0 0
102750.0 444238.0 0
108991.0 444136.0 0
113383.0 444638.0 0
117470.0 444318.0 0
121636.0 443029.0 0
126376.0 443466.0 0
132852.0 444361.0 0
138564.0 443495.0 0
143871.0 445261.0 0
148690.0 445120.0 0
152751.0 443819.0 0
157670.0 442946.0 0
162982.0 443069.0 0
167550.0 444637.0 0
173047.0 444542.0 0
178978.0 444341.0 0
183394.0 445058.0 0
187502.0 443477.0 0
192441.0 444229.0 0
196574.0 444409.0 0
201005.0 444689.0 0
206709.0 444348.0 0
212873.0 444393.0 0
218416.0 444592.0 0
222704.0 444324.0 0
227306.0 443059.0 0
232419.0 444855.0 0
237823.0 444600.0 0
242819.0 444060.0 0
247911.0 445051.0 0
252743.0 444012.0 0
257181.0 444571.0 0
261642.0 443043.0 0
266295.0 443722.0 0
270966.0 444426.0 0
275845.0 444917.0 0
282492.0 444431.0 0
288585.0 445596.0 0
294252.0 445087.0 0
299543.0 443886.0 0
304542.0 444321.0 0
308605.0 443243.0 0
312712.0 444182.0 0
317426.0 443969.0 0
322160.0 444753.0 0
326176.0 444708.0 0
331374.0 445458.0 0
336928.0 444362.0 0
342222.0 443978.0 0
347040.0 443356.0 0
352131.0 443700.0 0
357539.0 443926.0 0
362642.0 445329.0 0
367282.0 445746.0 0
372402.0 444144.0 0
377500.0 444222.0 0
381755.0 444278.0 0
386914.0 444709.0 0
394313.0 445494.0 0
398561.0 443858.0 0
403301.0 444348.0 0
407578.0 444052.0 0
411729.0 445498.0 0
418117.0 444256.0 0
423394.0 444926.0 0
427500.0 444159.0 0
432530.0 444627.0 0
437383.0 444188.0 0
441697.0 444334.0 0
447118.0 444700.0 0
452321.0 443462.0 0
457462.0 444336.0 0
462385.0 443872.0 0
467149.0 444727.0 0
472186.0 443590.0 0
477988.0 445518.0 0
482750.0 443764.0 0
487612.0 444940.0 0
493375.0 445594.0 0
497894.0 443904.0 0
3177.92 447646.0 0
8536.51 450914.0 0
11853.3 447330.0 0
17402.5 449114.0 0
23489.7 448282.0 0
28191.5 450449.0 0
34127.7 449700.0 0
38821.2 449643.0 0
42449.9 448807.0 0
48381.3 448606.0 0
52776.8 450809.0 0
57590.6 448906.0 0
62152.5 448317.0 0
66815.1 449246.0 0
71981.8 448806.0 0
77490.7 449051.0 0
82565.3 450964.0 0
86478.2 448255.0 0
91460.6 449755.0 0
96257.6 450022.0 0
101126.0 450211.0 0
106627.0 448728.0 0
112414.0 449830.0 0
117803.0 448878.0 0
123195.0 448255.0 0
128622.0 447689.0 0
132343.0 449389.0 0
137067.0 449013.0 0
142465.0 451022.0 0
146817.0 449302.0 0
151776.0 449380.0 0
157146.0 448053.0 0
162681.0 449171.0 0
168833.0 449516.0 0
173731.0 449887.0 0
178110.0 449325.0 0
182782.0 449130.0 0
187679.0 448679.0 0
192252.0 448572.0 0
197550.0 449077.0 0
202502.0 449203.0 0
207984.0 449185.0 0
212641.0 450163.0 0
217404.0 449132.0 0
222248.0 449164.0 0
227824.0 448755.0 0
232912.0 449432.0 0
237473.0 449919.0 0
241956.0 448457.0 0
246205.0 450253.0 0
250501.0 449463.0 0
255348.0 449719.0 0
261805.0 448808.0 0
268515.0 448889.0 0
274081.0 450246.0 0
279489.0 449743.0 0
283771.0 449590.0 0
287298.0 450348.0 0
291633.0 449658.0 0
296326.0 450101.0 0
301774.0 449032.0 0
308304.0 448729.0 0
313948.0 448862.0 0
318342.0 448319.0 0
322619.0 449300.0 0
327184.0 449034.0 0
331752.0 450993.0 0
336823.0 449289.0 0
341874.0 449309.0 0
348009.0 448071.0 0
353448.0 449136.0 0
358124.0 447907.0 0
362285.0 449711.0 0
366795.0 450427.0 0
372029.0 448824.0 0
377547.0 448997.0 0
382676.0 449222.0 0
386618.0 449436.0 0
391327.0 450175.0 0
397645.0 448900.0 0
402413.0 449119.0 0
407067.0 448433.0 0
413083.0 450769.0 0
418699.0 450246.0 0
423113.0 448965.0 0
427414.0 449036.0 0
431996.0 449464.0 0
437305.0 448961.0 0
442327.0 449613.0 0
446340.0 449426.0 0
451741.0 449138.0 0
458109.0 449505.0 0
463059.0 449260.0 0
467506.0 448934.0 0
472115.0 449101.0 0
476438.0 450343.0 0
482449.0 449231.0 0
487556.0 450523.0 0
492380.0 450351.0 0
497471.0 449102.0 0
3133.19 454521.0 0
8785.93 456878.0 0
13228.5 454044.0 0
18556.1 455947.0 0
22965.5 452970.0 0
26945.2 455690.0 0
32488.4 455686.0 0
38316.7 453309.0 0
42837.3 456177.0 0
47674.1 453531.0 0
52183.1 456601.0 0
57117.1 454640.0 0
62785.1 453748.0 0
68626.7 454622.0 0
74120.6 454627.0 0
78824.4 454095.0 0
83091.4 456229.0 0
87399.0 453524.0 0
92361.3 455372.0 0
97328.7 454385.0 0
102072.0 455510.0 0
107966.0 454961.0 0
113369.0 455147.0 0
117122.0 453584.0 0
121779.0 455307.0 0
127417.0 453103.0 0
133638.0 454097.0 0
139004.0 454963.0 0
143677.0 456333.0 0
148049.0 453779.0 0
152615.0 454377.0 0
157710.0 453925.0 0
163743.0 455322.0 0
167788.0 453855.0 0
172049.0 454511.0 0
177759.0 454615.0 0
182865.0 453745.0 0
187956.0 454072.0 0
193807.0 453391.0 0
198830.0 454282.0 0
202348.0 454277.0 0
206363.0 453484.0 0
212712.0 454939.0 0
217431.0 454067.0 0
222221.0 454133.0 0
227090.0 454263.0 0
231960.0 453722.0 0
236764.0 454984.0 0
241770.0 453345.0 0
246757.0 455397.0 0
251583.0 453652.0 0
256807.0 455709.0 0
263428.0 455548.0 0
268548.0 453954.0 0
272865.0 455278.0 0
277538.0 454365.0 0
283096.0 454115.0 0
287519.0 454305.0 0
292725.0 454238.0 0
296496.0 454874.0 0
300305.0 454710.0 0
307072.0 455263.0 0
312979.0 453915.0 0
318067.0 452637.0 0
322356.0 454111.0 0
327488.0 454204.0 0
332767.0 455926.0 0
337801.0 454166.0 0
342331.0 454021.0 0
347166.0 453362.0 0
352595.0 454440.0 0
357083.0 452152.0 0
363150.0 454319.0 0
368341.0 454064.0 0
372684.0 453994.0 0
377538.0 454328.0 0
382214.0 454173.0 0
386975.0 453478.0 0
391668.0 455648.0 0
396520.0 453253.0 0
402237.0 454034.0 0
408279.0 454251.0 0
413448.0 455399.0 0
418375.0 456117.0 0
423593.0 453993.0 0
427525.0 454016.0 0
432500.0 454136.0 0
437303.0 454811.0 0
442045.0 454117.0 0
447584.0 454328.0 0
452729.0 454246.0 0
457262.0 454492.0 0
462137.0 454216.0 0
467057.0 453168.0 0
472346.0 455077.0 0
478454.0 454647.0 0
483967.0 454460.0 0
488285.0 454588.0 0
494047.0 454077.0 0
497943.0 454228.0 0
3091.91 461284.0 0
8576.59 461919.0 0
13875.0 460018.0 0
18938.6 460692.0 0
23244.3 459288.0 0
28232.2 460288.0 0
32893.2 461115.0 0
37585.7 458865.0 0
42722.4 461625.0 0
47912.6 459390.0 0
52170.5 461581.0 0
57539.4 459461.0 0
62414.7 459214.0 0
66342.1 459045.0 0
72456.7 459487.0 0
77263.8 459299.0 0
81086.7 460857.0 0
87414.2 458676.0 0
91671.5 460055.0 0
96457.7 459509.0 0
101831.0 460536.0 0
107186.0 460967.0 0
112678.0 459357.0 0
117470.0 458291.0 0
121191.0 460194.0 0
126804.0 459598.0 0
132265.0 459020.0 0
137145.0 459986.0 0
142453.0 461279.0 0
147637.0 459338.0 0
152879.0 459049.0 0
158475.0 460151.0 0
163959.0 460895.0 0
168141.0 459189.0 0
172805.0 459718.0 0
177145.0 459382.0 0
181529.0 458513.0 0
186551.0 459118.0 0
192432.0 459830.0 0
197752.0 458259.0 0
202689.0 459202.0 0
208759.0 458375.0 0
213869.0 459498.0 0
218142.0 459193.0 0
222247.0 459194.0 0
226488.0 459004.0 0
232604.0 459061.0 0
238146.0 459166.0 0
242312.0 458400.0 0
247397.0 460359.0 0
252342.0 459066.0 0
258115.0 460459.0 0
261817.0 460523.0 0
268857.0 458954.0 0
273876.0 459688.0 0
278368.0 459013.0 0
283167.0 459347.0 0
287500.0 459193.0 0
292128.0 458977.0 0
296672.0 458304.0 0
301806.0 460302.0 0
306833.0 460792.0 0
311704.0 459692.0 0
317578.0 457869.0 0
323338.0 459097.0 0
328614.0 459399.0 0
332941.0 460373.0 0
337012.0 458914.0 0
341883.0 458495.0 0
347287.0 458956.0 0
352701.0 459643.0 0
358300.0 457628.0 0
362841.0 459955.0 0
367256.0 458676.0 0
373176.0 459490.0 0
378553.0 459101.0 0
382951.0 459444.0 0
387446.0 458457.0 0
391891.0 459961.0 0
396286.0 458875.0 0
401644.0 459600.0 0
407147.0 460252.0 0
411764.0 458976.0 0
415288.0 459449.0 0
422831.0 459658.0 0
427803.0 457961.0 0
432899.0 459154.0 0
437908.0 459236.0 0
442226.0 458420.0 0
446299.0 459160.0 0
452785.0 459560.0 0
457574.0 459290.0 0
461563.0 459419.0 0
466571.0 458223.0 0
471047.0 460551.0 0
476270.0 460266.0 0
481222.0 459081.0 0
485369.0 459206.0 0
491224.0 459154.0 0
497589.0 459188.0 0
1914.23 466315.0 0
6152.66 465833.0 0
11882.8 465461.0 0
17444.9 465195.0 0
22659.6 464261.0 0
27268.9 464979.0 0
32854.8 465315.0 0
37619.8 464504.0 0
42220.3 466369.0 0
47352.2 464548.0 0
52078.8 466625.0 0
56587.3 463978.0 0
62143.0 464448.0 0
68506.3 463705.0 0
73419.7 464521.0 0
77488.5 464182.0 0
82984.1 465072.0 0
87606.3 463821.0 0
93569.2 464358.0 0
98125.2 463845.0 0
103136.0 465196.0 0
107062.0 465259.0 0
111288.0 464274.0 0
116927.0 463468.0 0
122114.0 464637.0 0
126537.0 465134.0 0
132922.0 463888.0 0
137674.0 464712.0 0
142530.0 466114.0 0
146738.0 464172.0 0
151490.0 463950.0 0
156215.0 465468.0 0
161051.0 464897.0 0
165636.0 465569.0 0
170822.0 464551.0 0
176462.0 464132.0 0
182201.0 464037.0 0
188166.0 464435.0 0
193678.0 465813.0 0
198832.0 463352.0 0
202875.0 465336.0 0
206074.0 463001.0 0
212486.0 464117.0 0
217039.0 464260.0 0
221335.0 464137.0 0
226793.0 464044.0 0
231710.0 464078.0 0
236995.0 464016.0 0
243277.0 463824.0 0
248340.0 464291.0 0
252439.0 463619.0 0
257101.0 464415.0 0
261814.0 464729.0 0
266647.0 464052.0 0
272116.0 464161.0 0
277113.0 463991.0 0
282841.0 464184.0 0
287500.0 464171.0 0
292446.0 463998.0 0
297122.0 462665.0 0
302962.0 465712.0 0
307990.0 464374.0 0
312401.0 465020.0 0
316880.0 463356.0 0
321936.0 464558.0 0
326129.0 463972.0 0
330615.0 464423.0 0
335755.0 463667.0 0
341292.0 464006.0 0
347307.0 464988.0 0
353113.0 464913.0 0
359349.0 464441.0 0
365451.0 464162.0 0
369912.0 465844.0 0
373469.0 464309.0 0
378017.0 464368.0 0
382872.0 464191.0 0
388035.0 463985.0 0
392916.0 464243.0 0
397261.0 463828.0 0
402079.0 464832.0 0
407914.0 463930.0 0
411528.0 463764.0 0
417420.0 463542.0 0
422440.0 464388.0 0
427679.0 463811.0 0
432766.0 464154.0 0
437200.0 464411.0 0
442687.0 463119.0 0
448069.0 463393.0 0
452812.0 465304.0 0
457926.0 463540.0 0
462693.0 464373.0 0
467376.0 463480.0 0
472592.0 464668.0 0
476607.0 465594.0 0
481207.0 464205.0 0
486666.0 464118.0 0
492773.0 465276.0 0
497544.0 464531.0 0
3408.82 470761.0 0
8027.51 469634.0 0
12414.4 470363.0 0
17333.7 470601.0 0
21810.9 469709.0 0
25097.5 469544.0 0
30417.9 469572.0 0
38757.7 470472.0 0
44246.5 469988.0 0
48277.6 469301.0 0
51558.3 471082.0 0
58105.8 468687.0 0
62623.2 469587.0 0
67128.9 469780.0 0
71606.6 468278.0 0
76288.2 468919.0 0
81687.9 469946.0 0
87584.2 469537.0 0
92747.1 469210.0 0
97178.0 468034.0 0
101687.0 469489.0 0
106696.0 469460.0 0
112343.0 469937.0 0
118498.0 469694.0 0
123707.0 468861.0 0
129902.0 468748.0 0
134985.0 468636.0 0
139509.0 469728.0 0
143327.0 469591.0 0
147239.0 469237.0 0
152296.0 468659.0 0
157380.0 469971.0 0
162613.0 469699.0 0
167674.0 469400.0 0
172556.0 470096.0 0
177544.0 468867.0 0
182105.0 469320.0 0
187385.0 470176.0 0
192316.0 470692.0 0
198031.0 468831.0 0
202453.0 469396.0 0
208058.0 468738.0 0
213335.0 469716.0 0
216948.0 469138.0 0
221428.0 469183.0 0
226488.0 469525.0 0
231723.0 468764.0 0
236536.0 469552.0 0
241047.0 470192.0 0
246642.0 469247.0 0
253475.0 469620.0 0
259743.0 469297.0 0
264189.0 469892.0 0
268802.0 469167.0 0
273256.0 468916.0 0
277678.0 469401.0 0
282518.0 468752.0 0
287379.0 468854.0 0
291997.0 469475.0 0
298050.0 467395.0 0
302128.0 470434.0 0
306943.0 468269.0 0
311148.0 469331.0 0
316900.0 469416.0 0
322791.0 469592.0 0
327215.0 468309.0 0
332085.0 469779.0 0
337716.0 469057.0 0
342560.0 468870.0 0
346631.0 470546.0 0
351076.0 469421.0 0
356071.0 470019.0 0
363209.0 469421.0 0
367994.0 469263.0 0
373245.0 469171.0 0
377970.0 469215.0 0
382501.0 469058.0 0
388546.0 469314.0 0
392689.0 468111.0 0
397477.0 469276.0 0
402347.0 469163.0 0
406933.0 468205.0 0
413033.0 468978.0 0
418416.0 469227.0 0
423440.0 468657.0 0
428057.0 469549.0 0
433266.0 468942.0 0
438046.0 468861.0 0
442579.0 468774.0 0
448092.0 468532.0 0
453214.0 470416.0 0
457427.0 468291.0 0
461669.0 469358.0 0
467131.0 469149.0 0
473253.0 468830.0 0
477500.0 469341.0 0
482435.0 469322.0 0
488075.0 469246.0 0
492502.0 469913.0 0
497500.0 469154.0 0
2915.65 476326.0 0
8450.85 474424.0 0
14185.5 474767.0 0
19243.1 474961.0 0
23577.8 474143.0 0
27611.6 473838.0 0
32175.5 474593.0 0
36528.8 475206.0 0
42489.6 474620.0 0
47293.8 473537.0 0
51223.7 474693.0 0
55891.4 473886.0 0
61525.1 474060.0 0
66580.5 474895.0 0
72856.0 474232.0 0
78927.4 474573.0 0
82565.1 474222.0 0
85930.3 474360.0 0
91375.0 474700.0 0
96981.2 473000.0 0
102517.0 475073.0 0
108329.0 474361.0 0
112509.0 474771.0 0
116239.0 475737.0 0
121197.0 475167.0 0
126429.0 473202.0 0
132995.0 474184.0 0
139271.0 475274.0 0
144248.0 473743.0 0
148931.0 474929.0 0
153999.0 473563.0 0
159014.0 473921.0 0
163173.0 474269.0 0
167145.0 474005.0 0
171257.0 475025.0 0
176932.0 474318.0 0
183252.0 474497.0 0
188356.0 474925.0 0
192024.0 473744.0 0
197084.0 474578.0 0
203106.0 474092.0 0
208934.0 475728.0 0
213708.0 474110.0 0
217467.0 474168.0 0
222073.0 474336.0 0
227208.0 474568.0 0
232651.0 474341.0 0
238255.0 474388.0 0
242790.0 474257.0 0
248012.0 475012.0 0
252244.0 475209.0 0
256297.0 475100.0 0
261336.0 474299.0 0
266439.0 474314.0 0
272326.0 474182.0 0
277386.0 473974.0 0
282476.0 474109.0 0
287829.0 472842.0 0
292013.0 475052.0 0
296876.0 472753.0 0
301264.0 475178.0 0
306562.0 473889.0 0
312532.0 473918.0 0
317608.0 475828.0 0
322559.0 474365.0 0
327984.0 473723.0 0
333066.0 474430.0 0
337409.0 474376.0 0
342144.0 473173.0 0
346910.0 475471.0 0
351806.0 474032.0 0
357766.0 475799.0 0
362837.0 474435.0 0
367413.0 473710.0 0
371853.0 473743.0 0
376223.0 474107.0 0
381082.0 474559.0 0
386473.0 474385.0 0
392665.0 473440.0 0
398007.0 474849.0 0
401514.0 472380.0 0
406016.0 475033.0 0
411782.0 474252.0 0
417183.0 474636.0 0
423106.0 474309.0 0
429269.0 474953.0 0
434604.0 474888.0 0
437731.0 472424.0 0
441707.0 473871.0 0
447247.0 474306.0 0
452497.0 474982.0 0
457732.0 473661.0 0
463415.0 474024.0 0
468730.0 474560.0 0
473420.0 473601.0 0
478147.0 474212.0 0
482619.0 474165.0 0
487260.0 474258.0 0
492500.0 474147.0 0
497350.0 474104.0 0
2043.29 480344.0 0
7500.0 479183.0 0
11741.8 478642.0 0
16524.9 479031.0 0
22063.2 479371.0 0
26718.0 478287.0 0
32231.1 479282.0 0
37772.1 480184.0 0
42819.3 479332.0 0
46956.9 478353.0 0
52378.0 479248.0 0
58168.7 479325.0 0
63425.7 479019.0 0
67977.0 479331.0 0
72044.4 480240.0 0
77043.0 479514.0 0
82148.3 478140.0 0
87063.3 478963.0 0
91885.1 480667.0 0
97459.7 479162.0 0
102606.0 480346.0 0
107084.0 479499.0 0
112301.0 479195.0 0
117416.0 480522.0 0
122420.0 480273.0 0
128098.0 479151.0 0
134618.0 480747.0 0
139061.0 479516.0 0
143024.0 478890.0 0
147500.0 479190.0 0
152779.0 479039.0 0
157794.0 478218.0 0
162316.0 479170.0 0
167669.0 478936.0 0
172630.0 478533.0 0
177078.0 479788.0 0
181463.0 479478.0 0
186354.0 479480.0 0
192047.0 478343.0 0
197651.0 480180.0 0
201975.0 478900.0 0
206394.0 481366.0 0
214030.0 478724.0 0
218418.0 479392.0 0
222500.0 479490.0 0
227107.0 480166.0 0
232623.0 479441.0 0
237389.0 479575.0 0
242650.0 479107.0 0
247560.0 479851.0 0
252500.0 479494.0 0
256783.0 479802.0 0
261624.0 479476.0 0
267335.0 479831.0 0
272886.0 479949.0 0
277886.0 478411.0 0
282354.0 481089.0 0
286976.0 478179.0 0
291890.0 480011.0 0
297342.0 478764.0 0
303088.0 479630.0 0
307947.0 479336.0 0
312530.0 478972.0 0
316589.0 480524.0 0
321099.0 479923.0 0
326453.0 479423.0 0
331767.0 478799.0 0
337485.0 479919.0 0
342947.0 478102.0 0
347555.0 480434.0 0
353110.0 479325.0 0
358152.0 481119.0 0
362342.0 478780.0 0
366776.0 478336.0 0
372436.0 478656.0 0
377233.0 478471.0 0
381557.0 479226.0 0
386260.0 480067.0 0
391977.0 480081.0 0
397519.0 479498.0 0
402411.0 479360.0 0
407826.0 480748.0 0
413027.0 479177.0 0
418054.0 480175.0 0
422901.0 479632.0 0
427172.0 480023.0 0
432405.0 479187.0 0
437374.0 479199.0 0
442782.0 478856.0 0
447848.0 479841.0 0
452535.0 478708.0 0
456694.0 479120.0 0
461949.0 479321.0 0
467383.0 479460.0 0
472373.0 478218.0 0
477305.0 479201.0 0
482291.0 479127.0 0
488367.0 479557.0 0
492835.0 479273.0 0
497500.0 479137.0 0
2685.93 484335.0 0
7827.69 484161.0 0
12892.5 483520.0 0
17491.8 483399.0 0
21815.2 484203.0 0
27288.9 484454.0 0
32875.6 484308.0 0
37530.4 485609.0 0
42170.1 484035.0 0
47520.0 483412.0 0
52074.4 484685.0 0
56774.6 484650.0 0
61847.0 483860.0 0
67211.1 484251.0 0
72677.3 485121.0 0
77759.8 484877.0 0
83552.3 483929.0 0
89090.0 484547.0 0
93642.3 485452.0 0
98342.2 484661.0 0
103481.0 485038.0 0
108290.0 483963.0 0
112500.0 484172.0 0
116500.0 484828.0 0
121247.0 484872.0 0
127742.0 486351.0 0
134556.0 485881.0 0
138102.0 484543.0 0
142605.0 483935.0 0
146655.0 485010.0 0
150916.0 484351.0 0
157077.0 483780.0 0
162805.0 483986.0 0
167735.0 484785.0 0
172985.0 482980.0 0
177984.0 484598.0 0
183176.0 484265.0 0
188021.0 484310.0 0
192447.0 483787.0 0
197347.0 484813.0 0
202500.0 484367.0 0
207917.0 486062.0 0
212609.0 484181.0 0
217500.0 484322.0 0
222500.0 484191.0 0
227924.0 485502.0 0
232641.0 484141.0 0
237577.0 484480.0 0
242615.0 483642.0 0
247459.0 484218.0 0
252268.0 483876.0 0
256637.0 484221.0 0
261071.0 484476.0 0
265816.0 485008.0 0
271119.0 484994.0 0
277299.0 484384.0 0
282288.0 485738.0 0
286886.0 484360.0 0
292560.0 485152.0 0
298635.0 485134.0 0
304024.0 484677.0 0
308110.0 483710.0 0
312827.0 484650.0 0
318440.0 485058.0 0
323361.0 484083.0 0
327922.0 484595.0 0
333114.0 484110.0 0
337858.0 485398.0 0
342710.0 483555.0 0
347098.0 486678.0 0
351259.0 484171.0 0
356622.0 486275.0 0
362841.0 484340.0 0
368577.0 482668.0 0
373403.0 485815.0 0
378422.0 482847.0 0
383189.0 484324.0 0
388433.0 485221.0 0
393258.0 485316.0 0
397716.0 484620.0 0
402882.0 484343.0 0
407396.0 485748.0 0
412171.0 484291.0 0
417129.0 485221.0 0
421739.0 484053.0 0
426523.0 484935.0 0
430702.0 483501.0 0
435626.0 484938.0 0
441575.0 484263.0 0
446910.0 486339.0 0
452496.0 483611.0 0
458910.0 484597.0 0
463944.0 483622.0 0
468581.0 484960.0 0
473851.0 483013.0 0
478840.0 483860.0 0
483396.0 484128.0 0
487911.0 484778.0 0
492461.0 483491.0 0
497500.0 484110.0 0
2134.38 489424.0 0
6263.29 489494.0 0
11438.6 488634.0 0
17301.6 488685.0 0
23192.9 489174.0 0
28143.6 489867.0 0
33241.4 489633.0 0
38107.4 490015.0 0
42609.4 489296.0 0
47264.1 488607.0 0
52157.9 489390.0 0
57474.0 490167.0 0
62805.0 489021.0 0
67433.0 489202.0 0
71699.0 490160.0 0
76460.9 489601.0 0
82159.8 490890.0 0
87174.7 488411.0 0
91596.8 490176.0 0
96930.2 489478.0 0
102347.0 490645.0 0
107722.0 488855.0 0
113012.0 489327.0 0
118254.0 489069.0 0
123142.0 490769.0 0
127297.0 492291.0 0
133131.0 490060.0 0
138228.0 489078.0 0
143156.0 488925.0 0
146834.0 489553.0 0
151197.0 490119.0 0
157113.0 490130.0 0
162648.0 489063.0 0
167626.0 489780.0 0
173305.0 489271.0 0
177903.0 489657.0 0
181724.0 489554.0 0
187051.0 489139.0 0
193280.0 489617.0 0
198681.0 488952.0 0
202865.0 489170.0 0
207303.0 490425.0 0
212276.0 489584.0 0
217524.0 489091.0 0
222500.0 489221.0 0
226669.0 490066.0 0
231455.0 488940.0 0
236407.0 489204.0 0
241690.0 488292.0 0
247484.0 489346.0 0
253687.0 489314.0 0
258937.0 489415.0 0
262974.0 489230.0 0
268172.0 489412.0 0
273028.0 489720.0 0
277475.0 489925.0 0
282506.0 489286.0 0
287544.0 489525.0 0
291727.0 489844.0 0
296712.0 491237.0 0
302622.0 489191.0 0
307019.0 488297.0 0
311313.0 489291.0 0
315855.0 490190.0 0
320814.0 489622.0 0
326212.0 490114.0 0
331783.0 489373.0 0
336402.0 489581.0 0
342121.0 490181.0 0
347398.0 490926.0 0
351718.0 489521.0 0
356484.0 492099.0 0
361681.0 490486.0 0
367659.0 489004.0 0
372695.0 492153.0 0
378680.0 490146.0 0
384608.0 489047.0 0
389239.0 490647.0 0
394098.0 489741.0 0
399407.0 489824.0 0
403492.0 489604.0 0
407400.0 490669.0 0
412904.0 489613.0 0
417912.0 489801.0 0
422635.0 489036.0 0
427863.0 489951.0 0
432488.0 489006.0 0
436535.0 490264.0 0
441558.0 490072.0 0
446358.0 491353.0 0
451682.0 490230.0 0
457351.0 490867.0 0
461866.0 489293.0 0
466898.0 490859.0 0
472988.0 489303.0 0
478862.0 489155.0 0
483267.0 488168.0 0
487442.0 490642.0 0
493241.0 488886.0 0
498188.0 489658.0 0
2157.33 494026.0 0
5835.62 494922.0 0
10781.7 494535.0 0
17236.1 495193.0 0
22463.7 493965.0 0
27367.4 495276.0 0
32907.4 495054.0 0
38215.0 494812.0 0
42576.6 495153.0 0
47703.6 494409.0 0
53607.0 494320.0 0
58574.2 495556.0 0
63805.1 494479.0 0
68609.9 494173.0 0
72995.1 494788.0 0
77562.4 494284.0 0
82469.9 496310.0 0
87356.7 494136.0 0
92425.1 495303.0 0
98024.7 494893.0 0
102831.0 495322.0 0
107496.0 494392.0 0
112500.0 494181.0 0
117500.0 494208.0 0
122203.0 494970.0 0
126050.0 496089.0 0
131373.0 495491.0 0
137455.0 494282.0 0
142953.0 494226.0 0
148082.0 494197.0 0
153069.0 495507.0 0
158312.0 495460.0 0
162896.0 494118.0 0
167368.0 494321.0 0
172144.0 495155.0 0
177546.0 494112.0 0
182574.0 494462.0 0
186966.0 494204.0 0
191325.0 495391.0 0
197604.0 494537.0 0
203348.0 494086.0 0
208171.0 494940.0 0
213206.0 494721.0 0
218042.0 494188.0 0
222242.0 494178.0 0
226065.0 494457.0 0
231033.0 494448.0 0
236772.0 494403.0 0
242560.0 494200.0 0
248114.0 494916.0 0
252389.0 494477.0 0
256753.0 494109.0 0
261502.0 494339.0 0
266884.0 495046.0 0
272443.0 494391.0 0
277801.0 495161.0 0
283192.0 493744.0 0
288538.0 494669.0 0
293397.0 495103.0 0
297217.0 496645.0 0
301507.0 494498.0 0
307839.0 494467.0 0
313792.0 494896.0 0
318818.0 495050.0 0
323273.0 494268.0 0
327354.0 495846.0 0
332140.0 494399.0 0
337519.0 494812.0 0
343266.0 496058.0 0
347498.0 494832.0 0
352122.0 494931.0 0
358491.0 496527.0 0
363036.0 495549.0 0
367499.0 495132.0 0
372591.0 496642.0 0
377421.0 495530.0 0
382413.0 494283.0 0
386619.0 495132.0 0
392109.0 494807.0 0
397290.0 494893.0 0
402175.0 494169.0 0
406542.0 495622.0 0
411466.0 494617.0 0
417197.0 495133.0 0
422757.0 494074.0 0
427735.0 495139.0 0
432869.0 493824.0 0
438333.0 494840.0 0
443527.0 495080.0 0
448190.0 495234.0 0
452877.0 495974.0 0
457586.0 495484.0 0
462317.0 494373.0 0
467008.0 496155.0 0
472190.0 495548.0 0
477931.0 494552.0 0
483077.0 494202.0 0
487642.0 495720.0 0
492470.0 494812.0 0
497500.0 494187.0 0
POINT_DATA 5000
SCALARS Radius float 1
LOOKUP_TABLE default
4796.58 3979.26 3471.03 5253.55 5820.48 5782.6 4862.21 5113.21 3929.19 4107.03 4478.15 5379.87 5925.6 4501.51 4792.73 4736.58 4931.38 3485.26 4329.05 4151.94 4049.23 5337.48 6124.89 5708.81 5252.48 4780.03 5495.39 3996.0 3856.1 4665.12 3383.4 4133.88 4834.9 3850.77 6044.04 5415.48 5120.0 3863.18 2356.98 4998.37 6182.6 5492.18 5258.36 5061.3 3642.12 3163.97 5812.43 5122.66 5906.14 5484.19 7513.1 5254.28 4436.4 5733.48 4672.91 5580.89 3588.44 5645.7 5176.86 6810.52 5840.26 3672.51 6110.27 5561.06 5073.35 3615.22 5670.04 4380.59 3589.27 6716.79 3607.45 5759.91 7613.27 4951.03 5529.52 5255.32 6037.08 5096.78 6756.95 4129.43 6324.23 3843.58 3320.52 4194.5 4270.53 5344.25 5191.63 4593.7 4150.99 4216.92 4742.68 4344.58 5634.83 5495.84 6268.1 4861.06 5374.51 5320.28 6739.08 4797.52 4569.12 4298.67 5960.66 6608.73 5011.84 7034.11 6261.42 4502.5 3771.48 4043.57 4271.69 5681.38 4138.42 3708.04 5513.6 3240.09 4556.36 6082.81 3191.99 4685.34 5601.05 4929.8 3586.91 3103.0 3554.9 4015.92 5542.21 4487.31 3936.02 4044.71 5980.74 4094.62 4927.02 5546.39 5325.36 5484.83 5085.53 5351.6 4730.36 4715.55 5867.73 5013.56 3951.75 4499.64 4375.68 5542.27 5054.98 6030.06 5170.02 3557.27 4927.31 4688.68 4402.52 4517.56 4182.53 5903.42 3955.56 3761.32 4118.05 4366.19 5553.16 2938.66 4940.78 4231.61 4008.92 3942.53 3379.84 4827.82 3997.1 3260.67 5123.52 4392.68 3038.33 4333.2 7199.21 4523.7 2240.39 5091.39 5293.9 3912.37 6142.94 4727.24 4602.25 4790.08 5082.47 4763.45 5445.87 3815.26 4704.72 4177.94 4571.7 5896.46 5022.8 3784.5 3780.23 6481.79 5224.12 7042.12 4819.73 6326.39 4471.58 5873.69 4962.09 3999.48 4359.62 6946.21 2586.12 5433.8 4011.77 5499.11 3633.87 5922.5 5198.77 5987.17 6013.14 2765.2 4901.41 5110.37 5664.98 4382.74 5927.43 4651.28 4384.42 3693.63 4516.43 5481.78 5637.59 4937.14 5043.05 5816.2 5693.81 5109.54 6483.19 3829.13 5945.65 6759.9 5538.89 7021.47 5416.38 6059.59 2720.68 4955.55 5701.86 3563.63 4238.81 4468.59 5885.03 2837.58 5325.02 5200.76 5017.13 4862.64 5185.34 4432.58 6684.56 3968.64 4688.67 2635.86 5292.64 6166.5 5065.13 5936.02 5305.17 4861.08 4003.05 5390.22 4712.33 4805.87 5227.21 5697.78 4667.36 4091.31 6372.62 4295.38 5615.42 7565.34 5923.5 4281.49 4612.68 4973.83 6342.25 6691.39 4840.84 5135.69 5344.0 4020.32 6045.46 4245.72 5908.1 6048.7 6133.92 3719.84 4178.4 3095.48 4166.08 4123.6 4850.14 5163.55 3382.7 6817.32 4319.79 6098.14 4472.17 4203.26 5188.81 4730.41 6057.22 5062.71 6125.34 4527.08 5347.48 4850.01 3970.25 5147.67 3979.82 5011.31 5138.31 5264.06 4659.59 6327.9 4048.37 6355.42 4362.19 5690.56 4948.92 3115.91 4493.48 3307.12 5924.89 4002.16 4138.16 4174.52 3486.22 4684.5 6230.49 6458.82 5418.62 4601.27 5493.32 5740.68 5926.61 6051.14 5836.15 3261.21 4345.55 6704.06 3653.41 3871.88 3856.01 5246.2 4390.66 5279.39 3673.74 5205.43 6116.18 7447.37 4924.6 4385.06 4733.32 7184.19 2899.43 2924.37 3867.67 4290.3 5399.73 4660.72 3888.21 5891.05 6038.78 6902.81 6644.76 4254.17 5629.19 5090.24 5740.84 6445.94 5530.87 4310.18 7134.64 5978.9 3629.62 4187.56 4997.27 4301.06 4877.67 4290.14 6562.18 4156.38 5316.75 4541.21 4164.68 5669.65 5934.22 5624.49 5762.59 7092.87 4666.81 3703.1 3954.91 6471.55 2965.01 6643.85 3637.61 6222.42 5654.31 3745.84 5690.26 4156.2 4497.59 5965.78 4374.35 4810.12 5643.58 5215.05 4292.06 5577.04 5006.58 4602.86 3688.8 4548.16 3369.23 5449.18 5492.26 5244.78 5762.84 3937.74 4749.8 6084.86 5478.92 4778.34 5551.36 6894.71 4414.54 3091.3 5789.98 6138.47 7054.71 5489.43 3641.64 5747.75 4277.89 5054.25 4796.33 4195.44 5539.32 5360.19 6496.85 5600.93 4874.39 5541.59 4124.71 5728.85 4827.23 4911.47 5803.39 5863.59 4381.97 6257.19 3255.82 5242.73 2812.98 4065.69 5603.15 4695.45 6052.7 3798.62 3921.18 3666.57 5308.1 4907.89 4937.02 5655.21 4645.41 4786.6 4433.59 4320.28 5542.14 4218.06 5480.13 6308.71 4716.19 5514.76 3456.98 3498.2 5105.16 3066.13 4302.5 6006.16 6009.88 7055.53 5013.67 5826.04 5339.78 4143.78 4970.88 4763.66 4636.5 4940.42 5923.4 5085.71 5499.39 5644.82 5501.93 5463.38 5945.21 4938.74 5696.88 5607.14 3923.03 5975.63 5252.34 6396.74 4138.46 2775.04 3821.72 4986.77 6318.18 5586.81 3948.17 4621.75 4551.24 5358.59 4220.88 4515.71 6519.71 6640.13 5082.6 5810.84 4230.54 5094.44 3748.24 4655.49 4467.94 4850.81 6038.14 2540.31 6029.66 5527.54 5573.7 5697.4 4727.62 4270.95 4055.8 7325.81 5280.17 6425.26 5143.58 4794.96 6186.19 4839.34 5083.08 6834.49 6337.56 5525.39 3998.5 5938.34 4024.3 6394.38 5555.28 5169.36 4737.14 4686.65 5834.74 5556.96 5788.23 5581.75 6392.01 3599.45 6730.19 4907.06 3735.44 4073.93 6043.3 5952.75 6332.36 6122.55 2739.94 4931.53 4223.33 5911.67 3323.28 6695.82 6405.76 5794.24 4678.38 5448.61 5050.65 4827.33 5206.48 5513.57 5729.23 5226.0 3365.82 4538.95 5965.15 4780.2 6090.91 4946.42 5019.93 5081.78 6116.33 6263.44 6343.14 5774.97 5462.21 5750.71 5470.77 4831.47 4643.85 4004.04 4289.17 5564.02 4274.61 2965.79 6898.19 6035.6 5137.34 4481.53 5330.45 4581.13 4219.07 3610.4 6387.01 5367.52 4322.15 3092.35 5210.03 3629.96 5478.47 5351.39 6142.37 6061.47 4933.21 5375.47 4723.12 5120.49 5201.36 5262.61 6302.8 5409.61 6038.2 4005.44 5206.78 5555.88 6732.43 5028.96 3866.16 6362.12 4484.76 4840.01 2980.99 5611.2 7933.0 4455.12 5173.87 4894.16 5380.13 5711.87 5118.27 4941.22 5932.23 5791.61 3369.13 4479.66 5367.2 3043.85 5461.13 4726.76 5839.13 5495.68 5489.34 5163.9 5708.14 5537.72 3920.42 8332.24 6155.31 4553.56 5329.64 6049.55 5709.62 5835.78 4127.74 2476.04 3942.07 7443.72 3937.08 5260.34 4709.35 6586.45 4373.3 4750.78 4163.5 5724.64 5078.86 5100.1 3561.29 4963.34 3295.83 4459.28 4260.92 6250.23 5960.56 4118.84 4020.95 6313.06 3474.39 6470.3 4200.03 6062.05 5082.74 6915.83 6072.45 4410.55 7099.43 5526.14 5198.29 5423.0 5077.33 3856.59 4746.52 5413.79 6338.89 6202.55 5025.39 4714.54 5893.5 3320.11 5030.91 6022.17 5119.37 3982.23 6163.38 4566.18 3459.9 4964.09 4809.42 5024.9 4306.53 5659.17 5094.81 5972.06 5713.22 5861.71 4359.04 3183.98 3794.63 4524.28 3778.1 5152.36 4511.82 5826.64 4220.65 6820.42 4816.2 6321.41 4896.52 4751.02 3372.79 5184.56 5282.64 4715.72 4669.66 4808.52 5046.33 5607.24 5053.92 6352.26 3847.38 3818.59 4863.72 5002.48 6623.85 4262.82 5102.36 5065.11 4342.9 5069.84 4051.44 4241.89 5054.74 5941.72 5991.09 5133.97 6600.94 4788.58 5371.02 6155.1 5876.71 6262.72 5029.78 6515.84 2990.77 4888.6 4739.14 4918.77 4371.99 4219.78 3885.86 5235.29 4479.94 5453.3 6413.02 4863.27 5862.86 6049.79 3493.7 5374.98 4719.7 6939.12 4735.33 5411.85 5092.37 6444.77 6314.07 4287.63 5315.4 6449.45 3975.31 3689.45 3824.16 5572.95 3868.18 6723.16 5584.06 7111.16 3817.13 4547.19 5507.24 6851.54 4583.31 4503.89 5806.08 4997.27 4853.39 4093.08 4449.22 5543.27 4717.05 5287.2 6135.57 5998.38 4312.67 5423.8 4270.24 4989.15 5017.78 5015.69 6175.81 4727.24 6677.09 4305.57 6959.81 4829.35 5201.67 4424.7 4089.76 5526.55 3192.41 5215.15 4987.87 3315.57 5804.71 4764.96 5727.3 4242.52 5356.51 4277.88 3057.03 4087.15 4143.08 7500.97 3948.23 5228.18 5787.31 3927.99 5868.82 4050.9 4978.31 4099.77 4981.9 4537.32 4656.78 5126.91 3600.43 5131.24 5196.67 6496.67 5474.8 6607.87 3664.11 5117.47 4925.63 5882.65 4434.19 5187.7 4623.61 4188.3 6261.75 5177.64 4255.31 4094.73 4407.9 3492.19 4584.5 5122.63 4703.08 6345.13 5274.19 5516.95 4406.4 4413.85 4844.57 4027.46 4470.98 5776.37 4516.28 3627.82 4044.45 5125.78 5344.43 4373.47 5045.38 5350.88 5372.61 3686.21 6480.17 5023.15 4377.07 5101.59 3813.22 5570.3 4336.42 5243.29 7589.94 3130.65 5628.24 5856.11 3327.49 4109.88 4234.94 4562.29 5013.13 5080.66 3417.33 4926.42 4164.13 4642.34 4520.1 4947.52 5874.89 4293.03 5813.4 4389.21 3791.79 4925.44 4754.05 4951.47 6084.93 4307.28 3697.96 4739.42 5538.93 5020.12 4745.45 2631.9 5281.28 6255.18 4668.71 4758.21 7228.46 6362.14 6719.88 5978.82 5266.5 4523.88 4066.38 4948.98 5227.52 4414.48 4092.24 5163.02 7144.24 4906.82 5687.83 5004.23 6442.69 6320.71 4648.04 3464.83 4721.32 3163.78 3293.56 5274.14 4903.82 5746.28 4082.47 5511.6 4338.08 4378.3 6134.99 4989.56 4718.54 4440.57 5548.29 6766.43 2315.64 4390.41 5226.56 5599.49 5313.22 3905.51 3999.94 4864.22 3901.8 5759.46 3921.08 4190.31 5678.96 5262.19 4244.9 6070.58 6034.41 5452.83 5130.91 5402.24 4519.22 6445.22 3844.9 3695.36 3963.86 3848.93 4306.11 5935.47 3402.32 5903.66 4528.49 5004.67 5365.89 5992.26 3960.8 5070.39 4980.85 5714.58 5110.45 5208.32 5248.77 4083.97 4607.02 5153.74 3895.51 4528.09 4165.81 6291.51 4128.98 5882.89 6246.22 4188.32 5246.61 4100.38 5344.77 4723.48 5097.87 4899.11 4278.07 7267.18 6256.02 5320.92 5269.18 4406.1 5034.59 4942.77 4263.33 5080.18 4454.63 5912.61 3279.1 4403.98 4560.84 4729.43 5776.57 4562.74 5683.26 5598.74 5139.5 7493.3 4814.55 3527.05 5698.77 2477.07 6413.11 4305.16 5092.28 4965.89 5659.95 4152.85 2908.7 4453.64 4517.73 5469.47 5660.16 3838.47 2588.37 6736.03 6235.57 3623.87 5916.16 6934.37 6113.95 4050.08 4097.57 5017.5 5563.79 6171.13 5511.88 4512.11 5083.41 7055.42 5486.68 6048.86 4285.32 5490.43 5022.28 5197.52 4959.34 4948.5 4527.02 4531.14 4564.34 3838.56 4871.44 5076.35 6020.48 6375.99 5200.05 5234.29 5313.66 5419.37 4466.03 5409.33 4511.54 5196.0 4923.9 4973.78 3329.99 3947.47 3296.27 4713.25 4204.84 6243.0 6673.96 3556.85 5441.96 3435.9 5174.89 4288.3 5370.52 4652.29 5774.81 3746.31 5498.32 5027.98 5346.27 6475.1 4969.21 2691.29 2845.98 5289.52 5314.85 4305.43 5450.44 6510.17 5742.65 5592.32 5381.16 5565.13 6193.35 6086.96 3701.27 5233.78 5653.9 5046.21 4929.14 5894.61 3979.54 5304.13 5944.09 5833.06 4923.41 4497.31 5384.76 5529.42 5257.12 5243.43 4537.14 5551.9 3757.34 6415.61 4687.64 4419.71 5037.06 4541.8 5175.29 5842.56 5887.15 5412.31 3087.09 3423.15 4890.5 3981.07 5452.42 5328.22 6853.85 3497.9 2395.5 5941.61 5782.48 6248.6 3836.45 5683.61 5100.25 6894.26 4986.51 5339.38 5178.99 5383.07 4591.87 4790.78 5013.42 4247.15 6552.22 5651.07 6248.81 5273.35 4091.8 4645.58 2651.49 5512.23 5275.32 5985.29 4898.94 4178.15 4613.31 4733.04 6119.09 5788.66 5091.68 7531.29 5069.25 5048.89 5935.03 3161.47 3991.03 6390.78 7435.25 6826.57 4788.87 4495.87 3702.37 6022.72 4643.31 5527.33 6917.52 5402.21 4989.09 4880.14 4982.31 4307.48 3848.54 5941.4 5331.02 4871.96 4863.23 4402.67 4470.61 4631.83 4384.88 6887.27 6008.49 4806.34 4287.53 5612.21 5945.08 4968.03 3306.14 5490.58 4863.79 4702.06 3830.46 6031.67 4689.15 6138.12 4428.78 5409.66 4345.67 4765.72 4642.66 4752.14 5329.59 4888.12 4950.97 5512.16 3197.63 4863.96 5191.08 5203.08 7480.41 5163.77 4488.85 3731.84 4901.07 5186.3 3436.15 4151.76 4020.4 3493.47 4596.75 4933.65 5443.58 4558.46 5805.86 4049.02 4470.4 5311.03 5255.12 6169.11 5615.35 4027.09 6422.84 4502.18 5379.09 4602.85 4962.77 5872.05 4853.02 6259.23 5181.4 5670.2 4711.62 4114.24 4247.23 4268.65 4694.83 5509.42 4354.08 4256.43 5936.36 4520.62 3903.75 4755.47 4485.99 5127.16 5475.8 5314.69 6050.81 5543.46 4249.46 5965.81 4750.17 5660.85 2330.66 4177.19 4752.51 3587.05 6229.37 6718.19 5282.91 3797.33 4425.84 7256.35 4800.69 6566.1 3555.86 6386.78 4996.99 4896.39 6081.14 5480.83 4607.85 4220.46 5128.57 6000.7 5604.21 3169.67 3361.92 6710.88 5395.14 3967.48 6213.04 6622.11 3685.13 6790.73 4655.16 5251.4 3867.19 5857.79 4039.91 5276.7 5036.58 6119.63 5411.02 4752.9 4287.16 5199.44 4062.5 4435.51 5374.07 4588.7 3766.55 4579.69 3554.48 6496.52 5005.85 4216.17 6484.17 4721.02 4254.37 3374.08 4031.78 6098.1 5708.99 5687.85 5346.68 5296.29 4611.53 4285.66 4896.11 5172.53 4135.62 5801.99 5534.94 5210.48 7644.38 7552.94 6101.92 5323.3 5088.44 4998.21 4662.56 5166.79 5349.31 2976.22 4649.22 5394.55 5094.52 4946.74 2682.24 5928.32 5229.48 5475.7 4016.18 5526.75 5435.74 4244.99 5327.45 5560.26 6185.89 3997.96 4439.35 3460.94 3990.25 3691.0 3758.07 4236.14 5733.62 4407.87 5282.51 4460.92 5945.89 4042.28 4105.55 4340.76 6065.22 4221.28 4456.39 5514.84 3633.79 5421.53 5937.08 6070.3 5233.29 4312.56 4612.06 5204.04 4750.58 5926.11 6667.68 5235.11 5211.38 5089.62 4590.55 4741.26 5920.32 4255.85 5097.69 3988.3 6543.13 5149.72 5776.96 5464.25 5486.48 5301.47 3645.12 4617.55 5424.88 5415.85 8659.64 5683.95 5469.13 6027.62 5010.2 6123.03 5966.61 5711.11 4575.94 4938.72 3546.71 5768.57 5564.23 5950.04 4231.83 2435.33 6401.43 5020.71 2681.29 5094.48 3872.61 4238.4 4318.48 6132.95 5266.22 4860.33 3685.13 6004.68 4051.34 3627.55 6239.84 4635.6 4256.67 3457.48 3931.07 3405.98 5417.15 3688.16 4681.72 4945.39 5996.33 3950.63 5415.19 4612.62 3619.07 4467.04 4275.57 6385.23 2983.99 2614.4 6363.92 6205.93 4923.24 5830.72 6184.4 3828.81 4373.45 4082.57 5255.18 5169.9 3004.16 4767.78 5235.17 4779.5 4421.12 5254.49 6649.96 4303.19 5784.3 4256.57 3914.2 6088.68 4643.56 4135.08 5620.74 4778.82 6124.08 5467.84 5053.95 5266.01 5253.37 5767.9 6515.8 3685.65 5869.4 3701.16 4186.6 5895.77 4732.09 6136.49 4356.25 4216.95 4209.49 5742.74 4244.21 4947.24 3875.05 6200.54 5148.58 4199.45 7234.66 6599.66 4055.54 4233.8 5765.42 6098.95 4997.83 4893.49 5325.44 5021.88 5956.65 4498.25 4188.87 3735.24 6574.95 4074.48 6333.29 4558.47 5731.57 5997.88 5839.71 5576.92 6408.83 3930.79 4004.35 5226.97 3312.06 5180.76 3361.26 6799.4 5278.36 5865.39 4427.28 6079.11 3082.32 6430.39 3658.37 7440.72 3949.6 5703.6 6326.18 5661.62 4867.08 6631.19 6648.68 4713.74 5626.61 5817.25 4084.49 5061.98 6632.99 4537.6 5147.36 4419.61 7177.44 4563.46 5309.98 6553.94 5726.66 5460.65 5652.0 5463.41 5225.33 4929.75 4435.36 6045.22 4614.3 5134.39 3532.3 5769.98 5442.32 2221.99 3580.58 4863.01 5356.79 5657.36 3619.79 5029.47 6306.21 2978.76 2040.66 7016.27 5884.9 3876.21 5689.26 4916.22 6022.7 4940.84 5750.07 4809.67 4757.74 6045.67 3946.28 3821.94 5439.9 5367.73 3540.11 3456.47 4652.01 5421.64 4858.51 4207.54 4886.12 6419.12 4976.12 4817.16 5453.98 3991.42 4388.63 5102.75 4597.29 4200.09 5931.77 5151.21 5398.64 6817.57 3614.96 4477.04 3886.68 5703.74 5662.55 5737.92 4360.23 5365.24 5293.51 4763.96 5754.18 5008.63 3418.99 4480.95 4993.35 4409.63 5521.25 3661.9 5370.85 5949.46 3178.54 4765.02 5376.71 4448.13 5070.29 4807.28 2261.36 4266.03 5280.69 4220.03 6923.84 5407.78 5449.46 6179.96 5703.07 6113.54 4662.43 6260.79 3963.76 5528.53 6799.88 3062.43 5990.52 5426.78 2967.38 4159.35 6477.91 4237.98 6439.37 4081.97 5401.99 5580.92 5973.33 3583.21 5067.46 2511.46 4011.37 2775.69 4785.25 6519.43 5876.64 5424.46 4857.84 4908.49 4962.21 4858.44 3468.42 4673.35 4771.13 4992.42 5297.19 4351.38 4833.46 5933.7 7248.4 5280.12 4444.97 5984.81 3498.16 4409.27 4640.06 5471.74 3548.39 3673.28 4928.27 3375.28 5625.65 4301.61 6107.89 4446.84 5660.55 5148.08 4834.87 3672.21 5760.22 5938.17 4795.43 5097.95 5108.06 3573.73 4693.52 6853.04 4745.43 5831.96 4747.55 3056.7 3755.95 6234.32 4586.19 4446.06 3450.93 4270.74 5132.68 6595.03 4558.15 6218.95 5222.16 5107.23 5136.08 5558.68 3776.94 4010.57 5629.39 2684.03 6157.04 4768.61 4522.21 5075.55 5506.19 6719.94 4950.67 5227.59 6166.29 5453.6 5409.63 5294.77 4709.05 4630.82 4043.66 4813.08 5860.67 4540.86 3764.1 4835.83 5604.35 6316.56 4332.87 3091.67 6420.81 4715.58 4450.7 5151.52 5369.08 4347.74 5291.9 4009.62 2081.58 6505.78 5461.55 4270.15 6865.76 6449.64 6464.8 4684.44 4749.59 5799.69 5571.72 3809.69 3208.96 7051.9 4184.23 4144.57 5550.75 6834.41 6226.14 5466.33 3000.29 5721.05 4247.69 4514.39 4588.99 4321.21 4344.34 3583.49 5052.84 4366.74 5297.16 3184.64 5206.33 5530.49 5653.03 3718.69 4514.79 2216.82 4509.89 6752.75 5269.38 5607.3 2928.82 4222.4 4000.43 4568.41 3420.08 4912.04 4539.07 5464.68 2685.81 5591.76 4585.31 6625.18 5323.91 5097.45 6293.89 5737.75 2761.07 4983.39 5366.52 4690.55 5533.72 5533.42 4802.32 3678.08 4599.38 5246.47 4187.31 6191.29 3240.51 7422.36 5161.01 4298.15 4628.4 5832.37 6051.83 4642.93 3973.12 4263.16 3077.84 6024.75 6109.49 5567.93 5987.42 5332.65 4442.22 6451.33 5413.31 3012.99 6400.08 4743.59 5208.14 3317.83 3763.05 5092.24 5549.49 3101.75 4518.04 4766.06 4874.18 5435.19 3298.2 4953.1 5818.95 4093.99 3940.49 4406.05 4680.94 5828.35 5876.72 5236.43 5285.07 4680.14 4608.41 4187.94 5980.59 5021.77 3796.15 4801.8 7216.98 5271.02 4209.31 5718.28 6242.79 5950.45 5713.03 5849.65 5134.67 4165.21 4215.0 4936.96 4481.76 5452.78 5065.26 4304.41 6192.0 4940.28 5885.28 6579.31 3004.34 3022.6 4811.76 4914.45 4698.87 4661.03 3624.7 5262.35 4691.91 4475.83 4510.8 5889.35 5010.04 4394.56 4570.98 4275.07 5825.38 4185.61 4047.87 5742.47 3778.02 6552.21 5417.8 5146.37 7132.12 4836.16 5518.57 5151.11 5463.48 5730.33 5545.46 4527.99 4543.1 4376.7 5190.61 8325.01 3764.06 4440.81 5941.9 5434.47 6642.76 5829.22 4497.78 4243.79 5811.18 5433.65 4008.15 4887.76 4669.06 4811.32 4286.49 6184.88 5829.32 4396.25 5551.95 3918.87 2275.45 5423.42 6605.86 4383.56 5012.5 3562.79 7093.13 4516.53 4122.92 3604.14 4452.54 5089.1 2711.19 4028.32 4099.92 4884.59 3858.06 4511.7 4083.79 5263.27 6300.92 4173.54 5599.29 6038.68 5046.12 4807.4 7013.17 3805.67 4601.74 6506.86 5088.57 5580.34 3852.6 5775.31 4706.5 4603.5 4647.67 5375.12 4356.36 4892.44 5578.94 7610.49 4286.17 3684.56 5323.55 5375.1 4172.6 5313.12 5351.56 3984.88 5160.59 4732.09 4320.42 4255.34 5064.79 5480.3 7509.24 4146.81 5896.26 5388.78 6101.13 4573.72 5099.21 4917.99 5636.4 4367.78 4350.12 5227.02 5670.0 4232.16 5300.96 4344.51 5680.94 3781.77 5581.55 5193.01 3474.5 6550.44 3860.83 6348.03 5732.27 4523.39 5278.56 5146.37 6917.62 4013.38 5631.14 4343.78 3352.35 5263.3 4909.65 6523.86 7693.4 4326.48 4437.07 3449.37 5491.9 6405.0 4659.16 5789.55 4633.05 4901.2 5711.62 4798.17 4990.79 5166.79 6479.39 2895.63 4997.91 5079.22 5381.54 5810.77 4714.83 5474.15 7519.2 6355.68 4478.6 3953.55 4304.63 4469.54 4314.56 3928.53 5606.51 5740.65 3834.47 6349.67 6329.53 4590.01 6101.86 4227.41 5993.0 4803.57 5966.42 4110.59 3332.49 5354.66 4214.44 5378.23 4787.97 3746.36 6789.23 3989.7 4777.03 4246.61 6028.09 5452.36 3804.5 6486.37 5498.42 3344.57 5318.53 5220.76 4281.98 7165.9 5344.83 7046.11 3427.63 4863.97 6342.48 5756.75 4587.67 5599.7 4163.74 6969.28 3665.95 5698.96 4095.75 3603.51 4298.45 5222.51 6609.84 5135.96 3834.43 5658.37 4707.06 6074.94 5491.37 4250.88 3783.54 5268.38 3475.67 4792.39 7038.89 3863.67 4814.12 5067.56 6137.8 2735.53 5116.6 3747.03 2783.85 4356.49 4526.81 3994.07 4219.94 5907.46 6740.71 4264.91 5399.29 5971.22 4909.31 6522.59 6602.43 3568.28 5425.98 5996.66 4405.42 2995.67 3598.08 4599.81 5698.23 7300.58 3608.06 6633.61 5217.95 4867.7 5484.36 4277.24 4063.9 5291.05 5161.1 4619.2 5166.41 5067.56 2596.96 5701.75 4350.15 4139.3 6541.45 4750.49 5078.31 5391.48 4923.43 5131.15 4847.14 3950.27 5116.66 3566.79 5374.67 4981.43 4741.28 4215.2 5069.89 4157.29 6813.72 5327.75 4609.02 4896.65 4638.18 4196.37 6448.66 4453.97 6945.98 5138.2 5783.48 4701.5 4449.98 4504.35 4771.65 4840.44 5093.82 5951.81 3924.14 6918.35 4296.69 6238.32 3319.67 6471.42 5283.8 4076.59 4428.14 5164.1 6464.15 4479.11 4972.17 6685.4 5699.53 4222.77 6332.01 5527.23 4234.18 4805.33 7085.01 5980.95 6193.08 6069.3 3862.77 5887.01 5168.35 5388.39 3728.18 5335.47 5633.61 5048.19 6799.23 4888.27 4592.15 6487.56 4854.11 4998.22 5533.19 5417.21 6104.26 5583.61 6063.64 4986.71 7382.3 4022.56 5522.21 3772.3 4855.01 6208.9 4923.57 3340.09 6061.63 2279.05 4829.35 4075.28 8137.11 5484.32 6650.77 4067.96 4824.12 7104.73 6162.3 3272.75 4264.54 5261.19 3516.27 3104.96 7043.44 3831.52 4263.78 4263.65 4643.9 6106.43 5228.75 4807.35 6047.14 5467.63 5009.83 5666.95 5210.38 4642.2 5717.8 4811.22 3629.44 3683.86 5003.78 4918.76 3299.24 5293.75 6246.56 4208.41 4061.6 5826.78 2603.64 5473.72 5107.0 2856.55 6212.15 4553.68 6502.97 5361.87 4783.07 3758.22 4946.23 4757.2 4852.58 3205.68 6083.28 5561.74 5211.6 6100.73 5806.31 3556.79 4788.08 4745.79 5456.71 5470.04 3503.41 4908.75 7317.04 3971.08 6412.67 6204.65 7001.83 4482.9 5012.97 4593.7 4036.91 4349.13 5589.37 5110.11 5439.49 6379.14 6639.64 5216.26 5212.43 3687.65 5454.12 4887.52 4834.3 5478.95 6348.54 3851.85 6804.79 4066.57 5642.35 4206.98 6372.13 5156.76 5369.5 6357.47 5404.01 6101.57 6016.19 4891.38 4124.49 5535.91 3230.13 2949.12 5714.25 5955.86 6176.67 4533.37 5325.96 4848.46 4850.06 5412.24 5016.02 2779.99 7044.29 5887.38 4920.21 4581.37 4049.16 6942.34 5851.61 3658.05 3936.95 5478.11 6153.94 5526.31 6836.82 5030.15 3858.17 3644.78 4631.99 3477.1 4740.98 4078.93 3185.39 5934.82 5128.77 4501.78 7122.87 4922.49 5797.36 3572.94 4243.26 5001.58 4153.84 4820.17 5119.86 4729.42 5089.26 5244.98 5084.17 3886.72 4901.44 5415.45 3776.8 6592.93 5096.43 6156.21 6350.71 6436.74 2460.79 4456.11 4653.83 5096.24 6171.71 5039.12 3628.89 3908.98 6589.82 5769.14 4668.88 6328.42 5027.43 7307.21 5522.75 3381.82 5867.64 3619.72 4438.58 4646.51 6059.93 4565.93 5602.53 7107.63 5073.02 4831.93 6545.43 5788.97 3472.91 4023.93 6760.92 5868.89 4989.2 3274.85 4711.04 5007.21 7144.05 5494.28 4506.18 4099.26 2970.9 5206.47 6542.5 4580.06 4383.47 4834.39 5971.21 5493.89 5262.47 3512.94 4991.35 4587.7 4258.98 6761.81 3903.91 4568.64 3919.62 4127.53 5210.75 4474.83 6555.44 5658.14 4508.18 6214.73 2205.51 5175.89 3894.64 4268.19 4374.74 4532.7 4504.86 5975.23 4473.29 4198.94 6163.54 4211.82 6556.26 5684.25 5438.92 6550.4 3766.69 4891.67 6818.91 3503.65 3634.5 6631.28 6571.31 4392.65 6318.23 4058.87 5174.75 5932.07 4984.46 5948.71 4793.65 3856.53 5460.89 4532.89 5260.85 5742.09 2884.65 5807.46 4648.21 4393.16 3311.29 4549.69 6423.81 6192.77 4312.15 4583.52 6418.11 6015.02 5244.22 5832.29 5585.14 7039.98 6456.58 4159.81 4960.64 5792.98 4385.81 4034.05 5690.96 5798.38 3862.91 5366.11 3419.87 4824.81 5113.6 5944.3 3563.14 5135.5 5347.9 5851.63 4504.52 5212.92 5615.84 4464.73 4928.85 6440.38 5556.0 5545.59 4954.81 5610.53 5755.15 4835.97 3926.11 4057.17 7066.96 4467.0 4994.65 5196.92 3787.08 5644.81 5334.36 4728.55 4929.6 5750.35 4489.99 4548.45 4658.11 4551.26 5730.61 7124.45 6358.93 5064.67 3703.49 5232.85 4062.56 3717.47 6200.63 6816.66 3217.67 5079.64 996.652 5212.37 6003.78 2628.22 5058.51 4244.49 5036.98 5513.8 5188.53 4521.75 4027.63 5569.2 5350.88 5420.67 6413.15 6103.11 5048.55 6459.51 4024.31 4955.16 5844.72 3992.97 5989.05 6040.74 4054.22 7228.94 5393.65 4961.99 6551.93 4595.12 3110.13 6484.43 4625.67 3485.54 4458.64 3657.69 3492.83 6280.13 3684.15 2606.51 4438.76 6006.89 3814.65 3965.3 5372.82 4983.3 7778.01 5127.82 5124.17 5805.1 4125.9 4064.58 4234.88 4384.28 4456.26 4810.98 5091.22 6282.38 5640.72 5657.55 5727.79 5188.82 5043.14 4717.73 5072.5 3904.07 5748.9 3663.0 3742.31 6304.49 5134.72 4608.34 6419.64 5464.83 2781.96 4431.23 5917.34 5601.55 4462.87 6545.99 5630.9 4554.68 4368.28 4692.32 4945.0 3127.83 4212.15 5114.07 4385.49 4263.18 7142.95 4383.68 6618.21 2617.39 5144.44 4051.18 5969.37 4928.35 5034.69 4509.46 3538.53 4680.69 6500.49 5965.58 3352.34 4901.29 4050.03 4775.04 4120.07 4882.66 3429.57 6746.66 5410.33 4642.74 6735.97 5305.59 5416.45 4330.58 5754.6 3288.01 4904.51 4147.31 2202.77 5751.15 5950.88 4149.55 4441.22 5853.89 3380.69 4140.4 4386.8 5446.4 4725.01 5966.75 5510.9 4505.28 4883.63 4971.29 5510.45 4730.14 3994.39 6119.99 4618.73 4128.1 4446.58 4402.17 5401.4 5053.15 5910.86 6239.68 7320.78 4834.44 5782.43 4027.33 3873.92 5026.76 5023.41 4092.07 4546.44 4224.3 4184.21 4700.07 5273.37 4732.37 4985.3 5713.36 4749.18 5553.94 4546.96 5424.55 4921.1 3814.16 5695.79 3622.8 5414.58 5577.41 5740.98 4346.07 4013.86 4177.47 4218.16 2918.64 4140.92 4512.07 5984.8 5236.24 4585.04 5678.58 6570.35 4242.63 3269.54 4559.74 5836.26 6666.67 6063.44 4583.94 5046.31 1937.5 3844.54 5849.53 4651.99 4420.11 5863.0 6127.39 4972.18 4607.18 4124.76 7200.89 4813.33 4952.52 3840.21 4081.34 4954.76 3908.56 4844.83 5244.78 3636.15 6114.89 5135.63 6384.7 4355.83 6870.97 5351.86 6056.87 5474.01 5307.35 6201.86 7554.58 5166.89 3639.44 5491.63 5725.37 3868.62 5138.33 3743.76 3425.69 6711.21 4236.86 5393.76 4941.02 3864.92 6010.59 2955.36 3668.93 4009.24 7541.76 4775.49 4681.29 3220.29 5749.6 3845.9 4439.71 5667.51 4708.31 4198.9 5431.29 4833.67 5325.91 4213.05 5157.38 6203.03 5235.87 6089.45 5810.17 4966.07 4400.14 3669.32 4704.92 4316.0 4287.25 4392.75 4271.07 4420.6 5287.25 4770.51 4184.47 6511.37 4012.92 5759.79 4598.54 5218.42 4933.49 6139.64 4896.43 5463.06 4639.8 5260.52 3185.09 6102.49 5114.23 5495.0 7407.91 6015.22 4454.74 2904.46 4826.52 5120.92 4337.32 5241.75 4731.53 3763.9 4788.7 5084.5 5640.12 5329.76 3899.7 2403.72 5134.33 4147.49 4802.98 4833.55 3646.95 7224.99 6334.53 4749.96 5377.37 5652.87 5483.7 5018.69 3152.86 5952.38 3896.27 5807.52 5963.36 5230.02 5087.14 4342.18 5169.48 6016.08 4731.21 3124.7 6064.71 6102.98 6060.17 5153.18 4763.4 5902.67 5454.11 3779.45 5806.61 4983.1 3682.35 7123.04 3756.96 5906.57 4932.29 4990.23 3784.94 5499.59 3125.13 4141.21 4174.44 4564.41 6331.74 5951.86 4252.18 4659.88 3791.41 5853.12 5702.4 5069.9 5473.89 3673.6 3306.84 5265.21 4657.24 5866.42 4762.1 3987.69 6502.99 6219.34 4191.01 4475.38 4589.06 4920.88 5890.25 4216.44 3999.5 5034.05 4816.51 5345.73 4770.63 3990.94 4756.8 5477.8 4462.35 3986.41 4241.68 3469.18 2945.34 4489.29 4301.93 5064.23 6061.85 5512.44 6449.06 4924.07 4685.4 6240.42 5146.0 5721.14 4577.73 4987.28 4918.64 6638.25 5078.59 4759.99 2646.13 5419.57 5162.67 5760.98 4705.68 5469.35 5384.86 4019.34 4658.24 5869.67 4311.48 4899.73 5457.66 6394.19 5973.89 5366.22 6193.73 5518.11 3742.11 5712.35 5701.52 4743.9 6776.22 5321.17 3719.11 4467.13 3877.8 6273.6 5136.87 5024.32 4708.17 2741.2 5790.42 5784.37 3142.09 5591.77 5182.13 6110.48 6245.52 3954.77 6793.1 6016.87 4506.66 6715.73 5209.55 5426.4 5763.05 5129.68 5357.39 5076.84 5247.01 4208.37 4841.7 5685.74 952.938 4678.7 3450.07 6215.87 5191.26 6060.06 5544.27 3484.81 5308.33 4666.12 6023.07 5674.63 5340.05 5995.4 5322.11 5700.79 6710.14 4426.02 4711.15 5188.22 4841.23 2804.54 4357.11 5005.6 4176.32 6069.78 5532.75 6949.65 4095.83 3372.95 5676.61 5846.95 5268.15 5819.0 6347.72 3460.93 3200.6 4629.02 5914.5 6006.16 4288.45 5407.96 6206.98 6562.03 4815.47 4368.12 4365.58 5214.4 4636.53 3629.49 5766.05 5117.64 3835.81 4869.48 3623.19 4906.11 4387.39 4564.1 5825.55 5509.51 4848.14 3199.4 4316.5 5254.24 4192.21 3597.43 5144.56 4158.91 5311.55 3360.86 4869.25 5545.21 4333.87 5684.05 3667.93 5638.7 5813.79 4644.88 5293.13 7350.26 3768.46 5167.53 5003.3 4168.52 5800.81 5106.46 4068.31 5166.05 5077.29 5515.73 4850.5 5866.91 6405.69 2820.07 5679.74 4825.73 5288.33 6296.54 5797.21 6019.35 6740.35 6028.63 4550.92 5146.1 6485.77 3869.39 5960.5 5393.43 6896.55 4685.65 5377.01 6470.23 6506.63 4140.04 3495.3 4697.49 5735.08 4726.2 4750.81 3825.48 3810.68 4196.62 2809.19 4916.7 5486.89 7208.19 4549.51 3587.93 4975.85 5695.25 5323.95 5716.42 5701.63 4620.95 5368.93 4488.39 5124.86 4927.73 4602.57 3565.32 4608.62 4071.75 4626.72 5131.77 5549.71 4410.82 6443.99 3889.98 5193.58 5399.43 5695.44 3422.21 3916.42 5429.3 5510.96 6653.07 4745.16 4697.91 4584.81 5071.98 5719.79 4371.08 7261.51 4968.14 4914.03 5086.29 5527.13 5139.18 5551.43 3034.16 5049.99 4201.03 5001.87 4493.79 4279.44 4899.19 5058.34 4028.22 5575.11 5487.63 3852.82 4507.36 7145.73 5403.97 4795.08 6562.92 5501.73 3671.06 3612.44 7035.54 5233.76 4683.28 4217.36 6549.8 4851.18 4165.36 4871.77 5811.26 5062.77 4884.93 6075.99 5262.79 5927.2 4419.79 5407.69 5152.78 4117.9 4753.76 4781.9 4638.09 4441.91 5330.26 5939.22 4668.8 5125.17 4859.01 5524.45 7133.44 3953.26 4474.39 4658.59 6478.35 5453.77 4104.04 5589.53 5593.79 5025.42 5196.08 4517.29 4495.75 4849.5 6171.01 5796.26 4603.04 4870.94 5271.88 6121.56 7168.2 3763.85 3419.07 5710.33 5344.44 6432.8 3186.07 4369.86 4967.51 5173.82 7212.97 5490.64 5034.34 3769.2 4507.46 5036.14 5603.68 4944.51 5610.95 5532.72 3220.8 5179.17 5579.39 5270.51 5148.1 5490.75 5224.64 5949.73 4312.48 5783.94 6370.33 4278.57 5081.08 6318.25 6864.06 6008.81 4932.56 5192.49 3487.31 6643.4 3918.94 4674.9 5461.72 6599.28 6224.85 4556.19 5368.66 5648.78 6875.73 5226.42 4697.24 4983.43 5117.52 6311.89 6734.39 5942.45 4150.76 5005.72 5368.52 5155.28 5388.73 5205.38 4764.83 4600.71 3957.38 4494.15 5035.71 4710.88 5300.17 4057.4 5534.23 6025.77 6815.96 5339.6 5828.25 4725.11 4215.05 4271.93 4604.1 5076.11 5990.75 5600.21 5459.92 4625.53 4096.47 5114.67 5353.66 2638.82 5030.33 5234.2 4965.24 6379.38 6257.79 5353.23 6229.83 4468.26 5578.18 5293.37 5933.54 5559.79 5879.24 4571.74 4096.86 3622.48 5001.51 5385.86 5115.42 4082.4 5482.76 3745.02 3720.7 4211.36 5698.53 3604.31 4450.49 3468.45 5635.32 4526.34 4316.45 5409.08 5042.75 4598.92 5241.22 6647.08 4979.52 3422.29 4407.79 5214.63 3495.68 3990.96 5352.24 7362.42 4202.77 5836.14 5473.05 4373.2 5537.34 5884.99 5726.42 7025.09 4433.12 3392.26 2549.95 4361.24 5138.93 6406.8 7086.69 6170.9 5833.78 4436.48 6081.3 5615.35 3967.76 6213.24 5987.88 3579.59 4228.53 6123.46 6142.88 5111.26 4574.54 4949.55 3132.34 1969.87 4841.28 5507.38 6889.5 4416.87 4052.43 4896.67 3934.11 5158.44 4466.22 6153.71 5917.08 5483.37 3626.86 6371.96 5322.07 5770.07 5101.6 4282.11 5467.51 2347.41 4542.16 2030.03 3543.37 5527.27 5104.39 4612.13 5846.6 5327.05 5438.55 4434.65 5977.66 4523.81 5106.33 5198.94 4028.35 5464.05 2980.31 3148.79 5740.78 4796.12 5997.91 4742.82 6791.86 4209.0 4930.72 5728.58 4887.73 6297.99 5378.24 3856.73 5817.74 5887.71 5661.6 4827.61 5285.75 5385.03 5481.64 5673.75 5360.67 5968.54 6263.3 4501.05 4537.03 6548.29 4114.2 4326.06 5034.46 5757.29 5793.12 5469.17 5061.75 3769.24 6022.78 4087.32 6647.85 2569.12 4161.32 5161.74 7336.37 5099.9 6945.69 5118.86 4183.4 4304.64 4733.79 4823.06 5758.98 5254.49 5288.64 6828.8 6883.86 3350.99 6161.94 4065.28 5057.59 4461.14 5285.6 5615.06 5490.54 5203.54 4047.95 6142.94 5001.69 6581.56 3980.46 5383.9 3798.09 3886.56 4496.51 4511.05 6561.94 5259.21 5418.12 5934.05 4714.66 6771.18 4984.17 4656.01 6589.13 4037.86 5602.62 5714.51 5628.97 4484.78 5157.73 5847.91 4934.66 4109.44 4903.84 4290.49 6688.53 5209.5 5065.74 5791.25 4873.23 6731.89 5410.6 5453.2 6348.93 6824.53 4332.64 5232.16 4422.23 4820.68 6031.22 5485.84 6424.77 5453.69 5918.95 4538.89 5689.56 6556.86 3242.31 6099.28 5372.25 3234.26 4169.15 4778.37 5134.17 4074.16 4904.35 5592.54 3247.97 5124.34 4904.37 4358.81 4651.64 5729.92 5016.46 6224.13 4761.84 3661.67 5517.65 4009.68 3303.49 4622.73 5256.75 6351.89 5932.28 2960.5 4975.32 4298.7 3902.48 6030.39 4905.53 3799.01 7392.65 5319.1 3757.23 4181.93 6570.43 3820.19 4979.5 4745.37 5939.29 5418.98 5575.11 4052.49 5061.74 5326.03 6189.67 4948.96 5256.82 4013.86 4061.87 5165.31 4288.5 5715.51 3721.69 3456.3 6074.39 5317.83 5092.93 5881.93 2803.01 4444.0 6182.19 5327.39 5781.62 4981.81 4138.59 4970.55 4938.33 4621.33 4541.22 4946.08 3539.68 4984.01 6217.33 4557.1 6270.59 5927.1 6175.27 5876.51 4103.76 2932.52 4733.41 5264.83 3901.53 5136.51 6815.51 5313.86 4457.05 3989.26 3618.64 5703.84 4335.79 3530.82 5797.32 5432.04 3921.27 3702.45 5265.63 4898.29 4431.06 5730.2 4830.13 3494.16 5370.9 4529.77 4325.13 6172.27 5390.33 5078.73 5278.54 5729.0 5192.92 5275.57 4179.87 4786.66 5891.25 5370.1 5129.4 5114.51 4655.37 5585.25 5023.61 4672.86 6530.78 5560.23 3043.77 5237.55 3909.94 5088.64 6589.8 6920.92 3729.16 3783.36 3038.91 3922.28 4571.57 3445.92 5236.69 4586.82 6026.04 6200.05 5859.17 4034.41 5522.34 5771.98 4420.35 5717.45 5117.83 5268.27 4645.93 5448.64 4585.37 6417.61 5395.12 5783.69 5350.9 3483.61 4256.08 4460.89 4399.52 4554.24 3939.96 5910.66 7415.84 4637.3 5141.03 4840.44 8123.59 5765.14 4767.54 5121.08 2927.84 4696.03 6177.68 4605.39 2848.44 6045.26 6500.45 4907.55 4094.63 4286.61 4603.66 4969.68 6636.43 5431.14 6298.8 3689.24 5178.07 5189.91 5777.26 4171.02 7012.36 5028.06 4002.99 4886.99 5159.67 3161.1 5764.52 5684.88 6523.78 4645.86 4045.67 5620.88 4941.52 5900.0 4262.74 6241.77 3783.79 5317.19 4248.14 5279.19 4016.6 5821.49 7050.08 5580.44 5998.13 5095.52 4746.15 3720.38 4758.84 4731.37 3976.0 4068.41 6463.71 5059.37 5783.38 4139.39 6264.03 3562.8 4151.74 5192.82 4174.22 3573.84 4067.89 6294.09 5131.07 4121.07 5524.28 3133.28 5731.43 6353.81 3518.14 4150.44 5044.68 2649.69 5899.78 5000.74 5772.57 4813.81 5244.95 4634.25 5901.8 6351.48 3830.7 6210.0 5432.4 4262.52 6738.9 5992.06 4157.1 8052.53 4867.12 6044.01 6520.19 1458.87 5734.07 3997.68 6033.28 4819.83 4801.16 5071.38 5616.66 5688.77 5368.28 4698.7 6229.64 4220.43 6263.87 5743.8 6666.34 5084.76 6605.11 4757.87 3557.46 5971.95 5652.73 3979.46 6321.97 5151.19 6509.54 6119.0 3792.06 5128.59 4293.3 5587.3 3572.73 4864.38 3770.22 4390.64 5150.84 4608.01 5087.97 6005.95 4308.49 4930.17 4581.1 4745.44 4085.96 5762.82 7360.12 6223.98 5462.6 5617.29 3035.06 4262.19 4597.88 4878.93 6275.25 6892.33 4505.3 4452.36 4511.34 4832.21 5009.21 4742.35 5394.79 5645.54 5264.08 4526.87 4691.01 4594.89 5245.95 5821.42 4515.02 3463.53 6126.03 2970.24 4197.87 5105.54 5462.1 6032.45 3414.67 5444.36 4026.03 6908.32 3467.11 4817.75 6153.26 5637.53 3882.37 4095.4 5188.57 3873.79 5357.33 5252.37 4499.54 5037.58 7430.48 5640.67 5545.68 6080.69 4970.12 4967.93 6369.66 5973.57 5922.62 6241.48 5125.45 5957.82 6286.27 6327.54 5507.07 4802.36 5327.71 5466.13 5257.38 5075.23 4975.56 7282.36 3826.01 4645.91 5581.01 6834.92 6379.33 5130.57 5090.48 5402.45 3985.93 6412.84 6071.59 2589.19 6079.55 5485.61 4993.49 5310.33 6583.37 3688.83 3402.44 4848.98 4491.96 5184.98 4467.51 5339.82 4519.03 5460.57 5110.27 5703.34 4612.68 6668.98 6649.52 4232.33 4939.56 4747.68 5770.92 3093.38 4845.91 2002.78 5631.32 6322.0 5793.14 4491.26 4609.65 5704.61 5410.73 4379.91 4574.03 5290.37 5850.38 4227.66 4730.97 3677.85 5214.71 4677.84 4811.11 4924.52 4866.8 6044.69 5658.05 6593.1 4000.51 6033.93 5011.37 2827.92 4441.44 4232.44 5336.61 5563.09 4848.15 4439.09 5523.81 4718.61 6697.45 5717.67 5515.59 3224.81 3775.38 4046.22 6457.89 4844.2 6572.17 3751.73 5555.89 4766.47 4871.1 5678.08 5872.45 4414.09 5191.29 3784.68 4188.16 3717.22 4654.92 2943.17 5286.55 4880.78 4322.56 5509.09 5625.02 5212.05 4829.77 3928.99 4444.92 6959.88 4125.75 5749.53 5247.73 5034.02 5582.28 5945.25 5181.31 3856.4 4696.06 4137.16 4937.36 5308.4 6581.13 4569.32 5537.61 6084.88 4397.06 4199.44 4053.12 4479.5 6261.67 3435.13 5065.78 4431.46 4521.42 3207.84 3977.98 6043.34 4128.93 4959.72 4712.17 3808.04 4723.71 4461.67 6126.5 4034.88 6007.1 6345.2 5488.96 5128.03 3720.92 5087.3 4942.63 6139.74 4975.57 7066.26 3057.3 6150.31 5873.62 4996.91 3920.44 5379.52 3768.62 5314.67 5563.47 5651.46 4066.36 3162.27 5516.37 5092.44 5432.2 4612.4 3312.3 4746.19 6381.58 3282.57 4798.13 5648.59 4630.5 6296.36 4432.32 4451.76 7885.41 5782.25 4104.97 4575.72 5114.61 6118.13 3374.62 4926.62 3917.09 6009.93 4083.1 5270.1 5130.56 4947.64 6305.9 6649.21 3470.69 4859.95 4132.08 5522.18 5223.1 3873.72 4592.49 3625.98 5479.86 6474.5 4702.32 4763.04 5971.9 3746.62 4532.67 4876.37 4769.62 5260.13 4649.5 4810.74 5985.75 5475.83 6189.29 5984.55 5672.46 5803.3 3228.27 4721.98 5252.82 3543.98 5056.26 5878.55 4014.44 6604.72 6002.77 3794.47 4610.55 4967.02 4614.49 5400.69 4462.5 5573.31 5004.68 4023.88 5348.11 4405.61 5108.84 3511.5 4520.14 5067.92 5357.14 3188.21 5919.27 4793.06 6637.38 6188.33 6111.23 6916.18 5786.06 4137.41 3868.69 5447.74 4450.51 6033.72 3851.47 4966.74 4959.94 1635.31 5639.4 6185.73 4083.24 6520.96 3771.91 5217.62 6178.19 4616.81 5715.25 5212.2 4611.21 5108.42 3354.94 4404.87 5237.27 5767.65 4750.76 4907.03 5497.27 4081.77 4948.21 4987.01 2181.29 4420.3 6332.64 6492.44 4613.32 3482.73 3996.93 4957.99 4063.26 4997.89 4542.62 5093.28 6131.52 6009.88 4699.77 4850.49 4981.55 5144.23 6188.62 6153.07 4414.06 5944.52 4413.56 5050.2 2513.38 5316.05 4908.32 3995.08 5019.84 3900.93 5784.38 4149.17 4329.8 5728.27 3074.49 5202.33 3956.24 7558.99 3393.59 4142.1 5043.14 5333.04 5445.91 4521.99 4812.59 6842.54 7115.67 5675.45 3361.11 6038.56 2807.46 5599.16 4179.8 3488.34 5658.35 5428.24 4487.51 4582.12 4295.25 7394.47 4729.45 4850.95 5374.09 6271.22 3421.81 5378.75 3920.64 6186.24 5822.7 3780.07 5466.49 4038.17 5007.41 4907.48 3692.99 6213.74 2329.93 6938.87 5412.07 5512.57 4806.99 4813.55 5856.43 3839.0 5349.85 5799.86 5172.1 4362.94 4469.82 6545.78 4870.14 2932.2 5105.72 5003.49 3964.03 4216.33 5832.72 5617.91 4721.2 4706.31 4202.12 2694.25 4735.99 4203.68 4739.56 5145.39 3352.46 6351.95 5195.09 5345.05 7679.2 4881.51 2626.41 4311.92 6729.99 5093.41 6842.35 5464.34 3621.63 4777.96 5801.89 5908.57 7296.47 5742.39 4821.41 4924.53 5616.11 4499.52 3874.12 4028.13 4457.73 6476.35 6260.58 4067.24 3053.19 6571.26 5580.95 6598.99 3549.92 4032.06 5246.81 5089.1 5888.95 5394.78 3463.34 5122.38 2853.68 5262.85 4998.37 5329.84 6559.82 3879.83 6565.95 4577.98 5043.34 5886.81 4246.24 6805.02 5354.48 5640.63 4900.26 6261.13 4167.55 4720.34 5244.47 4731.16 5510.89 6470.87 4495.33 5282.67 4159.89 5178.55 5146.69 6203.24 6818.23 4488.41 4369.87 6679.12 5652.19 5806.74 6578.62 6284.12 4796.04 3465.03 5229.56 6011.4 4672.34 6052.22 5376.41 5003.63 4695.7 4944.08 4082.01 5269.39 4305.35 5210.22 2451.27 3903.9 4444.95 5161.02 3124.49 6265.48 5003.81 6262.18 3818.37 4701.03 6225.05 5434.04 5200.1 3997.52 4444.54 5779.9 4909.74 5310.33 5299.03 6664.54 3922.98 5161.73 5259.48 5254.93 4803.4 6833.5 6608.94 2613.78 4780.16 3834.01 5738.37 4433.23 4813.24 5759.19 3113.64 4490.2 4304.75 5480.86 6139.9 4720.22 4313.38 5827.3 5250.56 3633.58 2468.16 6294.14 4339.97 5203.75 5169.09 4691.15 2459.88 4210.24 5470.67 5901.71 5225.11 5342.9 5252.22 5733.12 4962.35 6436.29 5402.81 4600.81 4919.13 4124.33 5168.97 5783.88 5002.38 6705.93 4865.11 5449.09 5502.14 4605.61 4465.56 4131.08 5747.9 3864.19 4287.93 5315.71 6158.93 5081.65 4823.14 5438.5 4621.32 5699.4 3878.8 4698.94 3948.21 5669.15 5296.05 5263.86 3330.85 5056.32 5533.52 5410.33 4747.24 4380.86 5576.16 5648.02 3308.75 4439.17 5677.42 4929.35 5606.22 3943.77 5242.38 6081.35 5459.52 4609.98 5566.5 5663.36 4276.59 5579.04 5125.53 5994.21 5403.81 5082.25 6964.78 4374.05 5036.84 4565.36 5813.68 4025.08 4008.67 3618.53 4770.21 8013.28 3846.55 3796.73 5417.07 3082.16 5656.84 6789.66 4739.41 5312.2 5847.27 4706.59 5734.84 3982.31 4950.07 4582.24 2832.83 4084.87 6036.99 3010.1 3825.98 4589.22 5087.03 4667.84 3906.41 4123.08 4512.6 4260.38 4636.45 4932.27 5638.51 6793.49 3563.33 6060.19 5536.0 6786.37 4333.23 4328.76 5561.63 5940.5 4358.06 5093.51 5647.93 4280.92 6201.49 4696.92 5154.74 6437.99 6898.8 5386.95 6540.57 5332.11 4893.72 6004.72 4072.4 5373.78 5345.65 4489.18 5863.36 4632.75 5237.76 4994.98 4286.84 6423.96 6058.13 5894.69 6988.4 6635.51 4060.17 6051.35 5302.53 4909.13 4287.61 4867.13 4604.34 4863.27 2701.42 5442.79 5051.39 6673.92 5151.68 4884.94 5362.15 4455.61 4738.72 4752.31 5240.97 5569.85 5405.6 3929.35 4884.93 4759.38 6960.97 4287.15 5282.51 5504.65 5669.41 5732.11 5040.9 5596.68 4868.66 4004.39 5159.9 5283.65 4644.68 2892.36 5981.54 5911.29 5416.41 4694.27 6760.64 2515.5 5177.88 5551.79 6981.47 3916.15 4474.96 4758.76 4790.63 5259.29 3584.05 4916.75 4818.53 5097.85 5584.64 6189.04 6224.64 4221.03 3799.55 5082.66 4550.77 4337.93 3550.88 4345.51 4048.73 6223.33 3860.8 5145.13 3747.96 5611.29 4521.88 6568.45 5004.22 4601.54 7263.57 3832.09 5705.96 5267.65 5739.69 6632.04 5360.88 7360.62 4977.64 4985.45 4983.56 5699.51 2489.44 5499.37 4883.13 4836.76 4752.94 5551.09 3950.53 4501.1 5581.47 4384.91 6550.61 4987.01 4713.56 6094.34 6779.82 5543.67 3999.81 6210.48 6377.45 4182.05 4502.12 3255.93 6853.07 6327.61 4633.59 5733.59 5575.8 5268.93 3695.72 6874.6 5106.9 5306.31 5523.96 4223.53 4733.37 4535.94 3037.72 4523.9 5126.08 5604.0 3760.4 4951.02 3919.47 4602.7 3783.35 4037.16 6395.63 4987.48 5943.61 4248.58 5479.17 5020.37 4542.25 4414.23 5233.88 4849.21 4785.55 3793.83 5245.4 6189.81 5367.05 4449.73 5647.11 4088.72 3945.62 3743.85 6236.46 5342.17 6379.3 5015.67 3795.63 5189.4 4576.71 6538.04 4894.15 6157.59 5201.3 5848.41 4090.28 4246.83 5438.6 7370.52 4726.5 5467.05 3724.23 5103.3 4963.88 5888.94 4727.98 4122.2 5175.88 4516.26 4790.16 3509.34 3647.26 3731.58 3166.37 5369.42 5207.08 5205.53 4714.52 4587.19 5543.05 6028.89 5333.16 4888.17 5755.98 5392.85 5077.2 4274.05 5275.27 4277.54 5529.09 4531.46 5925.82 5448.68 4739.5 4072.95 4491.62 3865.5 
SCALARS Velocity float 1
LOOKUP_TABLE default
1.38987 1.21382 1.26381 1.19317 1.79512 1.19178 1.21096 1.91031 1.33681 1.33067 1.4351 1.1918 2.11184 1.61033 1.19571 1.37036 1.43483 1.22492 1.32882 1.33432 1.25638 1.28539 2.2062 2.10903 2.12514 2.27266 1.20287 1.46049 1.34174 1.36131 1.29037 1.32599 1.23781 1.47888 1.19178 1.19178 1.19179 1.19902 2.65546 1.24134 1.19327 1.2156 2.10021 2.11454 1.38838 1.3404 1.2198 1.97057 1.21711 1.26715 1.23922 1.35455 1.06926 1.21907 1.16898 1.33191 1.06313 1.22861 1.17236 1.28319 1.20506 1.05906 1.23039 1.18363 1.19264 1.16059 1.20806 1.27515 0.919179 1.28854 1.11541 1.18867 1.29503 1.27128 1.41752 1.15661 1.17844 1.4172 1.31111 1.33312 1.3791 1.37527 1.19178 1.19178 1.19178 1.19178 1.39991 1.19178 1.30318 1.52638 1.19483 1.30502 1.21071 1.1469 1.30144 1.38458 1.13202 1.50187 1.35328 1.29532 1.0422 1.39417 1.4313 1.31044 1.21318 1.423 1.34648 1.21024 1.17992 1.29605 1.19178 1.23584 1.1912 1.20529 1.24141 1.19178 1.20935 1.28844 1.19178 1.19178 1.19178 1.3072 1.19178 1.19178 1.19178 1.19178 1.19178 1.19178 1.31448 1.2213 1.19078 1.44206 1.1793 1.43787 1.23492 1.25771 1.50187 1.26124 1.34276 1.26019 1.39527 1.23901 1.42509 1.18785 1.19178 1.19558 1.1936 1.18765 1.12752 1.19554 1.18935 1.35538 1.25883 1.19178 1.26832 1.25534 1.03099 1.19178 1.16591 1.265 1.18833 1.19177 1.19178 1.19178 1.19178 1.19178 1.19178 1.19178 1.30624 1.19199 1.13499 1.19178 1.34311 1.36226 1.3074 1.15978 1.35805 1.40521 1.27045 1.23279 1.36704 1.36283 1.19178 1.19178 1.22104 1.19178 1.35166 1.19178 1.29681 1.50771 1.19103 1.32535 1.23216 1.37045 0.903756 1.23184 1.06216 1.34711 1.26989 1.31949 0.978322 1.37858 1.23141 1.30948 1.27733 1.40971 1.21335 1.2518 1.2435 1.30114 1.08348 1.22929 1.18443 1.2052 1.24116 1.19154 1.20432 1.28567 1.19178 1.19724 1.19178 1.30322 1.19178 1.24384 1.2091 1.43185 1.13352 1.0693 1.34477 1.19872 1.10855 1.44269 1.26168 1.12323 1.30112 1.27478 1.45885 1.26502 1.35166 1.31287 1.24394 1.24186 1.41311 1.19178 1.22297 1.19835 1.19282 1.19177 1.11078 1.19127 1.18245 1.32424 1.25324 1.51902 1.28259 1.40346 1.17327 1.1913 1.26642 1.24979 1.34457 1.23051 1.17497 1.31739 1.24931 1.17821 1.18578 1.24353 1.35982 1.20556 1.13716 1.53841 1.29225 1.36328 1.28852 1.13296 1.41962 1.04029 1.2245 1.21717 1.32224 1.37755 0.922022 1.36034 1.46797 1.32107 1.29674 1.46769 1.26313 1.47487 1.17329 1.18138 1.22203 1.19178 1.25671 1.19762 1.13953 1.12724 1.21327 1.29442 1.19178 1.33977 1.25009 1.31308 1.28594 1.33285 1.21958 1.22887 1.21762 1.3216 1.18528 1.25929 1.29068 1.19118 1.23374 1.19121 1.19442 1.27412 1.18686 1.19785 1.15951 1.29818 1.2677 1.25781 1.24865 1.19178 1.16079 1.26855 1.19178 1.32222 1.14397 1.19214 1.39444 1.18239 1.25321 1.22104 1.42642 1.26604 1.23427 1.3007 1.251 1.12824 1.3818 1.15082 1.31298 1.20437 1.19385 1.51542 1.1887 1.20535 1.12016 1.331 1.33992 1.4663 1.23498 1.37992 1.25789 1.20743 1.25954 1.23973 1.19287 1.19177 1.17583 1.26906 1.17313 1.1601 1.38414 1.08278 1.31555 1.17284 1.17446 1.49249 1.28576 1.4103 1.22157 1.13264 1.41638 1.00549 1.20587 1.00967 1.47755 1.35772 1.18204 1.21979 1.18604 1.03104 1.23532 1.40359 1.23563 1.40978 1.40132 1.08484 1.21566 1.01733 1.31868 1.18122 1.22183 1.19784 1.38317 1.21692 1.20377 1.21917 1.42824 1.30052 1.26342 1.40755 1.28415 1.2597 0.952004 1.3254 1.13053 1.25133 1.28423 1.18735 1.24661 1.17634 1.18925 1.25577 1.19178 1.19178 1.20086 1.31554 1.30723 1.26625 1.24533 1.20903 1.17983 1.2749 1.2719 1.32312 1.1382 1.21524 1.21708 1.28391 1.24161 1.14456 1.19609 1.22983 1.25133 1.20565 1.22937 1.11776 1.35191 1.20139 1.3382 1.20977 1.1772 1.52774 1.25683 1.33525 1.26708 1.28952 1.41575 1.21225 1.16504 1.29881 1.26713 1.20928 1.18613 1.15712 1.4533 1.19178 1.17756 1.2825 1.2005 1.12993 1.20605 1.15925 1.32554 1.17813 1.14587 1.42345 1.25708 1.52213 1.19369 1.2526 1.21072 0.998712 1.16612 1.01123 1.50342 1.13736 1.18852 1.19178 1.19178 1.26504 1.19576 1.29656 1.22287 1.3164 1.23577 1.1469 1.49558 1.06431 1.36262 1.14691 1.18064 1.18308 1.07566 1.12719 1.307 1.14611 1.38191 1.31586 1.20666 1.35994 1.21748 1.17812 1.18888 1.2982 1.1359 1.25788 1.18491 1.19176 1.30901 1.20742 1.18642 1.22856 1.18106 1.18848 1.22674 1.29005 1.30722 1.23067 1.21419 1.17278 1.17985 1.23098 1.26735 1.05757 1.15739 1.21495 1.31282 1.28562 1.17589 1.09997 1.13926 1.19504 1.13541 1.13456 1.27445 1.17009 1.2293 1.15126 1.28179 1.23208 0.963376 1.58165 1.27308 1.15914 1.29531 1.21269 1.32787 1.20898 1.13291 1.22082 1.32114 1.18008 1.24884 1.08051 1.47847 1.2058 1.19601 1.2903 1.1774 1.16136 1.3395 0.907023 1.29426 1.09155 1.12827 1.46439 1.22694 1.21688 1.09684 1.31058 1.67987 1.33219 1.11402 0.995356 1.29939 1.39913 1.22626 1.23635 1.04679 1.26052 1.22871 1.25376 1.21328 1.18026 1.26864 1.1433 1.17811 1.27226 1.18487 1.15127 1.15776 1.14215 1.05667 1.06843 1.31177 1.09989 1.31476 1.02357 1.13979 1.2908 1.18463 1.16438 1.18955 1.28914 1.13681 1.22752 1.26813 1.59219 1.32298 1.24082 1.1471 1.18701 1.19178 1.45015 1.19362 1.27534 1.29563 1.19282 1.19179 1.28228 1.2148 1.14919 1.12087 1.12438 1.18617 1.23506 1.29987 1.27416 1.17321 1.05997 1.09913 1.14739 1.11296 1.01542 1.27523 1.17438 1.26283 1.07238 1.1867 1.07936 0.905957 0.927698 1.08334 1.20008 1.56871 1.11504 1.23793 1.17167 1.11053 1.13148 1.32424 1.16132 1.24998 1.00802 1.29517 1.21234 1.25545 1.19178 1.15336 1.20718 1.22432 1.00846 1.26845 1.07387 1.1174 1.39698 1.10109 1.21534 1.03997 1.1642 1.67572 0.902367 1.0382 1.04954 1.2526 1.5657 1.22111 1.19159 1.33601 1.28786 1.22942 1.2291 1.17163 1.07001 1.28561 1.11151 1.19206 1.25052 1.19178 1.28015 1.20873 1.18622 1.19178 1.04188 1.19469 1.00966 1.11256 1.10773 1.07433 1.11508 1.71322 1.10143 0.851557 1.32901 1.08831 1.19927 1.2503 1.40257 1.17012 1.22286 1.14627 1.2491 0.993887 1.42219 0.932349 1.25264 1.27786 1.17704 1.17584 1.33955 1.22829 1.28394 1.12652 1.1522 1.1952 1.17843 1.28396 1.2542 1.13015 1.05009 1.03014 1.09984 1.21675 0.890339 1.19933 1.16997 1.20798 1.08376 1.40529 1.10181 0.901623 0.918085 1.271 1.25828 1.20568 1.14842 1.12731 1.15647 1.11289 0.992476 1.07106 1.22587 1.33383 0.959585 1.1923 1.18067 1.28662 1.32685 1.13533 1.14214 1.19077 1.01316 1.19178 1.07691 1.11177 1.32986 0.986589 1.19344 1.04575 1.16558 1.05842 1.02803 1.06344 1.13555 0.877926 1.26841 1.30363 1.30199 1.37842 0.914526 1.17861 1.20844 1.22872 1.10716 1.33866 1.21648 0.826539 1.24325 1.16821 1.2621 1.19178 1.19178 1.26996 1.15073 1.22827 0.956227 1.17611 1.08875 1.03415 1.11344 1.70466 1.13981 0.906704 1.295 1.16664 1.2149 1.26739 1.14297 1.13732 1.20994 1.17898 1.20124 0.904374 1.27408 1.00985 1.24768 1.19133 1.18107 1.21843 1.32385 1.21846 1.42573 1.13554 1.14254 1.18944 1.18996 1.26026 1.25725 1.23792 1.21312 0.942318 1.0725 1.25065 0.819406 1.27093 1.18203 1.26502 1.21819 1.23677 1.11588 1.34706 1.14676 1.25682 1.24566 1.20912 1.15846 1.01254 1.17304 1.1229 0.872402 1.01202 1.20487 1.2856 0.961395 1.19178 1.19178 1.27553 1.33753 1.18472 1.198 1.21337 1.02988 1.19178 1.16518 1.27269 1.3449 0.981502 1.18464 1.12974 1.12311 1.14178 1.15346 1.21085 1.16069 1.06767 1.26914 1.28865 1.29688 1.18441 1.19869 1.07403 1.16793 1.19079 1.02482 1.31189 1.30226 1.01031 1.19941 1.14727 1.2239 1.15553 1.28075 1.20927 1.10356 1.23314 0.898224 1.22023 1.03998 1.11521 1.28673 1.14031 1.11743 1.03973 1.3273 1.19464 1.17648 1.20021 1.21349 1.18471 1.19755 1.21959 1.16747 1.19178 1.25493 1.19178 1.24025 1.13315 1.19956 1.26676 1.30416 1.18752 1.16705 1.11727 1.11133 1.19268 1.1963 1.26295 1.23355 1.22154 1.19167 1.03999 1.18674 1.20321 1.03886 1.11162 1.16473 1.21883 1.21239 1.19178 1.13227 1.19178 1.20438 1.19178 1.23198 1.18758 1.1689 0.940373 1.19175 1.30857 1.24344 1.3558 1.16744 1.26749 0.949456 1.19178 1.19178 1.25624 1.32049 1.20563 1.20461 1.38445 1.17653 1.61251 1.47571 1.19801 1.23713 0.949239 1.26442 1.12441 0.976524 0.657806 1.33496 1.2777 1.02884 1.03948 1.22549 1.27294 1.10668 1.12107 1.38473 1.09607 1.1873 1.23995 1.00899 1.09352 1.33749 1.1985 1.21208 1.15605 1.21444 1.19178 1.27922 1.19178 1.12528 1.23444 0.928448 1.20248 1.19757 1.12891 1.27143 1.37184 1.12735 1.02757 1.28656 1.19627 1.26445 1.22451 1.294 1.14182 1.24369 1.31384 1.18063 1.27966 1.2529 1.33657 1.19509 1.11722 1.12025 1.25532 1.23683 1.20479 1.19441 1.19597 1.1141 1.19178 1.19178 1.25186 1.1836 1.19178 1.12995 1.0092 1.26817 1.20632 1.1207 1.19982 1.13157 1.21301 1.12715 1.19561 1.12742 1.1919 1.19404 1.19011 1.22712 1.17539 1.3949 1.42653 1.14672 1.21167 1.12965 1.22964 1.12753 1.28155 1.16807 1.2192 1.28047 1.23785 1.32084 1.36219 1.18176 1.12002 1.13685 1.31046 1.19178 1.19178 1.13791 0.910672 1.2195 1.17597 1.01202 1.31809 1.27867 1.3424 1.27102 1.02207 1.19367 1.18689 1.25851 1.08605 1.29435 1.1227 1.16119 1.20442 1.00065 1.16712 1.34898 1.19178 1.19355 1.16253 1.21146 1.19177 1.27733 1.195 1.18094 1.22473 1.0867 1.19107 1.16067 1.14889 1.21713 1.34348 1.0451 1.22364 1.08531 1.2572 1.25509 1.18002 1.28254 1.14332 0.869861 1.30974 1.19786 1.15379 1.27444 1.18721 1.20637 1.1208 1.13252 1.30059 1.22779 1.25247 1.19178 1.46572 1.12856 1.2218 1.37729 1.23718 1.12115 1.19204 1.13673 1.01682 1.29865 1.26792 1.14714 1.28726 1.13447 1.27052 1.07892 1.19178 1.19178 1.43855 1.22963 1.34437 1.19991 1.14304 1.52421 1.5612 1.2058 1.19439 1.10901 1.21178 1.1071 1.2561 1.43671 1.08869 1.28057 1.17483 1.29268 1.13772 1.3665 1.18967 1.10739 1.2516 1.16263 1.39162 1.15591 0.969307 1.17891 1.16859 1.00247 1.315 1.26594 1.08525 1.28756 1.16756 1.21154 1.08966 1.19933 1.05361 1.24201 1.24119 1.18196 1.167 0.976573 1.17776 1.33334 1.27377 1.16402 1.18803 1.21004 1.17853 1.26941 1.19181 1.23016 1.19945 1.10941 1.27413 1.13419 1.15048 1.16458 1.24147 1.11224 1.19514 0.989369 1.03067 1.21896 1.23351 1.19853 1.23952 1.0098 1.24068 1.20796 1.12213 1.20603 1.23238 1.23767 1.08169 1.07735 1.27768 1.13547 1.20223 1.08234 1.45782 1.24735 1.25055 1.34637 1.17481 1.20004 0.956888 1.13318 1.27072 1.304 1.25569 1.17775 1.31645 1.18557 1.21114 1.10587 1.0632 1.08518 1.46047 1.22658 1.05256 1.36162 1.1728 1.43734 1.18324 1.41213 1.18084 1.10868 1.30109 1.12018 1.07052 1.24009 1.13539 1.2759 1.07836 1.23535 1.14024 1.3748 1.05202 1.14528 1.22067 1.16393 1.16089 1.22385 1.05966 1.2034 1.49638 0.958905 1.26724 1.19846 1.0766 1.19245 1.18389 1.20186 1.25079 1.18964 1.26364 1.21303 1.21737 1.16321 1.15072 1.19847 1.18581 1.30682 1.2843 1.15271 1.19178 1.21076 1.29493 1.26824 1.18875 1.23267 1.15932 1.12283 1.24632 1.13137 1.17939 1.14718 1.16944 0.9377 1.18481 1.22606 1.02709 1.22516 1.20078 1.19178 1.19013 1.11273 1.19654 1.16575 1.10628 1.22248 1.21107 1.07384 1.14213 1.14653 1.00463 1.17563 1.26591 0.992621 1.36523 1.27452 1.19497 1.28023 1.13505 1.19774 1.15583 1.09957 1.28174 1.40153 1.14293 1.17849 1.19178 1.19178 1.19178 1.09285 1.13377 1.08667 1.27737 1.19686 1.22736 1.41686 1.24253 1.0491 1.29937 1.41316 1.11599 1.06638 1.24892 1.34077 1.00877 1.12635 1.19123 1.19178 0.901829 1.22359 1.15708 1.3381 1.12276 0.96009 1.20246 1.16424 1.15147 1.14375 1.04783 1.15684 1.45205 0.940075 1.14744 1.23002 1.09135 1.30202 1.18961 1.17393 1.1213 1.43481 1.09882 1.19431 1.19679 1.19177 1.15691 1.11127 1.19102 1.27634 1.29358 1.15684 1.43219 1.23181 1.32022 1.30806 1.17369 1.24441 1.12164 1.1779 1.19178 1.13957 1.10675 1.16322 1.34834 1.41672 1.19178 1.34453 1.23674 1.26405 1.15924 1.19178 1.18282 1.28673 1.19178 1.137 1.19854 1.21906 1.20118 1.07526 1.12189 1.17748 1.02265 1.13816 1.2242 0.95972 1.01511 1.28197 1.14688 1.24527 1.15413 1.08757 1.00236 1.22448 1.40634 1.4259 1.30697 1.0282 1.3011 1.22719 1.19892 1.09176 1.18061 1.08402 1.27739 1.15591 1.35297 1.3395 1.23748 1.02559 1.31772 1.3001 1.09294 1.09209 1.30457 1.39228 1.03374 1.22893 1.25051 1.19178 1.37263 1.19178 1.07509 1.31998 1.14225 1.0016 1.13418 1.18103 1.24934 1.26227 1.12317 1.16304 1.29399 0.957886 1.17763 1.27783 1.09606 1.1999 1.18256 1.1507 1.06799 1.09356 1.1753 1.18697 1.187 1.17914 1.11913 1.14705 1.21094 1.24537 1.08011 1.2149 1.36514 1.21304 1.30044 1.30618 1.08899 1.25604 1.08684 1.22757 0.832802 1.35181 1.14057 1.217 1.14692 1.64805 0.971519 1.34474 1.22211 1.23968 1.15075 1.14083 1.21234 1.32718 1.20978 1.13621 1.13564 1.29235 1.19178 1.19153 1.08425 1.22881 1.2368 1.12657 1.22422 1.25208 1.01852 1.26335 1.08436 1.31023 1.17041 1.15782 1.19178 1.22163 0.997219 1.32314 1.1915 1.19178 1.19178 1.2869 1.19189 1.11331 1.33341 1.15789 1.29938 1.10816 1.37474 1.32801 1.22442 1.03382 1.34151 1.27348 1.14047 1.31156 1.32084 1.3872 1.14714 1.31421 1.34123 1.17632 1.56766 1.20636 1.02286 1.31034 1.19177 1.19749 1.10932 1.2057 1.19182 1.27889 1.07302 1.18637 1.19166 1.07049 1.27439 1.26593 1.07067 1.2463 1.26005 1.17024 1.03413 1.09302 1.18029 1.198 1.22063 1.19015 1.11038 1.13905 1.14562 1.17976 1.05603 1.24197 1.32552 1.23609 1.31596 1.30105 1.03954 1.26115 1.06878 1.19582 1.19321 1.27757 1.10821 1.17058 0.946305 1.02538 0.921419 1.30987 1.33282 1.12891 1.14571 1.14152 1.23591 1.19698 1.18587 1.16741 1.14539 1.28641 1.10219 1.3726 1.08759 1.43331 1.04741 1.13382 1.21669 1.26877 1.06406 1.22374 1.08789 1.2932 1.23589 1.1979 1.28658 1.30369 1.0022 1.26691 1.19667 1.20667 1.10186 1.28939 1.12141 1.13432 1.25028 1.15778 1.28623 1.10885 0.866723 1.37551 1.22589 1.3168 0.954234 1.522 1.05346 1.43644 1.17979 1.34592 0.867957 1.3762 1.37444 1.08947 1.43963 1.24143 0.892777 1.35351 1.13875 1.29044 1.21367 1.35002 1.22778 1.18227 1.02995 1.1658 1.19426 1.13327 1.24286 1.18622 1.19178 1.19178 1.26517 1.14354 0.98878 1.12186 1.18439 1.21335 1.17907 1.22813 1.133 1.25073 1.0982 1.19265 1.06101 1.26011 1.29679 1.21557 1.29329 1.28468 1.18791 1.2717 1.06118 1.2619 1.391 1.24087 1.23177 1.11674 0.871728 1.16059 1.07315 1.19121 1.21068 1.0749 1.16725 1.18505 1.2333 1.19811 1.19621 1.20725 1.18865 1.26539 1.10741 1.02707 1.19121 1.20268 1.02923 1.11059 1.19178 1.19178 1.19178 1.07039 1.04803 1.25618 1.22103 1.17849 1.37159 1.20638 1.14953 1.29245 1.19178 1.19127 1.13323 1.19756 1.19177 1.19178 1.3314 1.13799 1.2167 1.1075 1.40739 1.33201 1.29971 1.38199 1.22182 1.67256 1.18002 1.37283 1.09813 1.40274 0.824217 1.37456 1.37416 1.10154 1.24701 1.22114 0.958909 1.29415 1.19163 1.19178 1.21648 1.19591 1.18789 1.09072 1.04066 1.1645 1.14233 1.16349 1.20422 1.19164 1.19178 1.35895 1.51982 1.13407 0.956307 1.15646 1.18356 1.22296 1.21446 1.20988 1.10802 1.2111 1.1099 1.16171 1.20181 1.09274 1.31147 1.22014 1.2563 1.23942 0.982028 1.28759 1.19178 1.27231 1.36052 1.22769 1.19178 1.10809 1.16585 0.519918 0.952908 1.08841 1.16219 1.09832 1.16279 1.19189 1.1836 1.17269 1.17312 1.18813 1.19865 1.07912 1.106 1.02502 1.13606 1.19295 1.14276 1.14326 1.19306 1.19542 1.19178 1.0551 1.08835 1.26986 1.19226 1.13231 1.35964 1.1555 1.15421 1.30648 1.19183 1.30479 1.18866 1.24699 1.27277 1.19178 1.30056 1.22491 1.30215 1.15081 1.05139 1.4872 1.33462 1.16106 1.21913 1.45457 1.13292 1.36783 0.971567 1.52588 0.884559 1.31279 1.37494 1.11458 1.1919 1.24709 1.05074 1.24741 1.14404 1.31355 1.16224 1.35027 1.15018 1.09153 1.04799 1.15826 1.15387 1.19178 1.16986 1.18811 1.17307 1.24314 1.53113 1.1125 1.04286 1.15528 1.16849 1.222 1.22008 1.20773 1.15867 1.14371 1.25805 1.14742 1.25216 0.784273 1.31197 1.18205 1.18711 1.16518 0.906764 1.26801 1.24632 1.28281 1.36169 1.21417 1.22311 1.01815 1.41833 1.25872 1.02645 1.19178 1.15433 1.12685 1.11627 1.22016 1.1738 1.28846 1.18223 1.16939 1.21518 1.19178 1.10228 1.06317 1.27713 1.19173 1.19178 1.18607 1.19056 1.30754 0.91965 1.2827 1.23413 1.20635 1.1949 1.07536 1.28998 1.20739 1.14723 1.22968 1.22769 1.23138 1.19499 1.23963 1.27714 1.18434 1.42634 1.23157 1.25962 1.14186 1.11467 1.29639 1.19178 1.17608 1.17886 1.44432 1.06841 1.35295 1.26387 1.62933 1.40063 1.13206 1.37397 1.12542 1.14146 1.32768 1.04854 1.15204 1.14301 0.96579 1.13239 1.19468 1.49309 1.24442 1.07378 1.17879 1.17984 1.60532 1.25739 1.18662 1.31114 1.31654 1.57885 1.20375 1.12259 1.16504 1.15929 1.20134 1.20617 1.18195 1.12611 1.15426 1.20547 1.0742 1.28008 1.04145 1.28287 1.18461 1.17067 0.944855 0.952176 1.23451 1.23853 1.26949 1.33533 1.21791 1.29344 1.37716 1.30575 1.43116 1.0333 1.34247 1.15461 1.08889 1.16596 1.19165 1.18903 1.27994 1.19302 1.1572 1.29394 1.19177 1.19178 1.06731 1.27188 1.19178 1.35887 1.20577 1.19258 1.30335 1.19484 1.28185 1.26969 1.19178 1.23758 1.17101 1.3013 1.18972 1.20439 1.29574 1.81688 1.20311 1.13081 1.19418 1.26245 1.26055 1.4046 1.1603 1.29299 1.2948 0.937577 1.31869 0.821771 1.11492 1.22377 1.1844 0.915246 1.40362 1.3712 0.948502 1.12002 1.18718 1.2978 1.13158 1.14385 1.12769 1.0538 1.14575 1.23335 1.20536 1.15931 1.06234 1.36678 1.29003 1.27352 1.19183 1.19097 1.47319 1.27018 1.16135 1.35622 1.18944 1.36857 1.19177 1.12353 1.19178 1.19357 1.27465 1.19175 1.24305 1.3113 1.23963 1.19178 1.07451 1.19178 1.19178 1.2435 0.848347 1.17405 0.845055 1.13193 1.19396 1.24838 1.23253 1.22673 1.19742 1.27088 1.32225 1.23427 1.18066 1.00143 1.22996 1.16512 1.04059 1.15269 1.21351 1.15454 1.1637 1.27539 1.15014 1.34313 1.16654 1.01053 1.12199 1.32282 1.18339 1.36011 1.24717 1.20205 1.40975 1.21896 1.26622 1.25899 1.13383 1.25813 1.24676 1.31139 0.996355 1.17715 1.53669 1.16132 1.23653 1.16446 1.16477 1.25568 1.27298 1.33506 1.15726 1.29853 1.192 1.0385 1.3481 1.19151 1.05068 1.33586 0.91954 1.02447 1.33124 1.26715 0.982089 1.03701 1.04506 1.27143 1.12846 1.13161 1.12489 1.3708 1.15304 1.23261 1.22406 1.15676 1.24696 1.26251 1.29272 1.26518 1.19163 1.34863 1.42583 1.21297 1.11969 1.36009 1.16328 1.28869 1.33031 1.12444 1.32806 1.21983 1.25948 1.17526 1.28204 1.17449 1.26869 1.29134 1.07059 1.4303 1.1632 1.18398 1.11697 1.23843 0.809205 1.58791 1.14247 1.19934 1.22927 1.12471 1.08883 1.25243 1.24106 1.16673 1.19134 1.19178 1.19178 1.19178 1.05262 1.14357 1.22391 1.12718 1.17587 1.20226 1.13166 1.31445 1.1892 1.19178 1.13756 1.26702 1.03468 1.36328 1.05442 1.22319 1.36701 1.21492 1.25692 1.26716 1.10331 1.28832 1.27705 1.23953 1.07435 1.11576 1.36355 1.19563 1.239 1.37242 1.11933 1.20739 1.25036 1.28478 1.17308 1.26438 1.14874 0.994608 1.2106 1.18474 1.35148 1.66328 0.956045 0.906701 1.29278 1.17846 1.02881 1.1481 1.05404 1.30905 1.2029 1.12917 1.27044 1.19176 1.29166 1.24771 1.29217 1.27715 1.24411 1.1809 1.26761 1.26386 1.18135 1.35799 1.34573 1.12899 1.16734 1.35249 1.19175 1.26325 1.19177 1.12456 1.32612 1.22147 1.22471 1.14395 1.22855 1.1413 1.11501 1.28224 1.19621 1.40481 1.26405 1.09826 1.1416 1.28536 1.35225 1.06548 1.08942 1.15714 1.17153 1.03975 1.07148 1.19177 1.16554 1.11307 1.21298 1.18764 1.19731 1.19178 1.08915 1.14051 1.21642 1.12987 1.19026 1.19048 1.30427 1.24104 1.18495 1.35927 1.14064 1.31615 1.23065 1.32543 1.20813 1.10754 1.33618 1.07828 1.2389 1.27216 1.22886 1.23327 1.30168 1.24214 1.00782 1.27725 1.27403 1.34649 1.3413 1.39397 1.07314 1.24842 1.25333 1.24503 1.13968 1.21806 0.904936 1.17312 1.14654 1.2397 1.31249 1.02939 1.44097 1.0687 1.43199 0.999773 1.04225 1.29203 1.23134 0.898777 1.01252 1.13705 1.24916 1.11797 1.34809 1.19953 1.37321 1.25438 1.15893 1.1741 1.25601 1.2774 1.17177 1.35177 1.28831 1.05117 0.938958 1.32537 1.20002 1.11032 1.14664 1.20859 1.1055 1.24446 1.14925 1.2736 1.2531 1.08063 1.18697 1.07419 1.28271 1.207 1.19705 1.09804 2.01754 1.12544 1.34358 1.16437 1.02194 1.10795 1.16723 1.21666 1.17802 1.00291 1.10288 1.13556 1.21572 1.14821 1.19034 1.24254 1.27077 1.14719 1.13123 1.19596 1.2028 1.19178 1.19665 1.19178 1.19107 1.19178 1.19178 1.0732 1.1897 1.19703 1.1992 1.22584 1.22473 1.16462 1.18573 1.24771 1.24439 1.22108 1.19177 1.31449 1.33003 1.17743 1.15033 1.17982 1.19178 1.35305 1.19178 1.0555 1.02352 1.27772 1.18488 1.22043 1.18913 1.13649 1.16805 1.11622 1.27304 1.16261 1.12433 1.74191 1.04206 1.11944 1.26369 1.3058 1.28007 1.03436 1.11454 1.27632 1.24607 1.00035 0.947501 1.30253 1.26877 1.10356 1.04423 1.10789 1.08493 0.935196 1.32376 1.16035 1.36834 1.25733 1.00616 1.14435 1.13894 1.38923 1.33966 1.21086 1.08262 1.23828 1.32339 1.24369 1.25367 1.19101 1.0947 1.15171 1.09617 1.09571 1.27236 0.704314 1.10003 1.08647 1.09516 1.00561 1.01773 1.13107 1.1248 1.32034 1.24906 1.00288 0.959532 1.30693 1.04078 0.880998 1.19163 1.07332 1.01792 0.951594 0.958612 1.10476 1.00878 1.19536 1.27798 1.26069 1.24656 0.916553 1.02735 1.19182 1.19178 1.15348 1.22757 1.29902 1.31077 1.13875 1.13466 1.24991 1.28771 1.14049 1.1398 1.34413 1.32028 1.19178 0.989258 1.17704 1.21575 1.16529 1.16562 1.24731 1.24089 1.33197 1.27553 1.16917 1.11704 1.02296 1.24847 1.14447 1.27518 1.28421 0.935191 0.940081 1.14874 1.34732 1.07187 1.22806 1.23672 1.10978 1.0876 1.10907 1.08052 1.17629 1.15957 1.10238 0.921372 1.20652 1.22255 1.14779 1.14341 1.09663 1.2244 1.27071 1.21357 1.04729 1.00783 1.18391 1.22539 1.19815 1.16005 1.26742 1.22566 1.25114 1.29694 1.24672 1.20241 1.16755 1.12342 1.34272 1.25536 1.14287 1.07484 1.22995 1.11968 1.15865 1.18694 1.08959 1.07502 1.11612 1.19697 1.18957 1.19178 1.19176 1.19189 1.14117 1.20503 1.19178 1.19169 1.21042 1.19177 1.19038 1.21661 1.19178 1.26681 1.23059 1.33136 1.15456 1.19178 1.19178 1.19178 1.18716 1.12569 1.08844 1.2598 1.06546 0.92993 1.3326 1.11845 1.15366 1.09748 1.0722 1.22405 1.05515 1.12894 1.31574 1.13146 0.984634 1.09209 1.27284 0.996395 1.29572 1.21162 1.04883 1.08839 1.44051 1.44003 1.19745 1.52094 1.08317 1.39261 1.19161 1.35447 0.971705 1.04452 0.915934 1.12735 1.3682 1.23773 1.14678 0.865077 1.20434 1.30927 1.12491 0.906491 1.13263 1.31518 1.05735 1.40808 1.12455 1.19008 1.20527 1.25688 1.19366 1.21966 1.05681 1.06897 1.1615 0.961561 1.15231 1.08013 1.15292 1.1479 1.19826 1.10744 1.33226 1.18329 0.966775 1.09713 1.25033 1.17607 1.31294 1.15118 1.07432 1.22671 1.07833 1.03196 1.24632 1.10587 1.08697 1.28362 1.20694 1.18902 1.39301 1.13922 1.13661 1.19221 1.17995 1.18294 1.21216 1.3218 1.0739 1.30531 1.14381 1.30166 1.22151 1.21446 1.44342 1.06695 1.27914 1.07052 1.15685 1.08046 1.28042 1.21098 0.778347 1.19172 1.27093 1.00514 1.17864 1.09355 1.2084 1.19235 1.09379 1.03912 1.38715 1.04875 1.002 1.03303 1.15542 0.960466 1.30314 1.2153 1.06128 0.941193 1.35895 1.66973 1.13466 1.37656 1.16516 1.14898 1.2433 1.24389 1.13874 0.993515 0.501818 1.14572 1.22467 1.22638 1.19566 0.678715 1.20637 1.25759 0.997358 1.00615 1.22805 1.25405 1.10355 1.12096 1.0102 1.17853 1.15681 1.18652 1.26292 1.14182 1.2439 1.19176 1.15071 1.08717 1.19502 1.07702 1.0302 1.13173 1.207 1.08662 1.08823 1.16206 0.970084 1.13807 0.998852 1.20906 1.20884 1.25825 1.06953 1.19047 1.09982 0.93286 1.27884 1.14061 1.17817 1.07006 1.18298 1.22697 1.19389 1.10411 1.11826 1.19256 1.19278 1.19148 1.19272 1.19178 1.18777 1.19178 1.19156 1.30742 1.21106 1.18829 1.37535 1.32412 1.19178 1.19178 1.19225 1.07857 1.10771 1.19275 1.12672 1.26846 1.0898 1.12039 1.1935 1.16402 1.19178 1.15292 1.11645 1.01595 1.19168 1.03781 1.07764 1.10463 1.1137 0.995481 1.30709 1.17958 1.0478 0.967038 1.33746 1.16243 1.10241 1.1799 1.19032 1.17034 1.04384 1.16858 1.19178 1.39473 1.27261 1.221 1.15871 1.13597 1.2856 1.11842 1.25328 1.23835 1.19654 1.25713 1.23225 1.2043 1.09737 1.19178 1.03606 1.24206 1.12323 1.15992 1.21828 1.08965 1.27196 1.37226 1.23601 1.10212 1.18231 1.13398 1.10695 1.127 1.22988 1.0609 1.09893 1.13914 1.07149 1.23755 1.05283 1.20457 1.19244 1.22389 1.11754 1.12952 1.15179 0.927586 1.33186 1.20751 1.1821 1.06891 1.1938 1.17078 1.27571 1.07779 1.12604 1.19177 1.20441 1.17646 1.2293 1.14031 1.25835 1.24138 1.20168 1.19178 1.19178 1.28448 1.30934 1.31065 1.2004 1.37627 1.13619 1.10904 1.21681 1.17166 1.18401 1.32815 1.02762 1.30155 1.2299 1.19178 1.19178 1.11638 1.18303 1.02055 1.11865 1.11207 1.15754 1.26911 1.02239 1.01293 1.43607 1.13662 1.20752 1.0277 1.30984 1.1792 1.08004 1.11035 1.35323 0.81855 1.09424 1.21046 1.22949 1.77982 0.799901 1.53106 1.27042 1.17386 1.29254 1.18384 1.26178 1.30653 1.1982 1.20656 1.3376 1.11951 1.3105 1.1903 1.18989 1.28855 1.35422 1.13523 1.29157 1.05847 1.45515 1.19178 1.14281 1.26503 1.16678 1.17806 1.15566 1.09772 1.29337 1.0973 1.0977 1.11786 1.11617 1.28456 1.16359 1.26825 1.20041 1.22244 1.19178 1.13248 1.20837 1.14456 1.35826 1.25554 1.19692 1.09903 1.20172 1.21994 1.28019 1.01058 1.15963 1.17322 1.19833 1.21963 1.22407 1.12289 1.2454 1.24173 1.00887 1.20647 1.04797 1.30639 1.28315 1.29276 1.28338 1.33806 1.13419 1.38658 1.2242 1.18992 1.20955 1.11786 1.06629 1.34561 1.29755 1.16805 1.19146 1.12554 1.23185 1.19439 1.17039 1.01653 1.28458 1.29123 1.03556 1.15389 1.36005 1.15824 1.16989 1.03628 1.30228 1.1828 1.33161 1.06306 1.2624 0.837175 1.16017 1.21628 0.975683 1.22618 1.3745 1.34453 1.2025 1.09846 1.29457 1.16906 1.26765 1.17876 0.343603 1.28496 1.40227 1.11749 1.33579 0.758672 1.20669 1.3255 1.28006 1.15195 1.29671 1.05563 1.43948 1.28264 1.23871 1.25132 1.19178 1.22278 1.19335 1.19497 1.24245 1.2287 1.19659 1.23643 1.19196 1.19178 1.21331 1.38978 1.10206 1.23015 1.27104 1.22697 1.27538 1.2072 1.33521 1.29193 1.20425 1.13171 1.19352 1.21336 1.3319 1.07328 1.26819 1.19942 1.19178 1.19178 1.20292 1.2546 1.27062 1.21307 1.19381 1.19177 1.06502 1.28671 1.30624 1.23745 1.29133 1.27925 1.10979 1.38523 1.23112 1.22324 1.24543 1.34608 1.01569 1.2192 1.24834 1.21532 1.20185 1.12484 1.22102 1.19191 1.2283 1.08112 1.15972 1.26534 0.94718 1.11476 1.24026 1.18249 1.10216 1.18366 1.27576 1.20669 1.12546 1.01432 1.27543 0.680493 1.13917 1.24582 1.07591 1.24206 1.25032 1.31279 1.15594 1.12267 1.20499 1.20779 1.26536 1.19599 1.20146 1.17159 1.35265 1.07081 1.17709 1.04828 1.26542 1.33779 1.26769 1.19897 1.30473 1.10325 1.37217 1.32064 1.33155 1.20136 1.42016 1.26333 1.19941 1.36695 1.25569 1.19287 1.22734 1.49451 1.23584 1.51183 1.20413 1.3695 0.971387 1.27548 1.53396 1.17966 1.45299 1.10216 1.43386 1.30305 1.2085 1.22402 1.19468 1.28443 1.30328 1.09879 1.35628 1.21377 1.19176 1.19413 1.20469 1.20878 1.32282 1.21146 1.18705 1.137 1.34645 1.26909 1.23814 1.23332 1.26284 1.22248 1.09657 1.19206 1.24844 1.26521 1.12958 1.54905 1.15814 1.134 1.16143 1.17678 1.18422 1.27409 1.24462 1.20692 1.23655 1.02582 1.19384 1.19178 0.96357 1.23081 1.19333 1.21193 1.19178 1.19319 1.20012 1.16493 1.11769 1.06874 1.24362 1.16029 1.19178 1.28568 1.12978 1.15804 1.19176 1.27803 1.14897 1.22348 1.19551 1.48055 1.27134 1.1729 1.22223 1.11574 1.3215 1.35454 1.20146 1.1248 1.28521 1.23813 1.22423 1.16892 1.2769 1.10242 1.25582 1.27083 1.32165 1.1948 1.49047 1.13663 1.34634 1.2584 1.26213 1.15029 1.16132 1.37346 1.01432 1.40149 1.23615 1.33278 0.75171 0.995234 1.64782 1.15586 1.40763 1.23324 1.38331 1.27665 1.19178 1.2014 1.19129 1.22663 1.34485 1.16085 1.54481 1.19178 1.19178 1.20109 1.21098 1.20575 1.29011 1.26837 1.18902 1.13498 1.34942 1.23815 1.22955 1.24411 1.26396 1.17915 1.22174 1.2208 1.24679 1.19178 1.13203 1.13987 1.51935 1.13878 1.13042 1.24621 1.27566 1.27784 1.24136 1.20027 1.25746 1.06332 1.16646 1.20058 1.11576 1.33217 1.12714 1.18603 1.17966 1.19839 1.15947 1.14829 1.10393 1.09007 1.14959 1.18601 1.47049 1.17252 1.17804 1.39926 1.39919 1.17965 1.10085 1.22421 1.20619 1.19178 1.24865 1.12723 1.3951 1.09522 1.29991 1.20144 1.2471 1.15872 1.26921 1.14839 1.1619 1.26271 1.21856 1.33545 1.24366 1.25615 1.22872 1.20823 1.011 1.12134 1.36235 1.27486 1.22382 1.12221 1.12789 1.12883 1.03673 1.08629 1.21957 1.28269 0.855283 1.3779 1.17369 1.04962 1.0711 1.11668 1.34086 1.22179 1.16622 1.17007 1.15492 1.16015 1.29869 1.24576 1.50921 1.71019 1.13914 1.22506 1.22476 1.20933 1.26126 1.24574 1.18274 1.15688 1.29573 1.1816 1.31375 1.22191 1.21873 1.19154 1.0859 1.23805 1.27096 1.09271 1.30696 1.15402 1.44039 1.07254 1.10907 1.17543 1.28132 1.2014 1.22956 1.19787 1.28135 1.06251 1.17938 1.19217 1.16456 1.38197 1.12114 1.17017 1.16962 1.16532 1.12786 1.08981 1.11697 1.09237 1.18824 1.18203 1.46147 1.10765 1.18569 1.57896 1.2097 1.17487 1.0823 1.22481 1.19879 0.922256 1.23077 1.12361 1.989 1.22804 1.35291 1.22203 1.23952 1.1575 1.22252 1.0485 1.09855 1.27393 1.30327 1.30988 1.14416 1.20294 1.11271 1.26362 1.30185 1.04005 1.34673 1.203 1.19479 1.10471 1.14235 1.20839 0.967101 1.10995 1.29264 1.51348 1.10466 1.2408 1.21699 0.979131 1.01743 1.08476 1.28691 1.16766 1.18169 1.2155 1.26773 1.28897 1.33172 1.30758 1.5238 1.19178 1.27479 1.19178 1.21936 1.20287 1.34355 1.08385 1.26526 1.17509 1.24311 1.0363 1.27136 1.21559 1.16415 1.21568 1.13965 1.33267 1.36508 1.31745 1.21924 1.20508 1.34422 1.09478 1.12181 1.19178 1.25294 1.19085 1.24089 1.19746 1.26663 1.19178 1.19178 1.29715 1.17594 1.35269 1.14889 1.01835 1.30607 1.19597 1.15012 1.03668 1.12548 1.13047 1.18505 1.24338 1.19173 1.0325 1.12767 1.08982 1.20698 1.15621 1.07742 0.974755 1.18554 1.14362 1.20012 1.08866 0.979271 1.15207 1.23457 1.28381 1.25594 1.16102 1.20685 1.01436 1.11545 1.24592 1.23525 1.11616 1.21933 1.25381 1.12841 0.952835 1.27292 0.992109 1.32462 1.22558 1.24097 1.14135 1.12824 1.18586 1.03142 1.16733 1.23836 1.40168 1.10073 1.26119 1.46711 0.972877 1.05751 1.02366 1.1634 1.12422 1.57531 1.16026 1.32179 1.33842 1.28267 1.22893 1.52937 1.1913 1.27628 1.18769 1.36539 1.20105 1.23618 1.1007 1.20375 1.21851 1.22231 1.0314 1.19547 1.18427 1.17476 1.28419 1.16411 1.28339 1.36173 1.19564 1.23402 1.21541 1.18571 1.05801 1.13225 1.26388 1.24947 1.17137 1.23704 1.16435 1.21038 1.47986 1.13699 1.31268 1.14877 1.28875 1.09613 1.18756 1.30991 1.25568 1.22026 0.99688 1.17677 1.17873 0.765889 1.29769 0.987834 1.06551 1.31143 1.09974 1.25176 1.19722 1.11821 0.965872 1.1921 1.08903 1.19778 1.24364 0.895402 0.926565 1.09298 1.32517 1.14181 1.21701 0.961019 1.09829 1.23695 1.07021 1.17777 1.072 1.23399 1.16273 0.986586 0.99923 1.21129 1.04875 1.32514 1.33647 1.39132 1.13677 1.11458 1.18159 1.03476 1.20683 1.09512 1.35488 1.17881 1.20632 1.1924 1.18988 1.18159 1.00498 1.10191 1.09339 1.55127 1.13701 1.32191 1.32616 1.23774 1.20933 1.58225 1.1549 1.27958 1.11917 1.36523 1.13219 1.25838 1.07628 1.18137 1.14288 1.1914 1.16723 1.17733 1.12417 1.22687 1.36881 1.26675 1.05279 1.30904 1.30543 1.21149 1.1419 1.13973 0.979902 1.13923 1.21583 1.21707 1.17045 1.20409 0.814004 1.19785 1.44417 1.13167 1.09679 1.05863 1.10521 1.13459 1.20132 1.19178 1.251 1.18067 1.01559 1.24211 1.18771 1.12163 1.26716 1.12266 1.19069 1.42881 1.14891 1.22739 1.19769 1.10337 1.23519 1.18813 1.12362 1.19178 1.23589 0.890921 1.19952 1.21579 1.26562 1.14022 1.23659 1.24831 1.14134 1.23585 1.0057 1.11821 1.07106 1.24979 1.14904 1.01904 1.0237 1.00049 0.983555 1.24226 1.28356 1.18618 1.22804 1.11229 1.17951 1.20011 1.26205 1.21702 0.940099 1.33485 1.21468 1.3724 1.13015 1.19373 0.972902 1.03493 1.07203 1.45036 1.17984 1.47147 1.43276 1.26666 1.28946 1.46755 1.20881 1.32251 1.14518 1.2604 1.19178 1.26601 1.08964 1.20017 1.19025 1.15235 1.14339 1.14935 1.09028 1.23393 1.34804 1.00427 1.3086 1.40405 1.39222 1.20447 1.19133 1.14742 0.932576 1.27275 1.38914 1.24655 1.20572 1.21342 0.882543 1.17484 1.30196 1.116 1.19178 1.07135 1.10218 1.15396 1.19178 1.19178 1.2645 1.20506 1.14656 1.18894 1.2049 1.19367 1.20875 1.11963 1.22779 1.00431 1.13508 1.21751 1.19187 1.10984 1.28538 1.17469 1.28156 1.11636 1.31718 0.81009 1.1413 1.21818 1.14331 1.13143 1.24125 1.17383 1.18013 1.17103 1.00994 1.14156 1.08778 1.19177 1.21723 0.955181 1.20125 1.0796 1.22595 1.22285 1.21483 1.19739 1.36994 1.16242 1.09881 1.22953 1.29921 1.3585 1.12523 1.34606 1.27279 1.42838 1.15529 1.23464 1.14635 0.972749 1.0602 1.39944 1.23141 1.39232 1.31175 1.2441 1.33169 1.38824 1.22299 1.07776 1.33638 1.21346 1.31511 1.26155 1.23681 0.814547 1.21789 1.10534 1.58284 1.1045 1.07919 1.1619 1.30297 0.990148 1.26937 1.34505 1.37792 1.29473 1.42349 1.16916 0.789464 1.26124 1.38202 1.20727 1.20197 1.18056 1.14848 1.16154 1.29088 1.10982 1.19203 1.10959 1.1138 1.1207 1.17228 1.11084 1.27248 1.18241 1.11953 1.30126 1.18481 1.36639 1.15712 1.17315 1.27169 1.37224 1.07564 1.13413 1.10453 1.12307 1.15635 1.1612 1.30098 1.15547 1.34655 0.809113 1.17753 1.22286 1.20651 1.18521 1.25335 1.19362 1.36527 1.10625 1.01613 1.20261 1.19178 1.19756 1.20139 1.04341 1.38957 1.19791 1.36279 1.18739 1.11909 1.19166 1.19178 1.1753 1.09518 1.18688 1.26437 1.35647 1.12486 1.29096 1.25453 1.08218 1.10753 1.22118 1.1434 0.932604 1.24963 1.29794 1.20441 1.31311 1.16381 1.26924 1.06855 1.17141 1.52687 1.19178 1.41974 1.16598 1.3246 1.30528 1.06507 1.24425 1.27837 1.11019 1.48317 1.06205 1.08935 1.11649 1.14631 0.951604 1.26141 1.35901 1.33556 1.26306 1.31423 1.17591 1.09929 1.20861 1.38113 1.15925 1.17785 1.13916 1.14994 1.18329 1.25881 1.12314 1.24358 1.13894 1.1286 1.0999 1.19906 1.19195 1.26589 1.1694 1.09726 1.35257 1.21975 1.14505 1.08554 1.17875 1.31873 1.01011 1.11662 1.3089 1.09234 1.13865 1.10698 1.12739 1.15884 1.17144 1.34858 1.04838 1.1766 1.16625 1.19805 1.20672 1.31073 1.25168 1.3581 1.08538 1.04312 1.21215 1.19965 1.19882 1.14264 1.20508 1.32029 1.20146 1.19178 1.12353 1.0349 1.49562 1.22976 1.01915 1.21065 0.996851 1.252 1.30504 1.13533 1.19178 1.23623 1.08782 1.07529 1.09786 1.15766 0.873966 1.19178 1.21208 0.923022 0.983028 1.11078 1.20055 1.00869 1.07855 1.35677 0.624997 1.43001 1.0312 0.927963 1.31067 1.06722 1.01359 1.27765 0.998625 1.20889 1.02151 1.09329 1.10008 1.06142 1.12494 1.23683 1.132 1.22343 1.25147 1.10552 1.04869 1.14381 1.18525 1.24792 1.13692 1.43569 1.11835 1.14956 1.19087 1.2344 1.16781 1.19611 1.16044 1.19332 1.08925 1.22229 1.19455 1.23565 1.16254 1.08886 1.2562 1.23093 1.16355 1.0767 1.16143 1.26632 1.06699 1.16219 1.15981 1.19197 1.16917 1.19093 1.21318 1.19178 1.18361 1.32341 1.17004 1.18503 1.11068 1.19178 1.22455 1.28406 1.24651 1.29851 1.17376 1.20484 1.25324 1.15946 1.16407 1.11647 1.16843 1.33406 1.17845 1.07893 1.11531 0.971602 1.19178 1.26047 1.19178 1.19178 1.25488 1.26015 1.2612 1.13167 1.14361 1.21228 1.19728 1.06081 1.17766 1.15949 0.933648 1.19934 1.12603 0.934055 0.991493 1.02036 0.993664 1.05192 1.0892 1.22375 0.571762 1.22791 0.985422 0.958272 1.23665 1.25323 1.19178 1.19696 1.01343 1.19627 0.928074 1.12962 1.12594 1.12 1.10362 1.20672 1.11517 1.06935 1.20253 1.212 1.07323 1.11671 1.16064 1.17561 1.08895 1.19257 1.06529 1.15561 1.2263 1.2331 1.2143 1.23044 1.29417 1.18779 1.19557 1.19999 1.18482 1.19897 1.21489 1.09818 1.24653 1.2126 1.22712 1.10058 1.28364 1.19174 1.09644 1.21619 1.20112 1.19178 1.18394 1.44951 1.21533 1.19475 1.18726 1.2574 1.17542 1.22268 1.08351 1.21251 1.22065 1.2393 1.24624 1.34292 1.18353 1.24992 1.21952 1.2226 1.07937 1.11124 1.16114 1.37485 1.2102 1.12897 1.28848 1.24444 1.13698 1.27033 1.17041 1.19449 1.26081 1.25826 1.19715 1.23467 1.11308 1.24931 1.28734 1.09417 1.54365 1.11369 1.1021 1.18926 1.08649 1.02111 0.975534 0.926586 1.19178 1.19432 1.01956 1.14746 0.874649 1.07848 0.979785 1.14763 1.20701 1.29281 1.0412 1.0847 1.19121 1.2389 1.10575 1.38102 1.13222 1.11047 1.17901 1.32339 1.09672 0.952748 1.22227 1.15331 1.09562 1.15754 1.19652 1.17969 1.30756 0.921531 1.13775 1.18371 1.21898 1.19468 1.25238 1.24012 1.01263 1.17274 1.17954 1.19159 1.20664 1.15178 1.20439 1.12623 1.22322 1.19273 1.22741 1.15244 1.21689 1.27849 1.1972 1.26468 1.1963 1.19178 1.18562 1.42041 1.21561 1.24163 1.16687 1.22969 1.1633 1.30865 1.17192 1.24025 1.23764 1.17808 1.20949 1.2739 1.13001 1.04246 1.24708 1.179 1.19938 1.1232 1.14527 1.43684 1.19466 1.21469 1.25047 1.28134 1.16161 1.21069 1.19754 1.12098 1.25675 1.2195 1.16322 1.34541 1.04353 1.21358 1.19177 1.1027 1.21832 1.11106 1.18793 1.18316 1.05338 1.05351 1.00694 0.827292 1.22686 1.25195 1.14688 1.06105 1.08521 1.19741 0.977597 1.18164 1.20403 1.24557 1.16509 1.07023 1.18584 1.21247 1.06219 1.36559 1.02791 1.03228 1.17496 1.18923 1.15984 1.31861 1.21744 0.80473 1.17434 1.169 1.14881 1.19156 1.19178 1.07492 1.14744 1.19178 1.19178 1.18426 1.19596 1.18323 1.18084 1.1947 0.829033 1.29523 1.20608 1.10286 1.19758 1.14686 1.25418 1.13963 1.21103 1.10746 1.10426 1.21949 1.1907 1.22615 1.21731 1.36972 1.16567 1.3719 1.27448 1.25018 1.24706 1.13557 1.09239 1.08707 1.15815 1.10521 1.26086 1.10674 1.21497 1.21225 1.17591 1.24575 1.1038 1.22492 1.19178 1.08961 1.21272 1.40053 1.62181 1.14974 1.2405 1.25505 1.20928 1.09734 1.22671 1.67813 1.23232 1.17625 1.09371 1.31526 1.12623 1.13032 1.23661 1.19177 1.19178 1.16769 1.18587 1.19178 1.01815 1.0358 1.15539 0.881174 1.42503 1.19213 1.12769 1.08447 1.02292 1.15068 0.968931 1.22873 1.18374 1.23466 1.10859 1.10915 1.16478 1.24636 1.06735 1.32517 1.05759 1.05448 1.1606 1.02685 1.17416 1.29256 1.11645 1.16668 1.35104 1.12918 1.21823 1.20182 1.19234 1.20509 1.15013 1.13114 1.17104 1.17612 1.19389 1.16576 1.16931 1.13276 1.28935 1.19688 1.19222 1.07326 1.20222 1.13524 1.19178 1.16217 1.19279 1.12324 1.0428 1.21315 1.06535 1.17283 1.23775 1.36442 1.04909 1.27865 1.1004 1.25371 1.20801 1.09691 1.10794 1.08989 1.17003 1.08366 1.2682 1.08193 1.23246 1.04161 1.18798 1.33173 1.16664 1.36497 1.15735 1.11962 1.06577 1.19066 1.62345 1.0783 1.24156 1.18927 1.21825 1.10513 1.20503 1.64761 1.22586 1.19971 1.03976 1.11195 1.19147 1.10983 1.24131 1.16056 1.20162 1.13295 1.19178 1.19178 1.12782 1.19178 1.2597 1.08458 1.19177 1.12323 1.09613 1.03843 1.1823 1.18707 0.913975 1.1923 1.23137 1.23333 1.09039 1.10184 1.0408 1.26994 1.05766 1.0481 1.06011 1.09028 1.13812 0.959247 1.10426 1.1282 1.03741 1.19848 1.2324 1.19178 1.18496 1.21994 1.18959 1.19178 1.21986 1.12926 1.19241 1.18231 1.18369 1.15236 1.19135 1.14509 1.18431 1.18741 1.19158 1.04179 1.18611 1.13719 1.19856 1.14291 1.19157 1.12271 1.08 1.1694 1.04799 1.12313 1.09284 1.18686 1.02006 1.19752 1.03982 1.20581 1.15919 1.00159 1.22747 1.00108 1.1305 1.06765 1.21653 1.08411 1.19177 1.00835 1.1349 1.40366 1.16888 1.33152 1.15125 1.12912 1.18488 1.17681 1.15008 1.07042 1.23323 1.09215 1.19215 1.16364 1.19178 1.0007 1.19394 1.18103 1.00926 1.19851 1.36605 1.11296 1.22433 1.19178 1.19178 1.09193 1.19389 1.19178 1.08565 1.12324 1.23924 1.13151 1.23319 1.16171 1.0735 1.01077 1.15335 1.21501 1.1091 1.11677 1.17595 1.20176 1.09537 1.11987 1.17051 0.95349 1.11484 1.0764 1.08558 1.19169 1.19178 1.04953 1.10864 1.01846 1.02264 0.871249 1.18323 0.836644 1.14332 1.19835 1.21085 1.1614 1.19929 1.14934 1.19653 1.18247 1.15195 1.14324 1.19177 1.15315 1.1885 1.19177 1.19178 1.06201 1.17043 1.13623 1.20663 1.12084 1.1937 1.19304 1.106 1.14508 1.04907 1.08681 1.16968 1.11101 1.00295 1.1407 1.25873 1.1346 1.12687 0.999318 1.28131 1.01724 0.996444 1.08061 1.12289 0.758711 0.970125 1.00511 1.11902 1.52042 0.948336 1.2558 1.15774 1.15173 1.10034 1.11318 1.14251 0.968538 1.21357 1.02043 1.20138 0.997968 1.83616 1.08399 1.18144 1.00963 0.942569 1.23536 1.52136 1.12095 1.27545 1.17 1.71311 1.08718 1.39418 1.19178 1.19146 1.19111 1.20375 1.14206 1.2319 1.15972 1.05625 0.985966 1.19195 1.22337 1.10531 1.09058 1.16652 1.19061 1.09599 1.12529 1.20082 1.30763 1.14658 1.07983 1.08759 1.10147 1.1481 1.12781 0.993696 0.998065 0.965987 1.20948 1.17453 1.16872 1.10632 1.17849 1.22488 1.15871 1.19059 1.14247 1.19033 1.20337 1.10923 1.20089 1.19728 1.13628 1.18828 1.19178 1.19178 1.09818 1.16905 1.1567 1.21783 1.10606 1.23059 1.19178 1.19177 1.08185 1.26564 1.06201 1.16761 1.19244 0.993325 1.09113 1.1847 1.15601 1.20531 1.14162 0.835039 1.09999 1.31822 1.18969 1.13436 0.757681 0.992587 1.01526 1.0889 1.17353 1.06493 1.03272 1.15181 1.14804 1.12882 1.14615 1.18558 0.965423 1.21633 1.00933 1.21873 0.982265 1.07595 1.09687 1.16952 0.998639 0.953678 1.09373 1.07403 1.07252 1.01074 1.10322 1.67323 0.708234 1.37515 0.908183 1.3043 0.873945 1.19672 1.08923 1.23299 1.07813 1.04766 0.973167 0.98107 1.22444 1.14679 1.04236 1.23419 1.25973 1.11922 1.10198 1.1917 1.19178 1.14366 1.08547 1.08218 1.19178 1.19178 1.19178 1.0111 1.0222 0.963555 1.19178 1.19178 1.19178 1.09441 1.17082 1.19995 1.15666 1.18966 1.19178 1.18799 1.19488 1.12036 1.10712 1.20446 1.13398 1.19239 1.1944 1.20472 1.19028 1.18377 1.15794 1.20664 1.08744 1.202 1.20144 1.24505 1.02199 1.26249 1.05141 1.36165 1.16243 0.882735 0.919015 1.19641 1.13285 1.01835 1.13676 1.01096 1.08933 1.24413 1.06798 1.12726 0.719328 1.10834 1.02988 1.07956 1.19178 1.06962 1.05566 1.19177 1.19178 1.02945 1.17556 1.04153 0.961057 1.20957 0.990918 1.21052 1.004 1.12172 1.07294 1.00427 1.00073 0.953262 1.09252 1.07453 1.06434 0.999638 1.12069 1.19178 0.707861 1.19178 1.19178 
SCALARS Stress float 1
LOOKUP_TABLE default
-17068200000.0 -13018200000.0 -14112500000.0 -12579100000.0 -28472700000.0 -12549700000.0 -12956800000.0 -32244100000.0 -15789900000.0 -15645300000.0 -18197400000.0 -12550100000.0 -39406200000.0 -22912400000.0 -12632700000.0 -16592500000.0 -18190400000.0 -13257500000.0 -15601700000.0 -15731100000.0 -13947100000.0 -22697600000.0 -57412500000.0 -48522300000.0 -42818000000.0 -74281900000.0 -41429900000.0 -18846800000.0 -15906600000.0 -16374100000.0 -14711900000.0 -15535400000.0 -13537800000.0 -19324500000.0 -12549700000.0 -12549700000.0 -12549900000.0 -12702800000.0 -62305000000.0 -13615300000.0 -12581100000.0 -13056500000.0 -38973200000.0 -39506900000.0 -17031600000.0 -15874800000.0 -22496400000.0 -79642900000.0 -49071800000.0 -150169000000.0 -206385000000.0 -284235000000.0 -224789000000.0 -213730000000.0 -189702000000.0 -129482000000.0 -96210000000.0 -73090900000.0 -80135900000.0 -111201000000.0 -57200800000.0 -56946900000.0 -102164000000.0 -154307000000.0 -171154000000.0 -180698000000.0 -215655000000.0 -222232000000.0 -243668000000.0 -299913000000.0 -334811000000.0 -395136000000.0 -449103000000.0 -519599000000.0 -193098000000.0 -178098000000.0 -191169000000.0 -307201000000.0 -226168000000.0 -205682000000.0 -133520000000.0 -46345300000.0 -12549700000.0 -12549700000.0 -12549700000.0 -12549700000.0 -86137000000.0 -12549700000.0 -33524300000.0 -92813500000.0 -68660200000.0 -143078000000.0 -172372000000.0 -230988000000.0 -305526000000.0 -197778000000.0 -335785000000.0 -303707000000.0 -478803000000.0 -61620500000.0 -57275600000.0 -126186000000.0 -419432000000.0 -488438000000.0 -482222000000.0 -493817000000.0 -444274000000.0 -66956300000.0 -36875700000.0 -40038800000.0 -12549700000.0 -33522100000.0 -13560500000.0 -14880300000.0 -33438800000.0 -12549700000.0 -16226900000.0 -61523900000.0 -12549600000.0 -12549700000.0 -12549700000.0 -46547300000.0 -12549700000.0 -12549600000.0 -12549700000.0 -12549700000.0 -12549700000.0 -12549700000.0 -35214500000.0 -30119200000.0 -55296500000.0 -132036000000.0 -112448000000.0 -210366000000.0 -29302700000.0 -44408000000.0 -135033000000.0 -71974200000.0 -82101900000.0 -39552700000.0 -170573000000.0 -72704800000.0 -84040600000.0 -26941000000.0 -12549700000.0 -20922200000.0 -39109300000.0 -55993700000.0 -120142000000.0 -16203100000.0 -28188400000.0 -156996000000.0 -27588000000.0 -12549700000.0 -55083200000.0 -41425200000.0 -28934400000.0 -12549700000.0 -16927100000.0 -118483000000.0 -26174400000.0 -12549600000.0 -12549700000.0 -12549700000.0 -12549700000.0 -12549700000.0 -12549700000.0 -12549700000.0 -51928000000.0 -12554100000.0 -85160500000.0 -12549700000.0 -40494000000.0 -153233000000.0 -381044000000.0 -21875800000.0 -21855100000.0 -423565000000.0 -199577000000.0 -124661000000.0 -595129000000.0 -174308000000.0 -12549700000.0 -12549700000.0 -34573900000.0 -12549700000.0 -220471000000.0 -12549700000.0 -82891500000.0 -214935000000.0 -12533900000.0 -237987000000.0 -197800000000.0 -165660000000.0 -178670000000.0 -439840000000.0 -562515000000.0 -511899000000.0 -581834000000.0 -618448000000.0 -113077000000.0 -403551000000.0 -40899600000.0 -240659000000.0 -188967000000.0 -243636000000.0 -13008200000.0 -431969000000.0 -202783000000.0 -223743000000.0 -138650000000.0 -181835000000.0 -111585000000.0 -110361000000.0 -141601000000.0 -12544700000.0 -25665200000.0 -137362000000.0 -12549700000.0 -13945000000.0 -12549700000.0 -113493000000.0 -12549700000.0 -31579800000.0 -59696500000.0 -264979000000.0 -294743000000.0 -305076000000.0 -347756000000.0 -357775000000.0 -423727000000.0 -420482000000.0 -440770000000.0 -572554000000.0 -603222000000.0 -788123000000.0 -744960000000.0 -744846000000.0 -508105000000.0 -516045000000.0 -228735000000.0 -183881000000.0 -273391000000.0 -12549700000.0 -27241600000.0 -15048200000.0 -13081200000.0 -12549500000.0 -41141200000.0 -13080200000.0 -14157500000.0 -244788000000.0 -127514000000.0 -205980000000.0 -239123000000.0 -120973000000.0 -22380900000.0 -12539500000.0 -83086500000.0 -199546000000.0 -161776000000.0 -129983000000.0 -140783000000.0 -151999000000.0 -88341000000.0 -109428000000.0 -140869000000.0 -210819000000.0 -280376000000.0 -283056000000.0 -326543000000.0 -386888000000.0 -281684000000.0 -362969000000.0 -658336000000.0 -679120000000.0 -850231000000.0 -274009000000.0 -147725000000.0 -132836000000.0 -1.34478e+12 -893162000000.0 -701097000000.0 -560753000000.0 -560597000000.0 -649964000000.0 -542961000000.0 -452839000000.0 -407140000000.0 -675164000000.0 -409958000000.0 -32132100000.0 -66100200000.0 -12549600000.0 -83646000000.0 -12673100000.0 -298183000000.0 -150925000000.0 -137976000000.0 -1.01887e+12 -12549700000.0 -449268000000.0 -210694000000.0 -423432000000.0 -402646000000.0 -555797000000.0 -40767300000.0 -326193000000.0 -53980300000.0 -141885000000.0 -27539600000.0 -118088000000.0 -64888100000.0 -26058900000.0 -21315300000.0 -149665000000.0 -89026100000.0 -237277000000.0 -51388700000.0 -45402100000.0 -34435100000.0 -255414000000.0 -99150100000.0 -137733000000.0 -222250000000.0 -12549600000.0 -23726600000.0 -22887300000.0 -12549700000.0 -36738000000.0 -132428000000.0 -12557300000.0 -164507000000.0 -206577000000.0 -421018000000.0 -851742000000.0 -448647000000.0 -726988000000.0 -817412000000.0 -1.07179e+12 -646588000000.0 -387685000000.0 -545429000000.0 -35797200000.0 -67727700000.0 -26743700000.0 -13242400000.0 -78810700000.0 -15969200000.0 -35063200000.0 -70956600000.0 -348952000000.0 -121091000000.0 -415146000000.0 -290529000000.0 -574657000000.0 -148238000000.0 -100817000000.0 -39155700000.0 -394601000000.0 -13907400000.0 -12549600000.0 -24709600000.0 -49952100000.0 -144422000000.0 -202545000000.0 -204473000000.0 -403765000000.0 -629884000000.0 -811003000000.0 -902323000000.0 -944281000000.0 -1.22098e+12 -1.16098e+12 -1.08887e+12 -1.32701e+12 -1.03942e+12 -783964000000.0 -1.03408e+12 -1.41283e+12 -214427000000.0 -125878000000.0 -254590000000.0 -132047000000.0 -155512000000.0 -159392000000.0 -786218000000.0 -444113000000.0 -458688000000.0 -712954000000.0 -343456000000.0 -562256000000.0 -409566000000.0 -363598000000.0 -427195000000.0 -454494000000.0 -79200000000.0 -93576800000.0 -81637200000.0 -1.0114e+12 -20307900000.0 -597575000000.0 -185051000000.0 -392596000000.0 -270923000000.0 -574306000000.0 -350462000000.0 -490096000000.0 -202680000000.0 -402027000000.0 -139474000000.0 -170654000000.0 -120795000000.0 -29311200000.0 -39633400000.0 -108470000000.0 -45533100000.0 -241407000000.0 -12549700000.0 -12549700000.0 -20775600000.0 -317937000000.0 -117589000000.0 -230643000000.0 -365158000000.0 -202178000000.0 -246859000000.0 -263215000000.0 -327517000000.0 -226562000000.0 -431240000000.0 -377508000000.0 -264062000000.0 -331811000000.0 -617635000000.0 -1.02718e+12 -436462000000.0 -596418000000.0 -82098200000.0 -541468000000.0 -378922000000.0 -262433000000.0 -255894000000.0 -629884000000.0 -448243000000.0 -429587000000.0 -288227000000.0 -548399000000.0 -368298000000.0 -419960000000.0 -238704000000.0 -691733000000.0 -690465000000.0 -21643400000.0 -239389000000.0 -709474000000.0 -321184000000.0 -192765000000.0 -84127800000.0 -426071000000.0 -36671100000.0 -12549700000.0 -17237400000.0 -76807600000.0 -103453000000.0 -79983400000.0 -169573000000.0 -15940900000.0 -209194000000.0 -24454000000.0 -141057000000.0 -107826000000.0 -1.00961e+12 -640490000000.0 -603345000000.0 -567533000000.0 -384574000000.0 -359521000000.0 -523746000000.0 -785769000000.0 -365922000000.0 -272160000000.0 -12481200000.0 -12549700000.0 -12549700000.0 -19806100000.0 -466541000000.0 -1.31777e+12 -964540000000.0 -1.21405e+12 -646991000000.0 -749197000000.0 -644213000000.0 -338302000000.0 -341851000000.0 -422193000000.0 -389255000000.0 -367484000000.0 -378243000000.0 -630321000000.0 -457394000000.0 -478766000000.0 -317929000000.0 -806603000000.0 -858012000000.0 -760040000000.0 -578997000000.0 -477890000000.0 -301483000000.0 -462266000000.0 -133656000000.0 -344653000000.0 -22865600000.0 -12549300000.0 -81880000000.0 -102347000000.0 -14737300000.0 -288569000000.0 -77883300000.0 -82950800000.0 -103679000000.0 -483520000000.0 -186512000000.0 -189361000000.0 -379482000000.0 -266801000000.0 -310112000000.0 -297508000000.0 -419911000000.0 -151436000000.0 -62993600000.0 -78728500000.0 -126395000000.0 -41702200000.0 -640819000000.0 -305583000000.0 -282828000000.0 -704950000000.0 -344795000000.0 -729958000000.0 -377599000000.0 -361482000000.0 -318752000000.0 -821873000000.0 -542771000000.0 -971271000000.0 -910622000000.0 -667616000000.0 -740500000000.0 -779188000000.0 -1.00352e+12 -1.70179e+12 -1.09597e+12 -700776000000.0 -555937000000.0 -1.07886e+12 -458027000000.0 -394847000000.0 -380646000000.0 -529835000000.0 -280118000000.0 -284650000000.0 -517282000000.0 -560096000000.0 -608937000000.0 -516658000000.0 -551984000000.0 -561087000000.0 -802664000000.0 -680636000000.0 -524759000000.0 -545387000000.0 -1.19166e+12 -24928500000.0 -529314000000.0 -784806000000.0 -208496000000.0 -196368000000.0 -467971000000.0 -582809000000.0 -221011000000.0 -1.08972e+12 -444283000000.0 -446661000000.0 -565948000000.0 -465196000000.0 -167192000000.0 -693226000000.0 -693380000000.0 -686654000000.0 -157745000000.0 -93761900000.0 -37382500000.0 -388502000000.0 -197759000000.0 -366134000000.0 -168594000000.0 -216670000000.0 -246770000000.0 -634396000000.0 -748604000000.0 -1.98105e+12 -1.62799e+12 -968412000000.0 -1.25062e+12 -838696000000.0 -881842000000.0 -176012000000.0 -162903000000.0 -435282000000.0 -231735000000.0 -506579000000.0 -114161000000.0 -84826400000.0 -284254000000.0 -253262000000.0 -99536800000.0 -289616000000.0 -12549700000.0 -84156800000.0 -20478900000.0 -284364000000.0 -534333000000.0 -533917000000.0 -12550000000.0 -23953000000.0 -37322600000.0 -73553500000.0 -178162000000.0 -514198000000.0 -497442000000.0 -620953000000.0 -398685000000.0 -476735000000.0 -619941000000.0 -716188000000.0 -805457000000.0 -790008000000.0 -482540000000.0 -947710000000.0 -517098000000.0 -595274000000.0 -534735000000.0 -888901000000.0 -720109000000.0 -206560000000.0 -256946000000.0 -629520000000.0 -245188000000.0 -367859000000.0 -218769000000.0 -499107000000.0 -1.44451e+12 -600709000000.0 -525016000000.0 -991790000000.0 -203996000000.0 -337047000000.0 -245638000000.0 -556952000000.0 -293816000000.0 -410261000000.0 -20730500000.0 -12549700000.0 -149973000000.0 -23985300000.0 -97751000000.0 -213765000000.0 -607531000000.0 -508349000000.0 -929480000000.0 -793786000000.0 -1.50151e+12 -804614000000.0 -941577000000.0 -2.10311e+12 -1.25054e+12 -1.0769e+12 -1.27642e+12 -1.38411e+12 -774570000000.0 -1.03315e+12 -20178400000.0 -12545800000.0 -138178000000.0 -484760000000.0 -319026000000.0 -928665000000.0 -456438000000.0 -564772000000.0 -238749000000.0 -81652400000.0 -31950600000.0 -320753000000.0 -12549700000.0 -247371000000.0 -30110400000.0 -16996900000.0 -12549700000.0 -491110000000.0 -12611100000.0 -1.05855e+12 -494923000000.0 -448462000000.0 -330353000000.0 -358825000000.0 -315423000000.0 -896651000000.0 -752185000000.0 -823416000000.0 -521037000000.0 -1.10723e+12 -677098000000.0 -698335000000.0 -682098000000.0 -613086000000.0 -502796000000.0 -523740000000.0 -318851000000.0 -288947000000.0 -256845000000.0 -541361000000.0 -812266000000.0 -508659000000.0 -211874000000.0 -200798000000.0 -217514000000.0 -97699400000.0 -144320000000.0 -270576000000.0 -191011000000.0 -176562000000.0 -774494000000.0 -508951000000.0 -612813000000.0 -51857600000.0 -418761000000.0 -221610000000.0 -124339000000.0 -451478000000.0 -74820600000.0 -156505000000.0 -35420400000.0 -666725000000.0 -146145000000.0 -29840400000.0 -36556000000.0 -71248500000.0 -33535700000.0 -199939000000.0 -30975100000.0 -709456000000.0 -1.24682e+12 -322334000000.0 -300676000000.0 -915518000000.0 -203639000000.0 -145634000000.0 -62627300000.0 -337006000000.0 -15914400000.0 -21584300000.0 -387611000000.0 -261508000000.0 -281023000000.0 -305778000000.0 -327478000000.0 -423479000000.0 -12549700000.0 -26010800000.0 -323407000000.0 -108899000000.0 -982288000000.0 -401882000000.0 -573477000000.0 -786418000000.0 -115552000000.0 -305222000000.0 -56714900000.0 -66794400000.0 -746088000000.0 -338187000000.0 -1.51236e+12 -954543000000.0 -1.31923e+12 -709796000000.0 -645473000000.0 -1.31818e+12 -1.00076e+12 -1.19557e+12 -572758000000.0 -385627000000.0 -167084000000.0 -454499000000.0 -176014000000.0 -317080000000.0 -12549700000.0 -12549700000.0 -49528000000.0 -506866000000.0 -282071000000.0 -552348000000.0 -576593000000.0 -503378000000.0 -277896000000.0 -535795000000.0 -472610000000.0 -817398000000.0 -635375000000.0 -456650000000.0 -461281000000.0 -885528000000.0 -400984000000.0 -349870000000.0 -279991000000.0 -149341000000.0 -185403000000.0 -83403800000.0 -61130400000.0 -44003800000.0 -92753000000.0 -267297000000.0 -19436600000.0 -1.32098e+12 -365019000000.0 -365749000000.0 -329044000000.0 -326536000000.0 -395973000000.0 -456721000000.0 -346645000000.0 -331473000000.0 -683264000000.0 -150514000000.0 -749994000000.0 -308064000000.0 -442799000000.0 -475671000000.0 -298745000000.0 -407742000000.0 -279126000000.0 -402050000000.0 -370682000000.0 -784447000000.0 -239890000000.0 -382827000000.0 -380772000000.0 -478844000000.0 -478592000000.0 -715327000000.0 -690218000000.0 -69993900000.0 -815019000000.0 -115460000000.0 -71587000000.0 -485886000000.0 -150116000000.0 -169252000000.0 -22429700000.0 -224569000000.0 -12549700000.0 -12549700000.0 -281404000000.0 -122869000000.0 -94475700000.0 -19689700000.0 -45056900000.0 -85291300000.0 -12549600000.0 -36694500000.0 -328774000000.0 -591319000000.0 -376458000000.0 -74332900000.0 -393500000000.0 -515921000000.0 -79198000000.0 -211953000000.0 -84461400000.0 -16367200000.0 -592660000000.0 -380912000000.0 -971488000000.0 -196729000000.0 -326959000000.0 -736111000000.0 -236125000000.0 -1.01927e+12 -509864000000.0 -803045000000.0 -131824000000.0 -173455000000.0 -194817000000.0 -417588000000.0 -219960000000.0 -439958000000.0 -164918000000.0 -176954000000.0 -187305000000.0 -523806000000.0 -329456000000.0 -364635000000.0 -473654000000.0 -241732000000.0 -461372000000.0 -541164000000.0 -27593800000.0 -601653000000.0 -354759000000.0 -438270000000.0 -241010000000.0 -472854000000.0 -14646400000.0 -19592300000.0 -141457000000.0 -95832700000.0 -161613000000.0 -62027500000.0 -12549700000.0 -47626900000.0 -12549700000.0 -324757000000.0 -339736000000.0 -794170000000.0 -162612000000.0 -191052000000.0 -257075000000.0 -98532600000.0 -50461300000.0 -89970800000.0 -18615400000.0 -39365400000.0 -131922000000.0 -675770000000.0 -967964000000.0 -15252300000.0 -166899000000.0 -213285000000.0 -24327500000.0 -221830000000.0 -94623200000.0 -89440200000.0 -23412800000.0 -500547000000.0 -12549700000.0 -65531300000.0 -12549700000.0 -107841000000.0 -12549700000.0 -290802000000.0 -345394000000.0 -151666000000.0 -726986000000.0 -12549200000.0 -56955400000.0 -333784000000.0 -217425000000.0 -128937000000.0 -136405000000.0 -49462300000.0 -12549700000.0 -12549700000.0 -376606000000.0 -272517000000.0 -207566000000.0 -18696800000.0 -251294000000.0 -411790000000.0 -405986000000.0 -829926000000.0 -1.11184e+12 -1.37876e+12 -893268000000.0 -894175000000.0 -719319000000.0 -626391000000.0 -440367000000.0 -560000000000.0 -546576000000.0 -388317000000.0 -484642000000.0 -567313000000.0 -1.4211e+12 -437473000000.0 -242954000000.0 -872971000000.0 -1.21832e+12 -897356000000.0 -900112000000.0 -275315000000.0 -258585000000.0 -43288700000.0 -24017300000.0 -248260000000.0 -43339900000.0 -283482000000.0 -12549700000.0 -62209000000.0 -12549700000.0 -393292000000.0 -383445000000.0 -612214000000.0 -416765000000.0 -287197000000.0 -473840000000.0 -848228000000.0 -16628300000.0 -487061000000.0 -69978500000.0 -488576000000.0 -124684000000.0 -538750000000.0 -30993900000.0 -89207200000.0 -99620100000.0 -146167000000.0 -128413000000.0 -116191000000.0 -131219000000.0 -185343000000.0 -266633000000.0 -407161000000.0 -330650000000.0 -759644000000.0 -183092000000.0 -383529000000.0 -76920400000.0 -23722100000.0 -20775400000.0 -44654400000.0 -12549700000.0 -12549700000.0 -182961000000.0 -902613000000.0 -12549700000.0 -647271000000.0 -401812000000.0 -420035000000.0 -202528000000.0 -266395000000.0 -137561000000.0 -133390000000.0 -136222000000.0 -554446000000.0 -22417400000.0 -36472600000.0 -14921000000.0 -103676000000.0 -29436600000.0 -390018000000.0 -278871000000.0 -140218000000.0 -410132000000.0 -370543000000.0 -22877800000.0 -304513000000.0 -326421000000.0 -139765000000.0 -267773000000.0 -124738000000.0 -155581000000.0 -222687000000.0 -574551000000.0 -381353000000.0 -411346000000.0 -816655000000.0 -735432000000.0 -389952000000.0 -646063000000.0 -12549700000.0 -12549700000.0 -883648000000.0 -355178000000.0 -446482000000.0 -435625000000.0 -232239000000.0 -30728600000.0 -36297200000.0 -265170000000.0 -195712000000.0 -262355000000.0 -464970000000.0 -1.34868e+12 -296153000000.0 -369281000000.0 -1.07511e+12 -147605000000.0 -304668000000.0 -658872000000.0 -125644000000.0 -198045000000.0 -70082000000.0 -12549700000.0 -237892000000.0 -29758400000.0 -279667000000.0 -12549600000.0 -133351000000.0 -57762100000.0 -414307000000.0 -113802000000.0 -275630000000.0 -12534700000.0 -338400000000.0 -322971000000.0 -322311000000.0 -1.13745e+12 -903882000000.0 -773518000000.0 -449860000000.0 -429793000000.0 -630783000000.0 -719375000000.0 -694622000000.0 -502936000000.0 -567320000000.0 -744519000000.0 -869072000000.0 -780601000000.0 -652932000000.0 -307021000000.0 -521221000000.0 -456388000000.0 -950254000000.0 -389076000000.0 -429090000000.0 -122193000000.0 -12549700000.0 -103188000000.0 -45174200000.0 -105828000000.0 -209001000000.0 -247562000000.0 -910705000000.0 -114494000000.0 -343246000000.0 -114688000000.0 -380706000000.0 -194440000000.0 -255365000000.0 -175000000000.0 -153688000000.0 -148369000000.0 -581834000000.0 -12549700000.0 -12549700000.0 -46464200000.0 -132803000000.0 -103021000000.0 -413689000000.0 -297558000000.0 -177687000000.0 -669668000000.0 -45559600000.0 -311547000000.0 -440366000000.0 -406489000000.0 -196986000000.0 -479776000000.0 -213048000000.0 -217956000000.0 -314641000000.0 -670764000000.0 -627831000000.0 -181390000000.0 -28416400000.0 -12505400000.0 -348704000000.0 -381011000000.0 -797767000000.0 -852834000000.0 -1.18864e+12 -848747000000.0 -684494000000.0 -635396000000.0 -812352000000.0 -725884000000.0 -868683000000.0 -631303000000.0 -659463000000.0 -828899000000.0 -953933000000.0 -1.48193e+12 -468526000000.0 -513456000000.0 -928524000000.0 -478309000000.0 -323847000000.0 -588897000000.0 -148461000000.0 -237315000000.0 -198019000000.0 -55032300000.0 -240737000000.0 -29468000000.0 -314183000000.0 -36661200000.0 -197719000000.0 -15591000000.0 -377142000000.0 -284369000000.0 -511648000000.0 -241401000000.0 -380271000000.0 -290503000000.0 -274032000000.0 -585054000000.0 -419767000000.0 -200070000000.0 -102725000000.0 -198715000000.0 -361737000000.0 -648829000000.0 -17964800000.0 -37136200000.0 -216952000000.0 -113405000000.0 -298502000000.0 -240144000000.0 -427188000000.0 -480370000000.0 -635016000000.0 -313615000000.0 -1.05047e+12 -579096000000.0 -538633000000.0 -400287000000.0 -506269000000.0 -430468000000.0 -468502000000.0 -478731000000.0 -845404000000.0 -1.13767e+12 -411102000000.0 -251537000000.0 -429246000000.0 -270277000000.0 -589741000000.0 -207177000000.0 -435727000000.0 -310695000000.0 -271779000000.0 -275757000000.0 -388375000000.0 -775258000000.0 -674162000000.0 -669537000000.0 -896121000000.0 -497069000000.0 -744192000000.0 -757257000000.0 -176881000000.0 -112763000000.0 -1.32109e+12 -683892000000.0 -1.26957e+12 -409992000000.0 -376945000000.0 -190916000000.0 -228926000000.0 -345801000000.0 -361674000000.0 -741921000000.0 -738121000000.0 -196548000000.0 -195090000000.0 -234998000000.0 -84627400000.0 -224068000000.0 -518833000000.0 -63958500000.0 -552632000000.0 -490223000000.0 -475186000000.0 -294372000000.0 -512469000000.0 -124050000000.0 -270029000000.0 -204144000000.0 -49627700000.0 -239596000000.0 -113858000000.0 -1.16051e+12 -124248000000.0 -36023100000.0 -951304000000.0 -740215000000.0 -786953000000.0 -608651000000.0 -134232000000.0 -264993000000.0 -327290000000.0 -120212000000.0 -225484000000.0 -12549700000.0 -317628000000.0 -37157100000.0 -272756000000.0 -76355700000.0 -447161000000.0 -132097000000.0 -245896000000.0 -51469900000.0 -128191000000.0 -30557100000.0 -32552200000.0 -1.02904e+12 -153945000000.0 -66805700000.0 -42483400000.0 -61731100000.0 -480716000000.0 -393158000000.0 -12549700000.0 -70088300000.0 -24856500000.0 -16265700000.0 -144275000000.0 -35079500000.0 -286690000000.0 -140993000000.0 -115936000000.0 -504358000000.0 -878387000000.0 -405793000000.0 -729117000000.0 -395399000000.0 -510290000000.0 -578188000000.0 -455312000000.0 -378651000000.0 -444550000000.0 -254382000000.0 -1.05381e+12 -205038000000.0 -355054000000.0 -269915000000.0 -505319000000.0 -300560000000.0 -14440300000.0 -12549700000.0 -12549700000.0 -12549700000.0 -266962000000.0 -41947200000.0 -86466700000.0 -44653100000.0 -410580000000.0 -145091000000.0 -364580000000.0 -24748900000.0 -615528000000.0 -630353000000.0 -716067000000.0 -191606000000.0 -617672000000.0 -421707000000.0 -237608000000.0 -210274000000.0 -214685000000.0 -12538300000.0 -12549700000.0 -273468000000.0 -50517200000.0 -767758000000.0 -354762000000.0 -201621000000.0 -162853000000.0 -233827000000.0 -995458000000.0 -715414000000.0 -1.07637e+12 -465845000000.0 -708295000000.0 -452201000000.0 -808929000000.0 -595337000000.0 -505476000000.0 -336220000000.0 -273618000000.0 -446815000000.0 -283237000000.0 -1.22743e+12 -128176000000.0 -130927000000.0 -651873000000.0 -525103000000.0 -12549500000.0 -1.30433e+12 -639354000000.0 -631044000000.0 -999850000000.0 -371885000000.0 -561590000000.0 -350654000000.0 -697798000000.0 -199201000000.0 -437557000000.0 -126505000000.0 -554447000000.0 -102540000000.0 -199465000000.0 -12549700000.0 -150830000000.0 -119477000000.0 -161178000000.0 -1.01698e+12 -94625000000.0 -12549700000.0 -56792800000.0 -19413500000.0 -609261000000.0 -449300000000.0 -12549700000.0 -71054000000.0 -46984200000.0 -12549700000.0 -121409000000.0 -29543100000.0 -359562000000.0 -128531000000.0 -164905000000.0 -663495000000.0 -265251000000.0 -161123000000.0 -411395000000.0 -206796000000.0 -274703000000.0 -216958000000.0 -621041000000.0 -752971000000.0 -1.02998e+12 -1.56262e+12 -2.03725e+12 -1.40607e+12 -1.15315e+12 -934545000000.0 -781558000000.0 -463445000000.0 -286303000000.0 -144607000000.0 -32860600000.0 -19781100000.0 -171150000000.0 -18352100000.0 -36776100000.0 -80632800000.0 -367524000000.0 -73725100000.0 -437973000000.0 -188907000000.0 -574161000000.0 -686989000000.0 -661640000000.0 -417964000000.0 -592943000000.0 -348106000000.0 -228827000000.0 -63335100000.0 -109255000000.0 -25263800000.0 -12549700000.0 -168442000000.0 -12549700000.0 -649582000000.0 -453926000000.0 -287220000000.0 -349478000000.0 -581341000000.0 -53771700000.0 -42761400000.0 -293515000000.0 -566202000000.0 -258423000000.0 -115647000000.0 -335891000000.0 -30318700000.0 -66134100000.0 -163292000000.0 -103734000000.0 -344432000000.0 -266479000000.0 -960722000000.0 -392493000000.0 -384783000000.0 -744576000000.0 -971563000000.0 -574656000000.0 -638255000000.0 -42704900000.0 -21228000000.0 -321079000000.0 -490241000000.0 -688438000000.0 -339356000000.0 -481064000000.0 -930232000000.0 -968335000000.0 -547155000000.0 -790838000000.0 -467604000000.0 -743636000000.0 -537570000000.0 -584079000000.0 -670161000000.0 -706623000000.0 -1.77498e+12 -686970000000.0 -917073000000.0 -748359000000.0 -801650000000.0 -967132000000.0 -961838000000.0 -636619000000.0 -605132000000.0 -491584000000.0 -428150000000.0 -552149000000.0 -504980000000.0 -234654000000.0 -12549700000.0 -12544400000.0 -472790000000.0 -220248000000.0 -19319800000.0 -230529000000.0 -58233600000.0 -34506900000.0 -76756000000.0 -731888000000.0 -363094000000.0 -550597000000.0 -18832600000.0 -467122000000.0 -12549700000.0 -145072000000.0 -284107000000.0 -568013000000.0 -22570800000.0 -12549700000.0 -12549700000.0 -26795300000.0 -12552100000.0 -145521000000.0 -112064000000.0 -109272000000.0 -357952000000.0 -209984000000.0 -283261000000.0 -456055000000.0 -71032000000.0 -562573000000.0 -350718000000.0 -1.70579e+12 -11635200000.0 -22842700000.0 -1.0225e+12 -568112000000.0 -118447000000.0 -242088000000.0 -170220000000.0 -22449200000.0 -296300000000.0 -57614700000.0 -538308000000.0 -291431000000.0 -12549600000.0 -26443800000.0 -217774000000.0 -52316700000.0 -12550700000.0 -467245000000.0 -444655000000.0 -213390000000.0 -25469000000.0 -211965000000.0 -39785300000.0 -404798000000.0 -362034000000.0 -348082000000.0 -556096000000.0 -375453000000.0 -1.05336e+12 -332449000000.0 -469368000000.0 -438278000000.0 -477170000000.0 -683006000000.0 -722104000000.0 -225163000000.0 -181093000000.0 -217043000000.0 -223732000000.0 -502029000000.0 -51437000000.0 -277941000000.0 -385204000000.0 -626133000000.0 -216837000000.0 -617212000000.0 -110599000000.0 -18695900000.0 -18510700000.0 -54629500000.0 -40183000000.0 -18502000000.0 -765388000000.0 -326248000000.0 -488099000000.0 -273855000000.0 -259069000000.0 -892069000000.0 -335484000000.0 -137321000000.0 -268901000000.0 -62530200000.0 -35469900000.0 -171913000000.0 -121579000000.0 -57591100000.0 -182188000000.0 -103163000000.0 -997812000000.0 -686586000000.0 -620288000000.0 -901388000000.0 -770184000000.0 -788296000000.0 -1.03636e+12 -100026000000.0 -43057200000.0 -299733000000.0 -17276800000.0 -464514000000.0 -137788000000.0 -259141000000.0 -71295000000.0 -643199000000.0 -124382000000.0 -112541000000.0 -123786000000.0 -139351000000.0 -274268000000.0 -312574000000.0 -269384000000.0 -265043000000.0 -515181000000.0 -188828000000.0 -311896000000.0 -1.18566e+12 -877978000000.0 -330704000000.0 -246441000000.0 -1.77165e+12 -934117000000.0 -1.24136e+12 -1.12705e+12 -693186000000.0 -473227000000.0 -585040000000.0 -1.19153e+12 -1.02151e+12 -1.02386e+12 -1.16552e+12 -1.09199e+12 -1.02775e+12 -823194000000.0 -815557000000.0 -786997000000.0 -730045000000.0 -399337000000.0 -160311000000.0 -293450000000.0 -251667000000.0 -142042000000.0 -413474000000.0 -423673000000.0 -12432900000.0 -12549700000.0 -12549700000.0 -376241000000.0 -398770000000.0 -695932000000.0 -283204000000.0 -618694000000.0 -106285000000.0 -12283500000.0 -878062000000.0 -565062000000.0 -185945000000.0 -188462000000.0 -366388000000.0 -309423000000.0 -688959000000.0 -190530000000.0 -416459000000.0 -364688000000.0 -546791000000.0 -19109900000.0 -510728000000.0 -49188900000.0 -42609400000.0 -43925000000.0 -98549900000.0 -63131900000.0 -155936000000.0 -404762000000.0 -149781000000.0 -422095000000.0 -49477800000.0 -200280000000.0 -618415000000.0 -187638000000.0 -92557100000.0 -217976000000.0 -36247900000.0 -85414300000.0 -118752000000.0 -398126000000.0 -333036000000.0 -514773000000.0 -829741000000.0 -14365400000.0 -20996900000.0 -52281700000.0 -177046000000.0 -12549700000.0 -12549700000.0 -12549700000.0 -753056000000.0 -444837000000.0 -649196000000.0 -355082000000.0 -547420000000.0 -38334200000.0 -276321000000.0 -452659000000.0 -746103000000.0 -12549700000.0 -38883800000.0 -105997000000.0 -208095000000.0 -12549600000.0 -12549700000.0 -95375000000.0 -23059700000.0 -469805000000.0 -287215000000.0 -17501400000.0 -827554000000.0 -812364000000.0 -448264000000.0 -1.38265e+12 -2.0953e+12 -843148000000.0 -1.04741e+12 -1.35017e+12 -1.31564e+12 -1.10319e+12 -1.2576e+12 -538943000000.0 -636519000000.0 -550826000000.0 -255862000000.0 -497523000000.0 -147493000000.0 -12546600000.0 -12549700000.0 -319285000000.0 -21891500000.0 -700361000000.0 -254759000000.0 -322558000000.0 -236460000000.0 -285427000000.0 -37381000000.0 -198056000000.0 -12546700000.0 -12549700000.0 -64922400000.0 -391178000000.0 -117419000000.0 -572800000000.0 -219802000000.0 -641158000000.0 -385979000000.0 -326798000000.0 -977069000000.0 -522557000000.0 -28985100000.0 -67902500000.0 -189953000000.0 -152115000000.0 -134721000000.0 -979613000000.0 -636992000000.0 -1.30425e+12 -1.03548e+12 -533281000000.0 -728871000000.0 -12549700000.0 -76340800000.0 -116077000000.0 -105443000000.0 -12549700000.0 -22236700000.0 -131505000000.0 -161461000000.0 -436440000000.0 -225301000000.0 -328969000000.0 -496329000000.0 -149148000000.0 -17475600000.0 -194958000000.0 -50465600000.0 -102589000000.0 -282725000000.0 -34190500000.0 -81088500000.0 -67197400000.0 -272206000000.0 -41429200000.0 -29610300000.0 -44294000000.0 -79402000000.0 -25594000000.0 -14489700000.0 -12549700000.0 -294026000000.0 -124668000000.0 -350900000000.0 -12559900000.0 -247487000000.0 -462091000000.0 -754410000000.0 -31034500000.0 -649912000000.0 -309319000000.0 -211487000000.0 -155707000000.0 -263234000000.0 -37935500000.0 -12549700000.0 -173362000000.0 -19371700000.0 -434907000000.0 -128944000000.0 -134722000000.0 -885523000000.0 -1.03981e+12 -1.00108e+12 -288631000000.0 -1.49842e+12 -132636000000.0 -472338000000.0 -583089000000.0 -335499000000.0 -287723000000.0 -509680000000.0 -454728000000.0 -342270000000.0 -308144000000.0 -75271000000.0 -88707100000.0 -334599000000.0 -78102700000.0 -331447000000.0 -422201000000.0 -225301000000.0 -547089000000.0 -32521000000.0 -77607100000.0 -35785100000.0 -114449000000.0 -12549700000.0 -179628000000.0 -22254000000.0 -12158700000.0 -138105000000.0 -578509000000.0 -404470000000.0 -857793000000.0 -638238000000.0 -953710000000.0 -306625000000.0 -254820000000.0 -1.00218e+12 -523180000000.0 -288599000000.0 -274258000000.0 -348001000000.0 -319430000000.0 -245540000000.0 -891780000000.0 -982022000000.0 -1.42479e+12 -764048000000.0 -277272000000.0 -535530000000.0 -23193500000.0 -117061000000.0 -223013000000.0 -143631000000.0 -19501000000.0 -40997500000.0 -183022000000.0 -66079300000.0 -140795000000.0 -12549600000.0 -27419900000.0 -394398000000.0 -144315000000.0 -29350500000.0 -180722000000.0 -18139300000.0 -41296500000.0 -199114000000.0 -29242100000.0 -12549700000.0 -16597100000.0 -192286000000.0 -27493200000.0 -12548800000.0 -12549700000.0 -43480800000.0 -29247200000.0 -93557000000.0 -82093800000.0 -285642000000.0 -52861400000.0 -765688000000.0 -424957000000.0 -316243000000.0 -933018000000.0 -475700000000.0 -142478000000.0 -670208000000.0 -283825000000.0 -30918900000.0 -45481900000.0 -208826000000.0 -118848000000.0 -43421200000.0 -296034000000.0 -55911100000.0 -493331000000.0 -82856100000.0 -113380000000.0 -1.89479e+12 -12549700000.0 -453534000000.0 -413154000000.0 -1.78763e+12 -496042000000.0 -697279000000.0 -959895000000.0 -772582000000.0 -139276000000.0 -1.16618e+12 -875804000000.0 -429620000000.0 -629799000000.0 -305369000000.0 -194627000000.0 -508478000000.0 -402579000000.0 -140248000000.0 -335237000000.0 -26108600000.0 -487521000000.0 -41361000000.0 -35075100000.0 -67360500000.0 -170723000000.0 -75045800000.0 -193936000000.0 -22233100000.0 -71762600000.0 -293617000000.0 -765262000000.0 -27636900000.0 -94141800000.0 -44112800000.0 -91572200000.0 -580045000000.0 -338094000000.0 -594861000000.0 -944882000000.0 -252122000000.0 -230883000000.0 -256434000000.0 -272333000000.0 -288433000000.0 -1.14469e+12 -17332100000.0 -82514800000.0 -832203000000.0 -1.62449e+12 -1.15344e+12 -302299000000.0 -940427000000.0 -992382000000.0 -834201000000.0 -591488000000.0 -611732000000.0 -413660000000.0 -253076000000.0 -300419000000.0 -241694000000.0 -263671000000.0 -503949000000.0 -239344000000.0 -187571000000.0 -357300000000.0 -183265000000.0 -240291000000.0 -369756000000.0 -40743900000.0 -12549600000.0 -12549700000.0 -164381000000.0 -63438500000.0 -12549700000.0 -37785800000.0 -48928800000.0 -14078400000.0 -97192300000.0 -25633700000.0 -501842000000.0 -821404000000.0 -12549600000.0 -102705000000.0 -109897000000.0 -690877000000.0 -29790200000.0 -483868000000.0 -673783000000.0 -277269000000.0 -502477000000.0 -370199000000.0 -538137000000.0 -508534000000.0 -512052000000.0 -686435000000.0 -582543000000.0 -1.03519e+12 -829329000000.0 -914680000000.0 -1.1686e+12 -624327000000.0 -450367000000.0 -603244000000.0 -2.97849e+12 -932143000000.0 -695462000000.0 -1.59618e+12 -725329000000.0 -1.45436e+12 -20917000000.0 -531490000000.0 -138399000000.0 -432164000000.0 -66274900000.0 -44317500000.0 -238947000000.0 -131041000000.0 -25426000000.0 -92034300000.0 -154377000000.0 -692478000000.0 -40613400000.0 -45739100000.0 -12550700000.0 -12532800000.0 -320558000000.0 -274822000000.0 -54045500000.0 -254911000000.0 -12500500000.0 -1.26312e+12 -12549500000.0 -24349200000.0 -12549700000.0 -66334200000.0 -316463000000.0 -12549100000.0 -504716000000.0 -758859000000.0 -86657100000.0 -12549700000.0 -35109400000.0 -12549700000.0 -12549700000.0 -964494000000.0 -317280000000.0 -389835000000.0 -1.10672e+12 -316835000000.0 -622316000000.0 -459813000000.0 -126372000000.0 -337439000000.0 -710068000000.0 -477030000000.0 -649700000000.0 -550830000000.0 -265102000000.0 -275721000000.0 -209547000000.0 -215926000000.0 -400580000000.0 -220405000000.0 -156938000000.0 -307742000000.0 -158488000000.0 -101513000000.0 -126171000000.0 -371572000000.0 -217922000000.0 -163056000000.0 -234289000000.0 -197654000000.0 -28917700000.0 -118493000000.0 -72333600000.0 -34174900000.0 -195900000000.0 -93566400000.0 -533894000000.0 -865281000000.0 -333671000000.0 -411258000000.0 -697280000000.0 -584486000000.0 -393764000000.0 -34847500000.0 -951622000000.0 -52953000000.0 -155386000000.0 -69718700000.0 -305617000000.0 -167708000000.0 -319689000000.0 -319615000000.0 -207646000000.0 -374082000000.0 -33874000000.0 -841364000000.0 -849943000000.0 -12544000000.0 -568564000000.0 -151296000000.0 -1.9096e+12 -573176000000.0 -61199300000.0 -962239000000.0 -537548000000.0 -1.13228e+12 -383550000000.0 -797237000000.0 -237654000000.0 -179077000000.0 -353504000000.0 -258101000000.0 -469459000000.0 -370114000000.0 -290520000000.0 -228620000000.0 -225990000000.0 -713639000000.0 -376645000000.0 -234802000000.0 -120348000000.0 -128147000000.0 -537520000000.0 -569663000000.0 -219580000000.0 -439532000000.0 -170341000000.0 -1.51985e+12 -215941000000.0 -248002000000.0 -300963000000.0 -364549000000.0 -568707000000.0 -357563000000.0 -345424000000.0 -1.4603e+12 -279157000000.0 -122398000000.0 -100365000000.0 -149443000000.0 -145545000000.0 -767082000000.0 -40808800000.0 -148414000000.0 -413393000000.0 -131581000000.0 -662442000000.0 -739190000000.0 -573123000000.0 -1.00772e+12 -271276000000.0 -193481000000.0 -438694000000.0 -313025000000.0 -24607400000.0 -12549700000.0 -12549700000.0 -12549700000.0 -151265000000.0 -56819500000.0 -22578900000.0 -109042000000.0 -28594900000.0 -22375700000.0 -23232000000.0 -337566000000.0 -16431400000.0 -12549700000.0 -42413100000.0 -207354000000.0 -55894000000.0 -279229000000.0 -102602000000.0 -249881000000.0 -836093000000.0 -672768000000.0 -1.50424e+12 -407777000000.0 -322423000000.0 -402130000000.0 -545136000000.0 -637769000000.0 -239501000000.0 -73306700000.0 -1.33643e+12 -257821000000.0 -267910000000.0 -164965000000.0 -293623000000.0 -45177900000.0 -515712000000.0 -402143000000.0 -243939000000.0 -513569000000.0 -154057000000.0 -785911000000.0 -1.31121e+12 -707255000000.0 -329900000000.0 -273710000000.0 -1.7417e+12 -18168100000.0 -479251000000.0 -1.17245e+12 -544272000000.0 -721733000000.0 -93991800000.0 -701222000000.0 -20462000000.0 -189765000000.0 -117496000000.0 -12549300000.0 -372389000000.0 -447074000000.0 -215607000000.0 -339242000000.0 -376910000000.0 -1.25771e+12 -704896000000.0 -545666000000.0 -609506000000.0 -494871000000.0 -1.14181e+12 -337375000000.0 -21537900000.0 -368494000000.0 -12549200000.0 -1.26261e+12 -12549600000.0 -52716300000.0 -157188000000.0 -215908000000.0 -645114000000.0 -23369500000.0 -262450000000.0 -1.09294e+12 -431614000000.0 -442913000000.0 -280350000000.0 -232339000000.0 -440654000000.0 -918819000000.0 -66561600000.0 -70964000000.0 -454108000000.0 -128440000000.0 -683506000000.0 -458102000000.0 -141912000000.0 -425075000000.0 -85110600000.0 -12549500000.0 -382745000000.0 -350439000000.0 -96609400000.0 -65850700000.0 -31785100000.0 -12549700000.0 -83698700000.0 -27823500000.0 -35311300000.0 -38005400000.0 -16598600000.0 -26636000000.0 -63632400000.0 -450485000000.0 -17204700000.0 -64377900000.0 -42336000000.0 -247700000000.0 -33598600000.0 -543790000000.0 -447183000000.0 -499686000000.0 -532519000000.0 -166676000000.0 -1.23436e+12 -347485000000.0 -264591000000.0 -493601000000.0 -833942000000.0 -1.13756e+12 -335616000000.0 -330399000000.0 -1.81016e+12 -345695000000.0 -541156000000.0 -109149000000.0 -461855000000.0 -526203000000.0 -279682000000.0 -850685000000.0 -503262000000.0 -692369000000.0 -394795000000.0 -668976000000.0 -1.07851e+12 -455600000000.0 -405258000000.0 -1.40844e+12 -661762000000.0 -566093000000.0 -569491000000.0 -1.44549e+12 -465840000000.0 -1.19649e+12 -687046000000.0 -230261000000.0 -469400000000.0 -572538000000.0 -411591000000.0 -485571000000.0 -490571000000.0 -552293000000.0 -450314000000.0 -518481000000.0 -519982000000.0 -807551000000.0 -611402000000.0 -350029000000.0 -634725000000.0 -242990000000.0 -1.03844e+12 -462649000000.0 -488473000000.0 -836264000000.0 -776999000000.0 -1.80281e+12 -486353000000.0 -355801000000.0 -239806000000.0 -347846000000.0 -932002000000.0 -147213000000.0 -271614000000.0 -822848000000.0 -14985000000.0 -344887000000.0 -362841000000.0 -761918000000.0 -370461000000.0 -1.2079e+12 -616070000000.0 -957236000000.0 -1.11277e+12 -992043000000.0 -61375400000.0 -374009000000.0 -384278000000.0 -22754300000.0 -31728700000.0 -249529000000.0 -42291400000.0 -153403000000.0 -22757900000.0 -157400000000.0 -16564500000.0 -422050000000.0 -388776000000.0 -225063000000.0 -282597000000.0 -13889200000.0 -67891500000.0 -12549700000.0 -41119300000.0 -12549700000.0 -21853200000.0 -12549600000.0 -12549700000.0 -37397500000.0 -17647000000.0 -13149200000.0 -29133400000.0 -59117800000.0 -94598000000.0 -16387900000.0 -25768400000.0 -16715200000.0 -73566700000.0 -39859600000.0 -12549500000.0 -148397000000.0 -197651000000.0 -605357000000.0 -418742000000.0 -223395000000.0 -12549700000.0 -276147000000.0 -12549700000.0 -314827000000.0 -22374200000.0 -543828000000.0 -405374000000.0 -584985000000.0 -317679000000.0 -283035000000.0 -309500000000.0 -64971400000.0 -84622300000.0 -333573000000.0 -339136000000.0 -265688000000.0 -476243000000.0 -999113000000.0 -130395000000.0 -1.42922e+12 -1.08106e+12 -554173000000.0 -358990000000.0 -536033000000.0 -252548000000.0 -277287000000.0 -351613000000.0 -465844000000.0 -667949000000.0 -1.00285e+12 -927567000000.0 -898961000000.0 -129940000000.0 -837879000000.0 -115816000000.0 -1.31984e+12 -515945000000.0 -130637000000.0 -1.14347e+12 -760913000000.0 -19541500000.0 -1.45051e+12 -89257300000.0 -1.35104e+12 -687238000000.0 -1.22197e+12 -69471600000.0 -1.02352e+12 -644524000000.0 -605132000000.0 -400203000000.0 -400102000000.0 -159126000000.0 -535555000000.0 -446642000000.0 -54775700000.0 -101201000000.0 -322193000000.0 -368998000000.0 -917597000000.0 -1.05065e+12 -324124000000.0 -1.06126e+12 -293085000000.0 -1.05746e+12 -1.35386e+12 -493982000000.0 -868353000000.0 -1.21449e+12 -796561000000.0 -12546600000.0 -318061000000.0 -818787000000.0 -701072000000.0 -86076100000.0 -382465000000.0 -207808000000.0 -643354000000.0 -600174000000.0 -655882000000.0 -647003000000.0 -82813600000.0 -47261000000.0 -12550600000.0 -12549700000.0 -217544000000.0 -249869000000.0 -25205100000.0 -272582000000.0 -290133000000.0 -136255000000.0 -193625000000.0 -216684000000.0 -299265000000.0 -97439200000.0 -361111000000.0 -615591000000.0 -12549700000.0 -216278000000.0 -83723900000.0 -226498000000.0 -656681000000.0 -837250000000.0 -364322000000.0 -235032000000.0 -76073900000.0 -279623000000.0 -334938000000.0 -601718000000.0 -192938000000.0 -1.00714e+12 -732777000000.0 -948525000000.0 -19159300000.0 -587564000000.0 -177956000000.0 -565554000000.0 -551221000000.0 -341944000000.0 -476774000000.0 -277377000000.0 -1.27684e+12 -840635000000.0 -468144000000.0 -895853000000.0 -413026000000.0 -475621000000.0 -337618000000.0 -272678000000.0 -419654000000.0 -287865000000.0 -693783000000.0 -658603000000.0 -789309000000.0 -118372000000.0 -986914000000.0 -215492000000.0 -836254000000.0 -686011000000.0 -346454000000.0 -442041000000.0 -223609000000.0 -111266000000.0 -318532000000.0 -364480000000.0 -239718000000.0 -96530100000.0 -207296000000.0 -112126000000.0 -726948000000.0 -612347000000.0 -87307500000.0 -179243000000.0 -546832000000.0 -656220000000.0 -433439000000.0 -328710000000.0 -191306000000.0 -115260000000.0 -363216000000.0 -211427000000.0 -403120000000.0 -32699100000.0 -41083700000.0 -12549700000.0 -12549300000.0 -374160000000.0 -182707000000.0 -31215900000.0 -12549700000.0 -14595600000.0 -24521300000.0 -24976700000.0 -36056600000.0 -124702000000.0 -12549600000.0 -130499000000.0 -13380300000.0 -408418000000.0 -492368000000.0 -12549700000.0 -12549700000.0 -12549700000.0 -420999000000.0 -366264000000.0 -71866300000.0 -51829400000.0 -290356000000.0 -225770000000.0 -490117000000.0 -908993000000.0 -628106000000.0 -400517000000.0 -135436000000.0 -446334000000.0 -791905000000.0 -167560000000.0 -199238000000.0 -844571000000.0 -1.07139e+12 -612378000000.0 -647697000000.0 -696819000000.0 -576153000000.0 -976758000000.0 -677737000000.0 -444575000000.0 -734302000000.0 -393834000000.0 -874261000000.0 -906850000000.0 -353948000000.0 -411045000000.0 -12546100000.0 -1.07462e+12 -470169000000.0 -312755000000.0 -26240500000.0 -56700700000.0 -841424000000.0 -500484000000.0 -455252000000.0 -465256000000.0 -555358000000.0 -624423000000.0 -348096000000.0 -355838000000.0 -503272000000.0 -954107000000.0 -474857000000.0 -375276000000.0 -922795000000.0 -437358000000.0 -856039000000.0 -414776000000.0 -717867000000.0 -762868000000.0 -31250000000.0 -61046400000.0 -37313100000.0 -218170000000.0 -644315000000.0 -494047000000.0 -74403500000.0 -134244000000.0 -181351000000.0 -582511000000.0 -308390000000.0 -783791000000.0 -838031000000.0 -384455000000.0 -549717000000.0 -895211000000.0 -860410000000.0 -804277000000.0 -763636000000.0 -412261000000.0 -1.01628e+12 -748546000000.0 -129474000000.0 -145344000000.0 -531551000000.0 -326691000000.0 -324456000000.0 -300765000000.0 -291311000000.0 -718625000000.0 -383933000000.0 -230005000000.0 -235030000000.0 -240275000000.0 -227846000000.0 -219264000000.0 -249381000000.0 -242578000000.0 -421229000000.0 -713071000000.0 -418711000000.0 -178660000000.0 -417053000000.0 -241727000000.0 -207757000000.0 -190865000000.0 -457118000000.0 -229415000000.0 -82527300000.0 -191519000000.0 -5352890000.0 -12923500000.0 -848625000000.0 -381082000000.0 -352713000000.0 -154723000000.0 -95038700000.0 -262112000000.0 -179850000000.0 -323861000000.0 -220461000000.0 -505595000000.0 -491594000000.0 -308724000000.0 -538429000000.0 -493771000000.0 -443769000000.0 -642438000000.0 -395997000000.0 -362435000000.0 -740123000000.0 -272710000000.0 -1.05741e+12 -874400000000.0 -717713000000.0 -933726000000.0 -122784000000.0 -1.12788e+12 -540198000000.0 -449305000000.0 -316641000000.0 -862756000000.0 -42595600000.0 -321920000000.0 -17422200000.0 -92972900000.0 -204992000000.0 -548445000000.0 -176997000000.0 -38665200000.0 -30350700000.0 -640059000000.0 -216643000000.0 -290632000000.0 -492234000000.0 -855871000000.0 -964328000000.0 -414472000000.0 -186426000000.0 -685235000000.0 -26812000000.0 -12549400000.0 -22921500000.0 -124580000000.0 -443496000000.0 -392355000000.0 -512091000000.0 -402734000000.0 -416535000000.0 -774876000000.0 -394905000000.0 -152674000000.0 -285317000000.0 -221775000000.0 -251685000000.0 -263992000000.0 -82279100000.0 -67622700000.0 -76812300000.0 -909996000000.0 -937905000000.0 -419030000000.0 -1.2845e+12 -679011000000.0 -105081000000.0 -183523000000.0 -31873600000.0 -33566300000.0 -15728400000.0 -420188000000.0 -68618000000.0 -22024700000.0 -18492300000.0 -14705100000.0 -12569500000.0 -12549600000.0 -75054800000.0 -12549700000.0 -12545000000.0 -336504000000.0 -917531000000.0 -176862000000.0 -467317000000.0 -23396000000.0 -12549700000.0 -12549700000.0 -387321000000.0 -73466200000.0 -102767000000.0 -217469000000.0 -149642000000.0 -205562000000.0 -822976000000.0 -624061000000.0 -134904000000.0 -51188800000.0 -12549700000.0 -238906000000.0 -149032000000.0 -160616000000.0 -12547500000.0 -467210000000.0 -459936000000.0 -360019000000.0 -658235000000.0 -317194000000.0 -486613000000.0 -578337000000.0 -265711000000.0 -27055400000.0 -600829000000.0 -447409000000.0 -112499000000.0 -1.16292e+12 -446374000000.0 -20135700000.0 -672091000000.0 -1.16885e+12 -12549600000.0 -172433000000.0 -145672000000.0 -587399000000.0 -29239600000.0 -322699000000.0 -96088800000.0 -91634900000.0 -251289000000.0 -565126000000.0 -35771000000.0 -82486900000.0 -101471000000.0 -602149000000.0 -28820200000.0 -12549700000.0 -239621000000.0 -589949000000.0 -1.25612e+12 -590296000000.0 -512235000000.0 -443118000000.0 -946324000000.0 -695965000000.0 -323155000000.0 -467177000000.0 -31224700000.0 -124551000000.0 -93478000000.0 -23617000000.0 -22130200000.0 -499326000000.0 -115021000000.0 -81555700000.0 -171343000000.0 -88265900000.0 -47765200000.0 -262197000000.0 -15955600000.0 -24826300000.0 -49160900000.0 -405066000000.0 -421053000000.0 -38727200000.0 -391437000000.0 -258752000000.0 -101185000000.0 -117528000000.0 -88544900000.0 -47767200000.0 -111473000000.0 -273067000000.0 -23097000000.0 -12549600000.0 -25630500000.0 -58941800000.0 -122891000000.0 -169863000000.0 -246948000000.0 -296983000000.0 -425898000000.0 -12549700000.0 -12549700000.0 -1.02731e+12 -898414000000.0 -472404000000.0 -309135000000.0 -259131000000.0 -130477000000.0 -10867700000.0 -24859500000.0 -120864000000.0 -78481300000.0 -124631000000.0 -809781000000.0 -664288000000.0 -73328500000.0 -12549600000.0 -12549600000.0 -157283000000.0 -169439000000.0 -147455000000.0 -130235000000.0 -167598000000.0 -174876000000.0 -50635700000.0 -228417000000.0 -190864000000.0 -173976000000.0 -1.58152e+12 -1.17504e+12 -1.38662e+12 -1.11318e+12 -1.01898e+12 -807775000000.0 -1.67673e+12 -1.16947e+12 -1.33716e+12 -1.48841e+12 -1.78401e+12 -759978000000.0 -485889000000.0 -477657000000.0 -985656000000.0 -72400400000.0 -316935000000.0 -87190800000.0 -34791700000.0 -298745000000.0 -468484000000.0 -52706400000.0 -34276000000.0 -48950100000.0 -902370000000.0 -27324400000.0 -19181700000.0 -41064300000.0 -1.43648e+12 -516064000000.0 -156508000000.0 -72849600000.0 -289229000000.0 -357683000000.0 -12549600000.0 -511320000000.0 -551001000000.0 -160623000000.0 -266563000000.0 -175969000000.0 -165566000000.0 -198353000000.0 -347580000000.0 -302724000000.0 -174840000000.0 -246257000000.0 -249031000000.0 -175871000000.0 -167182000000.0 -20022500000.0 -42862300000.0 -12549700000.0 -498184000000.0 -655451000000.0 -270684000000.0 -546766000000.0 -258649000000.0 -108479000000.0 -29954900000.0 -84877200000.0 -56540200000.0 -150165000000.0 -100317000000.0 -183392000000.0 -186082000000.0 -239549000000.0 -266955000000.0 -312678000000.0 -302837000000.0 -322521000000.0 -346353000000.0 -441447000000.0 -623812000000.0 -646732000000.0 -1.42135e+12 -850041000000.0 -72478300000.0 -21887900000.0 -346854000000.0 -116382000000.0 -56481400000.0 -32098800000.0 -76790800000.0 -14628200000.0 -75701300000.0 -509907000000.0 -670950000000.0 -180509000000.0 -30115700000.0 -12543000000.0 -90485600000.0 -145529000000.0 -43080500000.0 -86419500000.0 -135811000000.0 -397927000000.0 -532327000000.0 -607628000000.0 -527758000000.0 -1.19837e+12 -85915100000.0 -178061000000.0 -18902300000.0 -764733000000.0 -687993000000.0 -337258000000.0 -1.04451e+12 -41572100000.0 -585313000000.0 -65008900000.0 -463033000000.0 -564794000000.0 -22801100000.0 -68248400000.0 -179120000000.0 -1.087e+12 -941657000000.0 -296025000000.0 -268155000000.0 -598001000000.0 -625104000000.0 -209733000000.0 -374346000000.0 -607349000000.0 -22656500000.0 -768105000000.0 -297959000000.0 -1.02545e+12 -510956000000.0 -771038000000.0 -248427000000.0 -406104000000.0 -23505800000.0 -289695000000.0 -221521000000.0 -385244000000.0 -499825000000.0 -12549700000.0 -145938000000.0 -35064700000.0 -40168300000.0 -41538600000.0 -270160000000.0 -220058000000.0 -89232100000.0 -85524200000.0 -12549700000.0 -329275000000.0 -182529000000.0 -99073500000.0 -138583000000.0 -192147000000.0 -459508000000.0 -513405000000.0 -39719700000.0 -639872000000.0 -457492000000.0 -138574000000.0 -73160200000.0 -15117100000.0 -17970200000.0 -299380000000.0 -169460000000.0 -172161000000.0 -32694700000.0 -12549700000.0 -12549700000.0 -68589100000.0 -34015900000.0 -32244300000.0 -85898400000.0 -49886200000.0 -12549600000.0 -49732000000.0 -257429000000.0 -1.23033e+12 -903554000000.0 -459117000000.0 -757940000000.0 -356098000000.0 -333498000000.0 -357690000000.0 -412307000000.0 -271778000000.0 -213579000000.0 -439923000000.0 -894946000000.0 -476411000000.0 -121383000000.0 -40948300000.0 -14453400000.0 -213576000000.0 -34782500000.0 -78835600000.0 -394757000000.0 -96169300000.0 -135332000000.0 -374719000000.0 -165099000000.0 -820578000000.0 -254188000000.0 -281072000000.0 -447782000000.0 -934834000000.0 -743810000000.0 -354693000000.0 -1.35764e+12 -826604000000.0 -589537000000.0 -569546000000.0 -575772000000.0 -524078000000.0 -868653000000.0 -771757000000.0 -89673600000.0 -549273000000.0 -191236000000.0 -611096000000.0 -359279000000.0 -654500000000.0 -345298000000.0 -15740400000.0 -136860000000.0 -419331000000.0 -118055000000.0 -228727000000.0 -709211000000.0 -1.45511e+12 -1.20309e+12 -766568000000.0 -910366000000.0 -1.01906e+12 -951682000000.0 -963236000000.0 -744912000000.0 -952402000000.0 -962658000000.0 -802778000000.0 -558130000000.0 -525178000000.0 -449815000000.0 -373152000000.0 -581966000000.0 -482586000000.0 -45164700000.0 -162258000000.0 -86655800000.0 -534725000000.0 -495598000000.0 -352828000000.0 -424644000000.0 -456828000000.0 -821299000000.0 -775193000000.0 -294778000000.0 -920817000000.0 -535067000000.0 -435818000000.0 -786516000000.0 -762409000000.0 -597834000000.0 -191625000000.0 -152376000000.0 -239985000000.0 -50775300000.0 -12549400000.0 -14878600000.0 -82458200000.0 -26890600000.0 -173195000000.0 -145716000000.0 -124696000000.0 -80154500000.0 -83844400000.0 -512656000000.0 -1.09082e+12 -768400000000.0 -213453000000.0 -777436000000.0 -20559000000.0 -12555600000.0 -155586000000.0 -317485000000.0 -181084000000.0 -195311000000.0 -489939000000.0 -608253000000.0 -299584000000.0 -47721200000.0 -25015100000.0 -37008100000.0 -219149000000.0 -22197800000.0 -52842600000.0 -214416000000.0 -19484200000.0 -12549700000.0 -259330000000.0 -91719400000.0 -625129000000.0 -84843200000.0 -12549700000.0 -12579500000.0 -766256000000.0 -658234000000.0 -358857000000.0 -618994000000.0 -300812000000.0 -448215000000.0 -12549700000.0 -268027000000.0 -30720200000.0 -117595000000.0 -12549300000.0 -656985000000.0 -718064000000.0 -394387000000.0 -559588000000.0 -210998000000.0 -330001000000.0 -848009000000.0 -157256000000.0 -256115000000.0 -757379000000.0 -338257000000.0 -397212000000.0 -827293000000.0 -405119000000.0 -680222000000.0 -186860000000.0 -405839000000.0 -329868000000.0 -108769000000.0 -790796000000.0 -315616000000.0 -686035000000.0 -696656000000.0 -406847000000.0 -794573000000.0 -582678000000.0 -594145000000.0 -585841000000.0 -730952000000.0 -734285000000.0 -914612000000.0 -868296000000.0 -646447000000.0 -695864000000.0 -656619000000.0 -581864000000.0 -543866000000.0 -788571000000.0 -1.43823e+12 -863960000000.0 -1.57942e+12 -1.83465e+12 -1.17237e+12 -12549700000.0 -130336000000.0 -12539400000.0 -390215000000.0 -120167000000.0 -56680000000.0 -228661000000.0 -12549700000.0 -12549700000.0 -15735800000.0 -85656100000.0 -41520700000.0 -476624000000.0 -116481000000.0 -142786000000.0 -166918000000.0 -338338000000.0 -448120000000.0 -1.34553e+12 -1.2027e+12 -386854000000.0 -1.06672e+12 -299292000000.0 -331816000000.0 -358861000000.0 -12549700000.0 -19713500000.0 -95490600000.0 -529146000000.0 -875052000000.0 -630515000000.0 -291144000000.0 -254996000000.0 -282072000000.0 -296829000000.0 -86030800000.0 -102371000000.0 -114399000000.0 -51127000000.0 -64111400000.0 -178671000000.0 -100377000000.0 -729691000000.0 -270938000000.0 -245375000000.0 -300266000000.0 -611719000000.0 -765305000000.0 -441246000000.0 -774396000000.0 -699058000000.0 -625501000000.0 -521350000000.0 -744965000000.0 -19170600000.0 -199191000000.0 -74757100000.0 -555554000000.0 -637551000000.0 -346198000000.0 -479930000000.0 -12549700000.0 -328563000000.0 -822507000000.0 -277663000000.0 -415747000000.0 -875312000000.0 -22861200000.0 -105020000000.0 -713790000000.0 -703914000000.0 -1.0045e+12 -851987000000.0 -438840000000.0 -324953000000.0 -431171000000.0 -1.14286e+12 -254929000000.0 -1.11536e+12 -317175000000.0 -261547000000.0 -269456000000.0 -119781000000.0 -397726000000.0 -181829000000.0 -208953000000.0 -362658000000.0 -196718000000.0 -495760000000.0 -415928000000.0 -122164000000.0 -111637000000.0 -154483000000.0 -138787000000.0 -69358700000.0 -985334000000.0 -663088000000.0 -686603000000.0 -979607000000.0 -755718000000.0 -57958100000.0 -199199000000.0 -87428600000.0 -433587000000.0 -376877000000.0 -217014000000.0 -430422000000.0 -441221000000.0 -411698000000.0 -401296000000.0 -446303000000.0 -433232000000.0 -861992000000.0 -172822000000.0 -221364000000.0 -156891000000.0 -284567000000.0 -598070000000.0 -1.57004e+12 -445777000000.0 -853998000000.0 -886791000000.0 -442840000000.0 -257616000000.0 -530672000000.0 -115165000000.0 -102438000000.0 -154141000000.0 -513215000000.0 -448082000000.0 -335053000000.0 -88332600000.0 -105340000000.0 -90545500000.0 -497999000000.0 -67046700000.0 -145411000000.0 -56302400000.0 -31952600000.0 -18531300000.0 -109852000000.0 -157515000000.0 -577508000000.0 -77309300000.0 -58984600000.0 -76404700000.0 -405301000000.0 -565667000000.0 -267363000000.0 -655612000000.0 -364401000000.0 -828831000000.0 -591380000000.0 -781878000000.0 -1.37247e+12 -666710000000.0 -978271000000.0 -1.26119e+12 -1.26869e+12 -935683000000.0 -913065000000.0 -641467000000.0 -803327000000.0 -1.24617e+12 -402539000000.0 -679001000000.0 -808186000000.0 -1.15313e+12 -1.03216e+12 -1.54396e+12 -1.2871e+12 -1.55077e+12 -738624000000.0 -686513000000.0 -454461000000.0 -777016000000.0 -779929000000.0 -1.61861e+12 -1.84555e+12 -535103000000.0 -316164000000.0 -449653000000.0 -333107000000.0 -317842000000.0 -141863000000.0 -132763000000.0 -204429000000.0 -32659800000.0 -199974000000.0 -283814000000.0 -139468000000.0 -262115000000.0 -330946000000.0 -378579000000.0 -577725000000.0 -1.15504e+12 -902759000000.0 -928908000000.0 -2.04455e+12 -468057000000.0 -37400200000.0 -164801000000.0 -221082000000.0 -461691000000.0 -461951000000.0 -324749000000.0 -865569000000.0 -12549700000.0 -28611000000.0 -12549700000.0 -82793600000.0 -26129900000.0 -466874000000.0 -817492000000.0 -601191000000.0 -710905000000.0 -909809000000.0 -290547000000.0 -1.84909e+12 -573262000000.0 -610164000000.0 -1.06211e+12 -650873000000.0 -403547000000.0 -815416000000.0 -119922000000.0 -40039400000.0 -48909700000.0 -613204000000.0 -292641000000.0 -429055000000.0 -12549700000.0 -108576000000.0 -13158700000.0 -443165000000.0 -133685000000.0 -275535000000.0 -12549700000.0 -12549700000.0 -28870700000.0 -112038000000.0 -250529000000.0 -377504000000.0 -156134000000.0 -199131000000.0 -221241000000.0 -497714000000.0 -502309000000.0 -173620000000.0 -377407000000.0 -34806400000.0 -354843000000.0 -12548700000.0 -338649000000.0 -73965000000.0 -1.13293e+12 -253793000000.0 -384536000000.0 -517512000000.0 -148191000000.0 -644699000000.0 -333861000000.0 -384935000000.0 -1.19402e+12 -437208000000.0 -60886300000.0 -442436000000.0 -832723000000.0 -432647000000.0 -1.50293e+12 -844773000000.0 -1.80017e+12 -1.3508e+12 -1.05597e+12 -863898000000.0 -752769000000.0 -308032000000.0 -647651000000.0 -1.2038e+12 -80229100000.0 -226310000000.0 -134900000000.0 -173179000000.0 -273880000000.0 -195056000000.0 -94493000000.0 -167291000000.0 -12425400000.0 -129103000000.0 -224903000000.0 -445289000000.0 -147472000000.0 -135032000000.0 -185799000000.0 -249361000000.0 -674521000000.0 -119586000000.0 -116281000000.0 -1.49895e+12 -212776000000.0 -99773100000.0 -94003600000.0 -256214000000.0 -895202000000.0 -483119000000.0 -316567000000.0 -1.44938e+12 -12539600000.0 -66167500000.0 -12463700000.0 -113580000000.0 -474872000000.0 -86669700000.0 -385889000000.0 -127830000000.0 -251130000000.0 -393041000000.0 -212231000000.0 -1.73572e+12 -451898000000.0 -108536000000.0 -906521000000.0 -569061000000.0 -382128000000.0 -420569000000.0 -426776000000.0 -288594000000.0 -293583000000.0 -1.12228e+12 -811189000000.0 -1.0144e+12 -474596000000.0 -574332000000.0 -520416000000.0 -760693000000.0 -541827000000.0 -648601000000.0 -461267000000.0 -414142000000.0 -456414000000.0 -639824000000.0 -464873000000.0 -785953000000.0 -565870000000.0 -521104000000.0 -474202000000.0 -716922000000.0 -828586000000.0 -599191000000.0 -278646000000.0 -246574000000.0 -657713000000.0 -338544000000.0 -246779000000.0 -232952000000.0 -1.01998e+12 -435576000000.0 -519188000000.0 -544151000000.0 -274773000000.0 -720345000000.0 -234876000000.0 -291588000000.0 -165199000000.0 -544117000000.0 -345731000000.0 -550487000000.0 -854286000000.0 -1.2565e+12 -503984000000.0 -359024000000.0 -635060000000.0 -89124700000.0 -508344000000.0 -336362000000.0 -614161000000.0 -323540000000.0 -593376000000.0 -1.07888e+12 -361878000000.0 -265960000000.0 -232748000000.0 -423894000000.0 -324489000000.0 -354890000000.0 -265951000000.0 -363565000000.0 -223761000000.0 -260185000000.0 -524286000000.0 -539529000000.0 -277072000000.0 -91923800000.0 -55667600000.0 -23347100000.0 -614661000000.0 -318320000000.0 -339606000000.0 -1.62533e+12 -297963000000.0 -496761000000.0 -841436000000.0 -776505000000.0 -1.53434e+12 -856835000000.0 -540620000000.0 -1.95137e+12 -559403000000.0 -426169000000.0 -454822000000.0 -795613000000.0 -231193000000.0 -406185000000.0 -540404000000.0 -372743000000.0 -483115000000.0 -762060000000.0 -513424000000.0 -1.34393e+12 -860530000000.0 -853193000000.0 -1.61592e+12 -742109000000.0 -1.04692e+12 -1.24532e+12 -1.07228e+12 -1.31165e+12 -1.39604e+12 -1.09518e+12 -672241000000.0 -555461000000.0 -780443000000.0 -814741000000.0 -646782000000.0 -837116000000.0 -466094000000.0 -601534000000.0 -502692000000.0 -543275000000.0 -607349000000.0 -83698100000.0 -412310000000.0 -323398000000.0 -20904700000.0 -12549700000.0 -53856800000.0 -209622000000.0 -334586000000.0 -59378300000.0 -218276000000.0 -116045000000.0 -269245000000.0 -381581000000.0 -193345000000.0 -420689000000.0 -892269000000.0 -21570700000.0 -217670000000.0 -265243000000.0 -56750800000.0 -390096000000.0 -47634200000.0 -12549700000.0 -268766000000.0 -335509000000.0 -34248200000.0 -872429000000.0 -67155700000.0 -683771000000.0 -251473000000.0 -161552000000.0 -401573000000.0 -257923000000.0 -624601000000.0 -1.09471e+12 -440823000000.0 -540432000000.0 -486425000000.0 -473298000000.0 -38763800000.0 -219448000000.0 -199586000000.0 -493113000000.0 -665334000000.0 -80410300000.0 -121803000000.0 -138349000000.0 -94036600000.0 -200743000000.0 -159805000000.0 -767110000000.0 -176771000000.0 -131633000000.0 -60891400000.0 -52345100000.0 -499437000000.0 -33269100000.0 -29970300000.0 -1.48569e+12 -300389000000.0 -264184000000.0 -404280000000.0 -56497300000.0 -321068000000.0 -1.68582e+12 -51862700000.0 -1.98738e+12 -868652000000.0 -293719000000.0 -364695000000.0 -448744000000.0 -12549700000.0 -283291000000.0 -123203000000.0 -47690800000.0 -209179000000.0 -140102000000.0 -33302900000.0 -1.21683e+12 -947495000000.0 -1.42274e+12 -429327000000.0 -374775000000.0 -183734000000.0 -362599000000.0 -301291000000.0 -565781000000.0 -232684000000.0 -281696000000.0 -190562000000.0 -194311000000.0 -65455100000.0 -254005000000.0 -183077000000.0 -191957000000.0 -41739000000.0 -182483000000.0 -54245900000.0 -100854000000.0 -12549700000.0 -236030000000.0 -330489000000.0 -330496000000.0 -12549700000.0 -12549700000.0 -81240000000.0 -364614000000.0 -360823000000.0 -20447900000.0 -124433000000.0 -20401200000.0 -293456000000.0 -326840000000.0 -363378000000.0 -94206600000.0 -707732000000.0 -51924800000.0 -546295000000.0 -467643000000.0 -201685000000.0 -646557000000.0 -289120000000.0 -239816000000.0 -519540000000.0 -400226000000.0 -272122000000.0 -998490000000.0 -117535000000.0 -564967000000.0 -416827000000.0 -317817000000.0 -583659000000.0 -422024000000.0 -1.04381e+12 -51951800000.0 -34300800000.0 -12549600000.0 -412676000000.0 -326409000000.0 -22860300000.0 -83650100000.0 -93501300000.0 -485488000000.0 -570732000000.0 -188927000000.0 -239043000000.0 -302842000000.0 -373064000000.0 -488606000000.0 -583558000000.0 -1.02169e+12 -233539000000.0 -246691000000.0 -392440000000.0 -351002000000.0 -1.01188e+12 -503627000000.0 -874843000000.0 -619155000000.0 -161510000000.0 -355002000000.0 -568586000000.0 -257266000000.0 -288323000000.0 -886621000000.0 -1.71534e+12 -2.80012e+12 -343502000000.0 -740125000000.0 -727586000000.0 -1.13048e+12 -537914000000.0 -360951000000.0 -245954000000.0 -176813000000.0 -376425000000.0 -435325000000.0 -464604000000.0 -661477000000.0 -755676000000.0 -1.28533e+12 -478904000000.0 -432616000000.0 -403605000000.0 -504695000000.0 -277952000000.0 -1.14059e+12 -857530000000.0 -963541000000.0 -394377000000.0 -730150000000.0 -553948000000.0 -552226000000.0 -501603000000.0 -440440000000.0 -278557000000.0 -152391000000.0 -177065000000.0 -128042000000.0 -62567200000.0 -110630000000.0 -147478000000.0 -278054000000.0 -117851000000.0 -136706000000.0 -383171000000.0 -83852900000.0 -341191000000.0 -169530000000.0 -324993000000.0 -189458000000.0 -508021000000.0 -303008000000.0 -391888000000.0 -73505200000.0 -161484000000.0 -1.06237e+12 -339827000000.0 -438983000000.0 -445774000000.0 -219971000000.0 -74309200000.0 -71123100000.0 -353433000000.0 -61823600000.0 -60606900000.0 -1.01743e+12 -317550000000.0 -878993000000.0 -465257000000.0 -634379000000.0 -37544600000.0 -105170000000.0 -577248000000.0 -44453300000.0 -12549700000.0 -18741200000.0 -369813000000.0 -309438000000.0 -169516000000.0 -135364000000.0 -101883000000.0 -462200000000.0 -610833000000.0 -12547300000.0 -12549700000.0 -18338800000.0 -24087300000.0 -100755000000.0 -349895000000.0 -835273000000.0 -250538000000.0 -239304000000.0 -530814000000.0 -418787000000.0 -331731000000.0 -63268800000.0 -506486000000.0 -399521000000.0 -40730400000.0 -926331000000.0 -915840000000.0 -962329000000.0 -2.18415e+12 -1.58154e+12 -976578000000.0 -3.06909e+12 -35061000000.0 -12549700000.0 -505820000000.0 -1.57527e+12 -630791000000.0 -740244000000.0 -469650000000.0 -420646000000.0 -426658000000.0 -834649000000.0 -920462000000.0 -1.64004e+12 -1.33487e+12 -1.55274e+12 -1.61943e+12 -1.46465e+12 -1.3936e+12 -1.61806e+12 -1.25784e+12 -272245000000.0 -231199000000.0 -507576000000.0 -634278000000.0 -928375000000.0 -608245000000.0 -634759000000.0 -737367000000.0 -150627000000.0 -134998000000.0 -143372000000.0 -155838000000.0 -56373300000.0 -31124700000.0 -24544400000.0 -99186000000.0 -176279000000.0 -23816400000.0 -16714800000.0 -341838000000.0 -128221000000.0 -310662000000.0 -120530000000.0 -214458000000.0 -235837000000.0 -344153000000.0 -497458000000.0 -738874000000.0 -392001000000.0 -800145000000.0 -96326900000.0 -91911300000.0 -154029000000.0 -90699800000.0 -422855000000.0 -198689000000.0 -150062000000.0 -495956000000.0 -225676000000.0 -442225000000.0 -517871000000.0 -34490900000.0 -660568000000.0 -258140000000.0 -600743000000.0 -201513000000.0 -235455000000.0 -498790000000.0 -74455200000.0 -75075900000.0 -97700400000.0 -393658000000.0 -325757000000.0 -27534300000.0 -34140000000.0 -12549700000.0 -611885000000.0 -794680000000.0 -304450000000.0 -303193000000.0 -341222000000.0 -395719000000.0 -291303000000.0 -554645000000.0 -874004000000.0 -32408200000.0 -12549700000.0 -356770000000.0 -128602000000.0 -155648000000.0 -131690000000.0 -514434000000.0 -251244000000.0 -12549700000.0 -1.65691e+12 -1.50109e+12 -1.46036e+12 -1.20525e+12 -702138000000.0 -761865000000.0 -818972000000.0 -2.12991e+12 -2.19405e+12 -1.80477e+12 -851137000000.0 -1.204e+12 -1.26108e+12 -1.27491e+12 -1.08874e+12 -1.15178e+12 -1.33205e+12 -949771000000.0 -371848000000.0 -657817000000.0 -1.16062e+12 -1.34024e+12 -451377000000.0 -500803000000.0 -540299000000.0 -2.1554e+12 -1.28527e+12 -1.0428e+12 -742775000000.0 -539487000000.0 -455202000000.0 -197931000000.0 -263573000000.0 -72643900000.0 -558306000000.0 -204981000000.0 -202957000000.0 -320596000000.0 -175023000000.0 -89396700000.0 -69731900000.0 -103820000000.0 -178047000000.0 -102471000000.0 -96346200000.0 -407592000000.0 -113529000000.0 -267543000000.0 -60737400000.0 -239579000000.0 -107995000000.0 -212551000000.0 -411439000000.0 -565285000000.0 -301337000000.0 -473609000000.0 -65390500000.0 -17392800000.0 -38078100000.0 -16967300000.0 -276328000000.0 -12549700000.0 -22906100000.0 -403919000000.0 -59863700000.0 -326319000000.0 -441166000000.0 -12549700000.0 -668530000000.0 -442954000000.0 -583641000000.0 -102553000000.0 -79832100000.0 -514784000000.0 -284837000000.0 -187657000000.0 -157017000000.0 -489319000000.0 -155371000000.0 -353861000000.0 -279930000000.0 -296719000000.0 -241180000000.0 -464887000000.0 -12549700000.0 -19022300000.0 -12549700000.0 -12549700000.0 -32659600000.0 -452541000000.0 -996680000000.0 -249161000000.0 -246423000000.0 -540079000000.0 -314064000000.0 -328104000000.0 -323859000000.0 -349139000000.0 -106827000000.0 -24552100000.0 -690613000000.0 -830802000000.0 -800631000000.0 -630930000000.0 -463116000000.0 -384717000000.0 -646194000000.0 -729578000000.0 -1.11248e+12 -30198900000.0 -449607000000.0 -45821200000.0 -42656500000.0 -148290000000.0 -12549700000.0 -12659100000.0 -655507000000.0 -419811000000.0 -415983000000.0 -437996000000.0 -868952000000.0 -598057000000.0 -134147000000.0 -20905900000.0 -365354000000.0 -1.21423e+12 -432122000000.0 -334127000000.0 -219137000000.0 -248028000000.0 -399920000000.0 -138325000000.0 -160653000000.0 -15966500000.0 -398738000000.0 -172157000000.0 -187886000000.0 -343969000000.0 -116141000000.0 -94127000000.0 -109609000000.0 -193886000000.0 -45188900000.0 -49564100000.0 -56719000000.0 -354826000000.0 -135660000000.0 -117649000000.0 -95385200000.0 -163640000000.0 -38846400000.0 -28554100000.0 -219857000000.0 -493506000000.0 -41135000000.0 -371141000000.0 -68763500000.0 -12549700000.0 -28652100000.0 -72837800000.0 -322667000000.0 -93123500000.0 -86231900000.0 -556182000000.0 -85541300000.0 -335274000000.0 -399727000000.0 -357710000000.0 -963678000000.0 -675880000000.0 -865180000000.0 -382112000000.0 -20741300000.0 -565098000000.0 -215866000000.0 -124550000000.0 -118201000000.0 -525760000000.0 -28420200000.0 -269580000000.0 -182871000000.0 -251144000000.0 -297658000000.0 -198638000000.0 -259729000000.0 -123391000000.0 -65568500000.0 -27905300000.0 -60850300000.0 -452416000000.0 -892894000000.0 -106060000000.0 -155662000000.0 -442476000000.0 -694547000000.0 -678236000000.0 -671438000000.0 -855339000000.0 -1.56925e+12 -760425000000.0 -367371000000.0 -354208000000.0 -429072000000.0 -585272000000.0 -12549700000.0 -165958000000.0 -638954000000.0 -946608000000.0 -563731000000.0 -190095000000.0 -288346000000.0 -145091000000.0 -235538000000.0 -384044000000.0 -192475000000.0 -417848000000.0 -271177000000.0 -199078000000.0 -142157000000.0 -142472000000.0 -807586000000.0 -733379000000.0 -908915000000.0 -888227000000.0 -773860000000.0 -1.27791e+12 -742510000000.0 -55653800000.0 -252296000000.0 -227007000000.0 -332861000000.0 -218493000000.0 -230661000000.0 -324517000000.0 -527649000000.0 -260033000000.0 -308198000000.0 -607784000000.0 -471225000000.0 -72723300000.0 -37002600000.0 -258280000000.0 -25606600000.0 -15167200000.0 -31371900000.0 -383137000000.0 -187245000000.0 -127672000000.0 -141126000000.0 -237658000000.0 -147222000000.0 -164522000000.0 -504499000000.0 -634209000000.0 -35131900000.0 -407003000000.0 -39721300000.0 -12549700000.0 -48089200000.0 -232219000000.0 -368098000000.0 -35388300000.0 -31261300000.0 -554213000000.0 -73191800000.0 -107534000000.0 -1.01779e+12 -484421000000.0 -1.48881e+12 -1.45345e+12 -1.70718e+12 -1.19823e+12 -1.01847e+12 -512274000000.0 -316092000000.0 -247749000000.0 -218966000000.0 -536889000000.0 -127349000000.0 -423325000000.0 -136359000000.0 -31031900000.0 -304014000000.0 -275141000000.0 -238504000000.0 -115135000000.0 -132889000000.0 -156347000000.0 -430984000000.0 -287517000000.0 -1.04911e+12 -189777000000.0 -207573000000.0 -622604000000.0 -12549500000.0 -46913200000.0 -89844400000.0 -344077000000.0 -17384300000.0 -14615000000.0 -290654000000.0 -272375000000.0 -366163000000.0 -357795000000.0 -21592900000.0 -96657700000.0 -725145000000.0 -537867000000.0 -512710000000.0 -19089000000.0 -161117000000.0 -24348600000.0 -92618000000.0 -127781000000.0 -315832000000.0 -484223000000.0 -695187000000.0 -635477000000.0 -592184000000.0 -520022000000.0 -955104000000.0 -433652000000.0 -218424000000.0 -40153500000.0 -120085000000.0 -1.95174e+12 -245544000000.0 -192543000000.0 -12185200000.0 -47931800000.0 -243023000000.0 -12545100000.0 -12549700000.0 -27766000000.0 -227013000000.0 -12549700000.0 -12549700000.0 -186921000000.0 -12637900000.0 -425073000000.0 -340694000000.0 -496256000000.0 -252636000000.0 -239748000000.0 -291268000000.0 -599269000000.0 -344712000000.0 -280392000000.0 -438268000000.0 -714618000000.0 -472662000000.0 -510397000000.0 -81859300000.0 -572948000000.0 -12527100000.0 -400972000000.0 -57270300000.0 -36311200000.0 -22008700000.0 -469655000000.0 -52967400000.0 -357196000000.0 -296851000000.0 -918615000000.0 -513728000000.0 -661755000000.0 -583910000000.0 -852877000000.0 -29295600000.0 -638425000000.0 -257222000000.0 -997833000000.0 -427216000000.0 -121387000000.0 -192296000000.0 -45714800000.0 -12549700000.0 -319892000000.0 -44679100000.0 -733620000000.0 -45884500000.0 -108995000000.0 -440318000000.0 -510551000000.0 -380048000000.0 -271887000000.0 -213346000000.0 -240406000000.0 -466294000000.0 -376742000000.0 -927181000000.0 -131989000000.0 -114182000000.0 -471802000000.0 -25069400000.0 -12549600000.0 -12549700000.0 -184232000000.0 -20263200000.0 -12549700000.0 -150079000000.0 -59071100000.0 -211731000000.0 -206207000000.0 -110952000000.0 -12557100000.0 -589371000000.0 -373096000000.0 -81604300000.0 -541249000000.0 -450827000000.0 -365364000000.0 -419833000000.0 -681447000000.0 -768319000000.0 -728251000000.0 -203328000000.0 -350857000000.0 -295960000000.0 -179987000000.0 -1.45492e+12 -1.01943e+12 -801205000000.0 -826949000000.0 -825943000000.0 -1.12695e+12 -1.30418e+12 -412326000000.0 -164311000000.0 -89719000000.0 -265465000000.0 -65443600000.0 -26566600000.0 -19662100000.0 -66623200000.0 -174956000000.0 -163115000000.0 -219272000000.0 -12594200000.0 -282005000000.0 -162029000000.0 -235304000000.0 -86892600000.0 -77966900000.0 -83087500000.0 -381922000000.0 -159592000000.0 -196596000000.0 -12549600000.0 -153826000000.0 -16849600000.0 -101676000000.0 -303146000000.0 -240716000000.0 -693773000000.0 -718816000000.0 -424041000000.0 -227468000000.0 -269729000000.0 -632764000000.0 -228969000000.0 -514295000000.0 -581846000000.0 -484646000000.0 -352963000000.0 -758598000000.0 -280448000000.0 -696265000000.0 -363787000000.0 -339272000000.0 -166312000000.0 -1.27016e+12 -894648000000.0 -719984000000.0 -684607000000.0 -720831000000.0 -766546000000.0 -987427000000.0 -866478000000.0 -469646000000.0 -840456000000.0 -1.16901e+12 -1.16715e+12 -1.18378e+12 -806406000000.0 -669743000000.0 -573712000000.0 -363118000000.0 -585455000000.0 -365934000000.0 -676608000000.0 -107576000000.0 -40325500000.0 -431258000000.0 -162726000000.0 -121688000000.0 -97955800000.0 -185066000000.0 -12549700000.0 -12549700000.0 -64489200000.0 -12549700000.0 -37452800000.0 -244946000000.0 -12549400000.0 -101984000000.0 -502632000000.0 -275594000000.0 -20586500000.0 -253718000000.0 -168349000000.0 -137688000000.0 -317377000000.0 -155211000000.0 -146175000000.0 -247921000000.0 -351118000000.0 -584988000000.0 -747064000000.0 -795169000000.0 -284404000000.0 -44817700000.0 -24277200000.0 -179196000000.0 -195160000000.0 -910181000000.0 -534326000000.0 -14417500000.0 -123714000000.0 -12549700000.0 -206465000000.0 -24360300000.0 -15054800000.0 -12549700000.0 -51911300000.0 -27461200000.0 -16325300000.0 -24034300000.0 -334637000000.0 -50007500000.0 -43615100000.0 -93115000000.0 -42553800000.0 -16627700000.0 -12545500000.0 -198003000000.0 -50383800000.0 -100936000000.0 -15532900000.0 -110876000000.0 -12545300000.0 -22725800000.0 -103519000000.0 -93156700000.0 -351727000000.0 -459142000000.0 -261275000000.0 -312554000000.0 -431379000000.0 -736493000000.0 -346786000000.0 -574762000000.0 -493833000000.0 -570187000000.0 -323355000000.0 -458459000000.0 -138255000000.0 -651443000000.0 -282104000000.0 -260485000000.0 -483084000000.0 -564266000000.0 -277970000000.0 -139899000000.0 -28695200000.0 -142047000000.0 -96318200000.0 -269017000000.0 -107857000000.0 -410124000000.0 -350242000000.0 -168726000000.0 -205173000000.0 -466413000000.0 -13190600000.0 -19240700000.0 -12549700000.0 -303681000000.0 -649638000000.0 -475791000000.0 -595101000000.0 -74062800000.0 -179210000000.0 -364218000000.0 -22355500000.0 -12549700000.0 -12549700000.0 -95687600000.0 -15024600000.0 -12549700000.0 -236526000000.0 -422700000000.0 -455056000000.0 -539969000000.0 -529183000000.0 -520255000000.0 -814206000000.0 -591197000000.0 -651771000000.0 -731727000000.0 -625711000000.0 -580768000000.0 -649018000000.0 -512628000000.0 -451967000000.0 -487154000000.0 -459010000000.0 -302354000000.0 -327021000000.0 -182666000000.0 -297577000000.0 -12547900000.0 -12549700000.0 -67683400000.0 -95304700000.0 -647396000000.0 -256369000000.0 -177630000000.0 -205524000000.0 -130463000000.0 -289704000000.0 -121242000000.0 -100319000000.0 -97607400000.0 -110161000000.0 -65745600000.0 -52583500000.0 -39228400000.0 -252835000000.0 -21608400000.0 -12549500000.0 -60521000000.0 -27109300000.0 -12549600000.0 -12549700000.0 -91524600000.0 -38929800000.0 -64882700000.0 -20040400000.0 -88850200000.0 -16727300000.0 -24897500000.0 -57935300000.0 -67805900000.0 -200554000000.0 -161885000000.0 -39260900000.0 -216544000000.0 -356548000000.0 -698091000000.0 -404288000000.0 -434382000000.0 -347057000000.0 -666691000000.0 -371011000000.0 -528201000000.0 -455480000000.0 -151649000000.0 -629394000000.0 -180402000000.0 -460001000000.0 -827571000000.0 -947267000000.0 -642756000000.0 -691794000000.0 -416310000000.0 -342016000000.0 -657089000000.0 -531936000000.0 -707778000000.0 -575371000000.0 -552950000000.0 -637449000000.0 -627930000000.0 -691368000000.0 -667230000000.0 -566491000000.0 -893958000000.0 -956434000000.0 -940814000000.0 -1.57525e+12 -992295000000.0 -645683000000.0 -868320000000.0 -164669000000.0 -108368000000.0 -185068000000.0 -58949900000.0 -80581900000.0 -12549700000.0 -12543000000.0 -13756400000.0 -53240400000.0 -39130800000.0 -145649000000.0 -66395900000.0 -218686000000.0 -261528000000.0 -103255000000.0 -118993000000.0 -213515000000.0 -121834000000.0 -122927000000.0 -100236000000.0 -99868900000.0 -95868500000.0 -128686000000.0 -104094000000.0 -88958600000.0 -250671000000.0 -169260000000.0 -255995000000.0 -204605000000.0 -235432000000.0 -219486000000.0 -144661000000.0 -318085000000.0 -99363700000.0 -101818000000.0 -88005400000.0 -198985000000.0 -100160000000.0 -84399000000.0 -95082400000.0 -85086200000.0 -62393300000.0 -65749100000.0 -71735200000.0 -247109000000.0 -29272000000.0 -25006500000.0 -42083200000.0 -13084200000.0 -12549700000.0 -12549700000.0 -34016400000.0 -28934400000.0 -42686500000.0 -33711600000.0 -53520900000.0 -42784900000.0 -12549700000.0 -12549600000.0 -139074000000.0 -31095300000.0 -42258300000.0 -13882300000.0 -13787900000.0 -41972100000.0 -309182000000.0 -30499800000.0 -199203000000.0 -113591000000.0 -242344000000.0 -380388000000.0 -565584000000.0 -455847000000.0 -495600000000.0 -787368000000.0 -626631000000.0 -743133000000.0 -290142000000.0 -269049000000.0 -264875000000.0 -186340000000.0 -531688000000.0 -438309000000.0 -231503000000.0 -133257000000.0 -215609000000.0 -15378100000.0 -119033000000.0 -21766100000.0 -196211000000.0 -30083100000.0 -188430000000.0 -134220000000.0 -170350000000.0 -65291500000.0 -285001000000.0 -470638000000.0 -194652000000.0 -470324000000.0 -500994000000.0 -1.11045e+12 -747888000000.0 -723724000000.0 -742813000000.0 -769624000000.0 -348933000000.0 -103209000000.0 -210608000000.0 -317061000000.0 -325125000000.0 -354060000000.0 -299697000000.0 -358088000000.0 -346874000000.0 -261239000000.0 -276443000000.0 -297590000000.0 -221544000000.0 -184315000000.0 -141147000000.0 -115786000000.0 -105351000000.0 -12548000000.0 -12549700000.0 -25776500000.0 -52024700000.0 -25124500000.0 -12549700000.0 -12549700000.0 -12549700000.0 -31391400000.0 -31741700000.0 -129956000000.0 -12549700000.0 -12549700000.0 -12549700000.0 -56407400000.0 -29981700000.0 -20328400000.0 -20796400000.0 -13135700000.0 -12549700000.0 -13399200000.0 -14010900000.0 -38750600000.0 -92664300000.0 -49422900000.0 -43244600000.0 -26922500000.0 -15973700000.0 -24025400000.0 -51276900000.0 -117821000000.0 -195416000000.0 -265595000000.0 -262096000000.0 -253352000000.0 -312462000000.0 -341514000000.0 -394860000000.0 -349380000000.0 -311750000000.0 -298457000000.0 -257476000000.0 -250390000000.0 -112960000000.0 -229436000000.0 -296803000000.0 -253539000000.0 -179313000000.0 -207687000000.0 -93968400000.0 -98452100000.0 -131044000000.0 -43684200000.0 -121006000000.0 -86451400000.0 -50606600000.0 -46189000000.0 -12549600000.0 -25924100000.0 -32926700000.0 -12549500000.0 -12549700000.0 -94931900000.0 -71063900000.0 -163945000000.0 -134799000000.0 -116413000000.0 -156196000000.0 -72413700000.0 -102575000000.0 -111779000000.0 -117959000000.0 -125658000000.0 -95422600000.0 -159602000000.0 -124445000000.0 -161424000000.0 -61228700000.0 -114275000000.0 -37661800000.0 -12549700000.0 -80314800000.0 -12549700000.0 -12549700000.0 