# vtk DataFile Version 2.0
Time step 16
ASCII
DATASET UNSTRUCTURED_GRID
POINTS 5000 float
2397.99 196076.0 0
8498.14 195457.0 0
12438.2 195285.0 0
16748.5 194614.0 0
22243.6 196233.0 0
27677.7 193000.0 0
33177.4 195681.0 0
38166.2 196261.0 0
42685.4 196392.0 0
47480.0 196318.0 0
52137.1 196398.0 0
57007.4 195245.0 0
62763.5 196314.0 0
67994.7 196447.0 0
72700.1 195590.0 0
77500.0 196327.0 0
82500.0 196316.0 0
87408.7 195619.0 0
92500.0 196354.0 0
97199.0 196375.0 0
101299.0 196292.0 0
105954.0 195699.0 0
111932.0 196173.0 0
117846.0 196346.0 0
123326.0 196423.0 0
128341.0 196543.0 0
133423.0 195793.0 0
138120.0 196476.0 0
142500.0 196397.0 0
147500.0 196331.0 0
152501.0 196301.0 0
157586.0 195936.0 0
162556.0 196092.0 0
167014.0 195646.0 0
171833.0 194524.0 0
177737.0 194560.0 0
182941.0 193747.0 0
187398.0 195596.0 0
192500.0 196749.0 0
196087.0 195920.0 0
201751.0 195277.0 0
207652.0 196036.0 0
212988.0 195388.0 0
218129.0 196458.0 0
222481.0 196470.0 0
225803.0 195731.0 0
230432.0 195591.0 0
235810.0 196575.0 0
241170.0 195280.0 0
252675.0 195260.0 0
259047.0 195747.0 0
263771.0 196821.0 0
268743.0 195750.0 0
273938.0 196044.0 0
278880.0 194679.0 0
286326.0 196318.0 0
291718.0 196778.0 0
297320.0 194647.0 0
303659.0 195455.0 0
312125.0 195853.0 0
317926.0 196488.0 0
323242.0 196391.0 0
327579.0 196643.0 0
332204.0 196243.0 0
337221.0 195954.0 0
345897.0 195510.0 0
355276.0 196438.0 0
361819.0 195053.0 0
372010.0 193099.0 0
367952.0 196413.0 0
377027.0 195076.0 0
382607.0 195934.0 0
388127.0 195215.0 0
394014.0 194537.0 0
399188.0 196226.0 0
403641.0 193490.0 0
408580.0 194694.0 0
412478.0 196334.0 0
417500.0 196360.0 0
422730.0 194499.0 0
427273.0 196185.0 0
432488.0 194010.0 0
437537.0 196337.0 0
442101.0 195291.0 0
446263.0 194860.0 0
450675.0 195640.0 0
455218.0 195602.0 0
460244.0 195469.0 0
465798.0 195817.0 0
471633.0 195077.0 0
477068.0 193885.0 0
481319.0 196734.0 0
485846.0 193791.0 0
491674.0 195338.0 0
497601.0 193830.0 0
2281.96 201133.0 0
6045.7 198791.0 0
11074.3 199799.0 0
17316.5 200517.0 0
22986.9 201778.0 0
28499.7 199355.0 0
34951.5 200952.0 0
40323.7 201276.0 0
44446.4 201616.0 0
48258.6 200318.0 0
52500.0 201359.0 0
57988.6 200687.0 0
62844.6 201413.0 0
67505.2 201085.0 0
72129.4 200712.0 0
77500.0 201485.0 0
82116.1 201131.0 0
87905.4 200377.0 0
92500.0 201494.0 0
97187.2 201146.0 0
102467.0 201027.0 0
108247.0 200292.0 0
112500.0 201430.0 0
117500.0 201512.0 0
122500.0 201434.0 0
127726.0 200981.0 0
132493.0 201328.0 0
137520.0 201343.0 0
142772.0 200822.0 0
146943.0 201170.0 0
151954.0 201048.0 0
156879.0 199989.0 0
161313.0 200812.0 0
166527.0 200319.0 0
172963.0 200095.0 0
178366.0 199973.0 0
183523.0 198816.0 0
188594.0 200045.0 0
193563.0 200896.0 0
198244.0 200272.0 0
203920.0 200897.0 0
213693.0 199939.0 0
209356.0 201120.0 0
217610.0 201525.0 0
222042.0 201316.0 0
226813.0 199965.0 0
232218.0 201002.0 0
237700.0 201821.0 0
243298.0 201675.0 0
246500.0 197285.0 0
248450.0 201363.0 0
252666.0 201828.0 0
257252.0 200383.0 0
262325.0 200999.0 0
267093.0 200602.0 0
271637.0 199926.0 0
277035.0 200330.0 0
282030.0 198009.0 0
282827.0 201696.0 0
287500.0 201408.0 0
292895.0 201274.0 0
298239.0 200159.0 0
303103.0 201124.0 0
307739.0 198018.0 0
307455.0 201311.0 0
312501.0 201603.0 0
317499.0 201366.0 0
322445.0 200861.0 0
327500.0 201388.0 0
332500.0 201461.0 0
341017.0 197165.0 0
337705.0 200810.0 0
343300.0 200195.0 0
350696.0 197413.0 0
347735.0 200625.0 0
352666.0 201309.0 0
361457.0 200366.0 0
357775.0 200856.0 0
365132.0 200100.0 0
372927.0 199899.0 0
378828.0 199620.0 0
382014.0 200753.0 0
388365.0 200304.0 0
393544.0 200677.0 0
402981.0 199688.0 0
398127.0 201107.0 0
408369.0 198974.0 0
412848.0 200278.0 0
417506.0 200869.0 0
422128.0 199136.0 0
428280.0 201138.0 0
433401.0 199250.0 0
437501.0 201402.0 0
443208.0 199578.0 0
447592.0 198869.0 0
451931.0 200124.0 0
457160.0 200339.0 0
462425.0 201780.0 0
466602.0 200386.0 0
470198.0 201557.0 0
475188.0 200368.0 0
480805.0 202008.0 0
486599.0 199998.0 0
496837.0 199339.0 0
2238.62 206998.0 0
6747.54 203835.0 0
11847.7 205660.0 0
16326.3 205727.0 0
20504.9 205751.0 0
27023.9 206187.0 0
32604.1 206031.0 0
38240.5 205786.0 0
42948.4 206152.0 0
47571.2 205039.0 0
51788.7 206789.0 0
56541.7 206306.0 0
62102.0 206302.0 0
67682.5 205929.0 0
73696.8 206258.0 0
78213.4 206682.0 0
81956.9 205857.0 0
86962.6 205893.0 0
92531.5 206245.0 0
97547.6 205665.0 0
102630.0 206789.0 0
107925.0 205071.0 0
112497.0 206341.0 0
116735.0 206121.0 0
120857.0 205965.0 0
125870.0 205352.0 0
131164.0 207048.0 0
136451.0 206993.0 0
141003.0 204948.0 0
146317.0 206061.0 0
156255.0 204548.0 0
161711.0 206503.0 0
170006.0 204891.0 0
176302.0 205737.0 0
182189.0 203958.0 0
188055.0 206208.0 0
194267.0 205921.0 0
199978.0 205372.0 0
208108.0 206015.0 0
204287.0 206375.0 0
213297.0 204749.0 0
217709.0 206462.0 0
222568.0 205591.0 0
226877.0 204969.0 0
232453.0 206467.0 0
237439.0 206247.0 0
241802.0 206898.0 0
246860.0 205443.0 0
251805.0 206725.0 0
257719.0 205135.0 0
262702.0 205781.0 0
267467.0 205061.0 0
273024.0 205180.0 0
279890.0 204356.0 0
283573.0 206630.0 0
287234.0 206708.0 0
291039.0 205598.0 0
296755.0 205212.0 0
302251.0 206364.0 0
307714.0 205741.0 0
313218.0 206872.0 0
318202.0 205880.0 0
322516.0 204866.0 0
326815.0 206753.0 0
336506.0 205475.0 0
331859.0 206499.0 0
341404.0 204399.0 0
346831.0 205012.0 0
351886.0 206152.0 0
356023.0 204719.0 0
361251.0 205067.0 0
366511.0 204187.0 0
371105.0 206041.0 0
377674.0 205552.0 0
384365.0 204090.0 0
392423.0 205502.0 0
388347.0 207280.0 0
397215.0 205457.0 0
402853.0 205927.0 0
409234.0 204617.0 0
414391.0 207192.0 0
419105.0 205567.0 0
424092.0 203965.0 0
427665.0 206987.0 0
432232.0 204874.0 0
437319.0 205645.0 0
442326.0 204810.0 0
448240.0 203941.0 0
454136.0 205536.0 0
458956.0 206554.0 0
463125.0 206327.0 0
467508.0 206475.0 0
472369.0 204883.0 0
477764.0 205865.0 0
482614.0 206708.0 0
492085.0 202248.0 0
491510.0 206309.0 0
496594.0 205923.0 0
2182.12 211412.0 0
8047.88 209676.0 0
13469.7 210279.0 0
17749.3 209571.0 0
22411.4 210127.0 0
26964.0 212129.0 0
32044.2 210316.0 0
37561.8 210988.0 0
43174.4 211215.0 0
49062.8 209825.0 0
53807.2 211480.0 0
59214.7 210981.0 0
63610.4 210631.0 0
68063.5 211605.0 0
72602.2 211132.0 0
77068.0 210618.0 0
82135.9 210878.0 0
87333.3 211067.0 0
92269.4 211570.0 0
97735.0 211017.0 0
102769.0 212272.0 0
107690.0 210568.0 0
113104.0 210672.0 0
118131.0 210600.0 0
123411.0 209951.0 0
127500.0 211509.0 0
132685.0 211879.0 0
137734.0 210910.0 0
142523.0 211066.0 0
151843.0 207666.0 0
147999.0 210673.0 0
156820.0 209970.0 0
153399.0 212329.0 0
160407.0 211314.0 0
166532.0 208329.0 0
164428.0 212030.0 0
170842.0 210920.0 0
177033.0 212305.0 0
182232.0 209436.0 0
186626.0 211840.0 0
191646.0 211340.0 0
197219.0 210654.0 0
203049.0 210518.0 0
208744.0 212361.0 0
214360.0 210418.0 0
218728.0 211681.0 0
222061.0 209853.0 0
227545.0 210514.0 0
234292.0 210867.0 0
237827.0 209579.0 0
241795.0 211498.0 0
246262.0 210631.0 0
251529.0 211984.0 0
255885.0 209862.0 0
260350.0 209534.0 0
266373.0 209754.0 0
271771.0 211454.0 0
278361.0 209855.0 0
284358.0 211371.0 0
288763.0 209867.0 0
292987.0 211583.0 0
298945.0 211517.0 0
303985.0 211728.0 0
307500.0 211552.0 0
312166.0 211371.0 0
316228.0 210606.0 0
321051.0 210146.0 0
325840.0 211682.0 0
329890.0 210321.0 0
334366.0 212287.0 0
339784.0 209794.0 0
346084.0 211267.0 0
352839.0 211727.0 0
357351.0 208674.0 0
361677.0 211060.0 0
366569.0 208878.0 0
371936.0 211662.0 0
382813.0 209602.0 0
387363.0 211461.0 0
393040.0 212139.0 0
399508.0 211095.0 0
408061.0 209983.0 0
404312.0 211099.0 0
412362.0 211672.0 0
416956.0 210974.0 0
421358.0 212257.0 0
425632.0 210609.0 0
431037.0 211063.0 0
437136.0 209841.0 0
441839.0 210400.0 0
446552.0 208959.0 0
450869.0 209513.0 0
455454.0 211288.0 0
461249.0 211022.0 0
467023.0 210808.0 0
472631.0 209840.0 0
478873.0 211362.0 0
487502.0 207786.0 0
484732.0 211846.0 0
492126.0 210171.0 0
1492.4 216133.0 0
7128.3 215977.0 0
11876.0 214007.0 0
17136.5 214746.0 0
23024.7 215511.0 0
30206.2 214858.0 0
34858.6 215640.0 0
39745.3 215045.0 0
43644.1 216917.0 0
48527.0 215043.0 0
53103.2 217447.0 0
57198.2 215370.0 0
63071.0 215407.0 0
68323.6 216780.0 0
73370.1 215196.0 0
78270.5 215774.0 0
83561.8 215819.0 0
88369.8 215890.0 0
92500.0 216417.0 0
97246.6 216432.0 0
101205.0 216474.0 0
105597.0 216086.0 0
111307.0 215259.0 0
116641.0 215861.0 0
122098.0 215143.0 0
126925.0 215610.0 0
131219.0 216262.0 0
136577.0 215461.0 0
142211.0 216760.0 0
147009.0 214950.0 0
151792.0 216899.0 0
157929.0 215874.0 0
167057.0 214894.0 0
163672.0 216516.0 0
171004.0 216926.0 0
182928.0 216341.0 0
193688.0 215426.0 0
189199.0 216255.0 0
198247.0 216545.0 0
203173.0 215619.0 0
212120.0 216603.0 0
216332.0 215030.0 0
221189.0 215327.0 0
226328.0 217139.0 0
231991.0 215390.0 0
237942.0 214313.0 0
242853.0 216134.0 0
248044.0 215721.0 0
252907.0 216013.0 0
257737.0 215044.0 0
262647.0 213110.0 0
267613.0 215686.0 0
272710.0 217336.0 0
278484.0 216509.0 0
283576.0 215958.0 0
288839.0 215187.0 0
293490.0 216182.0 0
302639.0 216034.0 0
307142.0 216393.0 0
311968.0 216108.0 0
317003.0 215030.0 0
322331.0 215726.0 0
330982.0 215840.0 0
327188.0 216546.0 0
341480.0 215273.0 0
337094.0 216209.0 0
346743.0 217195.0 0
351660.0 217396.0 0
357887.0 215237.0 0
367119.0 213784.0 0
362975.0 216030.0 0
370210.0 217201.0 0
374582.0 217245.0 0
377881.0 212994.0 0
383267.0 215630.0 0
388183.0 215643.0 0
397914.0 217037.0 0
403064.0 215084.0 0
408167.0 214832.0 0
414649.0 215299.0 0
417911.0 216504.0 0
422459.0 217123.0 0
427472.0 215084.0 0
431208.0 216492.0 0
436078.0 214810.0 0
441951.0 216061.0 0
448288.0 214491.0 0
454002.0 216428.0 0
459417.0 216607.0 0
464950.0 215882.0 0
473849.0 215067.0 0
469612.0 216745.0 0
481994.0 216323.0 0
489145.0 212574.0 0
486779.0 216190.0 0
492181.0 216745.0 0
496757.0 212564.0 0
2746.65 220175.0 0
7839.1 222468.0 0
12645.1 218511.0 0
18078.9 220511.0 0
23731.3 221264.0 0
28633.3 218903.0 0
33600.9 221193.0 0
39096.9 219881.0 0
43695.3 221126.0 0
48641.9 221012.0 0
54139.1 222147.0 0
59690.8 220388.0 0
64843.9 221479.0 0
68269.8 221020.0 0
72211.0 219083.0 0
76334.1 220687.0 0
81957.3 221249.0 0
87900.9 220962.0 0
92648.7 221372.0 0
96915.7 221004.0 0
101499.0 221120.0 0
106443.0 221422.0 0
111046.0 220108.0 0
115386.0 220577.0 0
120871.0 221162.0 0
127441.0 220873.0 0
133299.0 220716.0 0
138722.0 221203.0 0
143739.0 221367.0 0
148384.0 220985.0 0
152801.0 221468.0 0
157001.0 221575.0 0
161429.0 220349.0 0
166775.0 220246.0 0
176731.0 218594.0 0
186867.0 221246.0 0
192397.0 220768.0 0
197833.0 222252.0 0
202616.0 220180.0 0
207328.0 217739.0 0
206602.0 222345.0 0
210632.0 221142.0 0
216375.0 220918.0 0
222676.0 221006.0 0
236048.0 219310.0 0
240968.0 221738.0 0
246449.0 222279.0 0
250937.0 220174.0 0
256793.0 221252.0 0
262857.0 218688.0 0
268281.0 221082.0 0
272901.0 222229.0 0
277860.0 222517.0 0
282090.0 219889.0 0
287112.0 221272.0 0
293045.0 220592.0 0
297509.0 217560.0 0
301882.0 219957.0 0
306186.0 221867.0 0
311443.0 221818.0 0
316886.0 220153.0 0
322354.0 221643.0 0
328014.0 221163.0 0
333900.0 220091.0 0
342273.0 221239.0 0
348045.0 221958.0 0
355623.0 219539.0 0
352355.0 221675.0 0
360557.0 220794.0 0
366552.0 220884.0 0
372558.0 222171.0 0
378582.0 220596.0 0
383455.0 219767.0 0
387274.0 220124.0 0
392179.0 218387.0 0
400405.0 221301.0 0
405319.0 220323.0 0
411955.0 219429.0 0
417752.0 221314.0 0
422941.0 221988.0 0
427250.0 219335.0 0
432205.0 221063.0 0
437056.0 220134.0 0
441833.0 221665.0 0
447095.0 220658.0 0
452631.0 221620.0 0
458097.0 221971.0 0
462539.0 221541.0 0
466540.0 220558.0 0
471800.0 221300.0 0
477647.0 218110.0 0
482260.0 221677.0 0
487739.0 221039.0 0
492483.0 222552.0 0
497459.0 218298.0 0
3048.86 225971.0 0
13599.7 224353.0 0
23863.5 226962.0 0
28761.2 224244.0 0
33702.8 226892.0 0
38516.0 225067.0 0
43240.3 225382.0 0
49647.1 225899.0 0
53672.2 226895.0 0
58557.5 226259.0 0
63406.7 225433.0 0
66999.6 225876.0 0
71711.1 224418.0 0
77986.1 225979.0 0
83409.4 227319.0 0
88032.6 225994.0 0
93063.5 225992.0 0
97991.8 225477.0 0
105798.0 225857.0 0
102084.0 227092.0 0
110780.0 225449.0 0
116656.0 225352.0 0
126511.0 226086.0 0
122673.0 226673.0 0
131228.0 225427.0 0
135254.0 227246.0 0
139777.0 226748.0 0
145129.0 225951.0 0
150872.0 226021.0 0
156901.0 226932.0 0
162047.0 225007.0 0
167188.0 225343.0 0
172246.0 222705.0 0
177062.0 222920.0 0
176191.0 226650.0 0
181347.0 222967.0 0
185799.0 226533.0 0
191580.0 226649.0 0
202630.0 225630.0 0
207598.0 226361.0 0
212128.0 225525.0 0
217207.0 227304.0 0
223340.0 226975.0 0
228326.0 222683.0 0
233994.0 223834.0 0
238449.0 227482.0 0
243829.0 226806.0 0
248943.0 226424.0 0
252342.0 224491.0 0
255550.0 227348.0 0
262546.0 225874.0 0
268734.0 226051.0 0
273491.0 226772.0 0
282800.0 225276.0 0
287966.0 227292.0 0
293204.0 225925.0 0
297890.0 222889.0 0
302617.0 225796.0 0
308397.0 226768.0 0
313173.0 226383.0 0
317433.0 225878.0 0
325919.0 225304.0 0
322173.0 227212.0 0
330054.0 226293.0 0
335116.0 226850.0 0
337602.0 223439.0 0
340382.0 227247.0 0
351134.0 226138.0 0
356061.0 224134.0 0
360861.0 226670.0 0
366477.0 226626.0 0
371175.0 227106.0 0
383537.0 224213.0 0
390803.0 223038.0 0
387814.0 227423.0 0
392749.0 227399.0 0
396057.0 222857.0 0
403856.0 226349.0 0
409467.0 225017.0 0
414434.0 225331.0 0
417730.0 225447.0 0
420917.0 225789.0 0
427637.0 225814.0 0
433310.0 225419.0 0
437894.0 225104.0 0
442664.0 226551.0 0
448507.0 226538.0 0
453983.0 226486.0 0
458519.0 226939.0 0
462967.0 226678.0 0
467777.0 225538.0 0
472970.0 227023.0 0
476949.0 222831.0 0
479939.0 226764.0 0
484266.0 226595.0 0
488507.0 226170.0 0
492601.0 226708.0 0
497462.0 223379.0 0
2142.5 231829.0 0
8745.67 228366.0 0
13674.4 231967.0 0
18362.3 228093.0 0
22330.3 231441.0 0
27478.2 231823.0 0
32319.4 231144.0 0
37257.7 231687.0 0
46370.6 229720.0 0
51395.5 232118.0 0
57382.4 232387.0 0
63621.4 230602.0 0
68660.0 229175.0 0
73532.7 232231.0 0
79795.8 231469.0 0
85100.6 232226.0 0
90115.0 230487.0 0
95014.4 232366.0 0
98564.1 229655.0 0
105619.0 230363.0 0
111319.0 231789.0 0
118232.0 230917.0 0
123838.0 231199.0 0
128400.0 229502.0 0
133279.0 231577.0 0
137797.0 230677.0 0
141896.0 231556.0 0
147415.0 231265.0 0
152986.0 231239.0 0
157254.0 232816.0 0
161805.0 230575.0 0
167161.0 230312.0 0
171466.0 228024.0 0
170775.0 232052.0 0
176900.0 231641.0 0
180980.0 228570.0 0
186906.0 231555.0 0
191553.0 231953.0 0
197326.0 227782.0 0
201669.0 231116.0 0
207198.0 231334.0 0
213035.0 231089.0 0
219814.0 232402.0 0
228970.0 228670.0 0
224923.0 232289.0 0
228664.0 232764.0 0
233401.0 228298.0 0
232698.0 232062.0 0
236997.0 232727.0 0
242069.0 231030.0 0
246528.0 230798.0 0
251477.0 230351.0 0
257758.0 232622.0 0
262731.0 231944.0 0
268241.0 231666.0 0
274056.0 231729.0 0
278392.0 227907.0 0
284573.0 231368.0 0
289657.0 232241.0 0
293277.0 230399.0 0
297716.0 228144.0 0
302350.0 231577.0 0
307427.0 232055.0 0
312019.0 230540.0 0
316757.0 230472.0 0
321316.0 232340.0 0
326413.0 230801.0 0
331721.0 231278.0 0
337291.0 232498.0 0
345987.0 228034.0 0
342892.0 232591.0 0
346858.0 232605.0 0
351213.0 231314.0 0
356415.0 229654.0 0
361728.0 232770.0 0
367019.0 231495.0 0
371700.0 231586.0 0
377254.0 227810.0 0
382235.0 231722.0 0
386915.0 232145.0 0
391466.0 231909.0 0
395536.0 232687.0 0
398347.0 228381.0 0
405869.0 232144.0 0
411610.0 230525.0 0
417006.0 229181.0 0
422654.0 230761.0 0
428247.0 231898.0 0
432981.0 230060.0 0
438701.0 230749.0 0
444673.0 231445.0 0
455633.0 230888.0 0
461329.0 231817.0 0
468700.0 230763.0 0
473157.0 232579.0 0
477808.0 231292.0 0
482452.0 231423.0 0
486612.0 230352.0 0
490665.0 230752.0 0
497773.0 228136.0 0
495017.0 232117.0 0
2236.75 236401.0 0
7223.45 234432.0 0
18593.4 233032.0 0
18039.2 237480.0 0
23268.0 236290.0 0
29036.1 237806.0 0
32584.3 234617.0 0
35977.9 237470.0 0
42424.2 232995.0 0
41018.9 237227.0 0
46979.5 236191.0 0
52812.1 236825.0 0
62179.6 235995.0 0
67945.0 236054.0 0
78094.4 236071.0 0
82812.9 236959.0 0
88764.5 236752.0 0
93955.4 237217.0 0
101274.0 232995.0 0
97837.2 235716.0 0
101251.0 237279.0 0
105727.0 235853.0 0
110248.0 237208.0 0
115526.0 236784.0 0
121630.0 236020.0 0
128129.0 235546.0 0
137504.0 234643.0 0
133714.0 236411.0 0
142032.0 236822.0 0
148125.0 237841.0 0
153554.0 236056.0 0
157997.0 236993.0 0
163116.0 236413.0 0
173368.0 235294.0 0
168452.0 235582.0 0
177766.0 236085.0 0
182343.0 233385.0 0
186466.0 236820.0 0
191582.0 236463.0 0
196368.0 233232.0 0
201132.0 236705.0 0
207152.0 237416.0 0
212109.0 236014.0 0
216829.0 237190.0 0
226057.0 236823.0 0
231007.0 236129.0 0
235865.0 237359.0 0
241275.0 235943.0 0
246720.0 235732.0 0
252417.0 235863.0 0
257588.0 237844.0 0
263749.0 237437.0 0
269642.0 237318.0 0
274617.0 236702.0 0
279356.0 233428.0 0
283975.0 235820.0 0
288558.0 237259.0 0
292618.0 235671.0 0
296608.0 233083.0 0
298678.0 237852.0 0
303607.0 236555.0 0
307752.0 236424.0 0
312260.0 235771.0 0
317532.0 235454.0 0
323370.0 237315.0 0
328014.0 235458.0 0
332723.0 236385.0 0
337382.0 237811.0 0
341978.0 236518.0 0
345545.0 236330.0 0
349577.0 235509.0 0
355385.0 235875.0 0
366548.0 236215.0 0
373478.0 236729.0 0
378385.0 234419.0 0
383175.0 237371.0 0
388099.0 236542.0 0
392604.0 236277.0 0
397134.0 236535.0 0
400538.0 233479.0 0
408086.0 236891.0 0
403383.0 237610.0 0
412540.0 235763.0 0
417206.0 234305.0 0
421046.0 236368.0 0
425386.0 235945.0 0
431956.0 235704.0 0
437665.0 236982.0 0
443647.0 237021.0 0
450482.0 233197.0 0
454479.0 236139.0 0
458764.0 237098.0 0
463916.0 236914.0 0
465800.0 233428.0 0
469269.0 236193.0 0
474341.0 237129.0 0
479058.0 236184.0 0
483687.0 237804.0 0
486661.0 234555.0 0
491457.0 236625.0 0
497411.0 236740.0 0
2123.25 240766.0 0
6949.01 240280.0 0
12432.8 238026.0 0
16005.8 241455.0 0
20032.9 241753.0 0
24879.7 241537.0 0
32184.5 242164.0 0
43298.0 241672.0 0
48669.0 242180.0 0
53555.7 241338.0 0
57590.7 238545.0 0
62542.0 241238.0 0
67217.2 241327.0 0
73634.6 238936.0 0
79055.6 241607.0 0
84489.5 241579.0 0
88556.2 241786.0 0
92508.1 241268.0 0
97469.6 240106.0 0
102456.0 241699.0 0
107196.0 240601.0 0
111841.0 241370.0 0
117997.0 242292.0 0
123256.0 241250.0 0
127774.0 240932.0 0
132827.0 241481.0 0
138531.0 240752.0 0
143148.0 241640.0 0
151875.0 241631.0 0
156562.0 241821.0 0
161569.0 241349.0 0
166881.0 240453.0 0
173244.0 241511.0 0
181602.0 237952.0 0
178602.0 241658.0 0
183566.0 242587.0 0
189470.0 241664.0 0
195900.0 238985.0 0
193917.0 242805.0 0
199741.0 241695.0 0
203873.0 242278.0 0
208381.0 242549.0 0
212776.0 240634.0 0
219040.0 241953.0 0
221597.0 238042.0 0
223358.0 241494.0 0
227640.0 241521.0 0
232480.0 240904.0 0
237834.0 241765.0 0
242382.0 242295.0 0
246785.0 240567.0 0
251966.0 242118.0 0
257453.0 242141.0 0
267709.0 241499.0 0
271779.0 241094.0 0
279889.0 238774.0 0
276115.0 241532.0 0
284240.0 240231.0 0
288530.0 242496.0 0
293552.0 240214.0 0
298767.0 242612.0 0
302582.0 241402.0 0
306696.0 240310.0 0
311706.0 241453.0 0
316856.0 240297.0 0
321357.0 242188.0 0
324908.0 241195.0 0
328727.0 240166.0 0
334192.0 242001.0 0
339641.0 241671.0 0
344214.0 240544.0 0
350172.0 241162.0 0
356779.0 242726.0 0
360715.0 237955.0 0
363312.0 242609.0 0
369444.0 241008.0 0
374957.0 242053.0 0
378316.0 238914.0 0
379768.0 242882.0 0
384048.0 242879.0 0
388147.0 241035.0 0
393214.0 241342.0 0
397978.0 240701.0 0
402030.0 241939.0 0
406622.0 241513.0 0
412757.0 241656.0 0
418460.0 239740.0 0
423582.0 241063.0 0
428752.0 239719.0 0
433884.0 242221.0 0
445492.0 241727.0 0
450709.0 239626.0 0
456132.0 241254.0 0
463198.0 240955.0 0
460050.0 241660.0 0
467449.0 241465.0 0
472535.0 241435.0 0
477858.0 241514.0 0
482743.0 242053.0 0
487577.0 241049.0 0
492462.0 241826.0 0
497811.0 241500.0 0
3066.13 245874.0 0
8511.91 244790.0 0
12540.2 243433.0 0
12200.9 247981.0 0
16385.4 245620.0 0
21270.5 246657.0 0
27422.6 246904.0 0
32657.9 246069.0 0
37661.9 243082.0 0
42219.0 246809.0 0
47935.3 247684.0 0
53255.7 246309.0 0
57423.7 243453.0 0
58922.9 247331.0 0
62504.5 245660.0 0
71124.6 243707.0 0
66934.9 245763.0 0
71395.7 247884.0 0
76200.2 246768.0 0
82315.3 245194.0 0
86356.9 245512.0 0
91223.1 246322.0 0
96580.6 245222.0 0
101331.0 246359.0 0
106454.0 245768.0 0
112403.0 246880.0 0
118085.0 247711.0 0
123236.0 246499.0 0
128393.0 245434.0 0
133246.0 246963.0 0
138707.0 246482.0 0
143914.0 245679.0 0
146838.0 248058.0 0
147989.0 243815.0 0
152617.0 246088.0 0
157951.0 246321.0 0
162825.0 245483.0 0
168104.0 245903.0 0
172587.0 247205.0 0
177261.0 246928.0 0
182440.0 247538.0 0
187103.0 246551.0 0
192279.0 246828.0 0
197943.0 246416.0 0
202917.0 246263.0 0
207324.0 247247.0 0
212064.0 245580.0 0
217210.0 247027.0 0
222464.0 245729.0 0
227449.0 247058.0 0
232473.0 245610.0 0
237116.0 246067.0 0
241406.0 246751.0 0
246141.0 245576.0 0
250384.0 247145.0 0
254561.0 246617.0 0
258851.0 247273.0 0
262276.0 243649.0 0
267425.0 246827.0 0
272491.0 244989.0 0
277171.0 246825.0 0
283106.0 245611.0 0
288117.0 247044.0 0
292663.0 245805.0 0
297275.0 246541.0 0
301994.0 246461.0 0
306820.0 245038.0 0
316049.0 245188.0 0
311358.0 246908.0 0
320413.0 246599.0 0
326150.0 245981.0 0
332584.0 248044.0 0
338281.0 247026.0 0
343343.0 245478.0 0
348093.0 246595.0 0
353205.0 247160.0 0
363211.0 248092.0 0
372384.0 246173.0 0
367641.0 246617.0 0
377388.0 247522.0 0
382113.0 246000.0 0
387264.0 245625.0 0
391729.0 246002.0 0
396323.0 245327.0 0
401358.0 246820.0 0
406508.0 246375.0 0
411898.0 248010.0 0
417760.0 245586.0 0
428001.0 245949.0 0
435891.0 247468.0 0
440195.0 243137.0 0
440095.0 248069.0 0
448666.0 244247.0 0
444906.0 246863.0 0
448960.0 247386.0 0
453269.0 246027.0 0
458542.0 245075.0 0
463240.0 245144.0 0
468267.0 246519.0 0
473579.0 246613.0 0
478481.0 246420.0 0
481995.0 246753.0 0
485478.0 245565.0 0
490374.0 245728.0 0
495367.0 245773.0 0
2830.07 251766.0 0
7507.53 249219.0 0
9609.4 253097.0 0
12461.4 251624.0 0
17097.6 251162.0 0
23514.4 252097.0 0
28440.5 251997.0 0
32848.3 250180.0 0
37700.0 248449.0 0
44144.3 252141.0 0
51649.5 250795.0 0
56202.3 250866.0 0
61470.0 251320.0 0
67332.7 251266.0 0
73081.3 252278.0 0
80902.2 249466.0 0
86739.5 251123.0 0
92891.9 252328.0 0
98385.9 250579.0 0
103690.0 250546.0 0
108540.0 251155.0 0
113676.0 252259.0 0
118729.0 253005.0 0
123585.0 251530.0 0
128449.0 250607.0 0
133102.0 251482.0 0
137612.0 251859.0 0
143096.0 249803.0 0
146707.0 252106.0 0
150636.0 250037.0 0
155608.0 250118.0 0
161150.0 250367.0 0
167135.0 251977.0 0
172931.0 251492.0 0
178062.0 252438.0 0
183595.0 252320.0 0
189258.0 251293.0 0
194198.0 251351.0 0
203776.0 250463.0 0
199081.0 252056.0 0
208271.0 252291.0 0
213118.0 250839.0 0
217837.0 252330.0 0
222500.0 251469.0 0
227501.0 251636.0 0
231567.0 249784.0 0
235552.0 250176.0 0
241047.0 251140.0 0
246260.0 251442.0 0
252701.0 251894.0 0
257745.0 250994.0 0
262639.0 250217.0 0
268568.0 251551.0 0
272418.0 249640.0 0
276586.0 251871.0 0
282680.0 251404.0 0
287830.0 251448.0 0
293327.0 251273.0 0
298003.0 250394.0 0
302128.0 252472.0 0
306724.0 249911.0 0
311412.0 252128.0 0
317192.0 250902.0 0
322907.0 251168.0 0
326729.0 250923.0 0
331449.0 252451.0 0
335599.0 252962.0 0
340754.0 251745.0 0
345186.0 249892.0 0
349876.0 251207.0 0
358610.0 248225.0 0
361534.0 252797.0 0
367137.0 251955.0 0
372552.0 251087.0 0
382858.0 250676.0 0
389001.0 250568.0 0
397200.0 250424.0 0
393383.0 252743.0 0
402326.0 252445.0 0
407497.0 251076.0 0
416965.0 251277.0 0
422238.0 248531.0 0
421552.0 253104.0 0
426084.0 252051.0 0
432083.0 251282.0 0
437863.0 252400.0 0
443213.0 251892.0 0
447839.0 251028.0 0
452697.0 251898.0 0
457781.0 249932.0 0
463153.0 250314.0 0
468229.0 251623.0 0
473111.0 251709.0 0
478127.0 251255.0 0
482763.0 251570.0 0
487729.0 250510.0 0
493274.0 250493.0 0
497800.0 250073.0 0
2500.08 257105.0 0
7238.32 256547.0 0
12070.0 256873.0 0
17534.0 257436.0 0
23340.0 258147.0 0
28740.0 256501.0 0
32644.6 254824.0 0
37929.5 254106.0 0
43247.5 257568.0 0
48934.3 253829.0 0
47681.5 257642.0 0
52850.3 256515.0 0
58168.9 255650.0 0
64122.7 256932.0 0
71407.1 255859.0 0
69219.2 257832.0 0
75153.8 257686.0 0
77988.6 253274.0 0
81048.5 257407.0 0
87048.9 257774.0 0
96741.0 256396.0 0
92011.9 256904.0 0
101915.0 254890.0 0
107424.0 257243.0 0
113362.0 257253.0 0
118422.0 258263.0 0
123404.0 256593.0 0
128617.0 255770.0 0
133596.0 256013.0 0
141666.0 254371.0 0
137999.0 257623.0 0
145496.0 256966.0 0
150751.0 255746.0 0
156835.0 255339.0 0
162677.0 256441.0 0
170976.0 256350.0 0
175328.0 258069.0 0
183128.0 256273.0 0
179590.0 257135.0 0
187204.0 256354.0 0
192581.0 255943.0 0
197931.0 257695.0 0
202911.0 255503.0 0
206841.0 257767.0 0
211005.0 256362.0 0
215665.0 256667.0 0
221172.0 256757.0 0
227118.0 256969.0 0
231656.0 253975.0 0
237655.0 255925.0 0
243908.0 256672.0 0
248957.0 256401.0 0
254204.0 258011.0 0
257368.0 254333.0 0
260306.0 256372.0 0
265509.0 255384.0 0
272393.0 255964.0 0
279490.0 256601.0 0
285566.0 255584.0 0
290211.0 255350.0 0
297310.0 255624.0 0
302255.0 257620.0 0
306814.0 255370.0 0
312359.0 258185.0 0
318340.0 256728.0 0
323496.0 256111.0 0
328134.0 254435.0 0
332372.0 256948.0 0
341011.0 256319.0 0
337113.0 257515.0 0
345762.0 255145.0 0
351015.0 257307.0 0
355442.0 253377.0 0
359265.0 257590.0 0
364357.0 257280.0 0
368943.0 256615.0 0
373329.0 255951.0 0
377204.0 258338.0 0
377574.0 253255.0 0
381324.0 256519.0 0
386949.0 256713.0 0
393331.0 257595.0 0
398499.0 256007.0 0
402863.0 257381.0 0
407724.0 256458.0 0
411953.0 253315.0 0
415835.0 257120.0 0
424594.0 256089.0 0
428962.0 256605.0 0
434124.0 256283.0 0
438719.0 257587.0 0
442767.0 256242.0 0
447697.0 256290.0 0
453019.0 256921.0 0
458303.0 255743.0 0
463591.0 255134.0 0
468163.0 256948.0 0
473585.0 256125.0 0
478168.0 256410.0 0
482827.0 255767.0 0
487511.0 256086.0 0
492506.0 255442.0 0
497560.0 254717.0 0
2475.23 262097.0 0
7679.5 261555.0 0
12006.8 261064.0 0
15775.0 262495.0 0
20838.9 263194.0 0
26802.6 262457.0 0
34037.2 260166.0 0
39377.2 259078.0 0
40011.7 263324.0 0
44662.2 262038.0 0
48713.9 261356.0 0
53015.3 261687.0 0
59459.8 260745.0 0
63875.6 262070.0 0
67588.3 261291.0 0
71674.0 261250.0 0
78336.2 261166.0 0
82497.5 262390.0 0
87161.8 263363.0 0
92020.3 261544.0 0
97020.4 261508.0 0
102149.0 260774.0 0
106970.0 263132.0 0
111112.0 261558.0 0
115811.0 262902.0 0
121091.0 262892.0 0
126572.0 261297.0 0
132452.0 260986.0 0
137141.0 262091.0 0
142290.0 261227.0 0
147728.0 260726.0 0
152619.0 261411.0 0
157510.0 260422.0 0
162022.0 262007.0 0
167212.0 260455.0 0
172470.0 261505.0 0
178166.0 262397.0 0
183443.0 260189.0 0
190377.0 260951.0 0
195364.0 262387.0 0
203320.0 260861.0 0
199733.0 263007.0 0
208079.0 261804.0 0
212473.0 260921.0 0
217655.0 261382.0 0
223412.0 261550.0 0
227827.0 261940.0 0
232877.0 261258.0 0
238119.0 261927.0 0
242342.0 260874.0 0
246669.0 260734.0 0
251495.0 262461.0 0
257657.0 262321.0 0
262655.0 260568.0 0
268074.0 260651.0 0
273512.0 262613.0 0
279498.0 262786.0 0
283989.0 259812.0 0
289054.0 260445.0 0
293569.0 258725.0 0
293791.0 262944.0 0
298760.0 261402.0 0
302750.0 261193.0 0
307515.0 260966.0 0
316367.0 261578.0 0
321272.0 261752.0 0
327581.0 260301.0 0
333551.0 261937.0 0
340757.0 260447.0 0
337859.0 263361.0 0
346460.0 261705.0 0
352468.0 262158.0 0
358055.0 263175.0 0
362694.0 261147.0 0
367614.0 261861.0 0
373242.0 261063.0 0
377761.0 263068.0 0
383132.0 261951.0 0
388881.0 262582.0 0
397586.0 260426.0 0
393913.0 262870.0 0
401981.0 262000.0 0
407538.0 262261.0 0
417755.0 261253.0 0
413338.0 262325.0 0
421145.0 258373.0 0
420765.0 262521.0 0
426078.0 261975.0 0
432061.0 261073.0 0
436723.0 261429.0 0
442739.0 261260.0 0
448783.0 263383.0 0
453390.0 261087.0 0
458478.0 262304.0 0
463557.0 259673.0 0
467776.0 262264.0 0
471802.0 259824.0 0
476418.0 261421.0 0
481063.0 259731.0 0
485611.0 260721.0 0
490674.0 261694.0 0
495983.0 259987.0 0
3194.26 267226.0 0
8243.88 266656.0 0
12749.0 266292.0 0
17392.3 267260.0 0
21992.9 267788.0 0
26205.9 267236.0 0
30904.7 265774.0 0
35879.2 265910.0 0
43604.5 266026.0 0
47727.6 265392.0 0
51777.9 265748.0 0
56798.5 265945.0 0
62545.8 266074.0 0
67137.2 266483.0 0
72485.9 266439.0 0
77960.5 265253.0 0
82560.9 266814.0 0
86324.8 267431.0 0
90172.8 266684.0 0
95235.1 266528.0 0
101138.0 266441.0 0
106572.0 268152.0 0
111807.0 266414.0 0
118310.0 267579.0 0
123257.0 267324.0 0
127612.0 266419.0 0
132201.0 266302.0 0
137221.0 266689.0 0
141690.0 267987.0 0
146437.0 265713.0 0
151550.0 268155.0 0
156138.0 265363.0 0
161847.0 268307.0 0
169297.0 266831.0 0
175988.0 268180.0 0
181623.0 267243.0 0
186098.0 264584.0 0
190951.0 266249.0 0
195711.0 267061.0 0
200476.0 268257.0 0
204885.0 265397.0 0
208487.0 267483.0 0
211766.0 265539.0 0
216643.0 266732.0 0
221837.0 266003.0 0
226838.0 266433.0 0
232049.0 265514.0 0
236167.0 266769.0 0
241563.0 265372.0 0
246886.0 265843.0 0
251543.0 266712.0 0
256248.0 267451.0 0
261540.0 265895.0 0
266315.0 265092.0 0
270546.0 267466.0 0
276607.0 267525.0 0
284958.0 264926.0 0
290114.0 265309.0 0
293696.0 267537.0 0
297269.0 265853.0 0
302579.0 264348.0 0
307401.0 264897.0 0
310206.0 267347.0 0
312831.0 263999.0 0
316929.0 265841.0 0
326179.0 265682.0 0
321542.0 267728.0 0
331785.0 266910.0 0
336634.0 267324.0 0
341734.0 266309.0 0
346571.0 267532.0 0
350376.0 266087.0 0
354433.0 267250.0 0
363437.0 266470.0 0
368542.0 267083.0 0
372671.0 265754.0 0
377004.0 268217.0 0
381288.0 266460.0 0
385776.0 267056.0 0
391593.0 267606.0 0
397824.0 266499.0 0
403453.0 266960.0 0
408205.0 267374.0 0
412663.0 267431.0 0
417339.0 265955.0 0
422300.0 266275.0 0
433134.0 267006.0 0
438884.0 265484.0 0
443924.0 266845.0 0
453713.0 266042.0 0
457862.0 268164.0 0
462999.0 266766.0 0
468069.0 267059.0 0
472214.0 264918.0 0
476484.0 266451.0 0
481542.0 265005.0 0
487352.0 265630.0 0
492223.0 268095.0 0
497271.0 265628.0 0
2743.02 272655.0 0
8047.8 271679.0 0
14945.6 271515.0 0
19935.4 272072.0 0
25355.1 272085.0 0
32693.8 272546.0 0
39955.9 269025.0 0
47188.3 270667.0 0
52657.8 269939.0 0
57752.3 272179.0 0
63748.2 271425.0 0
69573.0 271796.0 0
74689.1 272304.0 0
78846.2 269998.0 0
82760.5 271624.0 0
87408.2 271872.0 0
93070.8 271941.0 0
98823.1 271789.0 0
103884.0 272319.0 0
107212.0 272163.0 0
111626.0 272281.0 0
120356.0 272314.0 0
124147.0 271635.0 0
128423.0 271037.0 0
132889.0 270632.0 0
136875.0 271381.0 0
141100.0 272173.0 0
146513.0 271677.0 0
151898.0 273543.0 0
156633.0 271756.0 0
166708.0 273093.0 0
172251.0 271820.0 0
179228.0 271805.0 0
184116.0 272459.0 0
189277.0 270760.0 0
193638.0 271617.0 0
197485.0 271361.0 0
202912.0 272097.0 0
206403.0 269899.0 0
212376.0 271298.0 0
216927.0 271255.0 0
221088.0 270833.0 0
225856.0 271468.0 0
231087.0 269879.0 0
235720.0 271688.0 0
240634.0 270609.0 0
248446.0 270637.0 0
252690.0 270353.0 0
260066.0 270509.0 0
256149.0 272445.0 0
265440.0 270330.0 0
272873.0 270908.0 0
275611.0 271488.0 0
281973.0 270433.0 0
288359.0 270094.0 0
293502.0 272213.0 0
298771.0 270249.0 0
304646.0 268994.0 0
309225.0 271010.0 0
313945.0 268943.0 0
317732.0 270822.0 0
323306.0 272930.0 0
327741.0 270206.0 0
332500.0 271533.0 0
336861.0 271932.0 0
342174.0 271881.0 0
351670.0 270799.0 0
347181.0 271899.0 0
357625.0 270827.0 0
363231.0 272818.0 0
368506.0 271345.0 0
373399.0 272566.0 0
382596.0 270468.0 0
379125.0 272615.0 0
387093.0 272655.0 0
395881.0 271215.0 0
400737.0 271658.0 0
405925.0 271306.0 0
411218.0 272600.0 0
416959.0 271811.0 0
422179.0 271170.0 0
427066.0 268676.0 0
431405.0 272709.0 0
437976.0 270903.0 0
443844.0 272707.0 0
448486.0 269228.0 0
453565.0 271269.0 0
449057.0 273578.0 0
458362.0 272354.0 0
462261.0 271764.0 0
467292.0 272070.0 0
472251.0 270075.0 0
478258.0 271189.0 0
483452.0 270123.0 0
487736.0 270295.0 0
492415.0 273084.0 0
497056.0 271222.0 0
2121.81 277479.0 0
6652.2 276613.0 0
11771.1 274158.0 0
10896.4 277814.0 0
16454.8 276727.0 0
22168.0 276873.0 0
26836.8 276657.0 0
38006.1 278015.0 0
42495.5 273984.0 0
44009.0 278495.0 0
47182.2 275797.0 0
52162.2 275347.0 0
57343.8 278274.0 0
62691.7 276803.0 0
67624.8 277129.0 0
72724.8 276846.0 0
77863.7 276256.0 0
83351.5 276338.0 0
88718.3 276834.0 0
93478.6 276800.0 0
97422.4 276424.0 0
102457.0 277530.0 0
107419.0 275412.0 0
111814.0 278642.0 0
116386.0 274992.0 0
120446.0 278149.0 0
125886.0 275968.0 0
131771.0 275358.0 0
137403.0 276259.0 0
143336.0 277081.0 0
148485.0 276624.0 0
152919.0 278063.0 0
157344.0 276749.0 0
160735.0 273860.0 0
163286.0 276253.0 0
168097.0 278508.0 0
170861.0 275254.0 0
175908.0 275822.0 0
181657.0 277664.0 0
189115.0 276005.0 0
194243.0 276424.0 0
199445.0 275705.0 0
203612.0 277639.0 0
207379.0 274719.0 0
210857.0 278370.0 0
216162.0 276756.0 0
221735.0 275100.0 0
226470.0 276755.0 0
232419.0 275891.0 0
238404.0 275674.0 0
244822.0 274935.0 0
251445.0 275400.0 0
256902.0 276971.0 0
261825.0 275116.0 0
270066.0 274297.0 0
266246.0 278406.0 0
274181.0 277036.0 0
277980.0 274507.0 0
283366.0 276777.0 0
288913.0 275426.0 0
293165.0 277739.0 0
297162.0 275113.0 0
302948.0 275451.0 0
308754.0 276298.0 0
312932.0 273676.0 0
318338.0 276105.0 0
324041.0 278371.0 0
328784.0 275414.0 0
334043.0 277193.0 0
339557.0 276544.0 0
344895.0 276347.0 0
349948.0 275885.0 0
354399.0 274440.0 0
358632.0 277526.0 0
363887.0 278406.0 0
368154.0 276052.0 0
372330.0 277202.0 0
376978.0 277140.0 0
382486.0 276116.0 0
387497.0 277146.0 0
392331.0 273793.0 0
392139.0 277900.0 0
396157.0 276607.0 0
401238.0 277123.0 0
406703.0 276461.0 0
411226.0 277470.0 0
415502.0 276853.0 0
421166.0 276753.0 0
426371.0 274229.0 0
428487.0 277767.0 0
430920.0 277152.0 0
435859.0 276926.0 0
442074.0 278648.0 0
446684.0 277055.0 0
451306.0 278272.0 0
456103.0 276022.0 0
461510.0 276812.0 0
466946.0 277472.0 0
472915.0 275274.0 0
478071.0 276657.0 0
482517.0 274582.0 0
487852.0 275421.0 0
493645.0 276972.0 0
498092.0 275884.0 0
2819.78 282270.0 0
8175.11 281549.0 0
12927.2 280916.0 0
16365.7 281557.0 0
20417.9 281450.0 0
25309.0 282650.0 0
31202.2 280347.0 0
37239.9 283363.0 0
41758.7 282356.0 0
47407.8 282475.0 0
53059.8 281777.0 0
58680.3 283564.0 0
63557.5 281957.0 0
68260.1 281526.0 0
72446.4 281694.0 0
77180.3 281364.0 0
82029.4 281446.0 0
86315.7 280459.0 0
91299.0 281366.0 0
96812.5 280824.0 0
101401.0 283423.0 0
107505.0 283606.0 0
116483.0 281363.0 0
113027.0 283465.0 0
121269.0 282887.0 0
126002.0 282117.0 0
132148.0 281742.0 0
137846.0 281899.0 0
147558.0 281178.0 0
142865.0 282450.0 0
152661.0 282703.0 0
157593.0 281738.0 0
162756.0 280753.0 0
167352.0 283544.0 0
172608.0 280997.0 0
177942.0 281077.0 0
182374.0 282746.0 0
186439.0 280388.0 0
192171.0 280954.0 0
196724.0 281540.0 0
201222.0 281144.0 0
206877.0 281051.0 0
212749.0 281509.0 0
217666.0 282661.0 0
221822.0 279762.0 0
226850.0 281840.0 0
231599.0 281527.0 0
236466.0 280690.0 0
241264.0 280086.0 0
240077.0 283447.0 0
245825.0 280287.0 0
250489.0 281283.0 0
255234.0 281115.0 0
260800.0 281285.0 0
271153.0 280707.0 0
278071.0 280376.0 0
283200.0 283550.0 0
288370.0 280714.0 0
293389.0 282637.0 0
298325.0 280322.0 0
303384.0 281002.0 0
308115.0 281301.0 0
314272.0 281390.0 0
319187.0 280989.0 0
328932.0 281049.0 0
333114.0 281399.0 0
336742.0 281318.0 0
342552.0 281709.0 0
347857.0 280969.0 0
353179.0 280559.0 0
357728.0 283198.0 0
362468.0 283206.0 0
367755.0 281719.0 0
373527.0 281884.0 0
382614.0 281367.0 0
378300.0 281676.0 0
387500.0 281682.0 0
390880.0 281482.0 0
394250.0 281084.0 0
398030.0 281050.0 0
405862.0 282487.0 0
412282.0 282097.0 0
417911.0 281632.0 0
423037.0 282006.0 0
427904.0 281667.0 0
432818.0 282078.0 0
437704.0 282569.0 0
441799.0 283316.0 0
447140.0 281352.0 0
452082.0 283443.0 0
456289.0 280971.0 0
461212.0 282462.0 0
466185.0 282055.0 0
470964.0 280243.0 0
476149.0 281671.0 0
482645.0 280583.0 0
488891.0 280984.0 0
492855.0 283789.0 0
497014.0 280660.0 0
2361.67 286714.0 0
7488.63 286398.0 0
11911.6 284877.0 0
17732.0 285807.0 0
22202.4 286403.0 0
25729.1 287178.0 0
29647.5 288950.0 0
33501.3 285936.0 0
36838.7 288342.0 0
41273.5 287585.0 0
46285.5 287717.0 0
51603.1 287123.0 0
56834.5 287811.0 0
62244.0 287404.0 0
67523.7 286251.0 0
72514.5 286305.0 0
81275.4 286570.0 0
76629.6 287380.0 0
87021.3 285478.0 0
92320.9 286630.0 0
97267.4 286656.0 0
102434.0 288573.0 0
106771.0 288750.0 0
111802.0 287435.0 0
117624.0 286910.0 0
123418.0 286657.0 0
128784.0 287170.0 0
134060.0 286786.0 0
137961.0 286513.0 0
142168.0 286447.0 0
147558.0 286976.0 0
152928.0 287634.0 0
158957.0 286136.0 0
162906.0 286158.0 0
167197.0 288175.0 0
172069.0 285395.0 0
177802.0 286610.0 0
183314.0 287422.0 0
188299.0 285364.0 0
193954.0 286222.0 0
199109.0 285934.0 0
204214.0 286326.0 0
209556.0 286138.0 0
214069.0 284957.0 0
217523.0 287038.0 0
222168.0 285251.0 0
226327.0 285731.0 0
230550.0 287039.0 0
235769.0 285425.0 0
243673.0 284429.0 0
240008.0 287525.0 0
250403.0 286670.0 0
256506.0 286570.0 0
262607.0 286919.0 0
266711.0 283912.0 0
272498.0 286345.0 0
278296.0 286181.0 0
289914.0 286201.0 0
294838.0 287081.0 0
299284.0 285682.0 0
303558.0 284998.0 0
307731.0 286453.0 0
312937.0 287572.0 0
317823.0 285809.0 0
322794.0 284091.0 0
324428.0 288686.0 0
327831.0 286060.0 0
333034.0 285681.0 0
338859.0 286930.0 0
346947.0 284518.0 0
344183.0 286994.0 0
351187.0 286672.0 0
358174.0 287574.0 0
362917.0 288110.0 0
367606.0 287080.0 0
372849.0 287512.0 0
377591.0 286354.0 0
383032.0 286528.0 0
387670.0 286186.0 0
390595.0 287028.0 0
394679.0 285705.0 0
400656.0 285447.0 0
404233.0 288745.0 0
409742.0 287937.0 0
416380.0 287432.0 0
422832.0 287658.0 0
428624.0 286466.0 0
433393.0 286894.0 0
438581.0 287824.0 0
448820.0 286227.0 0
444221.0 287131.0 0
452114.0 287432.0 0
457241.0 287278.0 0
462845.0 286910.0 0
466811.0 288171.0 0
470807.0 285431.0 0
476419.0 288046.0 0
482903.0 287316.0 0
488678.0 286445.0 0
492901.0 287506.0 0
497144.0 286511.0 0
2848.28 290556.0 0
7660.86 290859.0 0
13275.9 289285.0 0
17501.0 290698.0 0
22035.4 290689.0 0
25977.4 291103.0 0
33844.1 291863.0 0
38553.4 291811.0 0
43311.5 292649.0 0
47500.0 291495.0 0
51956.5 292768.0 0
58868.1 292366.0 0
64454.2 292611.0 0
68966.7 291348.0 0
73829.7 290790.0 0
77214.8 291221.0 0
80675.7 291669.0 0
86305.5 291781.0 0
92818.0 291638.0 0
98249.0 291918.0 0
103088.0 292538.0 0
108994.0 291952.0 0
113156.0 291565.0 0
122444.0 291450.0 0
117545.0 292619.0 0
126565.0 292062.0 0
131869.0 291518.0 0
136850.0 291062.0 0
140232.0 293336.0 0
144047.0 291732.0 0
150494.0 291519.0 0
157111.0 291363.0 0
163025.0 290543.0 0
167706.0 292827.0 0
173105.0 291020.0 0
183090.0 292056.0 0
178888.0 292679.0 0
186730.0 290739.0 0
191883.0 291094.0 0
196832.0 290267.0 0
201817.0 291362.0 0
207340.0 291217.0 0
213708.0 289229.0 0
216959.0 292171.0 0
220539.0 290099.0 0
225432.0 289594.0 0
229427.0 292085.0 0
235852.0 290902.0 0
240277.0 292529.0 0
245196.0 290482.0 0
252583.0 291651.0 0
257299.0 292010.0 0
262290.0 291680.0 0
267366.0 289435.0 0
272578.0 292447.0 0
277762.0 291188.0 0
282878.0 289097.0 0
289707.0 290971.0 0
285955.0 292637.0 0
293354.0 290666.0 0
297812.0 291550.0 0
303705.0 290133.0 0
309239.0 291993.0 0
315242.0 293016.0 0
320131.0 290172.0 0
323623.0 293590.0 0
328706.0 291634.0 0
334600.0 290960.0 0
338191.0 293161.0 0
342793.0 292177.0 0
348318.0 291460.0 0
354580.0 291393.0 0
358840.0 291548.0 0
362324.0 292172.0 0
366751.0 292128.0 0
372015.0 292905.0 0
376896.0 290177.0 0
380652.0 290815.0 0
386664.0 291326.0 0
391397.0 290412.0 0
396454.0 291407.0 0
400523.0 289822.0 0
407498.0 293402.0 0
413223.0 293237.0 0
418124.0 292504.0 0
422128.0 292810.0 0
426904.0 291255.0 0
431446.0 291182.0 0
436307.0 293174.0 0
442117.0 292470.0 0
447564.0 291376.0 0
452818.0 291619.0 0
457509.0 293293.0 0
461617.0 291130.0 0
465873.0 292230.0 0
470853.0 291214.0 0
476642.0 293969.0 0
480535.0 291732.0 0
485121.0 292364.0 0
491130.0 292292.0 0
497366.0 292002.0 0
2103.6 294718.0 0
6791.4 296347.0 0
12524.1 294648.0 0
18522.4 295731.0 0
24346.3 295455.0 0
30113.8 295838.0 0
35415.9 297267.0 0
39851.3 295874.0 0
43490.0 297951.0 0
47448.2 295655.0 0
51731.4 297606.0 0
56692.3 297407.0 0
61949.3 297426.0 0
66620.4 297094.0 0
71675.6 295691.0 0
77175.1 294842.0 0
82276.7 296648.0 0
88455.3 298089.0 0
93310.1 295745.0 0
97500.0 296529.0 0
102241.0 296329.0 0
107099.0 296109.0 0
112321.0 295833.0 0
117490.0 297233.0 0
122472.0 295552.0 0
132619.0 296318.0 0
127693.0 297023.0 0
137662.0 296003.0 0
142137.0 296407.0 0
147675.0 296227.0 0
153083.0 295557.0 0
157513.0 297245.0 0
161602.0 295408.0 0
165704.0 297061.0 0
171318.0 296916.0 0
176317.0 296923.0 0
180407.0 297330.0 0
185057.0 295825.0 0
190283.0 295374.0 0
195439.0 295875.0 0
201356.0 296816.0 0
206625.0 297174.0 0
212379.0 295038.0 0
218149.0 296603.0 0
222903.0 294563.0 0
227502.0 297248.0 0
232583.0 295720.0 0
238123.0 296460.0 0
243746.0 296788.0 0
248604.0 295459.0 0
251778.0 298699.0 0
255125.0 295757.0 0
259912.0 295958.0 0
266639.0 296468.0 0
272615.0 297358.0 0
276471.0 295964.0 0
281542.0 294869.0 0
286999.0 297222.0 0
292776.0 295481.0 0
298706.0 297407.0 0
303475.0 295427.0 0
307680.0 296651.0 0
312621.0 298290.0 0
319055.0 297259.0 0
323737.0 297839.0 0
328146.0 297275.0 0
332615.0 295590.0 0
337159.0 296934.0 0
341684.0 297403.0 0
346948.0 296901.0 0
352950.0 296665.0 0
358282.0 295386.0 0
363832.0 296577.0 0
368636.0 296220.0 0
377275.0 294461.0 0
372500.0 296790.0 0
383141.0 295789.0 0
392810.0 295149.0 0
388497.0 297013.0 0
396726.0 296894.0 0
401662.0 294889.0 0
408660.0 297991.0 0
412974.0 298201.0 0
417500.0 296428.0 0
423631.0 296725.0 0
429101.0 295462.0 0
432842.0 296688.0 0
439565.0 296870.0 0
445085.0 296479.0 0
449565.0 296145.0 0
453923.0 296490.0 0
458004.0 297862.0 0
461736.0 295732.0 0
466251.0 296939.0 0
472023.0 297240.0 0
477069.0 298639.0 0
481386.0 296352.0 0
487082.0 297532.0 0
492808.0 298187.0 0
497597.0 297034.0 0
3506.23 301799.0 0
8912.73 301621.0 0
12818.9 300068.0 0
18047.8 301941.0 0
23736.1 300821.0 0
29008.9 301629.0 0
33720.9 301428.0 0
38524.0 301749.0 0
43678.6 302695.0 0
47737.3 300416.0 0
52021.1 302160.0 0
56989.4 302813.0 0
61807.2 302134.0 0
66409.4 301687.0 0
71643.3 301576.0 0
78220.1 302053.0 0
84129.8 301383.0 0
87694.1 303163.0 0
94101.5 299968.0 0
99299.6 301229.0 0
103857.0 302647.0 0
108330.0 301072.0 0
113648.0 300680.0 0
122423.0 299945.0 0
118202.0 301701.0 0
126935.0 301970.0 0
131377.0 301106.0 0
135454.0 299779.0 0
140020.0 300701.0 0
145249.0 301368.0 0
151736.0 301668.0 0
157517.0 302372.0 0
162292.0 300830.0 0
167907.0 301361.0 0
173526.0 302552.0 0
178711.0 301290.0 0
183557.0 301371.0 0
188909.0 299497.0 0
193472.0 302132.0 0
198222.0 300571.0 0
202295.0 302121.0 0
207077.0 302340.0 0
212445.0 301424.0 0
217382.0 301069.0 0
221999.0 299896.0 0
226338.0 301990.0 0
231272.0 301124.0 0
236066.0 301625.0 0
240748.0 301466.0 0
247365.0 300743.0 0
251795.0 302707.0 0
256851.0 300938.0 0
262145.0 301170.0 0
266532.0 303778.0 0
272530.0 302104.0 0
277758.0 300518.0 0
282656.0 300350.0 0
287482.0 302688.0 0
294180.0 302105.0 0
299642.0 302237.0 0
304115.0 300446.0 0
308925.0 301758.0 0
315319.0 303122.0 0
320331.0 302268.0 0
326036.0 302575.0 0
333095.0 301750.0 0
339081.0 302285.0 0
343377.0 301423.0 0
347310.0 301704.0 0
351753.0 302197.0 0
357518.0 300733.0 0
362979.0 301608.0 0
368173.0 301051.0 0
373356.0 300510.0 0
378028.0 299568.0 0
382776.0 301936.0 0
392130.0 300104.0 0
387975.0 302690.0 0
397075.0 301258.0 0
402889.0 301562.0 0
407575.0 301534.0 0
411395.0 302523.0 0
416301.0 301377.0 0
421526.0 301168.0 0
427083.0 300519.0 0
431817.0 302816.0 0
436293.0 300385.0 0
442644.0 301753.0 0
449579.0 301773.0 0
454961.0 301169.0 0
459054.0 302174.0 0
462517.0 299927.0 0
466481.0 301805.0 0
470831.0 302410.0 0
475094.0 302187.0 0
479837.0 302668.0 0
485485.0 303197.0 0
491402.0 302398.0 0
496521.0 302508.0 0
3164.66 308461.0 0
7867.06 305687.0 0
13205.0 305977.0 0
18016.6 307921.0 0
22913.6 306461.0 0
28302.9 306772.0 0
33682.6 306337.0 0
38742.3 306687.0 0
42463.9 306526.0 0
47500.0 306304.0 0
52542.0 306560.0 0
57788.3 308129.0 0
62773.2 306603.0 0
67039.1 306503.0 0
72935.3 307626.0 0
78321.2 307852.0 0
82589.4 306449.0 0
87058.1 307077.0 0
92062.4 305282.0 0
97668.8 306509.0 0
102292.0 306315.0 0
107403.0 306901.0 0
113341.0 306096.0 0
121261.0 305205.0 0
117552.0 307442.0 0
125813.0 307858.0 0
129872.0 305388.0 0
135592.0 305569.0 0
141845.0 305575.0 0
147664.0 307697.0 0
152857.0 307021.0 0
156999.0 306847.0 0
162601.0 306941.0 0
168650.0 306880.0 0
173718.0 307903.0 0
178574.0 306372.0 0
183170.0 308010.0 0
188070.0 305376.0 0
193450.0 306892.0 0
197949.0 305596.0 0
202785.0 306315.0 0
206604.0 306729.0 0
210477.0 305993.0 0
215962.0 305573.0 0
222102.0 305957.0 0
227954.0 306442.0 0
232925.0 305563.0 0
237627.0 306130.0 0
243198.0 305986.0 0
248580.0 306236.0 0
254355.0 306386.0 0
259200.0 305894.0 0
262943.0 307352.0 0
270768.0 306358.0 0
276863.0 305088.0 0
282658.0 306489.0 0
287914.0 307904.0 0
292239.0 307631.0 0
298208.0 306541.0 0
305924.0 306042.0 0
310091.0 307557.0 0
311334.0 304758.0 0
313972.0 308131.0 0
318421.0 306389.0 0
322500.0 306590.0 0
328888.0 307206.0 0
333227.0 308144.0 0
336974.0 306120.0 0
341077.0 306063.0 0
346135.0 306232.0 0
357125.0 306052.0 0
352107.0 308307.0 0
361932.0 306525.0 0
372161.0 305129.0 0
367458.0 307862.0 0
377860.0 305576.0 0
383974.0 307975.0 0
389038.0 307511.0 0
392972.0 305323.0 0
398548.0 306696.0 0
404602.0 306727.0 0
408302.0 306755.0 0
411597.0 306816.0 0
415645.0 306172.0 0
420771.0 306655.0 0
427257.0 307068.0 0
432708.0 306880.0 0
437828.0 306937.0 0
443869.0 308001.0 0
448910.0 307886.0 0
453728.0 305996.0 0
458601.0 306263.0 0
462388.0 304399.0 0
466468.0 306686.0 0
471680.0 307070.0 0
476762.0 306752.0 0
482170.0 307523.0 0
489740.0 306526.0 0
493003.0 308531.0 0
497151.0 308500.0 0
2175.04 313708.0 0
6289.11 312661.0 0
11599.0 312091.0 0
17536.7 312384.0 0
22464.6 312132.0 0
27690.9 311833.0 0
32847.1 311717.0 0
37851.5 311221.0 0
42860.5 311326.0 0
47500.0 311388.0 0
52500.0 311307.0 0
57475.6 312591.0 0
62274.0 311660.0 0
67614.2 310889.0 0
72220.4 313346.0 0
77009.0 311742.0 0
81635.2 311354.0 0
86246.1 311199.0 0
91742.4 311695.0 0
97810.4 311897.0 0
102674.0 310883.0 0
106906.0 313046.0 0
111197.0 310968.0 0
115542.0 311760.0 0
120821.0 311086.0 0
126031.0 312690.0 0
131575.0 311370.0 0
137605.0 311756.0 0
143050.0 312151.0 0
152393.0 310961.0 0
148585.0 313497.0 0
156831.0 311527.0 0
161311.0 312718.0 0
165937.0 311429.0 0
170885.0 311829.0 0
176370.0 312456.0 0
181220.0 311550.0 0
186282.0 313481.0 0
190867.0 310260.0 0
196034.0 311244.0 0
202299.0 309991.0 0
207167.0 311731.0 0
212826.0 310159.0 0
217492.0 309953.0 0
221454.0 311457.0 0
226228.0 311292.0 0
231985.0 310607.0 0
236975.0 312819.0 0
240948.0 310267.0 0
246427.0 312234.0 0
252576.0 311664.0 0
257736.0 309869.0 0
257097.0 314357.0 0
262341.0 312442.0 0
267333.0 309506.0 0
272641.0 310451.0 0
277761.0 309798.0 0
276030.0 313960.0 0
283349.0 313504.0 0
289806.0 312445.0 0
295943.0 311692.0 0
301986.0 310687.0 0
308398.0 311521.0 0
313642.0 313262.0 0
318395.0 310959.0 0
325773.0 310917.0 0
322116.0 313591.0 0
330979.0 312699.0 0
336300.0 311815.0 0
342213.0 311458.0 0
347980.0 312402.0 0
352467.0 313961.0 0
357682.0 311863.0 0
363337.0 311454.0 0
372108.0 311247.0 0
367586.0 313945.0 0
377575.0 311539.0 0
382648.0 314267.0 0
388180.0 312383.0 0
393837.0 311002.0 0
403553.0 312526.0 0
409208.0 313293.0 0
413399.0 311005.0 0
418003.0 311635.0 0
422319.0 311699.0 0
427435.0 313818.0 0
432985.0 311137.0 0
437052.0 311863.0 0
442553.0 313485.0 0
447415.0 311268.0 0
451705.0 311847.0 0
455868.0 310269.0 0
461837.0 311559.0 0
468609.0 312271.0 0
474674.0 312159.0 0
480002.0 311596.0 0
486618.0 311750.0 0
493177.0 312906.0 0
498364.0 312820.0 0
2646.42 317990.0 0
6704.61 316538.0 0
11883.4 318878.0 0
17237.6 316881.0 0
21689.7 317006.0 0
26626.0 317035.0 0
32270.6 317172.0 0
37800.8 316292.0 0
42911.0 316441.0 0
48373.5 316261.0 0
53049.3 316489.0 0
57491.5 316876.0 0
62500.0 316474.0 0
67351.0 316497.0 0
72974.1 317683.0 0
77095.1 316671.0 0
80950.3 316657.0 0
86602.6 316371.0 0
92663.8 318289.0 0
98143.5 316942.0 0
102894.0 315897.0 0
107107.0 318398.0 0
112146.0 316275.0 0
117792.0 316143.0 0
127513.0 316410.0 0
123044.0 317805.0 0
131664.0 318166.0 0
135070.0 315255.0 0
139818.0 317847.0 0
146670.0 318713.0 0
153486.0 316798.0 0
159476.0 317252.0 0
165987.0 316643.0 0
171485.0 317065.0 0
177304.0 318681.0 0
183229.0 318719.0 0
191961.0 314991.0 0
188867.0 319100.0 0
196043.0 318812.0 0
201377.0 314968.0 0
206560.0 318402.0 0
212027.0 315924.0 0
217759.0 314663.0 0
222973.0 316131.0 0
228679.0 316310.0 0
233696.0 315601.0 0
237042.0 317113.0 0
241235.0 315594.0 0
246311.0 318661.0 0
251842.0 317110.0 0
258278.0 319335.0 0
263321.0 318028.0 0
268778.0 315469.0 0
274237.0 318157.0 0
278942.0 316903.0 0
288452.0 317209.0 0
293507.0 317354.0 0
299978.0 316806.0 0
305020.0 315031.0 0
304802.0 319111.0 0
308626.0 317271.0 0
313218.0 318198.0 0
316628.0 316180.0 0
320491.0 317710.0 0
326605.0 317339.0 0
333849.0 317641.0 0
338660.0 316207.0 0
342794.0 316940.0 0
347411.0 317374.0 0
352855.0 318786.0 0
357812.0 317647.0 0
362642.0 316282.0 0
367028.0 318297.0 0
371831.0 316674.0 0
377404.0 317441.0 0
382625.0 318622.0 0
386620.0 317894.0 0
391985.0 317178.0 0
397816.0 314835.0 0
396552.0 318953.0 0
401653.0 319248.0 0
406994.0 317472.0 0
411818.0 316989.0 0
417030.0 316179.0 0
422588.0 317417.0 0
432170.0 317716.0 0
437967.0 317086.0 0
442934.0 319039.0 0
448185.0 316314.0 0
452076.0 319469.0 0
455985.0 316168.0 0
461574.0 318116.0 0
466238.0 316784.0 0
471917.0 318481.0 0
477546.0 316982.0 0
481992.0 315569.0 0
481350.0 319413.0 0
486491.0 319039.0 0
491855.0 318010.0 0
497016.0 317603.0 0
162837.0 320282.0 0
201297.0 320398.0 0
204583.0 322909.0 0
210922.0 321579.0 0
216551.0 320391.0 0
222593.0 321870.0 0
228077.0 321723.0 0
234152.0 320397.0 0
236724.0 323760.0 0
240463.0 321365.0 0
244594.0 324577.0 0
248940.0 323311.0 0
253420.0 321929.0 0
261210.0 322314.0 0
270457.0 321012.0 0
265614.0 322971.0 0
278403.0 322370.0 0
284356.0 319882.0 0
283255.0 324493.0 0
289706.0 321743.0 0
296870.0 322129.0 0
302120.0 322653.0 0
427264.0 319583.0 0
199917.0 325400.0 0
204842.0 327030.0 0
209842.0 326624.0 0
215941.0 326494.0 0
221341.0 327265.0 0
226837.0 327211.0 0
231694.0 324922.0 0
235521.0 326927.0 0
240469.0 327429.0 0
245994.0 329663.0 0
252304.0 326849.0 0
257805.0 324876.0 0
262058.0 325518.0 0
262774.0 329585.0 0
271209.0 326126.0 0
276171.0 327712.0 0
280681.0 327568.0 0
284325.0 328809.0 0
287064.0 325990.0 0
293028.0 326678.0 0
299282.0 327493.0 0
200872.0 331688.0 0
207127.0 331564.0 0
212658.0 330884.0 0
218376.0 332187.0 0
223519.0 331200.0 0
227517.0 333223.0 0
231962.0 330213.0 0
236843.0 330609.0 0
236270.0 334669.0 0
241100.0 333156.0 0
250782.0 331240.0 0
256717.0 331245.0 0
261566.0 334464.0 0
267869.0 330317.0 0
273186.0 332473.0 0
278679.0 331580.0 0
283191.0 332595.0 0
288546.0 331290.0 0
294019.0 332231.0 0
298074.0 332178.0 0
202608.0 338022.0 0
208561.0 337080.0 0
213806.0 335976.0 0
218934.0 337549.0 0
223959.0 337185.0 0
228434.0 337852.0 0
231842.0 335580.0 0
240686.0 337230.0 0
246431.0 335533.0 0
252241.0 336011.0 0
257294.0 337166.0 0
261781.0 339775.0 0
266586.0 335551.0 0
271814.0 337254.0 0
276681.0 336503.0 0
279425.0 339244.0 0
280825.0 335501.0 0
285633.0 336457.0 0
291294.0 336174.0 0
297202.0 336822.0 0
341742.0 339095.0 0
10310.7 341430.0 0
206498.0 342563.0 0
210652.0 341025.0 0
215493.0 341472.0 0
221087.0 341777.0 0
226767.0 342787.0 0
231462.0 340184.0 0
237075.0 340117.0 0
243185.0 340062.0 0
248825.0 340902.0 0
254630.0 341171.0 0
258729.0 344646.0 0
268282.0 342012.0 0
274476.0 340598.0 0
278597.0 343325.0 0
283425.0 341433.0 0
289009.0 340896.0 0
293773.0 340346.0 0
297466.0 343121.0 0
309756.0 342960.0 0
48261.5 348855.0 0
174681.0 347880.0 0
202194.0 345189.0 0
201805.0 349968.0 0
206553.0 347859.0 0
211731.0 345978.0 0
217246.0 346987.0 0
222542.0 346610.0 0
228289.0 347371.0 0
232424.0 345237.0 0
237333.0 345490.0 0
242175.0 345549.0 0
247917.0 346783.0 0
253496.0 346385.0 0
258800.0 349832.0 0
262757.0 347280.0 0
267391.0 348284.0 0
272846.0 347026.0 0
278935.0 349044.0 0
282456.0 345604.0 0
286650.0 347445.0 0
292469.0 345686.0 0
297336.0 349572.0 0
362467.0 349104.0 0
368610.0 348886.0 0
389098.0 347951.0 0
404603.0 346217.0 0
421499.0 347488.0 0
443009.0 347135.0 0
455114.0 347517.0 0
472319.0 348260.0 0
492537.0 349237.0 0
497243.0 347085.0 0
6878.9 351241.0 0
56374.4 352768.0 0
63868.7 352778.0 0
68827.6 353797.0 0
79658.9 354531.0 0
85031.3 355229.0 0
96187.4 353045.0 0
100416.0 352492.0 0
107589.0 354229.0 0
115161.0 354531.0 0
121008.0 354424.0 0
126005.0 352212.0 0
154054.0 354834.0 0
158565.0 354228.0 0
167796.0 351103.0 0
177286.0 351933.0 0
191569.0 353085.0 0
196244.0 354013.0 0
201302.0 354322.0 0
205584.0 352761.0 0
210807.0 351655.0 0
215886.0 351818.0 0
220422.0 351076.0 0
225667.0 350785.0 0
231561.0 351338.0 0
237666.0 350408.0 0
242416.0 353481.0 0
248126.0 352793.0 0
253863.0 351727.0 0
258930.0 354238.0 0
263529.0 352420.0 0
269142.0 353395.0 0
274197.0 352226.0 0
283840.0 352536.0 0
288326.0 352026.0 0
292267.0 350962.0 0
297046.0 354564.0 0
309917.0 354466.0 0
317421.0 351180.0 0
322450.0 352571.0 0
357807.0 350687.0 0
374583.0 351528.0 0
391310.0 354630.0 0
437044.0 350777.0 0
461586.0 351378.0 0
471850.0 355236.0 0
476569.0 351504.0 0
481239.0 352596.0 0
14254.8 355794.0 0
17655.2 359110.0 0
22442.4 357109.0 0
30433.9 357014.0 0
36537.1 357547.0 0
48339.7 359758.0 0
53010.0 359756.0 0
75161.9 355833.0 0
93065.2 359146.0 0
111005.0 356073.0 0
124422.0 359399.0 0
131855.0 356535.0 0
137504.0 355548.0 0
142262.0 357800.0 0
150902.0 359123.0 0
173222.0 356956.0 0
178733.0 355305.0 0
178041.0 358806.0 0
204516.0 357385.0 0
208433.0 355750.0 0
213552.0 356501.0 0
209781.0 360092.0 0
218099.0 355558.0 0
222562.0 355262.0 0
220528.0 359417.0 0
227667.0 356036.0 0
233200.0 357050.0 0
238312.0 356486.0 0
241867.0 358323.0 0
245457.0 357287.0 0
251024.0 357669.0 0
255523.0 356262.0 0
257861.0 360136.0 0
261663.0 356679.0 0
267164.0 358397.0 0
272986.0 356476.0 0
277691.0 355996.0 0
282022.0 356468.0 0
284323.0 358725.0 0
287354.0 356191.0 0
292547.0 355957.0 0
296517.0 358887.0 0
322451.0 357283.0 0
326630.0 358041.0 0
330913.0 358316.0 0
339605.0 357660.0 0
345114.0 359852.0 0
388655.0 359166.0 0
396056.0 356068.0 0
417118.0 357141.0 0
423600.0 355439.0 0
426610.0 359009.0 0
431907.0 359711.0 0
439714.0 357999.0 0
444222.0 360257.0 0
449230.0 357150.0 0
458451.0 360016.0 0
462790.0 357827.0 0
466760.0 356640.0 0
479717.0 357880.0 0
484429.0 357960.0 0
497839.0 356536.0 0
7884.59 361469.0 0
14588.8 362618.0 0
30589.4 363215.0 0
40985.6 361951.0 0
45936.2 363427.0 0
88220.9 361220.0 0
92904.6 364154.0 0
96476.5 365592.0 0
97919.2 361270.0 0
102252.0 363444.0 0
113050.0 363436.0 0
119150.0 361419.0 0
126289.0 363619.0 0
146000.0 361252.0 0
155278.0 362489.0 0
169989.0 362207.0 0
177779.0 362994.0 0
189052.0 363412.0 0
194933.0 364340.0 0
200007.0 362299.0 0
204898.0 362494.0 0
215500.0 362054.0 0
222557.0 363650.0 0
226395.0 361055.0 0
231157.0 361925.0 0
236586.0 361501.0 0
241586.0 362081.0 0
247359.0 362733.0 0
253394.0 362141.0 0
262749.0 360871.0 0
267176.0 363768.0 0
271625.0 360881.0 0
280489.0 360639.0 0
275984.0 362536.0 0
287579.0 361104.0 0
292230.0 360844.0 0
295888.0 363837.0 0
300033.0 361519.0 0
304397.0 361932.0 0
305426.0 365775.0 0
308809.0 361405.0 0
313934.0 363985.0 0
318192.0 361327.0 0
335045.0 360975.0 0
342090.0 363290.0 0
348027.0 363407.0 0
377581.0 363375.0 0
383532.0 362072.0 0
390680.0 363062.0 0
393962.0 360952.0 0
398883.0 363108.0 0
403283.0 364084.0 0
407253.0 360275.0 0
412947.0 362529.0 0
422386.0 360904.0 0
436080.0 361548.0 0
473827.0 364664.0 0
478880.0 363099.0 0
489239.0 360885.0 0
492521.0 364883.0 0
497251.0 364896.0 0
2597.77 364585.0 0
1468.44 372099.0 0
4652.31 369502.0 0
10143.4 367679.0 0
8622.87 371648.0 0
8566.45 375941.0 0
11557.9 375018.0 0
18911.2 364945.0 0
15797.8 374157.0 0
23863.7 375355.0 0
19937.6 371338.0 0
27252.5 367268.0 0
34409.7 375301.0 0
32726.6 371132.0 0
37311.7 365547.0 0
35817.8 378438.0 0
37854.1 375281.0 0
41464.4 375140.0 0
44559.6 368908.0 0
49613.7 369844.0 0
53451.3 371387.0 0
54917.4 366417.0 0
60741.4 367466.0 0
65223.0 370608.0 0
69972.2 375133.0 0
73260.8 369503.0 0
74111.8 375212.0 0
79512.5 370204.0 0
85759.2 366435.0 0
91007.5 366568.0 0
87648.6 375316.0 0
91088.5 375312.0 0
95446.6 375348.0 0
98252.0 371161.0 0
100495.0 367863.0 0
105708.0 366468.0 0
101354.0 372441.0 0
103641.0 375291.0 0
106873.0 375305.0 0
111089.0 375298.0 0
116480.0 375284.0 0
119534.0 369019.0 0
123379.0 371455.0 0
125202.0 374127.0 0
127541.0 368369.0 0
132616.0 366902.0 0
137168.0 365236.0 0
136805.0 375376.0 0
140548.0 369065.0 0
146466.0 369822.0 0
149784.0 373852.0 0
153863.0 375535.0 0
157507.0 375262.0 0
162562.0 373372.0 0
158828.0 371536.0 0
167304.0 366684.0 0
170879.0 370274.0 0
175796.0 369384.0 0
181465.0 369854.0 0
177624.0 373242.0 0
183237.0 364828.0 0
184530.0 375194.0 0
189802.0 375140.0 0
195033.0 375237.0 0
198956.0 375642.0 0
204432.0 367948.0 0
209139.0 365488.0 0
213423.0 368564.0 0
218798.0 367136.0 0
223142.0 367536.0 0
226960.0 365881.0 0
232139.0 367153.0 0
237505.0 366902.0 0
242652.0 366698.0 0
247358.0 369117.0 0
252245.0 367078.0 0
257583.0 365560.0 0
262627.0 365530.0 0
265877.0 369295.0 0
272396.0 366557.0 0
278233.0 366596.0 0
283920.0 365439.0 0
281343.0 369985.0 0
290425.0 366280.0 0
295493.0 370107.0 0
301077.0 369415.0 0
305475.0 371595.0 0
309609.0 370044.0 0
309752.0 365508.0 0
313142.0 371671.0 0
321272.0 375239.0 0
316428.0 375173.0 0
325723.0 375399.0 0
330098.0 372360.0 0
334695.0 368762.0 0
341037.0 368097.0 0
341047.0 375241.0 0
343785.0 375772.0 0
351457.0 372103.0 0
347187.0 375126.0 0
355739.0 375147.0 0
360462.0 366196.0 0
365130.0 362595.0 0
364511.0 375186.0 0
368573.0 365586.0 0
374396.0 368091.0 0
380678.0 368379.0 0
388127.0 369966.0 0
385328.0 366893.0 0
390366.0 375209.0 0
394857.0 365763.0 0
393619.0 375261.0 0
398755.0 367183.0 0
402626.0 368958.0 0
406436.0 371706.0 0
411076.0 370022.0 0
415126.0 366964.0 0
417827.0 372972.0 0
422606.0 375409.0 0
426541.0 375323.0 0
431773.0 365233.0 0
435173.0 375183.0 0
439303.0 371858.0 0
443158.0 375177.0 0
447271.0 375131.0 0
454300.0 375421.0 0
450877.0 375476.0 0
457883.0 375328.0 0
460940.0 375370.0 0
462565.0 367647.0 0
468005.0 369306.0 0
472749.0 370340.0 0
473724.0 375247.0 0
477935.0 375212.0 0
483291.0 366698.0 0
482335.0 375381.0 0
488293.0 368146.0 0
492138.0 375018.0 0
494556.0 370459.0 0
498490.0 372412.0 0
1554.03 376013.0 0
4778.19 379041.0 0
5104.63 375563.0 0
9091.25 379643.0 0
13402.4 377851.0 0
18467.2 377199.0 0
21227.4 375717.0 0
22076.0 378965.0 0
25104.8 378075.0 0
28350.5 375196.0 0
28329.4 379507.0 0
31870.8 377332.0 0
39645.2 378081.0 0
42643.7 377837.0 0
44823.0 375257.0 0
45736.1 378542.0 0
42535.1 380977.0 0
48388.8 375645.0 0
51801.2 375400.0 0
55605.4 375127.0 0
53750.1 378183.0 0
59233.0 375625.0 0
57162.1 377678.0 0
60089.4 379046.0 0
62498.9 375502.0 0
65987.9 375993.0 0
63047.8 378618.0 0
69327.6 378527.0 0
66313.6 380296.0 0
77190.2 375689.0 0
73565.1 378930.0 0
80816.7 377174.0 0
77604.0 379474.0 0
84098.9 375327.0 0
86714.4 379637.0 0
91366.7 378704.0 0
99477.8 377274.0 0
103345.0 378717.0 0
106866.0 378013.0 0
109702.0 378963.0 0
113816.0 378027.0 0
117495.0 379259.0 0
120607.0 375535.0 0
123542.0 376304.0 0
123018.0 378211.0 0
120573.0 378771.0 0
126662.0 378301.0 0
128159.0 375458.0 0
134188.0 377667.0 0
130679.0 378817.0 0
132083.0 375126.0 0
135858.0 378131.0 0
137838.0 378927.0 0
140258.0 376123.0 0
144205.0 375482.0 0
147425.0 376358.0 0
145747.0 380116.0 0
149724.0 378598.0 0
152940.0 378006.0 0
156796.0 378399.0 0
154213.0 380798.0 0
160264.0 376331.0 0
163754.0 376960.0 0
160964.0 379298.0 0
166746.0 375341.0 0
167388.0 378619.0 0
164502.0 380404.0 0
170122.0 375631.0 0
171707.0 379663.0 0
173632.0 375276.0 0
176206.0 377334.0 0
175907.0 381040.0 0
178941.0 376665.0 0
179158.0 379942.0 0
182388.0 378365.0 0
180785.0 375463.0 0
186497.0 377900.0 0
189771.0 380745.0 0
193198.0 378224.0 0
196344.0 378884.0 0
199179.0 379007.0 0
208789.0 370745.0 0
204436.0 373521.0 0
212324.0 373397.0 0
217190.0 373754.0 0
221857.0 371410.0 0
226650.0 370824.0 0
231284.0 372471.0 0
237197.0 372837.0 0
242858.0 371718.0 0
247597.0 373547.0 0
251244.0 372183.0 0
255838.0 370831.0 0
261651.0 371197.0 0
269691.0 373245.0 0
265120.0 374191.0 0
275938.0 372373.0 0
281923.0 374889.0 0
286245.0 371042.0 0
291176.0 373753.0 0
295722.0 375767.0 0
303528.0 375214.0 0
300649.0 376301.0 0
304374.0 378549.0 0
305897.0 376059.0 0
309412.0 375583.0 0
312994.0 376919.0 0
319111.0 378635.0 0
315548.0 379544.0 0
322866.0 378056.0 0
326717.0 378495.0 0
323636.0 380762.0 0
329105.0 375942.0 0
331546.0 377047.0 0
329555.0 378946.0 0
333427.0 375495.0 0
340697.0 377453.0 0
337101.0 375854.0 0
346456.0 378036.0 0
343480.0 378849.0 0
347609.0 379974.0 0
349980.0 376735.0 0
353256.0 377238.0 0
357700.0 377934.0 0
355603.0 382065.0 0
360038.0 375259.0 0
362286.0 377922.0 0
367882.0 375867.0 0
369433.0 370959.0 0
370440.0 377396.0 0
372878.0 375379.0 0
377435.0 375126.0 0
372515.0 379587.0 0
375644.0 378929.0 0
380118.0 377450.0 0
383508.0 375209.0 0
387570.0 376299.0 0
388989.0 379113.0 0
391571.0 377892.0 0
397714.0 375035.0 0
395178.0 378585.0 0
402020.0 375313.0 0
399759.0 378949.0 0
403452.0 378587.0 0
405121.0 375640.0 0
407317.0 377673.0 0
409425.0 375477.0 0
413056.0 375302.0 0
411682.0 378981.0 0
415342.0 377608.0 0
420149.0 377197.0 0
418021.0 378265.0 0
424836.0 378427.0 0
422077.0 380243.0 0
428127.0 378342.0 0
430594.0 375443.0 0
432308.0 378415.0 0
435974.0 379222.0 0
439156.0 376410.0 0
442269.0 378320.0 0
439634.0 381081.0 0
446847.0 378173.0 0
450748.0 378442.0 0
454408.0 378642.0 0
449460.0 381951.0 0
453560.0 381965.0 0
458019.0 378534.0 0
462313.0 378233.0 0
464429.0 375159.0 0
465418.0 379058.0 0
467603.0 376355.0 0
470892.0 375365.0 0
474586.0 377579.0 0
471295.0 378625.0 0
478651.0 379025.0 0
482256.0 378282.0 0
485940.0 375746.0 0
489095.0 375401.0 0
489447.0 378011.0 0
492670.0 377752.0 0
495500.0 375793.0 0
498350.0 376675.0 0
1677.47 379445.0 0
2073.15 383348.0 0
6126.25 382794.0 0
12910.4 381684.0 0
10514.9 384685.0 0
16265.1 380101.0 0
19334.1 381107.0 0
16017.8 384246.0 0
22504.9 381907.0 0
20522.9 385067.0 0
24701.8 384667.0 0
25441.2 381155.0 0
28341.4 383443.0 0
31450.7 381333.0 0
34259.7 380431.0 0
34774.6 383337.0 0
38419.9 381666.0 0
42622.8 383952.0 0
46122.1 382094.0 0
49670.5 379612.0 0
49436.2 384624.0 0
53097.2 382238.0 0
56791.1 380566.0 0
59482.5 382450.0 0
56524.6 384187.0 0
62820.5 382519.0 0
66481.6 383669.0 0
70425.4 382663.0 0
75700.0 382605.0 0
79971.0 382797.0 0
77740.1 385501.0 0
82609.2 380735.0 0
83957.9 383525.0 0
82155.1 385892.0 0
91084.9 382995.0 0
87680.2 384094.0 0
95051.6 380466.0 0
94533.1 385018.0 0
98746.6 382412.0 0
102189.0 382120.0 0
106488.0 381998.0 0
103721.0 385441.0 0
109600.0 382144.0 0
113118.0 381799.0 0
120733.0 382342.0 0
117336.0 383066.0 0
123879.0 380930.0 0
128085.0 382007.0 0
131287.0 381863.0 0
134317.0 380389.0 0
137500.0 382252.0 0
134033.0 384460.0 0
141459.0 380138.0 0
140195.0 384044.0 0
143719.0 384212.0 0
150853.0 382675.0 0
147723.0 383868.0 0
158214.0 382801.0 0
153948.0 385631.0 0
162340.0 383656.0 0
165913.0 383070.0 0
167620.0 381348.0 0
169561.0 383760.0 0
173934.0 384292.0 0
178166.0 383929.0 0
182112.0 382720.0 0
184968.0 380205.0 0
186303.0 383151.0 0
191863.0 384912.0 0
194942.0 382136.0 0
199062.0 382904.0 0
208828.0 376350.0 0
204232.0 379119.0 0
213590.0 378019.0 0
218481.0 380096.0 0
222474.0 376563.0 0
227959.0 376760.0 0
233368.0 377419.0 0
238684.0 379227.0 0
244337.0 377086.0 0
249693.0 376902.0 0
254123.0 377646.0 0
259216.0 375582.0 0
263833.0 378082.0 0
267931.0 377724.0 0
272518.0 377557.0 0
277676.0 378687.0 0
282741.0 380225.0 0
286949.0 377131.0 0
291803.0 378952.0 0
300969.0 380678.0 0
296059.0 379911.0 0
304810.0 382865.0 0
307951.0 379994.0 0
308921.0 384518.0 0
311960.0 380694.0 0
313013.0 384344.0 0
316270.0 382553.0 0
320179.0 382177.0 0
318483.0 384816.0 0
323496.0 384198.0 0
327355.0 382532.0 0
331691.0 381461.0 0
330813.0 385442.0 0
335037.0 379839.0 0
334041.0 383932.0 0
339737.0 381135.0 0
336378.0 383940.0 0
344971.0 381425.0 0
343334.0 384129.0 0
350786.0 380944.0 0
347492.0 383060.0 0
351208.0 385608.0 0
360139.0 380355.0 0
360312.0 384894.0 0
363100.0 381645.0 0
365709.0 379174.0 0
368597.0 380047.0 0
366132.0 384087.0 0
370895.0 382789.0 0
373998.0 382103.0 0
376579.0 383407.0 0
379077.0 380108.0 0
380285.0 383522.0 0
382451.0 379801.0 0
385685.0 379511.0 0
384620.0 383567.0 0
388965.0 382326.0 0
392432.0 381266.0 0
396488.0 382546.0 0
401080.0 382928.0 0
405143.0 381688.0 0
409028.0 380767.0 0
412279.0 382835.0 0
408700.0 384544.0 0
415026.0 380926.0 0
415547.0 384913.0 0
418606.0 382022.0 0
422846.0 383545.0 0
426128.0 381873.0 0
430273.0 380939.0 0
429473.0 384811.0 0
436697.0 382204.0 0
433861.0 382674.0 0
437837.0 385278.0 0
442340.0 384311.0 0
444717.0 381482.0 0
446396.0 384465.0 0
444984.0 386314.0 0
451897.0 384913.0 0
448964.0 385904.0 0
457286.0 382040.0 0
455671.0 385981.0 0
460672.0 381197.0 0
464466.0 382786.0 0
460448.0 384599.0 0
468234.0 380433.0 0
468171.0 384649.0 0
471023.0 382272.0 0
474827.0 381402.0 0
478915.0 383481.0 0
475736.0 385129.0 0
481669.0 381427.0 0
483741.0 383588.0 0
485943.0 379792.0 0
487877.0 384424.0 0
490832.0 381388.0 0
494923.0 380211.0 0
498555.0 380161.0 0
497725.0 384163.0 0
1739.05 387039.0 0
4389.21 389433.0 0
6024.99 386853.0 0
9834.07 388497.0 0
14101.1 388220.0 0
18667.8 388681.0 0
23264.6 388252.0 0
27390.5 387345.0 0
30182.9 389717.0 0
31658.2 385837.0 0
33630.0 389006.0 0
39605.3 385278.0 0
36270.3 386671.0 0
40113.7 388497.0 0
45363.1 385672.0 0
42304.6 386833.0 0
43948.9 388925.0 0
47597.3 388347.0 0
53267.4 385804.0 0
51415.5 388737.0 0
55998.0 388298.0 0
60049.8 386541.0 0
64349.8 385731.0 0
68132.1 386747.0 0
73503.1 386366.0 0
70868.5 389506.0 0
80114.0 386691.0 0
77683.6 388487.0 0
81844.6 389953.0 0
85431.6 387188.0 0
90279.1 387431.0 0
94718.0 389218.0 0
98947.9 386508.0 0
102396.0 389242.0 0
106161.0 388789.0 0
109223.0 385945.0 0
112377.0 389481.0 0
113987.0 385826.0 0
117391.0 386116.0 0
115854.0 388559.0 0
120844.0 385728.0 0
119094.0 388854.0 0
125064.0 385054.0 0
123365.0 389070.0 0
129970.0 385320.0 0
128151.0 388929.0 0
137425.0 386172.0 0
133286.0 388890.0 0
137816.0 389967.0 0
141495.0 387739.0 0
146434.0 387184.0 0
144381.0 390201.0 0
150241.0 387031.0 0
158474.0 387719.0 0
153639.0 389617.0 0
162993.0 387117.0 0
166293.0 386054.0 0
166132.0 389700.0 0
171321.0 386292.0 0
169229.0 387904.0 0
173226.0 388226.0 0
176856.0 387663.0 0
180695.0 386963.0 0
183845.0 388848.0 0
184071.0 385581.0 0
187980.0 386601.0 0
192175.0 389219.0 0
195802.0 386514.0 0
196000.0 389911.0 0
198905.0 389360.0 0
199309.0 386740.0 0
203643.0 384248.0 0
209334.0 381791.0 0
214609.0 383713.0 0
223563.0 381611.0 0
220186.0 384035.0 0
229423.0 381750.0 0
226852.0 384962.0 0
234290.0 382567.0 0
238553.0 384234.0 0
242783.0 382781.0 0
247902.0 381738.0 0
252191.0 380989.0 0
251816.0 385556.0 0
256057.0 382451.0 0
260920.0 381455.0 0
265511.0 381965.0 0
269996.0 381692.0 0
274807.0 383581.0 0
281446.0 384942.0 0
287582.0 382913.0 0
292971.0 383672.0 0
300565.0 389445.0 0
297083.0 383483.0 0
301336.0 385476.0 0
305432.0 386190.0 0
304169.0 389111.0 0
308127.0 388283.0 0
311887.0 388062.0 0
316259.0 387042.0 0
319405.0 389808.0 0
321057.0 386243.0 0
326122.0 386779.0 0
323073.0 388788.0 0
329925.0 389545.0 0
335043.0 388608.0 0
339428.0 386256.0 0
339853.0 390131.0 0
343135.0 388371.0 0
346644.0 385905.0 0
352622.0 389489.0 0
356015.0 387306.0 0
362942.0 387895.0 0
367250.0 389171.0 0
370394.0 386477.0 0
374132.0 386150.0 0
377950.0 386847.0 0
381109.0 386746.0 0
385058.0 388798.0 0
388873.0 386004.0 0
390443.0 389411.0 0
392979.0 385222.0 0
394356.0 389103.0 0
398057.0 386826.0 0
401676.0 386362.0 0
404700.0 385918.0 0
411776.0 387099.0 0
407729.0 388830.0 0
415325.0 388788.0 0
420116.0 386607.0 0
419115.0 390521.0 0
425339.0 386332.0 0
423755.0 390403.0 0
428771.0 389040.0 0
433188.0 387082.0 0
437302.0 390215.0 0
441805.0 388534.0 0
447152.0 389275.0 0
451936.0 388349.0 0
459403.0 388749.0 0
464153.0 387650.0 0
468736.0 388946.0 0
472430.0 385846.0 0
472685.0 389436.0 0
477366.0 388605.0 0
481248.0 386239.0 0
484844.0 387523.0 0
489522.0 388581.0 0
493152.0 385362.0 0
497840.0 388619.0 0
1506.33 390306.0 0
1526.69 393844.0 0
4462.91 392651.0 0
7608.91 391381.0 0
9642.0 394620.0 0
12027.8 391907.0 0
16319.9 392215.0 0
21672.0 392605.0 0
26305.2 390938.0 0
29238.5 393302.0 0
25925.7 394568.0 0
33206.6 392166.0 0
37028.2 390285.0 0
36709.1 394080.0 0
41469.1 392260.0 0
49268.7 390854.0 0
46348.3 392259.0 0
50831.6 392961.0 0
54055.2 391854.0 0
58665.3 391809.0 0
56047.5 394111.0 0
63501.3 390216.0 0
62081.1 395225.0 0
67892.6 390696.0 0
70809.7 393113.0 0
66581.1 394448.0 0
74317.1 390859.0 0
77822.3 391674.0 0
86726.2 390990.0 0
84044.1 393780.0 0
87262.4 395400.0 0
90954.1 392359.0 0
95547.6 394351.0 0
98949.5 390989.0 0
100738.0 394128.0 0
104382.0 392646.0 0
108815.0 391174.0 0
112414.0 393715.0 0
115958.0 391811.0 0
120347.0 392671.0 0
125877.0 393396.0 0
130999.0 392316.0 0
133019.0 394666.0 0
134881.0 392692.0 0
141305.0 392035.0 0
138237.0 393467.0 0
145016.0 393738.0 0
149343.0 391050.0 0
157184.0 391890.0 0
153509.0 393671.0 0
162080.0 390951.0 0
159699.0 393970.0 0
162777.0 394321.0 0
166560.0 393059.0 0
170946.0 391628.0 0
175445.0 390970.0 0
175464.0 395354.0 0
179383.0 391001.0 0
183681.0 392549.0 0
180110.0 394420.0 0
187922.0 390651.0 0
187868.0 394751.0 0
191102.0 392878.0 0
198498.0 392611.0 0
194461.0 392747.0 0
203446.0 389889.0 0
207591.0 386984.0 0
212219.0 387983.0 0
218027.0 387957.0 0
223137.0 386764.0 0
226947.0 390311.0 0
230960.0 386579.0 0
235813.0 387542.0 0
240700.0 387814.0 0
246027.0 387263.0 0
251904.0 390134.0 0
256659.0 387489.0 0
260073.0 390611.0 0
262181.0 386363.0 0
267670.0 386517.0 0
272719.0 388561.0 0
277927.0 388097.0 0
284948.0 387741.0 0
290343.0 388244.0 0
295939.0 387772.0 0
301979.0 393064.0 0
306913.0 391789.0 0
310410.0 390865.0 0
314990.0 391819.0 0
310966.0 394504.0 0
319532.0 393848.0 0
322387.0 391827.0 0
326216.0 391433.0 0
323244.0 394384.0 0
331184.0 393379.0 0
327082.0 395287.0 0
334869.0 393046.0 0
338131.0 392750.0 0
343216.0 392931.0 0
347992.0 390184.0 0
355834.0 391896.0 0
352141.0 393026.0 0
359483.0 389840.0 0
363163.0 392205.0 0
359144.0 394337.0 0
371942.0 390092.0 0
368261.0 394218.0 0
375991.0 389723.0 0
373689.0 393748.0 0
380115.0 389829.0 0
378106.0 393559.0 0
383035.0 393117.0 0
388097.0 393291.0 0
393510.0 393517.0 0
397641.0 390913.0 0
399292.0 394288.0 0
402557.0 390168.0 0
407614.0 392494.0 0
404008.0 393806.0 0
411477.0 390797.0 0
411375.0 394530.0 0
415252.0 392688.0 0
419938.0 393922.0 0
428228.0 392541.0 0
424467.0 394554.0 0
432657.0 391096.0 0
431930.0 394467.0 0
436048.0 393880.0 0
443280.0 392106.0 0
440054.0 393123.0 0
447019.0 393183.0 0
451056.0 391943.0 0
455156.0 390587.0 0
458806.0 392964.0 0
454413.0 394088.0 0
462440.0 391792.0 0
462643.0 395137.0 0
465744.0 392143.0 0
474704.0 392100.0 0
470467.0 393114.0 0
478906.0 393176.0 0
481791.0 390217.0 0
483902.0 394182.0 0
486122.0 390660.0 0
489292.0 392997.0 0
493637.0 390362.0 0
493425.0 394774.0 0
497983.0 392539.0 0
1334.19 396684.0 0
2107.27 400068.0 0
5681.34 396629.0 0
13672.7 395896.0 0
10284.9 398545.0 0
18209.7 396590.0 0
23381.9 397679.0 0
28137.1 397172.0 0
32092.9 396092.0 0
40555.2 396308.0 0
36143.4 398623.0 0
40106.3 399004.0 0
44515.0 395830.0 0
43078.8 399146.0 0
48715.2 395769.0 0
46599.5 398449.0 0
50640.7 399758.0 0
53417.6 396295.0 0
57995.2 396494.0 0
56101.1 400340.0 0
61017.8 399696.0 0
65310.7 398383.0 0
69895.3 397002.0 0
74809.4 395560.0 0
80162.3 394884.0 0
78337.4 398985.0 0
83525.1 398302.0 0
91195.8 397133.0 0
87522.8 399122.0 0
95159.5 399417.0 0
99089.7 396948.0 0
103421.0 397106.0 0
107931.0 395163.0 0
107633.0 399449.0 0
111920.0 397622.0 0
116812.0 396160.0 0
114978.0 399659.0 0
121997.0 396866.0 0
126982.0 398782.0 0
123176.0 399893.0 0
129745.0 395540.0 0
132003.0 397614.0 0
130512.0 400032.0 0
136409.0 396699.0 0
141083.0 395611.0 0
145017.0 397813.0 0
149296.0 395674.0 0
149110.0 400013.0 0
157277.0 395797.0 0
153705.0 398423.0 0
160721.0 396976.0 0
158419.0 399713.0 0
162816.0 400222.0 0
165269.0 396943.0 0
168072.0 399972.0 0
169993.0 396011.0 0
172242.0 399040.0 0
183285.0 395940.0 0
180133.0 398631.0 0
185821.0 398457.0 0
192209.0 395665.0 0
190017.0 397944.0 0
193638.0 399632.0 0
195761.0 395896.0 0
198559.0 399321.0 0
199196.0 395687.0 0
203827.0 395550.0 0
208458.0 392196.0 0
214502.0 392958.0 0
220067.0 392636.0 0
224063.0 394166.0 0
232058.0 391581.0 0
237392.0 392506.0 0
242955.0 391438.0 0
241605.0 395598.0 0
247910.0 393152.0 0
255723.0 392595.0 0
264766.0 391322.0 0
269382.0 391666.0 0
275490.0 393281.0 0
281884.0 392799.0 0
288134.0 393443.0 0
293874.0 393010.0 0
301218.0 397658.0 0
304945.0 399436.0 0
305980.0 395665.0 0
309903.0 399126.0 0
316038.0 397311.0 0
323928.0 396602.0 0
321190.0 397152.0 0
330334.0 397537.0 0
335014.0 397172.0 0
339778.0 395840.0 0
339469.0 399754.0 0
344356.0 398378.0 0
348511.0 395344.0 0
349938.0 399598.0 0
354501.0 397238.0 0
359504.0 398308.0 0
363432.0 396847.0 0
367231.0 399666.0 0
371551.0 396979.0 0
371733.0 400156.0 0
376038.0 398031.0 0
381164.0 396943.0 0
385438.0 396254.0 0
384748.0 399719.0 0
389862.0 398163.0 0
395542.0 397731.0 0
402649.0 396762.0 0
399645.0 398267.0 0
407061.0 396817.0 0
411652.0 398581.0 0
416052.0 396952.0 0
421346.0 397605.0 0
425239.0 398489.0 0
428605.0 396664.0 0
432659.0 398601.0 0
434339.0 395918.0 0
436048.0 397142.0 0
437451.0 400199.0 0
439328.0 396293.0 0
441594.0 399018.0 0
443966.0 396156.0 0
446338.0 400565.0 0
449677.0 396514.0 0
451901.0 400721.0 0
458175.0 396442.0 0
454320.0 397709.0 0
461227.0 398072.0 0
466667.0 395667.0 0
464361.0 398628.0 0
468142.0 399429.0 0
470695.0 396699.0 0
472864.0 399892.0 0
475021.0 395859.0 0
479809.0 396818.0 0
477101.0 399007.0 0
483611.0 398403.0 0
488373.0 397593.0 0
493337.0 399616.0 0
497846.0 396243.0 0
2096.29 404096.0 0
6567.58 401957.0 0
9448.11 405130.0 0
14861.6 400543.0 0
10857.9 402386.0 0
13051.4 405038.0 0
19641.0 400588.0 0
17921.4 405151.0 0
23166.0 402354.0 0
26713.3 400302.0 0
27687.6 404175.0 0
31252.9 400804.0 0
35532.8 402832.0 0
39656.4 402198.0 0
42777.8 402171.0 0
42533.9 405022.0 0
45957.8 402172.0 0
49354.7 404156.0 0
53021.5 403116.0 0
56053.7 404927.0 0
59870.3 403616.0 0
64863.2 403052.0 0
68696.1 400537.0 0
69644.2 404081.0 0
73235.0 400310.0 0
73897.2 404628.0 0
77109.8 402416.0 0
81333.8 401918.0 0
85730.8 402261.0 0
83596.3 404980.0 0
90679.2 402501.0 0
96125.2 404250.0 0
99708.4 400532.0 0
101369.0 404917.0 0
103843.0 401186.0 0
106986.0 404658.0 0
111125.0 401830.0 0
115389.0 403706.0 0
119438.0 400536.0 0
120400.0 404799.0 0
124250.0 402870.0 0
129587.0 403243.0 0
134546.0 401423.0 0
137544.0 405273.0 0
140168.0 400578.0 0
145156.0 401631.0 0
152411.0 402787.0 0
148273.0 403913.0 0
155983.0 402688.0 0
160183.0 404016.0 0
165539.0 403532.0 0
171309.0 403483.0 0
175550.0 400614.0 0
175482.0 404705.0 0
179218.0 403300.0 0
188854.0 401194.0 0
183968.0 402200.0 0
192099.0 403845.0 0
197538.0 404094.0 0
208953.0 397218.0 0
205208.0 400108.0 0
213515.0 398709.0 0
218411.0 396907.0 0
223013.0 398602.0 0
228512.0 396370.0 0
233586.0 395902.0 0
232005.0 400850.0 0
237585.0 398043.0 0
241450.0 401172.0 0
245381.0 398251.0 0
249724.0 397952.0 0
254583.0 398011.0 0
260841.0 396324.0 0
267554.0 396407.0 0
273009.0 398320.0 0
278495.0 398140.0 0
282758.0 397759.0 0
286356.0 397931.0 0
290941.0 397727.0 0
295757.0 398166.0 0
301917.0 402520.0 0
306188.0 402053.0 0
308941.0 403295.0 0
313632.0 400464.0 0
312458.0 403162.0 0
320304.0 400820.0 0
316052.0 402099.0 0
318710.0 404541.0 0
325772.0 400362.0 0
328879.0 405658.0 0
331532.0 401545.0 0
339360.0 402990.0 0
335897.0 402390.0 0
342514.0 403107.0 0
346740.0 402194.0 0
345223.0 404736.0 0
350009.0 403076.0 0
353401.0 402136.0 0
362499.0 401318.0 0
357721.0 401873.0 0
365521.0 404132.0 0
369534.0 402882.0 0
374961.0 403606.0 0
379944.0 400918.0 0
383280.0 403207.0 0
387880.0 403524.0 0
393863.0 402342.0 0
398369.0 400741.0 0
399003.0 403998.0 0
402913.0 400889.0 0
407658.0 400446.0 0
406432.0 403753.0 0
410990.0 402815.0 0
415120.0 401504.0 0
419029.0 400555.0 0
418883.0 404524.0 0
423507.0 402111.0 0
426749.0 405117.0 0
428542.0 401170.0 0
433388.0 402444.0 0
430093.0 404691.0 0
437361.0 404551.0 0
441913.0 402810.0 0
449348.0 403812.0 0
453701.0 404558.0 0
457405.0 401174.0 0
457757.0 405445.0 0
462036.0 401184.0 0
461406.0 404650.0 0
465491.0 402915.0 0
469948.0 402386.0 0
473212.0 404153.0 0
476194.0 401971.0 0
480596.0 401164.0 0
482799.0 404267.0 0
485382.0 401435.0 0
488994.0 401662.0 0
492282.0 404201.0 0
498065.0 400244.0 0
497552.0 404099.0 0
1607.77 407752.0 0
6024.9 406923.0 0
10560.0 408096.0 0
14261.4 408661.0 0
20064.2 409067.0 0
23383.1 406670.0 0
27650.7 409093.0 0
32827.5 406389.0 0
38264.1 406168.0 0
41690.0 408830.0 0
46005.1 406946.0 0
51808.9 408798.0 0
58472.1 408434.0 0
62746.9 406705.0 0
63116.8 410409.0 0
67026.5 407647.0 0
70988.6 407300.0 0
74594.0 408322.0 0
78919.5 406203.0 0
83552.1 409241.0 0
87445.3 406261.0 0
92172.1 407797.0 0
98242.3 409033.0 0
103968.0 409275.0 0
111128.0 405712.0 0
109201.0 409008.0 0
113574.0 408247.0 0
117351.0 407308.0 0
120123.0 408394.0 0
126756.0 406242.0 0
123243.0 407544.0 0
130453.0 407989.0 0
133334.0 405489.0 0
134788.0 409955.0 0
139678.0 409289.0 0
143078.0 405675.0 0
151696.0 406162.0 0
147807.0 408205.0 0
152148.0 409973.0 0
155746.0 406623.0 0
160084.0 409010.0 0
163591.0 406636.0 0
168144.0 407371.0 0
164682.0 409539.0 0
173534.0 409266.0 0
177970.0 406975.0 0
182409.0 406899.0 0
187344.0 405270.0 0
186442.0 409585.0 0
190739.0 408259.0 0
194281.0 407246.0 0
196489.0 408696.0 0
199227.0 408128.0 0
202315.0 402225.0 0
209151.0 401832.0 0
213465.0 403595.0 0
217919.0 401737.0 0
218683.0 406342.0 0
222465.0 403344.0 0
227127.0 401839.0 0
236549.0 403098.0 0
241796.0 406225.0 0
246354.0 403373.0 0
251284.0 401984.0 0
256558.0 403901.0 0
263113.0 402924.0 0
268352.0 401554.0 0
272492.0 403452.0 0
277268.0 403166.0 0
282402.0 402275.0 0
286716.0 401503.0 0
289038.0 404606.0 0
293346.0 402459.0 0
298029.0 402124.0 0
296938.0 405425.0 0
301491.0 406911.0 0
305869.0 405574.0 0
305083.0 409439.0 0
310202.0 406280.0 0
308321.0 409071.0 0
314765.0 406678.0 0
311752.0 410065.0 0
319154.0 408622.0 0
323335.0 405473.0 0
322588.0 409949.0 0
326241.0 409644.0 0
334039.0 406366.0 0
338938.0 406488.0 0
343528.0 407083.0 0
348049.0 406363.0 0
352016.0 405354.0 0
351909.0 409620.0 0
355605.0 406013.0 0
356960.0 409921.0 0
360789.0 406142.0 0
364743.0 408401.0 0
369589.0 407036.0 0
374094.0 408171.0 0
377588.0 408050.0 0
380105.0 405216.0 0
380805.0 408568.0 0
383875.0 406707.0 0
387067.0 408262.0 0
391726.0 407564.0 0
396220.0 406394.0 0
395896.0 409407.0 0
402677.0 405611.0 0
399648.0 408599.0 0
405716.0 406789.0 0
409482.0 407502.0 0
414711.0 406259.0 0
422822.0 406729.0 0
418920.0 410013.0 0
426099.0 408522.0 0
433355.0 406848.0 0
429267.0 408106.0 0
437297.0 409397.0 0
440968.0 406892.0 0
442830.0 410516.0 0
445726.0 406311.0 0
450542.0 407847.0 0
455386.0 408578.0 0
459838.0 408503.0 0
468934.0 405727.0 0
464471.0 407678.0 0
468488.0 409582.0 0
473229.0 408494.0 0
478123.0 405820.0 0
482685.0 408105.0 0
486911.0 405310.0 0
486337.0 409734.0 0
490408.0 408898.0 0
495238.0 408034.0 0
498812.0 407657.0 0
3053.86 411947.0 0
8005.46 410805.0 0
8283.22 415094.0 0
11782.9 411999.0 0
17230.2 412920.0 0
23073.0 411600.0 0
27097.5 413950.0 0
32391.4 412058.0 0
37119.4 410158.0 0
39565.5 411087.0 0
36851.8 415005.0 0
41740.0 413438.0 0
45749.9 410994.0 0
48757.2 412863.0 0
52014.9 415504.0 0
55791.3 412420.0 0
59889.9 412706.0 0
66703.6 412010.0 0
70822.8 410904.0 0
74479.4 411203.0 0
74253.4 414552.0 0
78407.9 411263.0 0
82781.2 413711.0 0
88001.7 410639.0 0
92085.5 413371.0 0
94850.9 410556.0 0
96626.5 413101.0 0
101022.0 414201.0 0
106861.0 413293.0 0
117186.0 410783.0 0
112625.0 412727.0 0
122180.0 412160.0 0
117784.0 414802.0 0
126832.0 410417.0 0
130442.0 411847.0 0
133372.0 415437.0 0
138857.0 414100.0 0
144112.0 411581.0 0
147461.0 414923.0 0
148736.0 411947.0 0
152112.0 415032.0 0
156151.0 411374.0 0
162828.0 413473.0 0
168388.0 412482.0 0
172400.0 414131.0 0
176544.0 413801.0 0
179018.0 410277.0 0
183050.0 411015.0 0
181224.0 414152.0 0
185639.0 413761.0 0
189973.0 412469.0 0
194058.0 410657.0 0
198054.0 411695.0 0
194277.0 415217.0 0
198895.0 415277.0 0
203731.0 406464.0 0
205739.0 411184.0 0
209481.0 407288.0 0
214684.0 407859.0 0
216769.0 411240.0 0
222587.0 407600.0 0
226730.0 406708.0 0
232073.0 406826.0 0
237713.0 407373.0 0
247204.0 408345.0 0
251615.0 406518.0 0
251760.0 411061.0 0
257652.0 408708.0 0
261135.0 407843.0 0
268153.0 406741.0 0
273207.0 407900.0 0
279649.0 407375.0 0
284476.0 407086.0 0
288438.0 408826.0 0
292840.0 407467.0 0
296498.0 410185.0 0
301703.0 411976.0 0
307789.0 413904.0 0
315969.0 411125.0 0
313007.0 413614.0 0
319855.0 412703.0 0
316850.0 415229.0 0
323797.0 413274.0 0
331391.0 410575.0 0
327523.0 413097.0 0
336560.0 410321.0 0
334715.0 414195.0 0
341342.0 410462.0 0
339169.0 413936.0 0
346400.0 410419.0 0
343926.0 414339.0 0
349454.0 414408.0 0
354512.0 413687.0 0
360514.0 410318.0 0
359040.0 413367.0 0
367565.0 411530.0 0
363290.0 412221.0 0
372153.0 411126.0 0
370542.0 414761.0 0
375707.0 410517.0 0
375546.0 414284.0 0
379029.0 411250.0 0
380147.0 414903.0 0
383708.0 411340.0 0
388894.0 411560.0 0
393337.0 412127.0 0
397473.0 412297.0 0
395399.0 414974.0 0
401284.0 412477.0 0
404356.0 409928.0 0
408414.0 411748.0 0
413416.0 411059.0 0
416726.0 414642.0 0
422165.0 414602.0 0
423603.0 410699.0 0
427449.0 412021.0 0
432289.0 411032.0 0
431035.0 414671.0 0
436191.0 414739.0 0
439588.0 412182.0 0
440948.0 414381.0 0
447518.0 411007.0 0
444571.0 414781.0 0
452581.0 412069.0 0
449318.0 415579.0 0
457717.0 412864.0 0
462067.0 411070.0 0
462014.0 414937.0 0
465470.0 411992.0 0
469516.0 413018.0 0
473724.0 412899.0 0
478402.0 411245.0 0
483777.0 412686.0 0
488698.0 413358.0 0
493857.0 412436.0 0
498214.0 411021.0 0
497658.0 414919.0 0
3091.95 417847.0 0
8623.09 420441.0 0
12844.6 417157.0 0
18073.8 418818.0 0
22394.9 416101.0 0
26380.9 418322.0 0
31485.1 417531.0 0
41132.7 418514.0 0
46219.7 416342.0 0
53444.8 419961.0 0
57568.5 416774.0 0
60936.4 419995.0 0
63384.6 415860.0 0
66037.6 419372.0 0
69362.6 416105.0 0
75063.7 419190.0 0
78687.1 415863.0 0
79203.9 419074.0 0
82857.6 418157.0 0
87237.0 415344.0 0
87024.6 420094.0 0
91591.8 418069.0 0
96386.4 416976.0 0
104512.0 417429.0 0
109967.0 418061.0 0
114820.0 416873.0 0
121860.0 417314.0 0
117886.0 418627.0 0
127354.0 415465.0 0
130421.0 419442.0 0
134866.0 420451.0 0
139372.0 418803.0 0
143615.0 416665.0 0
148247.0 419022.0 0
158119.0 415819.0 0
154505.0 418547.0 0
163270.0 419009.0 0
166020.0 415941.0 0
169326.0 417834.0 0
174276.0 417756.0 0
179009.0 417727.0 0
188818.0 416991.0 0
183934.0 417745.0 0
192777.0 420758.0 0
197957.0 418763.0 0
202314.0 413199.0 0
212450.0 412114.0 0
215876.0 415314.0 0
221023.0 411864.0 0
226491.0 411865.0 0
231432.0 411910.0 0
230676.0 416570.0 0
236723.0 412275.0 0
242982.0 411610.0 0
247804.0 412395.0 0
256279.0 412549.0 0
261013.0 412129.0 0
265977.0 411986.0 0
270905.0 411508.0 0
273795.0 416105.0 0
276407.0 411520.0 0
282111.0 411685.0 0
283276.0 416120.0 0
286576.0 412225.0 0
287078.0 415922.0 0
291419.0 412270.0 0
296371.0 415098.0 0
302693.0 416645.0 0
307547.0 419863.0 0
312559.0 417682.0 0
321193.0 416516.0 0
317690.0 419875.0 0
326014.0 417172.0 0
330408.0 415665.0 0
333287.0 418791.0 0
337259.0 417280.0 0
341173.0 417945.0 0
346365.0 418585.0 0
351444.0 418887.0 0
356964.0 418130.0 0
362042.0 416140.0 0
361243.0 419434.0 0
366147.0 415598.0 0
368988.0 418346.0 0
373063.0 418475.0 0
377667.0 418387.0 0
381844.0 418907.0 0
383509.0 415909.0 0
386742.0 414955.0 0
386447.0 419433.0 0
391039.0 416193.0 0
391011.0 421018.0 0
395217.0 418683.0 0
399422.0 416298.0 0
403004.0 419349.0 0
405077.0 415108.0 0
410849.0 415769.0 0
411962.0 420144.0 0
414801.0 418183.0 0
418928.0 419370.0 0
426965.0 416231.0 0
424031.0 419547.0 0
430045.0 417315.0 0
432888.0 418350.0 0
436706.0 419614.0 0
440973.0 418179.0 0
445730.0 419272.0 0
454417.0 416540.0 0
458483.0 417625.0 0
455684.0 420148.0 0
462896.0 419364.0 0
466522.0 416366.0 0
471770.0 417635.0 0
476301.0 415832.0 0
480365.0 416006.0 0
481832.0 419767.0 0
485547.0 417230.0 0
489246.0 416965.0 0
492438.0 416146.0 0
495135.0 418376.0 0
498484.0 418474.0 0
3759.44 423608.0 0
8990.78 425335.0 0
13817.6 422706.0 0
18901.2 422938.0 0
22944.0 421123.0 0
21651.3 424874.0 0
28102.4 422032.0 0
32249.5 422228.0 0
35364.1 424462.0 0
36371.6 420157.0 0
40130.6 424026.0 0
45128.8 421883.0 0
49389.7 419875.0 0
54312.8 424210.0 0
57195.4 420931.0 0
59083.9 423900.0 0
64249.1 423468.0 0
70269.2 421675.0 0
74903.4 423544.0 0
78413.0 422083.0 0
82969.7 422738.0 0
90617.5 421793.0 0
87417.7 425123.0 0
95483.1 421504.0 0
92469.4 425068.0 0
100577.0 420039.0 0
98948.0 424181.0 0
105808.0 421691.0 0
102822.0 424613.0 0
110965.0 423540.0 0
114777.0 420728.0 0
116577.0 425240.0 0
120094.0 421600.0 0
125557.0 421399.0 0
130731.0 424163.0 0
135450.0 424478.0 0
139390.0 423295.0 0
143667.0 421318.0 0
147504.0 423728.0 0
152434.0 421861.0 0
157991.0 421257.0 0
167330.0 421422.0 0
164248.0 423938.0 0
172467.0 422049.0 0
176562.0 421141.0 0
181129.0 422143.0 0
187040.0 421791.0 0
197875.0 423232.0 0
202360.0 416808.0 0
203452.0 421428.0 0
208142.0 416833.0 0
213447.0 418191.0 0
217398.0 421239.0 0
220197.0 416838.0 0
222015.0 421645.0 0
225350.0 417342.0 0
235523.0 417690.0 0
240100.0 416879.0 0
242790.0 421467.0 0
245890.0 417326.0 0
252858.0 417505.0 0
259253.0 416958.0 0
264138.0 417144.0 0
269391.0 416519.0 0
265852.0 421133.0 0
278443.0 416701.0 0
276681.0 421086.0 0
281844.0 421744.0 0
287333.0 420951.0 0
291243.0 417717.0 0
296059.0 420752.0 0
301970.0 421310.0 0
305444.0 423979.0 0
312586.0 422861.0 0
317518.0 424664.0 0
323125.0 420924.0 0
326117.0 423911.0 0
328833.0 421079.0 0
332816.0 422457.0 0
337596.0 421352.0 0
342720.0 422838.0 0
348583.0 423600.0 0
354159.0 423155.0 0
360280.0 423808.0 0
365176.0 420345.0 0
370254.0 422642.0 0
375388.0 422155.0 0
379432.0 421964.0 0
383096.0 422877.0 0
387555.0 424519.0 0
392265.0 424810.0 0
394784.0 422459.0 0
398939.0 421622.0 0
400400.0 424712.0 0
407616.0 420386.0 0
403598.0 423678.0 0
408182.0 423673.0 0
411670.0 424087.0 0
415007.0 421397.0 0
417016.0 425037.0 0
421247.0 423171.0 0
425694.0 424502.0 0
429043.0 420568.0 0
430083.0 424627.0 0
433599.0 422703.0 0
439374.0 422343.0 0
442899.0 422128.0 0
446404.0 423740.0 0
451120.0 420648.0 0
450333.0 425372.0 0
455103.0 424522.0 0
459241.0 421876.0 0
463574.0 423514.0 0
467373.0 421178.0 0
471849.0 422333.0 0
474439.0 424420.0 0
476910.0 420596.0 0
481435.0 423734.0 0
485288.0 421671.0 0
490707.0 421635.0 0
497276.0 422353.0 0
1687.15 427617.0 0
5682.19 428371.0 0
9250.02 429653.0 0
12972.3 428061.0 0
17875.1 427112.0 0
25535.4 425373.0 0
22463.5 428344.0 0
26319.5 429536.0 0
30753.8 426804.0 0
36664.2 428803.0 0
45324.3 426483.0 0
41892.4 428543.0 0
49415.7 424462.0 0
48050.7 428699.0 0
52019.3 428409.0 0
56854.5 427970.0 0
61053.1 427194.0 0
64683.8 429208.0 0
68250.0 426475.0 0
72375.2 426284.0 0
75644.1 428530.0 0
79284.2 425867.0 0
83372.8 426962.0 0
90747.2 428682.0 0
96120.4 427040.0 0
100380.0 428229.0 0
107111.0 425397.0 0
105099.0 428773.0 0
110553.0 428606.0 0
121926.0 425334.0 0
120536.0 429076.0 0
126128.0 426731.0 0
130000.0 429800.0 0
134010.0 427596.0 0
138096.0 427406.0 0
143266.0 426033.0 0
144184.0 429258.0 0
147604.0 428605.0 0
151254.0 425982.0 0
152382.0 429939.0 0
155814.0 426095.0 0
160331.0 425009.0 0
160029.0 429023.0 0
164715.0 428475.0 0
169099.0 425460.0 0
168539.0 429960.0 0
172899.0 429174.0 0
176256.0 425285.0 0
180529.0 426744.0 0
184250.0 425581.0 0
193439.0 426210.0 0
188536.0 426932.0 0
194366.0 430184.0 0
197959.0 428173.0 0
202631.0 426299.0 0
209062.0 423847.0 0
213635.0 421656.0 0
214598.0 425996.0 0
218995.0 426639.0 0
222500.0 426700.0 0
227143.0 422224.0 0
232615.0 421980.0 0
238316.0 421787.0 0
242300.0 426223.0 0
247843.0 422953.0 0
251772.0 422364.0 0
252500.0 426703.0 0
255771.0 422959.0 0
260800.0 422060.0 0
271638.0 422344.0 0
276485.0 425711.0 0
286329.0 425981.0 0
291375.0 423566.0 0
296170.0 426879.0 0
301856.0 426263.0 0
302054.0 430502.0 0
306004.0 427657.0 0
308658.0 424631.0 0
310033.0 428028.0 0
314001.0 427323.0 0
318775.0 430150.0 0
322242.0 425485.0 0
324390.0 431661.0 0
330499.0 426042.0 0
326124.0 427766.0 0
335411.0 425067.0 0
334641.0 429581.0 0
339671.0 427518.0 0
344267.0 427183.0 0
347813.0 428921.0 0
351757.0 427100.0 0
356409.0 428212.0 0
361914.0 429587.0 0
365890.0 425828.0 0
366512.0 430211.0 0
370317.0 427350.0 0
373662.0 425634.0 0
374425.0 429693.0 0
378181.0 425976.0 0
379788.0 429783.0 0
383087.0 427242.0 0
387235.0 429551.0 0
390715.0 427668.0 0
396742.0 426341.0 0
401712.0 427600.0 0
407212.0 427554.0 0
412991.0 428949.0 0
418080.0 430347.0 0
421648.0 427362.0 0
427507.0 428943.0 0
432429.0 428182.0 0
436989.0 425839.0 0
436546.0 429467.0 0
442039.0 426647.0 0
439376.0 430780.0 0
446890.0 428452.0 0
452011.0 429646.0 0
456772.0 429121.0 0
460080.0 426142.0 0
464114.0 427370.0 0
469092.0 426408.0 0
474184.0 428079.0 0
477662.0 425648.0 0
477762.0 429126.0 0
481332.0 428216.0 0
486000.0 426255.0 0
494145.0 425962.0 0
490477.0 427915.0 0
494288.0 430001.0 0
497981.0 427089.0 0
2497.81 431776.0 0
7319.72 433734.0 0
12236.1 432744.0 0
20110.5 430566.0 0
16875.7 431930.0 0
23010.3 432334.0 0
29262.1 430570.0 0
27806.3 434361.0 0
32408.1 431863.0 0
36145.5 433705.0 0
40352.7 432684.0 0
45144.4 431642.0 0
49586.1 432092.0 0
50907.0 435431.0 0
54784.0 432795.0 0
60161.9 431322.0 0
64323.6 434070.0 0
70314.5 431939.0 0
76031.3 433035.0 0
80445.0 430641.0 0
79524.5 434844.0 0
86262.3 430687.0 0
82983.7 434374.0 0
91725.0 433524.0 0
96804.8 431520.0 0
102005.0 433539.0 0
107750.0 433139.0 0
115768.0 430622.0 0
112030.0 433204.0 0
120068.0 433848.0 0
124895.0 431619.0 0
135673.0 432604.0 0
141023.0 430416.0 0
144988.0 432585.0 0
149346.0 433258.0 0
156271.0 430463.0 0
154234.0 434572.0 0
158940.0 433388.0 0
162669.0 432089.0 0
166180.0 432539.0 0
170655.0 433349.0 0
178065.0 430829.0 0
174295.0 433588.0 0
181483.0 434828.0 0
183891.0 430384.0 0
188459.0 431417.0 0
191514.0 429998.0 0
197442.0 433415.0 0
202500.0 431576.0 0
206543.0 429522.0 0
213035.0 431418.0 0
217557.0 431533.0 0
222500.0 431401.0 0
226732.0 427892.0 0
232175.0 427064.0 0
232968.0 431703.0 0
237170.0 426971.0 0
242672.0 430781.0 0
246980.0 427763.0 0
251735.0 431029.0 0
255936.0 427686.0 0
256028.0 431917.0 0
260758.0 427289.0 0
266427.0 426925.0 0
271832.0 428205.0 0
281227.0 427949.0 0
285325.0 431790.0 0
290841.0 428801.0 0
301969.0 434502.0 0
307026.0 432613.0 0
312820.0 431669.0 0
321429.0 435023.0 0
329707.0 431795.0 0
334444.0 433923.0 0
338647.0 432418.0 0
343423.0 431306.0 0
347688.0 433712.0 0
352150.0 431466.0 0
357562.0 433805.0 0
362785.0 434227.0 0
370223.0 431108.0 0
367457.0 434352.0 0
377649.0 433160.0 0
383293.0 432197.0 0
388198.0 434578.0 0
393479.0 431414.0 0
398035.0 434987.0 0
398786.0 430640.0 0
403503.0 432546.0 0
409391.0 433002.0 0
414524.0 433923.0 0
419094.0 434806.0 0
423458.0 432354.0 0
429809.0 433340.0 0
435023.0 432679.0 0
443240.0 432049.0 0
448212.0 433510.0 0
455106.0 433511.0 0
461181.0 431079.0 0
466539.0 431270.0 0
471461.0 431595.0 0
476082.0 432188.0 0
484758.0 430740.0 0
480702.0 432598.0 0
484809.0 435288.0 0
488924.0 432212.0 0
493217.0 433715.0 0
498039.0 430974.0 0
497563.0 435003.0 0
2742.61 436878.0 0
1045.08 440455.0 0
7146.41 438307.0 0
15283.2 436184.0 0
10933.4 437097.0 0
19916.1 435656.0 0
23800.0 436019.0 0
22916.5 439832.0 0
28490.6 440078.0 0
32755.7 436534.0 0
38599.7 437805.0 0
43071.6 435562.0 0
47119.1 435867.0 0
54370.5 438528.0 0
59494.5 436098.0 0
63746.0 438951.0 0
67652.2 436913.0 0
71602.5 437704.0 0
76465.3 437666.0 0
81331.2 438129.0 0
86891.0 436191.0 0
91050.7 439220.0 0
96669.6 437256.0 0
101644.0 438630.0 0
105944.0 437793.0 0
110873.0 437305.0 0
115371.0 435637.0 0
114673.0 439612.0 0
119154.0 438837.0 0
124020.0 436801.0 0
129586.0 435806.0 0
135327.0 438987.0 0
141168.0 435667.0 0
139745.0 439248.0 0
146267.0 436900.0 0
143330.0 440760.0 0
150390.0 437191.0 0
153949.0 439925.0 0
158191.0 437498.0 0
162435.0 436152.0 0
167459.0 436807.0 0
172935.0 437845.0 0
177360.0 435749.0 0
182816.0 439479.0 0
186244.0 435421.0 0
191802.0 434539.0 0
189317.0 438746.0 0
193536.0 439587.0 0
197970.0 438491.0 0
202498.0 436340.0 0
208679.0 433993.0 0
212257.0 436793.0 0
217524.0 436301.0 0
222390.0 436417.0 0
228095.0 433155.0 0
231476.0 436421.0 0
237841.0 431864.0 0
236431.0 436566.0 0
241646.0 435414.0 0
247559.0 432116.0 0
253394.0 436463.0 0
258608.0 436719.0 0
260455.0 432332.0 0
265235.0 432209.0 0
262571.0 436125.0 0
270377.0 433420.0 0
276434.0 432042.0 0
281144.0 434145.0 0
290491.0 434321.0 0
296565.0 433456.0 0
302491.0 438962.0 0
307092.0 437933.0 0
311295.0 436189.0 0
316216.0 435726.0 0
315560.0 440517.0 0
319841.0 439149.0 0
326283.0 436360.0 0
331413.0 437005.0 0
338089.0 437600.0 0
343500.0 435956.0 0
347815.0 438542.0 0
352378.0 436344.0 0
356371.0 438995.0 0
360604.0 438039.0 0
364698.0 437731.0 0
368968.0 439225.0 0
372775.0 435183.0 0
377118.0 437148.0 0
380949.0 435951.0 0
380038.0 440433.0 0
384645.0 438480.0 0
393271.0 437459.0 0
398023.0 440163.0 0
401899.0 437509.0 0
406668.0 437471.0 0
411452.0 437738.0 0
416570.0 438736.0 0
421775.0 438332.0 0
426143.0 436679.0 0
430027.0 438528.0 0
433521.0 436379.0 0
439120.0 435449.0 0
444213.0 437110.0 0
449157.0 438671.0 0
451994.0 435566.0 0
458993.0 435766.0 0
454871.0 439527.0 0
463871.0 435717.0 0
468918.0 435680.0 0
466304.0 439494.0 0
473723.0 435957.0 0
478138.0 435988.0 0
476404.0 440145.0 0
481362.0 439079.0 0
485813.0 439701.0 0
489982.0 437312.0 0
494290.0 437273.0 0
497837.0 439380.0 0
4415.15 442099.0 0
1252.91 444530.0 0
9417.88 441879.0 0
14127.7 440819.0 0
18484.9 439655.0 0
24229.5 444651.0 0
34014.7 441295.0 0
38584.2 443072.0 0
43799.0 440007.0 0
49223.4 440359.0 0
46314.5 444294.0 0
54964.9 443576.0 0
59131.5 441279.0 0
63413.1 444075.0 0
68394.2 441712.0 0
73817.7 442050.0 0
78953.9 442351.0 0
85448.6 441779.0 0
90358.9 443839.0 0
94735.6 442654.0 0
99280.9 441909.0 0
104140.0 442654.0 0
108814.0 441308.0 0
116817.0 442502.0 0
112774.0 443444.0 0
120683.0 443294.0 0
126614.0 442351.0 0
132209.0 442696.0 0
135964.0 445038.0 0
139159.0 442154.0 0
144528.0 444755.0 0
148656.0 441482.0 0
159203.0 442796.0 0
164097.0 440379.0 0
164699.0 445213.0 0
168792.0 441856.0 0
177888.0 439936.0 0
174224.0 443888.0 0
178784.0 443374.0 0
182293.0 444774.0 0
187193.0 442746.0 0
197808.0 442778.0 0
202854.0 441290.0 0
206807.0 437998.0 0
212913.0 441971.0 0
217756.0 441387.0 0
221866.0 441380.0 0
226467.0 437619.0 0
225679.0 441876.0 0
230669.0 441886.0 0
236499.0 441786.0 0
242350.0 441402.0 0
247238.0 437249.0 0
252242.0 441618.0 0
256720.0 441259.0 0
261600.0 441385.0 0
266816.0 437414.0 0
273700.0 437277.0 0
272378.0 441810.0 0
278141.0 437402.0 0
282958.0 437189.0 0
283348.0 441537.0 0
286871.0 437685.0 0
291858.0 438878.0 0
296841.0 439949.0 0
302080.0 443618.0 0
306115.0 442081.0 0
310892.0 441025.0 0
319312.0 444096.0 0
324033.0 440640.0 0
328595.0 441131.0 0
333746.0 441528.0 0
338326.0 442930.0 0
343059.0 441240.0 0
347835.0 443439.0 0
352204.0 441396.0 0
357167.0 444180.0 0
363481.0 442704.0 0
369491.0 445119.0 0
374329.0 441077.0 0
384091.0 443431.0 0
389106.0 441442.0 0
393979.0 442332.0 0
398821.0 445411.0 0
403007.0 442094.0 0
405721.0 444695.0 0
407791.0 442001.0 0
412677.0 442657.0 0
417700.0 443483.0 0
422171.0 443253.0 0
426108.0 440971.0 0
429941.0 442644.0 0
434574.0 440949.0 0
440437.0 441038.0 0
445886.0 442692.0 0
457154.0 444888.0 0
461313.0 440969.0 0
466584.0 444374.0 0
471026.0 440497.0 0
479869.0 443998.0 0
484341.0 443247.0 0
489268.0 442369.0 0
493695.0 440986.0 0
497686.0 443705.0 0
2551.41 447783.0 0
7331.09 446492.0 0
5423.44 450360.0 0
12508.6 445767.0 0
18439.4 444806.0 0
22090.5 448974.0 0
29010.4 445290.0 0
33725.1 446482.0 0
38242.1 447553.0 0
42206.5 445775.0 0
50889.5 445536.0 0
58674.9 446661.0 0
63457.4 449426.0 0
67122.6 446478.0 0
71343.5 446277.0 0
68472.6 450224.0 0
76147.7 446419.0 0
72886.1 450716.0 0
81840.3 447459.0 0
85855.1 450272.0 0
87416.8 446947.0 0
93068.8 447503.0 0
98181.6 446562.0 0
103353.0 448201.0 0
108434.0 446105.0 0
112750.0 447903.0 0
117300.0 446979.0 0
122704.0 447459.0 0
126970.0 448310.0 0
131209.0 446905.0 0
140858.0 445735.0 0
138142.0 449620.0 0
147343.0 445449.0 0
144486.0 449372.0 0
149348.0 448290.0 0
153476.0 445489.0 0
158325.0 448861.0 0
163418.0 449883.0 0
169413.0 446736.0 0
173356.0 449716.0 0
178347.0 447784.0 0
182698.0 449711.0 0
186057.0 447148.0 0
192763.0 445302.0 0
198117.0 446828.0 0
207890.0 442473.0 0
247997.0 442795.0 0
266844.0 443220.0 0
277815.0 442756.0 0
288734.0 442679.0 0
293545.0 443891.0 0
297570.0 445131.0 0
301581.0 447627.0 0
305646.0 446613.0 0
309546.0 445215.0 0
314024.0 445439.0 0
320658.0 448861.0 0
325159.0 445756.0 0
330778.0 445686.0 0
335581.0 446225.0 0
332968.0 450076.0 0
341624.0 447525.0 0
351742.0 446662.0 0
347103.0 447506.0 0
356119.0 449850.0 0
361383.0 448433.0 0
369034.0 450056.0 0
373389.0 449530.0 0
378689.0 446296.0 0
384368.0 448284.0 0
388959.0 446725.0 0
393797.0 446661.0 0
398500.0 450728.0 0
403536.0 447424.0 0
408973.0 446762.0 0
415099.0 447322.0 0
420077.0 447417.0 0
426661.0 446000.0 0
432503.0 446621.0 0
437353.0 445276.0 0
437649.0 450093.0 0
441956.0 446635.0 0
446736.0 447670.0 0
451461.0 445118.0 0
458227.0 449290.0 0
461691.0 446490.0 0
467075.0 449502.0 0
474109.0 445690.0 0
477393.0 450716.0 0
481891.0 448588.0 0
487052.0 447327.0 0
493049.0 446339.0 0
497949.0 448143.0 0
10651.5 451401.0 0
17121.4 451062.0 0
27027.5 450082.0 0
32385.3 451672.0 0
37745.0 452287.0 0
41530.3 449901.0 0
46788.6 449947.0 0
54169.6 449424.0 0
58693.4 451989.0 0
77433.1 450975.0 0
89522.8 450766.0 0
93973.1 452525.0 0
99251.0 451931.0 0
104351.0 452747.0 0
108464.0 451338.0 0
114998.0 451469.0 0
119983.0 450775.0 0
124539.0 451469.0 0
133107.0 452202.0 0
153183.0 451156.0 0
160664.0 453725.0 0
167752.0 450890.0 0
189279.0 450223.0 0
195700.0 451123.0 0
303941.0 451547.0 0
310277.0 450650.0 0
316248.0 450029.0 0
319824.0 453649.0 0
323835.0 451319.0 0
328113.0 450647.0 0
337638.0 452601.0 0
342874.0 453319.0 0
346810.0 451388.0 0
351390.0 451998.0 0
359655.0 453189.0 0
365341.0 451761.0 0
370763.0 453149.0 0
377404.0 451635.0 0
381244.0 450860.0 0
388122.0 451758.0 0
393383.0 451617.0 0
406403.0 451039.0 0
411861.0 451333.0 0
417568.0 452119.0 0
423937.0 450612.0 0
429036.0 450580.0 0
443995.0 451482.0 0
449012.0 451272.0 0
453686.0 450511.0 0
462537.0 451476.0 0
471806.0 451486.0 0
485764.0 452236.0 0
490712.0 451172.0 0
495123.0 450967.0 0
POINT_DATA 5000
SCALARS Radius float 1
LOOKUP_TABLE default
4796.58 3979.26 3471.03 5253.55 5820.48 5782.6 4862.21 5113.21 3929.19 4107.03 4478.15 5379.87 5925.6 4501.51 4792.73 4736.58 4931.38 3485.26 4329.05 4151.94 4049.23 5337.48 6124.89 5708.81 5252.48 4780.03 5495.39 3996.0 3856.1 4665.12 3383.4 4133.88 4834.9 3850.77 6044.04 5415.48 5120.0 3863.18 2356.98 4998.37 6182.6 5492.18 5258.36 5061.3 3642.12 3163.97 5812.43 5122.66 5906.14 7513.1 5254.28 4436.4 5733.48 4672.91 5580.89 5645.7 5176.86 6810.52 5840.26 6110.27 5561.06 5073.35 3615.22 5670.04 4380.59 6716.79 5759.91 7613.27 5529.52 4951.03 5255.32 6037.08 5096.78 6756.95 4129.43 6324.23 3843.58 3320.52 4194.5 4270.53 5344.25 5191.63 4593.7 4150.99 4216.92 4742.68 4344.58 5634.83 5495.84 6268.1 4861.06 5374.51 5320.28 6739.08 4797.52 4569.12 4298.67 5960.66 6608.73 5011.84 7034.11 6261.42 4502.5 3771.48 4043.57 4271.69 5681.38 4138.42 3708.04 5513.6 3240.09 4556.36 6082.81 3191.99 4685.34 5601.05 4929.8 3586.91 3103.0 3554.9 4015.92 5542.21 4487.31 3936.02 4044.71 5980.74 4094.62 4927.02 5546.39 5325.36 5484.83 5085.53 5351.6 4730.36 4715.55 5867.73 3951.75 5013.56 4499.64 4375.68 5542.27 5054.98 6030.06 5170.02 5484.19 3557.27 4927.31 4688.68 4402.52 4517.56 4182.53 5903.42 3588.44 3955.56 3761.32 4118.05 4366.19 5553.16 3672.51 2938.66 4940.78 4231.61 4008.92 3942.53 3379.84 3589.27 4827.82 3997.1 3607.45 3260.67 5123.52 3038.33 4392.68 4333.2 7199.21 4523.7 2240.39 5091.39 5293.9 6142.94 3912.37 4727.24 4602.25 4790.08 5082.47 4763.45 5445.87 3815.26 4704.72 4177.94 4571.7 5896.46 5022.8 3784.5 3780.23 6481.79 5224.12 7042.12 6326.39 4471.58 5873.69 4962.09 3999.48 4359.62 6946.21 2586.12 5433.8 4011.77 5499.11 3633.87 5922.5 5198.77 5987.17 6013.14 2765.2 4901.41 5110.37 5664.98 4382.74 5927.43 4651.28 4384.42 3693.63 4516.43 5481.78 5637.59 4937.14 5043.05 5816.2 5109.54 6483.19 5945.65 6759.9 5538.89 7021.47 5416.38 6059.59 4955.55 2720.68 5701.86 3563.63 4238.81 4468.59 5885.03 2837.58 5325.02 5200.76 5017.13 4862.64 5185.34 4432.58 6684.56 3968.64 4688.67 2635.86 5292.64 6166.5 5065.13 5936.02 5305.17 4861.08 4003.05 5390.22 4805.87 4712.33 5227.21 5697.78 4667.36 4091.31 6372.62 4295.38 5615.42 7565.34 5923.5 4612.68 4281.49 4973.83 6342.25 6691.39 4840.84 5135.69 5344.0 4020.32 6045.46 4245.72 5908.1 6048.7 6133.92 3719.84 4178.4 3095.48 4166.08 4123.6 4850.14 4819.73 3382.7 6817.32 4319.79 6098.14 4472.17 4203.26 5188.81 4730.41 6057.22 5062.71 6125.34 4527.08 5347.48 4850.01 3970.25 5147.67 3979.82 5011.31 5138.31 5264.06 4659.59 6327.9 4048.37 6355.42 4362.19 5690.56 4948.92 3115.91 4493.48 3307.12 5924.89 5693.81 4002.16 4174.52 4138.16 3486.22 3829.13 4684.5 6230.49 6458.82 5418.62 4601.27 5493.32 5740.68 5926.61 6051.14 5836.15 3261.21 4345.55 6704.06 3653.41 3871.88 3856.01 5246.2 4390.66 5279.39 3673.74 5205.43 6116.18 7447.37 4924.6 4385.06 4733.32 7184.19 2899.43 2924.37 3867.67 4290.3 5399.73 4660.72 3888.21 5891.05 6038.78 6902.81 6644.76 4254.17 5629.19 5090.24 5740.84 5530.87 4310.18 7134.64 5978.9 4187.56 3629.62 4997.27 4301.06 4877.67 4290.14 6562.18 4156.38 5316.75 4541.21 4164.68 5669.65 5934.22 5624.49 5762.59 7092.87 5163.55 4666.81 3954.91 2965.01 6643.85 3637.61 6222.42 5654.31 3745.84 5690.26 4156.2 4497.59 5965.78 4374.35 4810.12 5643.58 5215.05 4292.06 5577.04 5006.58 4602.86 3688.8 4548.16 3369.23 5449.18 5492.26 5244.78 5762.84 3937.74 4749.8 6084.86 5478.92 4778.34 5551.36 6894.71 3091.3 4414.54 5789.98 7054.71 3641.64 5489.43 5747.75 4277.89 4796.33 4195.44 5539.32 5360.19 6496.85 5600.93 4874.39 5541.59 4124.71 5728.85 4827.23 4911.47 5803.39 5863.59 4381.97 6257.19 3255.82 2812.98 4065.69 5603.15 4695.45 6052.7 3921.18 3798.62 5308.1 3666.57 4907.89 4937.02 5655.21 4786.6 4645.41 4433.59 4320.28 6445.94 5542.14 4218.06 6308.71 4716.19 5514.76 3456.98 3498.2 5105.16 3066.13 4302.5 6006.16 6009.88 7055.53 5013.67 5826.04 5339.78 4970.88 4143.78 4636.5 3703.1 4940.42 5923.4 6471.55 5499.39 5644.82 5501.93 5463.38 5945.21 4938.74 5696.88 5607.14 3923.03 5975.63 5252.34 6396.74 4138.46 2775.04 3821.72 4986.77 6318.18 5586.81 3948.17 4621.75 4551.24 5358.59 4220.88 4515.71 6519.71 6640.13 5082.6 5810.84 4230.54 5094.44 3748.24 4655.49 4467.94 4850.81 6138.47 5527.54 5573.7 5697.4 4727.62 5054.25 4270.95 4055.8 7325.81 5280.17 4794.96 6186.19 4839.34 5083.08 6834.49 6337.56 5525.39 3998.5 5938.34 4024.3 6394.38 5555.28 5242.73 4737.14 4686.65 5834.74 5556.96 5788.23 5581.75 6392.01 6730.19 4907.06 4073.93 3735.44 6043.3 5952.75 6332.36 6122.55 2739.94 4931.53 5480.13 3323.28 6695.82 6405.76 5794.24 4678.38 5448.61 5050.65 4827.33 5206.48 5513.57 5729.23 5226.0 3365.82 4538.95 5965.15 4763.66 6090.91 4946.42 5019.93 5085.71 6116.33 6343.14 5462.21 5750.71 5470.77 4831.47 4643.85 4004.04 4289.17 5564.02 4274.61 2965.79 6898.19 6035.6 5137.34 4481.53 5330.45 4581.13 3610.4 4219.07 6387.01 5367.52 3092.35 4322.15 5210.03 3629.96 5478.47 5351.39 6142.37 6061.47 4933.21 5375.47 6038.14 2540.31 5120.49 6029.66 5262.61 6302.8 6038.2 4005.44 5206.78 5555.88 6732.43 6425.26 5143.58 6362.12 4484.76 4840.01 2980.99 5611.2 7933.0 4455.12 5173.87 5380.13 5711.87 5118.27 5169.36 5932.23 5791.61 3369.13 4479.66 3043.85 5367.2 5461.13 4726.76 3599.45 5839.13 5489.34 5163.9 5708.14 5537.72 3920.42 6155.31 4223.33 4553.56 5329.64 5911.67 5709.62 5835.78 4127.74 2476.04 3942.07 7443.72 3937.08 5260.34 4709.35 6586.45 4373.3 4750.78 4163.5 5724.64 5078.86 4780.2 5100.1 3561.29 4963.34 3295.83 5081.78 4260.92 6263.44 5960.56 5774.97 4020.95 6313.06 3474.39 6470.3 6062.05 5082.74 6915.83 6072.45 4410.55 7099.43 5526.14 5198.29 5423.0 5077.33 3856.59 5413.79 6338.89 6202.55 5025.39 4714.54 5893.5 3320.11 5030.91 6022.17 5119.37 3982.23 6163.38 4566.18 4723.12 3459.9 4964.09 5201.36 5024.9 4306.53 5409.61 5094.81 5972.06 5713.22 5861.71 5028.96 4359.04 3183.98 3866.16 3794.63 4524.28 3778.1 5152.36 4511.82 5826.64 4220.65 6820.42 4816.2 4894.16 4896.52 4751.02 3372.79 4941.22 5282.64 4715.72 4669.66 4808.52 5046.33 5607.24 5053.92 6352.26 5495.68 3847.38 3818.59 4863.72 5002.48 6623.85 4262.82 5102.36 8332.24 4342.9 5069.84 4051.44 4241.89 6049.55 5941.72 5991.09 5133.97 6600.94 4788.58 5371.02 6155.1 5876.71 5029.78 6515.84 4888.6 4739.14 4918.77 4371.99 4219.78 3885.86 4459.28 5235.29 4479.94 6250.23 4118.84 4863.27 5862.86 6049.79 3493.7 5374.98 4200.03 4719.7 6939.12 4735.33 5092.37 6444.77 4287.63 5315.4 6449.45 3975.31 4746.52 3689.45 3824.16 5572.95 3868.18 6723.16 5584.06 7111.16 4547.19 3817.13 5507.24 6851.54 4583.31 4503.89 5806.08 4853.39 4997.27 4093.08 4809.42 5543.27 4717.05 5659.17 6135.57 5998.38 4312.67 5423.8 4989.15 5017.78 5015.69 6175.81 4727.24 6677.09 4305.57 6959.81 4829.35 5201.67 6321.41 4089.76 5526.55 3192.41 5184.56 5215.15 4987.87 3315.57 5804.71 4764.96 5727.3 4242.52 5356.51 4277.88 3057.03 4087.15 4143.08 7500.97 5228.18 5787.31 5065.11 5868.82 4050.9 4978.31 4099.77 5054.74 4537.32 4981.9 4656.78 5126.91 3600.43 5131.24 5196.67 6496.67 5474.8 6262.72 3664.11 5117.47 4925.63 2990.77 5882.65 4434.19 5187.7 4623.61 4188.3 6261.75 5177.64 4255.31 5453.3 6413.02 3492.19 4584.5 5122.63 4703.08 5274.19 5516.95 4406.4 5411.85 4844.57 4027.46 6314.07 5776.37 4516.28 3627.82 4044.45 5125.78 5344.43 4373.47 5045.38 5350.88 5372.61 3686.21 6480.17 5023.15 4377.07 3813.22 5570.3 4336.42 5243.29 7589.94 4449.22 3130.65 5628.24 5856.11 5287.2 3327.49 4109.88 4234.94 4562.29 5013.13 5080.66 4270.24 3417.33 4926.42 4164.13 4642.34 4520.1 4947.52 5874.89 4293.03 4389.21 3791.79 4424.7 4925.44 4754.05 4951.47 6084.93 4307.28 3697.96 4739.42 5538.93 5020.12 4745.45 2631.9 5281.28 6255.18 4668.71 4758.21 7228.46 6362.14 3948.23 6719.88 5978.82 5266.5 3927.99 4523.88 4066.38 4948.98 5227.52 4414.48 4092.24 5163.02 7144.24 4906.82 5687.83 5004.23 6442.69 4648.04 6607.87 4721.32 3293.56 3163.78 5274.14 4903.82 5746.28 4082.47 5511.6 4338.08 4378.3 6134.99 4094.73 4407.9 4718.54 4440.57 5548.29 6766.43 2315.64 6345.13 5226.56 5599.49 5313.22 4413.85 3905.51 3999.94 4470.98 4864.22 3901.8 5759.46 3921.08 4190.31 5678.96 5262.19 4244.9 6070.58 6034.41 5452.83 5130.91 5402.24 4519.22 6445.22 3844.9 3695.36 5101.59 3963.86 3848.93 4306.11 5935.47 3402.32 5903.66 4528.49 5004.67 5365.89 5992.26 3960.8 5070.39 4980.85 5714.58 5110.45 5208.32 5248.77 4083.97 4607.02 5153.74 3895.51 4528.09 4165.81 5813.4 6291.51 4128.98 5882.89 6246.22 4188.32 5246.61 4100.38 5344.77 4723.48 4899.11 5097.87 4278.07 7267.18 6256.02 5320.92 5269.18 4406.1 5034.59 4263.33 4454.63 5080.18 5912.61 3279.1 4403.98 4560.84 4729.43 5776.57 4562.74 5683.26 5598.74 7493.3 4814.55 6320.71 3527.05 3464.83 5698.77 2477.07 6413.11 4305.16 5092.28 4965.89 5659.95 4152.85 2908.7 4453.64 4517.73 5469.47 5660.16 4989.56 3838.47 2588.37 6736.03 6235.57 3623.87 5916.16 4390.41 6113.95 4097.57 5017.5 5563.79 6171.13 5511.88 5083.41 7055.42 5486.68 6048.86 4285.32 5490.43 5022.28 5197.52 4959.34 4948.5 4527.02 4531.14 4564.34 3838.56 4871.44 5076.35 6020.48 6375.99 5200.05 5234.29 5313.66 5419.37 4466.03 4511.54 5409.33 5196.0 4923.9 4973.78 3329.99 3947.47 3296.27 4713.25 4204.84 6243.0 6673.96 3556.85 5441.96 3435.9 5174.89 4288.3 5370.52 4652.29 5774.81 3746.31 5498.32 5027.98 5346.27 6475.1 4969.21 2691.29 2845.98 5289.52 5314.85 4305.43 5450.44 4942.77 5742.65 5592.32 5381.16 6193.35 6086.96 5233.78 3701.27 5653.9 5046.21 5894.61 5139.5 3979.54 5304.13 5944.09 5833.06 4923.41 4497.31 5384.76 5529.42 5257.12 5243.43 4537.14 5551.9 3757.34 6415.61 4687.64 4419.71 5037.06 4541.8 5175.29 5842.56 5887.15 5412.31 3087.09 6934.37 4890.5 4050.08 3981.07 5452.42 5328.22 6853.85 2395.5 3497.9 5941.61 4512.11 5782.48 6248.6 5683.61 3836.45 5100.25 6894.26 4986.51 5339.38 5178.99 5383.07 4591.87 5013.42 4790.78 4247.15 6552.22 5651.07 6248.81 5273.35 4091.8 2651.49 4645.58 5512.23 5275.32 5985.29 4898.94 4178.15 4613.31 4733.04 6119.09 5788.66 5091.68 7531.29 5069.25 5048.89 5935.03 3161.47 3991.03 6390.78 7435.25 6826.57 4788.87 4495.87 6022.72 4643.31 5527.33 6917.52 5402.21 4989.09 4880.14 4982.31 3848.54 4307.48 5941.4 5331.02 6510.17 4871.96 4863.23 4402.67 4470.61 4631.83 5565.13 4384.88 6887.27 6008.49 4806.34 4287.53 5612.21 4929.14 5945.08 3306.14 5490.58 4863.79 4702.06 3830.46 6031.67 4689.15 6138.12 4428.78 5409.66 4345.67 4765.72 4642.66 4752.14 5329.59 4888.12 4950.97 5512.16 3197.63 4863.96 5191.08 5203.08 7480.41 3423.15 5163.77 4488.85 3731.84 4901.07 5186.3 3436.15 4151.76 4020.4 3493.47 4596.75 4933.65 5443.58 4558.46 5805.86 4049.02 4470.4 5311.03 5255.12 6169.11 5615.35 4027.09 6422.84 4502.18 5379.09 4602.85 4962.77 5872.05 4853.02 6259.23 5181.4 5670.2 4711.62 4247.23 4114.24 4268.65 4694.83 5509.42 4354.08 4256.43 5936.36 4520.62 3903.75 4755.47 4485.99 5127.16 5475.8 5314.69 6050.81 5543.46 4249.46 5965.81 3702.37 4750.17 5660.85 2330.66 4177.19 3587.05 6229.37 6718.19 5282.91 4425.84 3797.33 7256.35 4800.69 6566.1 3555.86 6386.78 4996.99 4896.39 6081.14 5480.83 4220.46 4607.85 5128.57 6000.7 3169.67 5604.21 4968.03 3361.92 6710.88 5395.14 3967.48 6213.04 6622.11 3685.13 6790.73 4655.16 5251.4 3867.19 5857.79 4039.91 5276.7 5036.58 6119.63 5411.02 4752.9 4287.16 5199.44 4062.5 4435.51 5374.07 4588.7 3766.55 4579.69 3554.48 6496.52 5005.85 4216.17 6484.17 4721.02 4254.37 3374.08 4031.78 6098.1 5708.99 5687.85 5346.68 5296.29 4611.53 4285.66 4896.11 5172.53 4135.62 5801.99 5534.94 5210.48 7644.38 7552.94 6101.92 5323.3 5088.44 4998.21 4662.56 5166.79 5349.31 2976.22 4649.22 5394.55 5094.52 4946.74 2682.24 5928.32 5229.48 5475.7 4016.18 5526.75 5435.74 4244.99 5327.45 5560.26 6185.89 3997.96 4439.35 3460.94 3990.25 3691.0 3758.07 4752.51 4236.14 4407.87 5733.62 5282.51 4460.92 5945.89 4042.28 4105.55 4340.76 6065.22 4221.28 4456.39 5514.84 3633.79 5421.53 5937.08 6070.3 5233.29 4312.56 4612.06 5204.04 4750.58 6667.68 5235.11 5211.38 4590.55 4741.26 5920.32 4255.85 5097.69 3988.3 6543.13 5149.72 5776.96 5464.25 5486.48 5301.47 4617.55 5424.88 5415.85 8659.64 5683.95 6027.62 5010.2 6123.03 5966.61 5711.11 4575.94 4938.72 3546.71 5768.57 5564.23 5950.04 4231.83 2435.33 6401.43 5020.71 2681.29 5094.48 3872.61 4238.4 4318.48 6132.95 5266.22 4860.33 6004.68 4051.34 3627.55 6239.84 4635.6 4256.67 3457.48 3931.07 3405.98 5417.15 3688.16 4681.72 4945.39 5996.33 3950.63 5415.19 4612.62 3619.07 4275.57 4467.04 6385.23 2983.99 2614.4 6363.92 6205.93 4923.24 5830.72 6184.4 3828.81 4373.45 4082.57 5255.18 5169.9 3004.16 4767.78 5235.17 4421.12 4779.5 5254.49 6649.96 4303.19 5784.3 3914.2 4256.57 6088.68 4135.08 5620.74 4778.82 6124.08 5467.84 5053.95 5926.11 5253.37 5767.9 6515.8 5089.62 5869.4 3685.65 3701.16 4186.6 5895.77 4732.09 6136.49 4356.25 4216.95 4209.49 5742.74 4244.21 4947.24 3645.12 3875.05 6200.54 5148.58 4199.45 6599.66 5469.13 4055.54 4233.8 5765.42 6098.95 4997.83 4893.49 5325.44 5021.88 5956.65 4498.25 4188.87 3735.24 6574.95 4074.48 6333.29 4558.47 5731.57 5997.88 5839.71 5576.92 6408.83 3930.79 4004.35 5226.97 3685.13 3312.06 5180.76 3361.26 6799.4 5278.36 5865.39 4427.28 6079.11 3082.32 6430.39 3658.37 7440.72 3949.6 5703.6 6326.18 5661.62 6631.19 6648.68 4713.74 5626.61 5817.25 5407.78 4084.49 5061.98 6632.99 4537.6 5147.36 4419.61 7177.44 4563.46 5309.98 6553.94 5726.66 5460.65 5652.0 5463.41 5225.33 4929.75 4435.36 6045.22 4614.3 5134.39 3532.3 5769.98 5442.32 2221.99 4643.56 3580.58 4863.01 5356.79 5657.36 3619.79 5029.47 6306.21 5266.01 2978.76 2040.66 7016.27 5884.9 3876.21 5689.26 4916.22 6022.7 4940.84 5750.07 4809.67 4757.74 6045.67 3946.28 3821.94 5439.9 5367.73 3540.11 3456.47 4652.01 5421.64 7234.66 4207.54 4886.12 6419.12 4976.12 4817.16 5453.98 3991.42 4388.63 5102.75 4597.29 4200.09 5931.77 5151.21 5398.64 6817.57 4477.04 3614.96 3886.68 5703.74 5662.55 5737.92 5365.24 4360.23 5293.51 4763.96 5754.18 5008.63 3418.99 4480.95 4993.35 4409.63 5521.25 3661.9 5370.85 5949.46 3178.54 4765.02 5376.71 4448.13 5070.29 4807.28 4867.08 2261.36 4266.03 5280.69 4220.03 6923.84 5449.46 6179.96 5703.07 6113.54 4662.43 6260.79 3963.76 5528.53 6799.88 3062.43 5426.78 2967.38 4159.35 6477.91 4237.98 6439.37 4081.97 5401.99 5580.92 5973.33 5067.46 3583.21 2511.46 4011.37 2775.69 4785.25 6519.43 5876.64 5424.46 4857.84 4908.49 4962.21 4858.44 3468.42 4673.35 4771.13 4992.42 5297.19 4351.38 4833.46 5933.7 7248.4 5280.12 4444.97 5984.81 3498.16 4409.27 4640.06 5471.74 3548.39 3673.28 4928.27 4858.51 3375.28 5625.65 4301.61 6107.89 4446.84 5660.55 5148.08 4834.87 5760.22 3672.21 5938.17 4795.43 5097.95 5108.06 3573.73 4693.52 6853.04 4745.43 5831.96 4747.55 3056.7 3755.95 6234.32 4586.19 4446.06 3450.93 4270.74 5132.68 6595.03 4558.15 6218.95 5222.16 5107.23 5136.08 5558.68 3776.94 4010.57 5629.39 2684.03 6157.04 4768.61 5075.55 4522.21 5506.19 6719.94 4950.67 5227.59 6166.29 5453.6 5294.77 4709.05 4630.82 4043.66 4813.08 5860.67 4540.86 5990.52 3764.1 4835.83 5604.35 6316.56 3091.67 4332.87 6420.81 4715.58 4450.7 5151.52 5369.08 4347.74 5291.9 4009.62 2081.58 6505.78 5461.55 4270.15 6865.76 6449.64 6464.8 4684.44 4749.59 5799.69 3809.69 5571.72 3208.96 7051.9 4184.23 4144.57 5550.75 6834.41 6226.14 5466.33 3000.29 5721.05 4247.69 4514.39 4588.99 4321.21 4344.34 3583.49 5052.84 4366.74 5297.16 3184.64 5206.33 5530.49 5653.03 3718.69 4514.79 2216.82 4509.89 6752.75 5269.38 5607.3 2928.82 4222.4 4000.43 3420.08 4568.41 4912.04 4539.07 5464.68 2685.81 5591.76 4585.31 6625.18 5323.91 5097.45 6293.89 2761.07 5737.75 4983.39 5366.52 4690.55 5533.72 5533.42 4802.32 3678.08 4599.38 5246.47 4187.31 6191.29 3240.51 7422.36 5161.01 4298.15 4628.4 5832.37 6051.83 4642.93 5409.63 4263.16 3973.12 3077.84 6024.75 6109.49 5567.93 5987.42 5332.65 4442.22 6451.33 5413.31 3012.99 6400.08 4743.59 5208.14 3317.83 3763.05 5092.24 5549.49 3101.75 4518.04 4766.06 4874.18 5435.19 3298.2 4953.1 5818.95 4093.99 3940.49 4406.05 4680.94 5828.35 5876.72 5236.43 5285.07 4680.14 4608.41 4187.94 5980.59 5021.77 3796.15 4801.8 7216.98 5271.02 4209.31 5718.28 6242.79 5950.45 5713.03 5849.65 5134.67 4165.21 4215.0 4936.96 4481.76 5452.78 5065.26 4304.41 6192.0 4940.28 5885.28 6579.31 3004.34 3022.6 4811.76 4914.45 4698.87 4661.03 3624.7 4691.91 5262.35 4475.83 4510.8 5889.35 5010.04 4394.56 4570.98 4275.07 5825.38 4185.61 4047.87 5742.47 3778.02 6552.21 5417.8 5146.37 7132.12 4836.16 5518.57 5151.11 5463.48 5730.33 5545.46 4527.99 4543.1 4376.7 5190.61 8325.01 3764.06 4440.81 5941.9 5434.47 6642.76 5829.22 4497.78 4243.79 5811.18 5433.65 4008.15 4887.76 4669.06 4811.32 4286.49 6184.88 5829.32 4396.25 5551.95 3918.87 5423.42 2275.45 6605.86 5012.5 4383.56 3562.79 7093.13 4516.53 4122.92 3604.14 4452.54 5089.1 2711.19 4028.32 4099.92 4884.59 3858.06 4511.7 4083.79 5263.27 6300.92 4173.54 5599.29 6038.68 5046.12 4807.4 7013.17 3805.67 4601.74 6506.86 5088.57 5580.34 3852.6 5775.31 4706.5 4603.5 4647.67 5375.12 4356.36 4892.44 5578.94 7610.49 4286.17 3684.56 5323.55 5375.1 4172.6 5313.12 5351.56 5160.59 3984.88 4732.09 4320.42 4255.34 5064.79 5480.3 7509.24 4146.81 5896.26 5388.78 6101.13 4573.72 5099.21 4917.99 5636.4 4367.78 4350.12 5227.02 5670.0 4232.16 5300.96 4344.51 5680.94 3781.77 5581.55 5193.01 3474.5 6550.44 3860.83 6348.03 5732.27 4523.39 5278.56 5146.37 6917.62 4013.38 5631.14 4343.78 5263.3 4909.65 6523.86 7693.4 4326.48 4437.07 3449.37 5491.9 6405.0 4659.16 5789.55 4633.05 4901.2 5711.62 4990.79 4798.17 5166.79 6479.39 2895.63 4997.91 5079.22 5381.54 5810.77 4714.83 5474.15 7519.2 6355.68 4478.6 3953.55 4304.63 4469.54 4314.56 3928.53 5606.51 5740.65 3834.47 6349.67 6329.53 4590.01 6101.86 4227.41 5993.0 4803.57 5966.42 4110.59 3332.49 5354.66 4214.44 5378.23 4787.97 3746.36 6789.23 3989.7 4777.03 4246.61 6028.09 5452.36 3804.5 6486.37 5498.42 5318.53 3344.57 5220.76 4281.98 7165.9 5344.83 7046.11 3427.63 4863.97 6342.48 5756.75 4587.67 5599.7 4163.74 6969.28 3665.95 5698.96 4095.75 3603.51 4298.45 5222.51 6609.84 5135.96 3834.43 5658.37 4707.06 6074.94 5491.37 4250.88 3783.54 3475.67 4792.39 7038.89 3863.67 4814.12 5067.56 6137.8 2735.53 3352.35 5116.6 3747.03 2783.85 4356.49 4526.81 3994.07 4219.94 5907.46 4264.91 6740.71 5399.29 4909.31 5971.22 6522.59 6602.43 3568.28 5425.98 5996.66 4405.42 2995.67 3598.08 4599.81 5698.23 7300.58 3608.06 6633.61 5217.95 4867.7 5484.36 4277.24 4063.9 5291.05 5161.1 4619.2 5166.41 5067.56 2596.96 5701.75 4350.15 4139.3 6541.45 4750.49 5078.31 5391.48 4923.43 5131.15 4847.14 3950.27 5116.66 3566.79 5374.67 4981.43 4741.28 4215.2 5069.89 4157.29 6813.72 5327.75 4609.02 4896.65 4638.18 4196.37 6448.66 4453.97 6945.98 5138.2 5783.48 4449.98 4701.5 4504.35 4771.65 4840.44 5093.82 5951.81 3924.14 6918.35 4296.69 6238.32 3319.67 6471.42 5283.8 4076.59 4428.14 5164.1 6464.15 4479.11 4972.17 6685.4 5699.53 4222.77 4850.06 6332.01 5268.38 5527.23 4805.33 4234.18 7085.01 5980.95 6193.08 6069.3 5887.01 5168.35 5388.39 5335.47 3728.18 5633.61 5048.19 6799.23 4888.27 4592.15 6487.56 4854.11 5533.19 4998.22 5417.21 6104.26 5583.61 6063.64 7382.3 4022.56 5522.21 3772.3 4855.01 6208.9 4923.57 3340.09 6061.63 2279.05 4829.35 4075.28 8137.11 5484.32 6650.77 4067.96 7104.73 6162.3 3272.75 4264.54 3516.27 7043.44 4263.78 4643.9 5228.75 6047.14 5009.83 5210.38 5717.8 3629.44 5003.78 3299.24 6246.56 4061.6 2603.64 5107.0 6212.15 6502.97 4783.07 4946.23 4852.58 6083.28 5211.6 3556.79 5806.31 5456.71 3503.41 7317.04 6412.67 7001.83 5012.97 5589.37 5439.49 6639.64 5212.43 4834.3 5454.12 6348.54 6804.79 5642.35 6372.13 5369.5 5404.01 6016.19 4124.49 3230.13 5714.25 6176.67 5325.96 5412.24 5016.02 7044.29 4920.21 4049.16 3936.95 6153.94 6836.82 3862.77 3858.17 4631.99 4740.98 3185.39 5128.77 7122.87 5797.36 4243.26 4153.84 5119.86 5089.26 5084.17 4901.44 3776.8 5096.43 6156.21 2460.79 4653.83 6171.71 4986.71 3628.89 6589.82 4668.88 5027.43 5522.75 5867.64 6059.93 5602.53 5073.02 6545.43 3472.91 6760.92 4989.2 4711.04 7144.05 4506.18 4824.12 2970.9 6542.5 4383.47 5971.21 4036.91 4066.57 4206.98 5156.76 6357.47 6101.57 4891.38 5535.91 2949.12 5955.86 4532.89 4533.37 4848.46 2779.99 4581.37 5887.38 6942.34 5851.61 3658.05 5478.11 5526.31 5030.15 4438.58 6318.23 4058.87 5174.75 5932.07 4984.46 5948.71 4793.65 3856.53 5460.89 6040.74 5260.85 5742.09 2884.65 5393.65 5807.46 4648.21 4393.16 3311.29 4549.69 6423.81 6192.77 6413.15 6103.11 5048.55 6459.51 4024.31 4955.16 5844.72 3992.97 4147.31 5989.05 4054.22 7228.94 4441.22 4961.99 6551.93 4595.12 3110.13 6484.43 4625.67 3485.54 6735.97 5305.59 5416.45 4330.58 5754.6 3288.01 4904.51 2202.77 5751.15 5950.88 4149.55 6201.86 5853.89 3380.69 4140.4 3639.44 4386.8 5446.4 4725.01 5966.75 4729.42 3104.96 5244.78 3636.15 6114.89 5135.63 6384.7 4355.83 6870.97 5351.86 6056.87 5474.01 5307.35 7554.58 5166.89 4731.21 5491.63 5725.37 3868.62 5138.33 3477.1 4811.22 5216.26 4844.83 4749.96 5377.37 5652.87 5483.7 5018.69 3152.86 5952.38 3896.27 5807.52 5963.36 5230.02 5087.14 4342.18 5169.48 6016.08 6776.22 3124.7 6064.71 6102.98 6060.17 4385.81 6592.93 5096.24 5769.14 3381.82 4831.93 4023.93 5494.28 4834.39 5493.89 5261.19 4918.76 4208.41 5826.78 6214.73 4553.68 3758.22 4268.19 4532.7 5561.74 6100.73 4788.08 4593.7 4349.13 6379.14 3687.65 5478.95 3851.85 4019.34 4658.24 5869.67 4311.48 4899.73 5457.66 6394.19 5973.89 5366.22 6193.73 5518.11 3742.11 5712.35 5701.52 4743.9 5321.17 3719.11 4467.13 3877.8 6418.11 5934.82 4501.78 5415.45 6350.71 5039.12 7107.63 5868.89 5545.59 4099.26 5206.47 3831.52 4263.65 6106.43 6761.81 5467.63 4127.53 5210.75 2856.55 5361.87 3205.68 4473.29 4908.75 6556.26 3971.08 4482.9 6818.91 3634.5 3503.65 4869.48 3623.19 4906.11 5510.96 4387.39 4564.1 4745.16 5825.55 5509.51 4848.14 3199.4 4316.5 5254.24 4192.21 4914.03 3597.43 5144.56 4158.91 5311.55 3360.86 3034.16 4869.25 5545.21 4333.87 4922.49 3572.94 5001.58 6456.58 5244.98 5366.11 4824.81 7307.21 5135.5 3619.72 4565.93 5615.84 4464.73 5788.97 6440.38 3274.85 5007.21 4580.06 4835.97 4057.17 7066.96 4587.7 5644.81 5666.95 4642.2 5175.89 3894.64 3703.49 5232.85 4374.74 5975.23 6816.66 4745.79 6204.65 6550.4 5513.8 4887.52 5350.88 6571.31 4392.65 5429.3 6653.07 4697.91 4584.81 5071.98 5719.79 4371.08 7261.51 4968.14 5086.29 5527.13 5139.18 5551.43 4278.57 5049.99 4201.03 5001.87 4458.64 4312.15 3644.78 3657.69 4078.93 6015.02 4820.17 3814.65 3886.72 5798.38 6436.74 3419.87 4384.28 3908.98 5113.6 5944.3 6328.42 5640.72 4504.52 4954.81 5610.53 6419.64 3926.11 5464.83 5262.47 2781.96 5414.58 4991.35 3512.94 4431.23 4467.0 5196.92 4994.65 4258.98 5601.55 4807.35 3903.91 5334.36 4568.64 4728.55 4929.6 3919.62 5750.35 4489.99 3683.86 6555.44 5293.75 5658.14 5730.61 5473.72 4508.18 7124.45 6358.93 2205.51 5064.67 4383.68 6618.21 2617.39 5144.44 4757.2 4062.56 3717.47 4504.86 6200.63 5969.37 5034.69 4198.94 3217.67 5079.64 5470.04 4211.82 5212.37 6003.78 5684.25 5438.92 5058.51 4244.49 5110.11 3766.69 4891.67 5188.53 4882.66 4027.63 4521.75 6631.28 5569.2 6746.66 5410.33 5420.67 5603.68 4944.51 5610.95 5532.72 3220.8 5179.17 5579.39 5270.51 5148.1 5490.75 5224.64 5949.73 4312.48 5783.94 6370.33 5081.08 6318.25 4202.77 6864.06 6008.81 5510.9 4583.52 4505.28 4883.63 3492.83 5244.22 6280.13 5832.29 5585.14 7039.98 6006.89 4128.1 4159.81 5792.98 4960.64 4983.3 7778.01 4034.05 5053.15 5127.82 5690.96 5805.1 4456.11 3862.91 4125.9 4456.26 4234.88 4027.33 4810.98 5026.76 5091.22 3563.14 6282.38 5347.9 4646.51 5851.63 5727.79 5212.92 5188.82 5043.14 4928.85 4717.73 5072.5 3904.07 5556.0 5748.9 3742.31 3663.0 6304.49 5755.15 5134.72 4608.34 4420.6 5695.79 3622.8 4770.51 4184.47 5577.41 6511.37 5917.34 5740.98 3787.08 4346.07 4462.87 6545.99 4218.16 5630.9 4554.68 4140.92 4368.28 4692.32 4512.07 4945.0 4474.83 4548.45 5236.24 4658.11 3127.83 4585.04 4551.26 5114.07 4212.15 4385.49 5678.58 4263.18 6570.35 7142.95 4242.63 4559.74 7407.91 5836.26 6666.67 6063.44 4051.18 4826.52 4583.94 5046.31 4928.35 3844.54 1937.5 4337.32 5849.53 4509.46 3538.53 4651.99 6163.54 996.652 4420.11 4680.69 6500.49 2628.22 6127.39 5965.58 3352.34 4901.29 4972.18 4050.03 4124.76 5329.76 5036.98 4775.04 4607.18 4120.07 7200.89 4813.33 4952.52 4147.49 3429.57 4802.98 4833.55 3840.21 4081.34 7224.99 4954.76 3908.56 4642.74 4526.34 5635.32 4316.45 5409.08 5042.75 4598.92 5241.22 6647.08 4979.52 3422.29 4407.79 5214.63 3495.68 5352.24 3990.96 7362.42 5793.12 5836.14 5473.05 4373.2 3743.76 5153.18 4763.4 3425.69 6711.21 4971.29 5510.45 4236.86 3684.15 4730.14 4941.02 2606.51 4438.76 3994.39 3864.92 2955.36 6119.99 3965.3 4618.73 4009.24 4446.58 5372.82 4402.17 7541.76 5401.4 4775.49 4681.29 5910.86 5499.59 5124.17 6239.68 3220.29 5749.6 3845.9 7320.78 4834.44 4439.71 4064.58 5782.43 5667.51 4708.31 6331.74 4198.9 3873.92 5431.29 4833.67 5023.41 4659.88 5325.91 4092.07 4213.05 4546.44 5157.38 4224.3 5657.55 4184.21 6203.03 4700.07 5235.87 5473.89 5273.37 4732.37 4985.3 5810.17 5265.21 4966.07 5713.36 4749.18 3669.32 5553.94 4546.96 4316.0 4704.92 5424.55 4392.75 4921.1 3814.16 4271.07 4191.01 4475.38 5287.25 4920.88 5995.4 5890.25 4216.44 5700.79 3999.5 4012.92 6710.14 4013.86 5759.79 4598.54 4177.47 5218.42 4933.49 2918.64 4770.63 6139.64 3990.94 4896.43 5984.8 5477.8 5463.06 4639.8 3986.41 4462.35 5260.52 3185.09 6102.49 5114.23 5495.0 3469.18 3269.54 4489.29 2945.34 5064.23 4301.93 6015.22 5268.15 6061.85 4454.74 5512.44 5819.0 2904.46 6449.06 4685.4 5120.92 5241.75 4731.53 3763.9 4788.7 4577.73 5721.14 5863.0 4288.45 5084.5 5640.12 4918.64 6638.25 6206.98 5078.59 3899.7 2403.72 5134.33 5419.57 5162.67 5760.98 3646.95 4705.68 5469.35 5384.86 6334.53 4827.61 5661.6 5285.75 5385.03 5481.64 5673.75 5360.67 5968.54 6263.3 4501.05 4537.03 6548.29 4114.2 4326.06 5034.46 5757.29 5016.46 5469.17 5061.75 6273.6 3769.24 5136.87 5902.67 5638.7 5454.11 5024.32 4708.17 5393.76 2741.2 3779.45 5806.61 4983.1 5784.37 6010.59 3142.09 7123.04 3682.35 3668.93 5182.13 5906.57 3756.96 6110.48 4932.29 6245.52 3954.77 4990.23 3784.94 6793.1 6016.87 3125.13 5077.29 4506.66 5515.73 4141.21 4174.44 6715.73 5209.55 4564.41 5426.4 5763.05 5951.86 4252.18 5076.84 5357.39 3791.41 5247.01 5853.12 4208.37 4841.7 5702.4 5685.74 952.938 5069.9 6740.35 4678.7 6089.45 3450.07 3673.6 3306.84 4550.92 4657.24 6215.87 4400.14 5866.42 5191.26 4762.1 5544.27 3987.69 6502.99 5308.33 3484.81 4287.25 4666.12 6219.34 6023.07 5674.63 5340.05 4589.06 6506.63 4140.04 3495.3 5322.11 4697.49 5735.08 4726.2 5034.05 4816.51 4711.15 5345.73 3825.48 4841.23 5188.22 3810.68 4756.8 2804.54 4196.62 4357.11 4176.32 5005.6 5486.89 6069.78 4241.68 5532.75 6949.65 3587.93 3372.95 4095.83 5695.25 5676.61 5846.95 5716.42 5701.63 4603.04 4620.95 6347.72 5368.93 4924.07 3200.6 3460.93 4629.02 5124.86 6240.42 4927.73 5146.0 5914.5 4608.62 6006.16 5710.33 5407.96 4987.28 5344.44 4071.75 6562.03 4626.72 4815.47 4759.99 4410.82 2646.13 4368.12 4365.58 5214.4 4636.53 5399.43 3629.49 5766.05 5695.44 5117.64 3422.21 3916.42 3835.81 3242.31 6099.28 5372.25 4169.15 3234.26 4778.37 3494.16 5134.17 4074.16 4904.35 5592.54 3247.97 5390.33 5124.34 4904.37 4358.81 4651.64 5729.92 4179.87 6224.13 4761.84 4493.79 3661.67 5684.05 3667.93 4932.56 4279.44 4899.19 5813.79 5058.34 4644.88 5790.42 4028.22 5293.13 7350.26 5591.77 3768.46 5167.53 5003.3 4168.52 5800.81 5106.46 6562.92 4068.31 5166.05 3671.06 3612.44 7035.54 4850.5 5233.76 5866.91 4683.28 6405.69 2820.07 5129.68 4825.73 5679.74 5288.33 6296.54 4871.77 5797.21 5811.26 5062.77 6019.35 6075.99 6028.63 5927.2 5146.1 6485.77 6060.06 5960.5 5393.43 4117.9 6896.55 4685.65 5377.01 5330.26 6470.23 5939.22 4668.8 4215.05 4271.93 5125.17 4604.1 4859.01 5524.45 7133.44 4426.02 4750.81 3953.26 4474.39 4658.59 5459.92 6478.35 2809.19 5453.77 4104.04 4916.7 5589.53 2638.82 7208.19 5593.79 4549.51 5196.08 5025.42 4975.85 4517.29 5323.95 4495.75 4849.5 6171.01 6229.83 5796.26 4468.26 5578.18 4870.94 5271.88 4488.39 6121.56 7168.2 4602.57 3419.07 3565.32 3622.48 4096.86 5001.51 6432.8 5131.77 5115.42 5549.71 3186.07 4369.86 4967.51 6443.99 3889.98 7212.97 5193.58 5490.64 3720.7 5034.34 5698.53 3769.2 5036.14 4507.46 5265.63 4898.29 4431.06 5730.2 4830.13 5620.88 5370.9 4529.77 4325.13 6172.27 3783.79 5078.73 4248.14 5278.54 5729.0 5192.92 5275.57 4786.66 5891.25 5370.1 5537.34 5192.49 3487.31 6643.4 5726.42 4674.9 3918.94 5575.11 3392.26 5487.63 5461.72 3852.82 4507.36 6224.85 7145.73 5403.97 4556.19 4795.08 5648.78 5368.66 5501.73 6875.73 4697.24 5226.42 4983.43 6081.3 5117.52 6311.89 6734.39 4217.36 5942.45 6549.8 4851.18 4150.76 4165.36 5005.72 5368.52 5155.28 5205.38 5388.73 4884.93 4764.83 4600.71 5262.79 3957.38 4494.15 5035.71 4419.79 5407.69 4710.88 3869.39 4057.4 5152.78 4753.76 5534.23 4781.9 4638.09 6815.96 4441.91 5339.6 5828.25 5917.08 4725.11 3626.86 5418.12 6371.96 5076.11 5322.07 5990.75 5600.21 4282.11 5467.51 4625.53 6589.13 2347.41 4096.47 4542.16 5114.67 3543.37 5628.97 5353.66 5030.33 5527.27 5104.39 5234.2 4965.24 6379.38 6257.79 5327.05 5438.55 5353.23 4434.65 5977.66 4523.81 5106.33 5293.37 5791.25 5198.94 5933.54 4028.35 5559.79 5879.24 2980.31 3763.85 4571.74 3148.79 5740.78 4796.12 5997.91 5385.86 4742.82 4082.4 6791.86 4209.0 4820.68 4930.72 5482.76 5728.58 5173.82 3745.02 4211.36 6297.99 5378.24 3604.31 3856.73 5817.74 4450.49 5887.71 3468.45 5764.52 5684.88 6523.78 4645.86 4045.67 4941.52 5900.0 4262.74 4581.1 6241.77 5317.19 5279.19 4016.6 5821.49 7050.08 5580.44 5998.13 6022.78 4087.32 5884.99 6647.85 7025.09 2549.95 4433.12 4361.24 6599.28 5138.93 5099.9 6945.69 6406.8 5118.86 7086.69 4304.64 6170.9 5833.78 4436.48 4823.06 5758.98 5615.35 3967.76 5288.64 6213.24 5987.88 4228.53 3579.59 6123.46 5057.59 6142.88 5111.26 4574.54 4949.55 5490.54 1969.87 3132.34 5203.54 4841.28 4047.95 5507.38 6142.94 6889.5 5001.69 5300.17 4416.87 4052.43 4896.67 3980.46 5383.9 3934.11 5158.44 6025.77 4466.22 3886.56 4496.51 6153.71 6561.94 5483.37 5092.93 5934.05 2803.01 5770.07 4714.66 4444.0 5101.6 6771.18 4984.17 4656.01 5327.39 5781.62 4037.86 5602.62 2030.03 4138.59 5714.51 4938.33 4484.78 4621.33 5157.73 5847.91 4612.13 4934.66 5846.6 4984.01 4109.44 4903.84 4290.49 4557.1 6688.53 5927.1 5209.5 6175.27 5065.74 5876.51 4873.23 6731.89 5464.05 4733.41 5410.6 5453.2 6348.93 5136.51 6824.53 4332.64 4422.23 5232.16 3989.26 6031.22 5485.84 6424.77 4887.73 4335.79 5453.69 4538.89 5918.95 5689.56 6556.86 4390.64 3770.22 5150.84 4608.01 5087.97 6005.95 4308.49 4519.03 4930.17 5110.27 4745.44 4085.96 5762.82 7360.12 6223.98 5462.6 5617.29 3035.06 4262.19 4597.88 5095.52 5517.65 4009.68 3303.49 2569.12 4622.73 5161.74 4161.32 5256.75 7336.37 6530.78 5932.28 2960.5 5560.23 4975.32 4298.7 3043.77 3902.48 4183.4 4733.79 6030.39 4905.53 3799.01 7392.65 5254.49 3757.23 6828.8 6883.86 3350.99 4979.5 6161.94 4065.28 4745.37 5939.29 4461.14 5285.6 5418.98 5575.11 4034.41 5615.06 5061.74 4052.49 5326.03 6189.67 4948.96 5256.82 6581.56 4013.86 4061.87 4645.93 5165.31 3798.09 4585.37 4288.5 5715.51 3721.69 4511.05 3456.3 6074.39 5259.21 5317.83 4256.08 5881.93 4399.52 4554.24 3939.96 6182.19 5910.66 7415.84 4981.81 5141.03 4970.55 8123.59 5765.14 4541.22 4767.54 4946.08 3539.68 4696.03 6217.33 6177.68 4605.39 6270.59 6045.26 6500.45 4103.76 4907.55 4094.63 4286.61 2932.52 5264.83 4603.66 4969.68 3901.53 6636.43 5431.14 6815.51 4457.05 5313.86 5178.07 5189.91 5777.26 3618.64 5703.84 4171.02 7012.36 3530.82 5797.32 5432.04 4886.99 5159.67 3921.27 3161.1 3702.45 3402.44 4848.98 4491.96 5184.98 4199.44 4467.51 5339.82 5460.57 5065.78 5703.34 4612.68 6668.98 6649.52 4232.33 4939.56 4747.68 5770.92 3093.38 4845.91 4878.93 2002.78 4461.67 5129.4 5114.51 4746.15 4655.37 3720.38 5585.25 4758.84 5023.61 6351.89 3976.0 4672.86 5059.37 5783.38 4139.39 5237.55 3909.94 6264.03 5088.64 4526.87 6589.8 4151.74 6920.92 3729.16 3783.36 5319.1 3038.91 4181.93 3922.28 6570.43 3820.19 3445.92 4586.82 5236.69 3133.28 6026.04 6200.05 5859.17 6353.81 3518.14 5522.34 4150.44 5771.98 4420.35 5899.78 5717.45 5117.83 5268.27 4813.81 5448.64 5244.95 4634.25 5901.8 6417.61 5395.12 5783.69 3830.7 6210.0 5350.9 3483.61 6738.9 4460.89 5992.06 4157.1 8052.53 4867.12 6044.01 6520.19 4637.3 1458.87 5973.57 5734.07 4840.44 3997.68 6033.28 4819.83 4801.16 5071.38 5121.08 2927.84 5616.66 5688.77 5368.28 4698.7 6229.64 2848.44 4220.43 6263.87 5743.8 5084.76 6666.34 6605.11 4645.91 4757.87 3557.46 6379.33 5971.95 6298.8 3979.46 3689.24 6321.97 5151.19 6509.54 6119.0 3792.06 5128.59 5028.06 4002.99 4993.49 4293.3 5587.3 3572.73 4864.38 6583.37 3688.83 5537.61 4721.98 6084.88 4397.06 3543.98 4053.12 4479.5 6261.67 3435.13 4431.46 4521.42 4610.55 3207.84 3977.98 6043.34 4128.93 4959.72 4712.17 3808.04 4723.71 4405.61 6275.25 6892.33 4731.37 4505.3 4452.36 4491.26 4511.34 6463.71 4068.41 4742.35 5009.21 5394.79 4574.03 5645.54 5290.37 5850.38 5264.08 3562.8 4227.66 5192.82 4691.01 4174.22 5245.95 3573.84 5821.42 4067.89 4515.02 6294.09 4571.57 5131.07 4121.07 2970.24 4197.87 5524.28 5105.54 5731.43 5462.1 6032.45 3414.67 5444.36 5044.68 4026.03 6908.32 2649.69 3467.11 5000.74 4817.75 5772.57 6153.26 5637.53 3882.37 5523.81 4095.4 4718.61 5188.57 6351.48 5357.33 5252.37 5432.4 4262.52 5037.58 7430.48 5640.67 5545.68 6080.69 4970.12 4967.93 6369.66 5922.62 6241.48 5125.45 5957.82 4188.16 6286.27 3717.22 6327.54 5507.07 4802.36 2943.17 5327.71 5466.13 4880.78 5257.38 5075.23 4975.56 7282.36 3826.01 5581.01 3928.99 6834.92 4125.75 5749.53 5130.57 5652.73 5402.45 6412.84 3985.93 6071.59 2589.19 6079.55 5485.61 4937.36 5310.33 5308.4 6581.13 4569.32 3228.27 5252.82 4142.1 5056.26 5878.55 4014.44 5445.91 6604.72 6002.77 3794.47 4967.02 4614.49 5400.69 4462.5 2807.46 5573.31 5004.68 4179.8 4023.88 3488.34 5348.11 5428.24 5631.32 6322.0 5793.14 4609.65 6345.2 5704.61 4832.21 5410.73 4379.91 4942.63 6139.74 4975.57 7066.26 4730.97 3057.3 4594.89 3677.85 5214.71 4677.84 4811.11 3463.53 4924.52 5379.52 6126.03 4866.8 5314.67 6044.69 5563.47 5658.05 6593.1 4066.36 4000.51 6033.93 5011.37 5516.37 2827.92 4441.44 4232.44 5336.61 5563.09 4848.15 4439.09 3282.57 4798.13 5648.59 6697.45 3873.79 5717.67 4432.32 5515.59 3224.81 4499.54 3775.38 4046.22 6457.89 4844.2 6572.17 3751.73 5555.89 3374.62 4766.47 4871.1 3917.09 5678.08 6009.93 5872.45 4414.09 5191.29 3784.68 4947.64 6305.9 6649.21 3470.69 4654.92 5286.55 4322.56 5522.18 5509.09 5223.1 5625.02 3873.72 5212.05 4592.49 5479.86 4829.77 6474.5 4444.92 6959.88 5971.9 3746.62 5247.73 5090.48 5034.02 5582.28 5945.25 3856.4 5181.31 4696.06 4137.16 6189.29 5984.55 5803.3 3956.24 5580.95 7558.99 3393.59 4032.06 5043.14 5246.81 5333.04 4521.99 4812.59 3463.34 6842.54 7115.67 5675.45 3361.11 6038.56 5329.84 5599.16 3879.83 6565.95 4577.98 5658.35 5886.81 6126.5 4034.88 6007.1 5067.92 5488.96 3188.21 5128.03 3720.92 5087.3 6637.38 6188.33 6111.23 6916.18 6150.31 5873.62 4996.91 3920.44 4450.51 6033.72 3768.62 3851.47 4966.74 2329.93 5651.46 4959.94 1635.31 5639.4 3162.27 6185.73 4083.24 6520.96 5092.44 3771.91 5432.2 4612.4 3312.3 4746.19 6381.58 4616.81 5715.25 5212.2 4611.21 5108.42 4630.5 3354.94 6296.36 5237.27 4451.76 7885.41 5782.25 4104.97 4575.72 4081.77 5114.61 6118.13 4926.62 4420.3 4202.12 6332.64 6492.44 4083.1 4613.32 5270.1 3482.73 5130.56 4957.99 4063.26 5345.05 4997.89 4542.62 5093.28 4859.95 4132.08 4699.77 4850.49 4981.55 3625.98 5144.23 6188.62 4702.32 4414.06 4763.04 5944.52 4413.56 4532.67 4876.37 2513.38 5316.05 4769.62 4908.32 5260.13 4649.5 5019.84 4810.74 5985.75 3900.93 5784.38 5475.83 4149.17 4329.8 5672.46 5728.27 3074.49 5202.33 4313.38 6598.99 3549.92 5250.56 3633.58 2468.16 5089.1 5888.95 5394.78 5169.09 5122.38 2853.68 2459.88 5262.85 4998.37 6559.82 5342.9 5733.12 5043.34 6436.29 5108.84 4487.51 4582.12 3511.5 4295.25 4520.14 7394.47 5357.14 4729.45 5919.27 4850.95 4793.06 5374.09 6271.22 3421.81 5378.75 3920.64 6186.24 5822.7 5786.06 3780.07 4137.41 3868.69 5466.49 5447.74 4038.17 5007.41 4907.48 3692.99 6213.74 4369.87 6938.87 5412.07 5512.57 4806.99 4813.55 5856.43 5217.62 3465.03 6178.19 3839.0 5349.85 5799.86 5172.1 4362.94 4469.82 6545.78 4870.14 4404.87 2932.2 5105.72 5767.65 4750.76 5003.49 3964.03 4907.03 5497.27 5617.91 4948.21 2181.29 4987.01 4706.31 2694.25 6265.48 4735.99 4203.68 4739.56 5145.39 3996.93 3352.46 6351.95 5195.09 5200.1 7679.2 4881.51 6131.52 2626.41 6009.88 4311.92 6729.99 5093.41 6842.35 5464.34 6153.07 3621.63 5801.89 5908.57 7296.47 5050.2 4821.41 4924.53 3995.08 5616.11 4499.52 3874.12 4028.13 4457.73 6476.35 3113.64 4304.75 6260.58 4067.24 3053.19 6571.26 2832.83 5827.3 6036.99 3010.1 3825.98 6294.14 4339.97 5087.03 5203.75 3906.41 4691.15 4512.6 4210.24 4260.38 5470.67 5901.71 5225.11 5252.22 6060.19 4962.35 4246.24 6805.02 5354.48 4900.26 6261.13 4167.55 4720.34 5244.47 4731.16 5510.89 6470.87 4495.33 4159.89 5282.67 5178.55 5146.69 6203.24 6818.23 5081.65 4488.41 6679.12 5652.19 5806.74 3878.8 6578.62 6284.12 4796.04 5229.56 6011.4 4672.34 6052.22 5376.41 5003.63 4695.7 4082.01 4944.08 5576.16 5269.39 4305.35 4216.33 5210.22 5832.72 2451.27 3903.9 4721.2 4444.95 5161.02 3124.49 5242.38 6081.35 5003.81 6262.18 3818.37 4701.03 6225.05 5434.04 5125.53 3997.52 4444.54 5779.9 4909.74 5310.33 5299.03 6664.54 3922.98 5161.73 5259.48 4777.96 4008.67 5254.93 4803.4 6833.5 6608.94 5742.39 2613.78 4780.16 5417.07 3834.01 5738.37 4433.23 4813.24 5759.19 5847.27 4490.2 5734.84 5480.86 6139.9 3982.31 4950.07 4720.22 4474.96 4084.87 4790.63 5259.29 3584.05 4589.22 4818.53 4667.84 5097.85 5584.64 4123.08 6224.64 4221.03 4636.45 4932.27 3799.55 5638.51 6793.49 3563.33 5536.0 6786.37 5402.81 4600.81 4919.13 5640.63 4124.33 5168.97 5783.88 5002.38 6705.93 4865.11 5449.09 5502.14 4605.61 4465.56 4131.08 5386.95 5747.9 3864.19 4287.93 5332.11 5315.71 6158.93 5373.78 4823.14 5438.5 4621.32 5699.4 5237.76 4698.94 4286.84 3948.21 5669.15 5296.05 5263.86 3330.85 5056.32 6988.4 5533.52 5410.33 4060.17 4747.24 4380.86 5302.53 4909.13 4287.61 5648.02 3308.75 4439.17 5677.42 2701.42 4929.35 5606.22 3943.77 5151.68 5459.52 4609.98 5566.5 5663.36 4752.31 4276.59 5579.04 5405.6 5994.21 5403.81 5082.25 6964.78 4374.05 5036.84 4565.36 5813.68 4025.08 3618.53 5040.9 4770.21 8013.28 3846.55 5283.65 3796.73 3082.16 5656.84 6789.66 4739.41 5416.41 5312.2 4706.59 6760.64 2515.5 5177.88 5551.79 4582.24 5367.05 4758.76 5647.11 4088.72 3945.62 4916.75 3743.85 6236.46 5342.17 6379.3 6189.04 3795.63 5189.4 4576.71 5082.66 4550.77 4894.15 4337.93 3550.88 5201.3 4345.51 4048.73 6223.33 4333.23 4328.76 5561.63 5940.5 4358.06 5093.51 5647.93 4280.92 6201.49 4696.92 5154.74 6437.99 6898.8 6632.04 6540.57 4893.72 6004.72 4072.4 5699.51 5345.65 2489.44 4489.18 5863.36 4632.75 4752.94 4994.98 3950.53 6423.96 6058.13 5894.69 4987.01 6635.51 6094.34 6051.35 5543.67 3999.81 4867.13 4604.34 4863.27 4502.12 5442.79 3255.93 5051.39 6673.92 4633.59 4884.94 5362.15 4455.61 4738.72 5240.97 5569.85 5523.96 3929.35 4884.93 4223.53 4759.38 4733.37 6960.97 3037.72 4287.15 5282.51 5504.65 5669.41 5732.11 3919.47 5596.68 4868.66 4004.39 5159.9 4644.68 4987.48 2892.36 5943.61 4248.58 5981.54 5911.29 4542.25 4694.27 5233.88 4849.21 4785.55 3793.83 6981.47 3916.15 4449.73 5015.67 6538.04 6157.59 5848.41 4090.28 4246.83 3860.8 5145.13 3747.96 5611.29 4521.88 6568.45 5004.22 4601.54 4963.88 7263.57 5705.96 3832.09 5267.65 5739.69 3509.34 5360.88 7360.62 4977.64 4985.45 4983.56 5205.53 4714.52 5499.37 4883.13 4836.76 5551.09 5755.98 4501.1 5392.85 5581.47 4384.91 6550.61 4277.54 4713.56 4531.46 6779.82 5448.68 4739.5 6210.48 6377.45 4182.05 6853.07 6327.61 5733.59 5575.8 5268.93 3695.72 6874.6 5106.9 5306.31 4535.94 4523.9 5126.08 5604.0 3760.4 4951.02 4602.7 3783.35 4037.16 6395.63 5479.17 5020.37 4414.23 5245.4 6189.81 5438.6 7370.52 4726.5 5467.05 3724.23 5103.3 5888.94 4727.98 4122.2 5175.88 4516.26 4790.16 3647.26 3731.58 3166.37 5369.42 5207.08 4587.19 5543.05 6028.89 5333.16 4888.17 5077.2 4274.05 5275.27 5529.09 5925.82 4072.95 4491.62 3865.5 
SCALARS Velocity float 1
LOOKUP_TABLE default
1.19286 1.19298 1.19272 1.19408 1.19178 1.19344 1.19317 1.19286 1.19176 1.19277 1.19178 1.19226 1.19178 1.19178 1.19237 1.19178 1.19178 1.19217 1.19178 1.19177 1.19173 1.19275 1.19243 1.19177 1.19178 1.19173 1.19181 1.19176 1.19178 1.19178 1.19178 1.19219 1.1922 1.19306 1.19245 1.19233 1.19263 1.19237 1.19178 1.19224 1.19201 1.19177 1.19273 1.19178 1.19175 1.19358 1.1929 1.1921 1.19213 1.19181 1.19257 1.19175 1.19278 1.19269 1.19181 1.19179 1.19202 1.19205 1.19333 1.19184 1.19177 1.19278 1.19174 1.19178 1.19182 1.19238 1.19353 1.19247 1.19371 1.1938 1.19408 1.19323 1.19207 1.19249 1.19369 1.19397 1.19367 1.19303 1.19178 1.194 1.19193 1.19316 1.19178 1.19289 1.19188 1.19263 1.19389 1.19531 1.19286 1.19305 1.19345 1.19239 1.1918 1.19224 1.1922 1.19449 1.19374 1.19255 1.19412 1.19335 1.19356 1.19302 1.19347 1.19289 1.19305 1.19178 1.19236 1.19175 1.19178 1.19246 1.19178 1.19178 1.1922 1.19178 1.19307 1.19178 1.19286 1.19178 1.19178 1.19178 1.19193 1.19177 1.19178 1.19186 1.19189 1.19189 1.19239 1.19251 1.19313 1.19262 1.19243 1.19273 1.19267 1.19195 1.19277 1.19203 1.19274 1.19252 1.1916 1.19301 1.19352 1.19212 1.19183 1.19339 1.19231 1.19257 1.19223 1.19251 1.19178 1.19324 1.19393 1.19404 1.19173 1.19174 1.19178 1.19229 1.19215 1.19325 1.19288 1.1929 1.19178 1.19178 1.1929 1.19178 1.19178 1.1919 1.1927 1.19212 1.19135 1.19384 1.19165 1.19247 1.19346 1.19433 1.19349 1.19375 1.19345 1.19207 1.19212 1.19387 1.19176 1.19363 1.19312 1.19137 1.19408 1.19255 1.19347 1.19165 1.19325 1.19184 1.19303 1.19449 1.19163 1.19286 1.19209 1.19289 1.19233 1.19292 1.1922 1.19178 1.19343 1.19387 1.19413 1.1938 1.19346 1.19389 1.19323 1.19191 1.19305 1.19221 1.19231 1.19299 1.1918 1.19274 1.19175 1.19178 1.19225 1.19178 1.19307 1.19178 1.19279 1.19221 1.19219 1.19178 1.19209 1.19209 1.19161 1.19212 1.19185 1.19232 1.19252 1.19344 1.19293 1.19309 1.19276 1.19177 1.19236 1.19178 1.19291 1.1927 1.19178 1.19302 1.19347 1.19212 1.19183 1.1917 1.19316 1.19252 1.19253 1.19184 1.19343 1.19449 1.19238 1.19174 1.19235 1.19322 1.19264 1.19347 1.19289 1.19364 1.19417 1.19289 1.19281 1.19274 1.19427 1.19204 1.19385 1.19208 1.19286 1.19239 1.19456 1.1935 1.19356 1.19335 1.19224 1.19348 1.19195 1.19373 1.19349 1.19465 1.19188 1.19471 1.19366 1.19352 1.19539 1.19302 1.19193 1.19356 1.19159 1.19214 1.19336 1.19241 1.19394 1.19254 1.19292 1.19285 1.19323 1.19178 1.19346 1.1938 1.19407 1.19395 1.19427 1.19378 1.19306 1.19191 1.19272 1.19178 1.19219 1.19291 1.19156 1.19274 1.19263 1.19175 1.19225 1.19156 1.19303 1.19382 1.19274 1.19235 1.19232 1.19178 1.19178 1.19226 1.19177 1.19219 1.19217 1.19212 1.19354 1.19265 1.19236 1.19309 1.19289 1.19343 1.19293 1.19304 1.19259 1.19291 1.1922 1.19282 1.1917 1.19262 1.19017 1.19322 1.19317 1.1932 1.19223 1.19153 1.19334 1.19268 1.1931 1.19276 1.19382 1.1947 1.19216 1.19189 1.19268 1.19264 1.19292 1.19178 1.19178 1.19178 1.19468 1.1951 1.19271 1.19425 1.19294 1.19226 1.19389 1.19202 1.1927 1.19225 1.1945 1.19304 1.19309 1.19317 1.19021 1.19321 1.19432 1.19178 1.19534 1.19364 1.19428 1.19366 1.1935 1.19546 1.19325 1.19313 1.19617 1.1924 1.19465 1.19367 1.19221 1.1938 1.1915 1.19251 1.19307 1.19327 1.19319 1.19364 1.19377 1.19393 1.19391 1.19321 1.1925 1.19473 1.19234 1.18988 1.19192 1.19286 1.19156 1.19306 1.19307 1.19177 1.19248 1.19178 1.19305 1.19166 1.19288 1.19281 1.19244 1.19188 1.19536 1.19241 1.19185 1.19218 1.19214 1.19286 1.19203 1.19251 1.19299 1.19329 1.19175 1.1932 1.19256 1.19216 1.1928 1.19121 1.19234 1.18999 1.19222 1.19448 1.19215 1.19055 1.194 1.19276 1.19308 1.19297 1.19293 1.19449 1.19214 1.19189 1.19264 1.19264 1.19178 1.19173 1.19157 1.19407 1.19438 1.19457 1.19257 1.19156 1.19423 1.19187 1.19289 1.19183 1.19443 1.19232 1.19322 1.19381 1.19281 1.19315 1.19308 1.19418 1.19209 1.19429 1.19404 1.19161 1.1945 1.19406 1.19352 1.19461 1.1932 1.19426 1.19125 1.19321 1.19185 1.19319 1.19387 1.19403 1.19256 1.19289 1.19295 1.19315 1.19361 1.19178 1.1937 1.19345 1.19371 1.19372 1.19297 1.19223 1.1946 1.19233 1.18993 1.19221 1.19151 1.19472 1.19319 1.19431 1.1926 1.19267 1.19316 1.19298 1.19215 1.19282 1.19277 1.19244 1.19177 1.19527 1.19238 1.19238 1.19214 1.19303 1.19183 1.19212 1.19219 1.19225 1.19279 1.19225 1.19299 1.19208 1.19201 1.19135 1.19122 1.19178 1.19173 1.19184 1.19282 1.19259 1.19202 1.19332 1.19308 1.19289 1.19451 1.19425 1.19186 1.19193 1.19253 1.192 1.19275 1.19169 1.19119 1.19056 1.19395 1.19419 1.19285 1.19571 1.19078 1.19086 1.19384 1.19298 1.19314 1.19266 1.19358 1.19393 1.19305 1.19353 1.19032 1.19185 1.19237 1.19471 1.19485 1.19425 1.19397 1.19298 1.19425 1.19294 1.19432 1.19132 1.19325 1.19178 1.19148 1.19301 1.19088 1.1938 1.19283 1.1903 1.19306 1.19345 1.19333 1.1936 1.19362 1.19267 1.19217 1.1945 1.19196 1.19008 1.19239 1.19191 1.19128 1.19327 1.19201 1.19147 1.19261 1.19327 1.19324 1.19268 1.19081 1.19206 1.19226 1.19224 1.19398 1.19332 1.19323 1.19204 1.19164 1.19235 1.19213 1.19192 1.19222 1.19292 1.19285 1.19315 1.19308 1.19242 1.19313 1.1911 1.19123 1.19185 1.19163 1.19178 1.19213 1.19199 1.19162 1.19373 1.19385 1.19455 1.1927 1.19395 1.1945 1.19402 1.19233 1.19349 1.19197 1.19117 1.19086 1.19048 1.19178 1.1924 1.20019 1.19381 1.19107 1.19165 1.19172 1.19101 1.19169 1.19386 1.19318 1.19254 1.19353 1.19305 1.19114 1.19528 1.19295 1.19365 1.19186 1.19376 1.19661 1.19474 1.19309 1.19185 1.1925 1.19377 1.19249 1.19424 1.19145 1.19319 1.19043 1.19167 1.19153 1.19074 1.19225 1.19176 1.19348 1.19035 1.19289 1.19178 1.19233 1.19056 1.19347 1.19355 1.18884 1.19309 1.19107 1.1928 1.19303 1.19221 1.19193 1.19199 1.19133 1.19252 1.19077 1.19323 1.19465 1.19339 1.19243 1.19223 1.19191 1.19383 1.19206 1.19233 1.1913 1.19301 1.1918 1.19298 1.19066 1.19178 1.19214 1.19253 1.19221 1.19302 1.19314 1.19206 1.1931 1.19216 1.19365 1.19143 1.19424 1.19252 1.19172 1.19155 1.19175 1.19186 1.191 1.19175 1.1924 1.19435 1.19243 1.1928 1.19375 1.1944 1.19379 1.19184 1.1943 1.19417 1.19659 1.19007 1.19592 1.19178 1.19112 1.19237 1.19338 1.19467 1.19272 1.18837 1.19429 1.19178 1.19484 1.19165 1.19136 1.19294 1.1924 1.19331 1.19198 1.1911 1.1953 1.19312 1.19473 1.19415 1.19425 1.19302 1.19508 1.19171 1.19189 1.19231 1.19366 1.19319 1.19188 1.19384 1.19073 1.19464 1.19307 1.19169 1.1949 1.19187 1.19267 1.1925 1.19155 1.19181 1.19322 1.19283 1.19339 1.19234 1.19309 1.19106 1.19261 1.19302 1.19276 1.19178 1.19202 1.19162 1.19304 1.19154 1.19015 1.19472 1.19235 1.19363 1.19226 1.19225 1.19119 1.19108 1.19314 1.19273 1.19312 1.19228 1.19295 1.19173 1.19284 1.19063 1.19173 1.19185 1.1919 1.19315 1.19267 1.19192 1.19307 1.19233 1.19346 1.19232 1.19381 1.19258 1.19179 1.19252 1.19139 1.1925 1.19424 1.19231 1.19178 1.19318 1.19387 1.1933 1.19169 1.19392 1.19425 1.19395 1.1908 1.19336 1.19689 1.19404 1.19121 1.18975 1.19269 1.19439 1.19241 1.1883 1.19169 1.19623 1.19137 1.19245 1.19236 1.19279 1.19236 1.19178 1.19512 1.19307 1.19446 1.19378 1.19299 1.19195 1.19234 1.19481 1.19791 1.192 1.19178 1.19332 1.19277 1.19287 1.19212 1.1924 1.19316 1.18645 1.18938 1.19102 1.19378 1.1896 1.19481 1.19469 1.19268 1.1914 1.19082 1.19035 1.18989 1.19228 1.1932 1.19168 1.19394 1.19243 1.19122 1.19206 1.19247 1.1928 1.19126 1.19399 1.19289 1.19003 1.19178 1.19355 1.19196 1.19204 1.19112 1.19117 1.19303 1.19264 1.19224 1.19318 1.19246 1.19201 1.19036 1.19189 1.19167 1.19161 1.19231 1.19177 1.1914 1.19183 1.19265 1.19241 1.19178 1.19187 1.19208 1.19254 1.19314 1.19389 1.19178 1.19162 1.19557 1.18878 1.19362 1.19408 1.19238 1.19178 1.19354 1.19405 1.1916 1.19298 1.19379 1.19426 1.19393 1.19335 1.19223 1.19478 1.19059 1.19027 1.19055 1.19182 1.19407 1.19171 1.18591 1.19628 1.19106 1.19374 1.19273 1.19184 1.19219 1.19295 1.19229 1.19227 1.18601 1.19476 1.1926 1.19362 1.19192 1.19257 1.19217 1.19871 1.1908 1.1884 1.19301 1.19195 1.19266 1.1926 1.19306 1.19115 1.18992 1.19191 1.1939 1.18973 1.18957 1.19499 1.19264 1.19126 1.19109 1.1902 1.19013 1.1909 1.19234 1.1938 1.19518 1.19156 1.19316 1.19206 1.19178 1.19189 1.19115 1.19247 1.19144 1.19283 1.19122 1.19225 1.1936 1.19227 1.19005 1.19321 1.19182 1.19192 1.19104 1.19061 1.1929 1.19253 1.19207 1.19307 1.19233 1.19198 1.19164 1.19304 1.19147 1.19201 1.19157 1.1926 1.19066 1.19102 1.19202 1.19249 1.19178 1.19194 1.19188 1.19261 1.19325 1.19252 1.19128 1.19555 1.18819 1.19291 1.19373 1.1928 1.19338 1.19397 1.19257 1.19327 1.1943 1.19323 1.19337 1.194 1.19354 1.193 1.18936 1.19477 1.19006 1.18853 1.1904 1.19181 1.19093 1.19085 1.19557 1.18971 1.19102 1.19146 1.19181 1.19442 1.19164 1.18911 1.19291 1.18955 1.19555 1.19077 1.19242 1.19165 1.19113 1.19355 1.19137 1.19232 1.19178 1.19116 1.19142 1.19176 1.19271 1.19108 1.19286 1.18941 1.1914 1.19333 1.184 1.19252 1.19556 1.19383 1.19122 1.19123 1.19209 1.19024 1.1911 1.19255 1.19403 1.19534 1.19147 1.19179 1.19179 1.19036 1.19174 1.19293 1.19273 1.19423 1.1916 1.19127 1.19228 1.19376 1.19146 1.19084 1.19013 1.19273 1.19241 1.19194 1.19292 1.19244 1.19178 1.19372 1.19383 1.19211 1.19132 1.19254 1.19061 1.19183 1.19208 1.19268 1.19103 1.19121 1.19206 1.19233 1.19317 1.19178 1.19127 1.19727 1.19114 1.19279 1.19415 1.19292 1.19178 1.1948 1.19345 1.19427 1.19293 1.19375 1.19359 1.1932 1.1926 1.19354 1.1947 1.1885 1.19105 1.19201 1.19176 1.19065 1.19235 1.19217 1.19661 1.19013 1.19177 1.19119 1.19168 1.1917 1.19005 1.1913 1.19108 1.1921 1.19026 1.19214 1.1907 1.19211 1.19124 1.19288 1.19126 1.19015 1.19171 1.18972 1.1928 1.19123 1.19266 1.18931 1.18965 1.19309 1.19427 1.19436 1.19403 1.19466 1.19079 1.19205 1.1924 1.19107 1.19205 1.19391 1.19268 1.19116 1.19158 1.19161 1.19132 1.19297 1.19087 1.19229 1.19471 1.18933 1.19473 1.19219 1.19031 1.19095 1.19211 1.19093 1.1933 1.19112 1.1907 1.19001 1.19254 1.19241 1.19198 1.19216 1.19035 1.19126 1.19362 1.1935 1.19203 1.19211 1.19181 1.1919 1.19124 1.19087 1.19185 1.19116 1.19269 1.18802 1.19034 1.19415 1.19457 1.18937 1.19732 1.19358 1.19612 1.19359 1.19237 1.19178 1.19178 1.19467 1.19363 1.19177 1.19615 1.19176 1.19357 1.1948 1.1944 1.1886 1.19126 1.19193 1.19215 1.19345 1.19181 1.19074 1.19329 1.19431 1.18768 1.18984 1.19085 1.19171 1.19167 1.19138 1.19147 1.1912 1.19128 1.19206 1.1917 1.19007 1.19144 1.19158 1.19243 1.19313 1.19188 1.19267 1.1901 1.19078 1.18959 1.19271 1.19144 1.19258 1.18922 1.18985 1.19289 1.19421 1.19416 1.19394 1.1944 1.19069 1.19188 1.19179 1.19187 1.19178 1.18783 1.19007 1.19138 1.19145 1.19176 1.19146 1.19287 1.19101 1.19227 1.18977 1.19113 1.19309 1.18985 1.19087 1.19089 1.19196 1.19282 1.19178 1.19152 1.18966 1.18959 1.19251 1.19202 1.19045 1.18985 1.19204 1.19428 1.1937 1.19182 1.19297 1.19266 1.19146 1.19198 1.19132 1.19051 1.1929 1.1906 1.19048 1.19322 1.19529 1.19227 1.18916 1.19189 1.19274 1.1969 1.19469 1.19143 1.19332 1.19511 1.19687 1.19408 1.19161 1.19493 1.19163 1.19089 1.19078 1.19494 1.19958 1.19555 1.18911 1.19157 1.19247 1.19369 1.19162 1.19014 1.19352 1.19624 1.19023 1.19089 1.19048 1.1912 1.19128 1.19181 1.19068 1.19169 1.19189 1.19035 1.19149 1.19082 1.19377 1.19062 1.19087 1.19286 1.19048 1.19073 1.19025 1.18821 1.19237 1.19205 1.19235 1.18921 1.19003 1.19175 1.19298 1.19283 1.18917 1.19401 1.1907 1.19195 1.19205 1.19212 1.1916 1.18756 1.18923 1.19034 1.19194 1.19161 1.19301 1.19176 1.19181 1.19092 1.19121 1.19233 1.18983 1.19095 1.19123 1.19177 1.19266 1.19174 1.19106 1.18992 1.18981 1.19258 1.19199 1.1904 1.19164 1.1914 1.19039 1.19366 1.19177 1.19256 1.19184 1.19311 1.19176 1.1909 1.19037 1.19433 1.19347 1.18594 1.19514 1.19637 1.19425 1.19079 1.19228 1.18995 1.19702 1.19453 1.19137 1.19423 1.19434 1.19819 1.19346 1.19134 1.19382 1.19144 1.19067 1.19514 1.19933 1.19551 1.18991 1.18833 1.19481 1.19236 1.19134 1.19335 1.1886 1.19129 1.19092 1.19641 1.191 1.18999 1.19045 1.1911 1.19114 1.19188 1.19118 1.19119 1.19051 1.18997 1.19143 1.1907 1.19294 1.19087 1.19088 1.19109 1.18943 1.19083 1.18798 1.19292 1.18846 1.19189 1.19171 1.19281 1.19266 1.19006 1.19349 1.19066 1.19198 1.19317 1.19201 1.18787 1.18788 1.19 1.19164 1.19279 1.19136 1.19133 1.19202 1.1905 1.19177 1.19218 1.19144 1.19111 1.19185 1.19047 1.19204 1.19072 1.19044 1.19198 1.19224 1.19173 1.19049 1.19177 1.19118 1.19017 1.19086 1.19218 1.19253 1.19237 1.19368 1.1907 1.18866 1.1961 1.19372 1.19067 1.19176 1.19598 1.19421 1.19198 1.19126 1.19001 1.19625 1.19487 1.19162 1.19514 1.19414 1.19664 1.19239 1.19035 1.19336 1.19249 1.19072 1.19508 1.19638 1.18967 1.19682 1.19393 1.19219 1.19301 1.19178 1.1885 1.19132 1.19178 1.19101 1.19365 1.1897 1.19042 1.19073 1.19035 1.19047 1.19124 1.1896 1.18898 1.19069 1.19035 1.19259 1.19039 1.19171 1.1913 1.19061 1.18917 1.18827 1.19088 1.18834 1.18759 1.1931 1.18856 1.19178 1.19082 1.19187 1.19241 1.19007 1.19296 1.19057 1.19198 1.19202 1.19227 1.19146 1.19215 1.1877 1.18934 1.18944 1.18922 1.19164 1.19178 1.19114 1.19115 1.19135 1.19008 1.1923 1.19215 1.19153 1.19106 1.19181 1.19052 1.19178 1.19048 1.19179 1.18904 1.19257 1.19183 1.19043 1.19183 1.19141 1.18957 1.19054 1.19231 1.1941 1.19209 1.19241 1.19227 1.19344 1.1906 1.19035 1.1956 1.19178 1.19215 1.19072 1.1949 1.19504 1.19262 1.1925 1.19435 1.19473 1.19481 1.19398 1.19683 1.19425 1.19421 1.1932 1.19012 1.19428 1.19258 1.19153 1.1943 1.19546 1.19478 1.19621 1.19424 1.19177 1.19227 1.19346 1.19157 1.19136 1.19061 1.19342 1.19237 1.18953 1.1899 1.18608 1.18969 1.19089 1.19178 1.19126 1.19126 1.1909 1.18885 1.19032 1.19025 1.19291 1.19015 1.19191 1.19331 1.19197 1.19066 1.18944 1.18848 1.18877 1.18925 1.19324 1.18849 1.19178 1.1907 1.19163 1.19236 1.18966 1.19159 1.19043 1.19165 1.19187 1.19131 1.19225 1.19039 1.18783 1.18966 1.18901 1.18945 1.18818 1.1911 1.19112 1.19132 1.19002 1.19187 1.19223 1.19182 1.19117 1.19179 1.19061 1.18987 1.18972 1.19027 1.18919 1.19196 1.19179 1.19043 1.19143 1.19134 1.18944 1.19055 1.194 1.1923 1.19178 1.1904 1.19276 1.19247 1.19451 1.18962 1.19375 1.19748 1.19178 1.19456 1.19496 1.19173 1.19278 1.19716 1.19214 1.19164 1.19512 1.19421 1.19277 1.19676 1.19263 1.19663 1.19274 1.19219 1.19152 1.19443 1.19539 1.19444 1.19147 1.19194 1.19289 1.19347 1.19178 1.19153 1.19571 1.19026 1.1896 1.1891 1.19053 1.18764 1.19086 1.19175 1.19178 1.19166 1.19214 1.19011 1.1902 1.18978 1.19096 1.1893 1.19374 1.1903 1.19053 1.18936 1.19073 1.18926 1.18927 1.19291 1.18843 1.19078 1.1902 1.19158 1.1921 1.19026 1.19107 1.1906 1.19178 1.19152 1.19177 1.19191 1.19052 1.18965 1.18819 1.18739 1.18901 1.19004 1.18845 1.1906 1.19055 1.19208 1.18995 1.19232 1.19067 1.19164 1.19094 1.1912 1.19066 1.1898 1.18985 1.19004 1.1916 1.1918 1.19201 1.19178 1.19122 1.19135 1.18922 1.19102 1.19539 1.19189 1.18982 1.19019 1.19252 1.1926 1.19234 1.19223 1.19087 1.19851 1.19532 1.19425 1.19482 1.1934 1.19232 1.19699 1.1935 1.19533 1.19401 1.19696 1.19719 1.19352 1.19221 1.19642 1.19185 1.19106 1.19443 1.19516 1.1942 1.19126 1.19215 1.18997 1.18999 1.1916 1.19334 1.18868 1.19575 1.19114 1.19108 1.18948 1.18908 1.1904 1.18746 1.19178 1.19067 1.19381 1.19184 1.19226 1.19083 1.19002 1.18942 1.19204 1.18897 1.19178 1.19003 1.19066 1.19204 1.19024 1.18924 1.19212 1.19108 1.19068 1.19078 1.18999 1.19149 1.18966 1.19001 1.19093 1.19108 1.19178 1.19204 1.19169 1.19193 1.19245 1.19234 1.18739 1.18911 1.19178 1.18837 1.19077 1.19142 1.19202 1.19092 1.19178 1.19213 1.19134 1.19097 1.19127 1.19069 1.19104 1.1909 1.19178 1.19001 1.19181 1.19176 1.19186 1.18978 1.1909 1.19015 1.19137 1.19534 1.19121 1.18916 1.19389 1.19033 1.19249 1.1922 1.19144 1.19099 1.19745 1.19553 1.19232 1.19514 1.19389 1.19269 1.19697 1.19392 1.19229 1.19194 1.19613 1.19659 1.19315 1.19188 1.19612 1.193 1.19166 1.19474 1.19064 1.19014 1.19461 1.19141 1.19344 1.1946 1.18796 1.19022 1.19184 1.18916 1.19262 1.19025 1.19141 1.19293 1.18947 1.19075 1.1878 1.19184 1.19109 1.19188 1.19181 1.19194 1.19076 1.18932 1.1895 1.19357 1.18884 1.18872 1.18992 1.19078 1.19033 1.18977 1.1893 1.18882 1.19127 1.19096 1.1896 1.19 1.19188 1.19178 1.18973 1.19084 1.19135 1.19129 1.19218 1.19146 1.19133 1.19199 1.19154 1.18783 1.18984 1.19102 1.18836 1.19125 1.19153 1.19087 1.19181 1.19202 1.19139 1.19088 1.19103 1.19178 1.19177 1.19204 1.1918 1.18999 1.19334 1.19346 1.1916 1.19179 1.19021 1.19201 1.19193 1.1917 1.19202 1.19014 1.19 1.19143 1.18972 1.19289 1.19212 1.19273 1.19097 1.19181 1.19466 1.19555 1.19498 1.1976 1.19509 1.19187 1.19091 1.19299 1.19198 1.19478 1.19826 1.19297 1.19088 1.19067 1.19477 1.19442 1.19059 1.18944 1.19462 1.19178 1.19479 1.18472 1.19186 1.18983 1.19116 1.18861 1.192 1.19195 1.19139 1.19261 1.18984 1.18967 1.19057 1.19178 1.19142 1.19183 1.19098 1.18995 1.1904 1.18909 1.1895 1.19178 1.18985 1.18912 1.19178 1.19324 1.19125 1.19179 1.19177 1.18913 1.19367 1.19106 1.18953 1.1919 1.19222 1.18961 1.18968 1.19076 1.1913 1.19184 1.19183 1.19144 1.19133 1.19174 1.19152 1.19151 1.19105 1.19089 1.18819 1.19116 1.19156 1.19092 1.19181 1.19158 1.19089 1.19085 1.19154 1.19189 1.19092 1.19202 1.19214 1.19335 1.19146 1.19176 1.19107 1.19263 1.19123 1.19238 1.19199 1.18983 1.19159 1.18908 1.19068 1.18893 1.1928 1.19296 1.19367 1.19187 1.19125 1.19176 1.19401 1.19557 1.19504 1.19666 1.19546 1.19178 1.19143 1.18952 1.19197 1.19602 1.19505 1.19267 1.19088 1.19942 1.19409 1.19178 1.19188 1.19065 1.19533 1.19672 1.18996 1.18409 1.19069 1.19087 1.19185 1.1912 1.19204 1.19105 1.19255 1.18978 1.1893 1.19201 1.19062 1.19136 1.19187 1.1894 1.1913 1.19045 1.18881 1.19089 1.19093 1.19054 1.18854 1.19069 1.19343 1.19151 1.19175 1.192 1.19102 1.19228 1.19136 1.18977 1.19183 1.19088 1.18962 1.18979 1.19047 1.19128 1.19194 1.19172 1.19178 1.19178 1.19174 1.1915 1.19152 1.19116 1.19178 1.18837 1.1913 1.1917 1.19178 1.19178 1.19159 1.19178 1.19077 1.19146 1.19141 1.1908 1.19179 1.19209 1.19207 1.19187 1.19003 1.19177 1.19227 1.19161 1.19125 1.19182 1.18966 1.19164 1.18918 1.19038 1.18876 1.18859 1.19269 1.19128 1.192 1.19118 1.19194 1.19372 1.19493 1.19188 1.19637 1.19443 1.19312 1.19337 1.18961 1.19393 1.19911 1.18322 1.18927 1.19926 1.19339 1.19169 1.19284 1.19074 1.19551 1.19709 1.19087 1.18866 1.19126 1.19178 1.19024 1.19094 1.19087 1.19187 1.192 1.19254 1.19089 1.18973 1.19192 1.19152 1.19187 1.19124 1.19178 1.19203 1.19178 1.19087 1.19184 1.1909 1.19084 1.19044 1.18828 1.1904 1.19093 1.19151 1.19154 1.19193 1.19097 1.19174 1.19136 1.18996 1.19093 1.19029 1.18992 1.19075 1.1903 1.19127 1.1913 1.1916 1.19178 1.19178 1.19174 1.19152 1.1916 1.19178 1.19178 1.19178 1.19134 1.19171 1.19178 1.19178 1.19176 1.19178 1.1908 1.19146 1.19139 1.19182 1.19179 1.19141 1.19116 1.19148 1.19003 1.19154 1.19231 1.19011 1.18959 1.19092 1.18967 1.18829 1.19023 1.19185 1.18902 1.19012 1.18747 1.19044 1.19251 1.1908 1.19168 1.1918 1.19305 1.19172 1.19731 1.19432 1.19913 1.19526 1.19077 1.19437 1.19747 1.19816 1.19131 1.19413 1.19104 1.19931 1.19628 1.19248 1.19211 1.19182 1.19892 1.19487 1.18892 1.19005 1.19035 1.18639 1.19141 1.1902 1.19188 1.19138 1.19082 1.19077 1.18993 1.19181 1.19063 1.19184 1.19189 1.19191 1.19215 1.19095 1.19185 1.19103 1.19214 1.19062 1.18811 1.19039 1.19089 1.19126 1.19178 1.19168 1.19203 1.19103 1.19148 1.1901 1.18887 1.19036 1.19067 1.19032 1.19128 1.19178 1.1916 1.19178 1.19178 1.19173 1.19152 1.19159 1.19178 1.19178 1.19178 1.19133 1.19178 1.19178 1.19178 1.19178 1.19177 1.19079 1.19146 1.19139 1.19164 1.19163 1.19182 1.19187 1.19025 1.1916 1.19104 1.19209 1.19035 1.19003 1.19183 1.18782 1.19022 1.19203 1.18926 1.18573 1.19003 1.18864 1.18937 1.19209 1.19115 1.19155 1.19287 1.19323 1.19967 1.196 1.18712 1.19497 1.19073 1.19412 1.19863 1.19174 1.19435 1.19437 1.19201 1.19128 1.18867 1.19593 1.19082 1.19395 1.19178 1.18798 1.19184 1.18628 1.19045 1.19127 1.19186 1.19176 1.1914 1.19081 1.19075 1.19012 1.19084 1.19024 1.19101 1.19178 1.19093 1.19206 1.19098 1.19104 1.19102 1.19085 1.19157 1.1924 1.18941 1.18928 1.19073 1.19129 1.19121 1.1906 1.19147 1.19102 1.19161 1.19036 1.19158 1.1886 1.1887 1.18908 1.1905 1.1911 1.18973 1.19271 1.19067 1.19129 1.19247 1.19337 1.19992 1.19507 1.19978 1.19529 1.20049 1.19394 1.19531 1.19409 1.1952 1.19339 1.19147 1.19244 1.19131 1.19079 1.19182 1.18902 1.19177 1.1961 1.19026 1.19507 1.19271 1.19355 1.18991 1.19327 1.19997 1.19178 1.19785 1.19398 1.19841 1.20222 1.20238 1.19489 1.19032 1.18785 1.18708 1.18957 1.19354 1.19117 1.19668 1.18998 1.19966 1.19093 1.19042 1.20165 1.19351 1.20273 1.19813 1.18796 1.1978 1.19734 1.19348 1.19776 1.1925 1.18818 1.19762 1.19044 1.19 1.19069 1.19526 1.18974 1.19871 1.19208 1.20027 1.19337 1.19445 1.18855 1.19991 1.2004 1.19819 1.19351 1.19856 1.19448 1.19895 1.19321 1.19165 1.18671 1.18658 1.19223 1.19178 1.19178 1.20463 1.19264 1.19984 1.20253 1.19997 1.19486 1.19863 1.19506 1.20056 1.20091 1.19565 1.19955 1.20314 1.19407 1.1902 1.17994 1.18736 1.19854 1.19178 1.19178 1.19178 1.19979 1.20239 1.20475 1.19599 1.19271 1.20032 1.19445 1.19478 1.19834 1.1973 1.20267 1.2047 1.19491 1.19378 1.19974 1.20287 1.19425 1.18821 1.20642 1.19323 1.19785 1.19178 1.19178 1.19178 1.19178 1.19178 1.19178 1.19178 1.19178 1.19178 1.19178 1.19178 1.19178 1.19178 1.19178 1.19178 1.19178 1.19178 1.19178 1.19178 1.19178 1.19178 1.19178 1.19178 1.19178 1.19178 1.19178 1.19178 1.19178 1.20367 1.2085 1.19702 1.20137 1.20436 1.20315 1.19503 1.19876 1.19969 1.20309 1.2048 1.19522 1.19898 1.2008 1.20407 1.22655 1.21327 1.19284 1.19553 1.19178 1.19178 1.19178 1.19178 1.19178 1.19178 1.19178 1.19178 1.19178 1.19178 1.19178 1.19178 1.19178 1.19178 1.19178 1.19178 1.19178 1.19178 1.19178 1.19178 1.19178 1.19178 1.19178 1.19178 1.19178 1.19178 1.19178 1.19257 1.19262 1.20956 1.20265 1.19493 1.20402 1.20662 1.20812 1.20708 1.19954 1.19491 1.19915 1.2038 1.19908 1.20037 1.20084 1.20414 1.20294 1.20386 1.20534 1.22747 1.23312 1.27026 1.219 1.19129 1.1846 1.19178 1.19178 1.19178 1.19178 1.19178 1.22563 1.19178 1.19901 1.19178 1.19178 1.19178 1.19178 1.19178 1.19178 1.19178 1.19178 1.19178 1.19178 1.19178 1.19178 1.22869 1.19178 1.19178 1.19178 1.19178 1.19178 1.19178 1.19178 1.19178 1.26908 1.19178 1.19178 1.19233 1.19178 1.19178 1.19177 1.19372 1.20178 1.17606 1.22363 1.2072 1.21028 1.20128 1.20134 1.20185 1.19388 1.20335 1.19633 1.20455 1.20357 1.20744 1.21104 1.23741 1.23603 1.22352 1.19178 1.19178 1.17952 1.1932 1.1886 1.65844 1.17552 1.24293 1.19178 1.19178 1.19178 1.31649 1.2058 1.17494 1.19178 1.20581 1.31111 1.26917 1.1812 1.19118 1.19178 1.19178 1.19178 1.19178 1.19178 1.19178 1.15977 1.00553 1.15909 1.19305 1.16331 0.462202 0.384654 1.19178 4.64547 0.512794 1.98159 1.19178 1.4698 1.63893 1.19178 0.986357 0.393113 0.272725 1.19037 1.19486 1.23213 1.19682 1.20704 1.18371 0.34162 1.19687 0.464514 1.29634 1.19178 1.19174 0.707115 0.608371 0.284493 1.89131 1.14849 1.19178 2.92532 1.3933 0.614941 0.3409 0.150095 1.26856 2.41606 4.79262 1.19136 1.19178 1.19347 0.375469 1.19093 1.8764 3.94214 0.529952 1.68838 4.20697 2.59957 1.19177 1.18176 2.41908 1.19171 3.14227 1.18715 0.531929 0.223047 0.101285 0.14581 1.20231 1.20303 1.19788 1.1952 1.19934 1.1996 1.20258 1.1911 1.20122 1.19784 1.20626 1.20363 1.20402 1.198 1.2136 1.19971 1.21614 1.19914 1.22517 1.15688 1.45175 1.05918 1.27936 1.58205 1.48921 0.097622 0.184513 0.599352 2.51997 1.78779 1.36201 0.0623527 0.275937 2.51475 0.853007 0.823415 1.17908 1.35482 0.589215 1.46443 1.16547 1.19178 1.17998 1.17262 0.667428 1.51329 0.15269 1.51222 1.32801 1.97262 1.50447 1.16524 3.07603 0.223114 0.173796 1.19178 0.772613 2.81725 0.684826 0.384505 0.166386 0.203067 0.0517294 0.14194 1.19178 1.19178 1.19177 0.346562 0.492733 1.19178 0.657983 1.19178 0.342697 1.7985 1.98764 0.293153 0.200048 0.374087 0.520297 1.43058 1.11955 1.3665 1.07718 0.573632 0.834989 0.43603 0.327429 0.452705 0.801438 0.173417 0.503279 0.35816 0.274033 0.211443 0.206488 0.57094 0.228296 0.287549 0.210822 0.417202 0.644211 0.872884 0.142722 0.81636 0.159243 0.407226 1.01711 0.330563 0.76069 0.374478 0.664347 1.44335 0.667892 0.491751 0.415138 0.524705 0.391463 0.62754 1.69487 0.344376 0.772997 1.31977 1.03939 0.963458 0.229186 0.464971 0.324696 0.112589 0.368354 0.956283 2.41809 0.796259 1.6196 0.807772 1.32108 0.17749 1.65642 2.18979 0.65321 0.870888 0.802244 1.30561 0.188332 0.475587 0.571168 1.7682 1.49381 2.55961 1.13679 0.884391 0.622762 0.339304 0.217594 0.406809 0.341562 0.149013 1.19972 1.20408 1.1944 1.18664 1.19418 1.19512 1.20042 1.18959 1.20077 1.19651 1.1986 1.20567 1.22483 1.16859 1.18783 1.18634 1.18611 1.22499 1.16694 1.19177 0.726338 0.172505 0.627164 0.301044 1.11063 0.23186 0.511189 0.510403 0.605457 0.703083 0.679906 1.17197 1.79066 1.43329 0.911249 0.516807 0.0905089 0.820466 0.262971 1.19485 1.24137 1.17355 0.764357 0.848858 0.469313 0.663691 0.857051 1.30394 0.132814 0.588632 0.440166 0.398571 0.81032 0.163425 0.0469583 0.670588 0.577041 0.451281 0.142506 0.344138 0.169115 0.207039 1.11106 1.66565 0.642283 0.838407 0.298143 0.985958 2.09983 2.56708 1.69944 0.341973 1.33022 0.352539 0.254265 0.400388 0.540869 1.41388 0.671342 0.815666 0.851939 0.45171 0.145073 0.522345 0.382326 0.0565837 0.158352 0.0878548 0.270616 0.210173 0.21749 0.552026 0.410661 0.372319 0.386992 0.538138 0.226109 0.416738 0.61299 0.23978 1.26167 0.432834 0.446133 0.58098 0.568124 0.55377 0.301162 0.554625 0.617806 0.819493 0.690589 0.612857 0.420485 0.586572 0.413057 0.505774 0.888443 0.527635 0.393546 0.289511 0.200588 0.402692 0.245105 0.488702 0.462533 0.200907 0.61916 0.722953 0.502667 0.474517 0.537502 0.563891 1.03737 0.663904 0.44779 0.303822 0.36172 0.738825 0.550182 0.88265 0.641448 0.0841344 0.581004 0.396835 0.477413 0.731685 0.342416 0.048909 0.402531 0.209818 0.468103 0.418425 0.42948 0.568124 0.658008 0.320908 0.711857 0.779394 0.765557 0.3966 0.58724 0.730025 0.484659 0.396136 0.444741 0.837708 0.443432 0.968839 0.929106 0.435639 0.432693 0.122667 1.19019 1.21607 1.19194 1.1696 1.18551 1.2074 1.19031 1.18678 1.19974 1.19371 1.21933 1.21336 1.17448 1.16017 1.17826 1.19931 1.17381 1.11181 1.19836 0.254082 1.18844 0.808627 1.00477 0.715235 0.513236 0.785271 0.658332 0.627494 0.71291 0.0977426 0.493678 1.32538 0.497963 1.13054 1.05413 0.611032 0.759166 0.667594 0.816648 0.789449 0.73246 0.613498 0.538308 0.544879 0.54798 0.663536 0.281101 0.565791 0.247707 0.560037 0.379768 0.7842 0.447156 0.359304 0.451074 0.470621 0.493125 0.239773 0.201046 0.369327 0.33946 0.665819 0.554976 0.707897 1.28063 0.887866 1.11454 0.982062 0.507457 0.230885 0.535755 0.668411 0.254694 0.352015 0.558316 0.140485 0.592401 0.817716 0.391407 0.511443 0.238005 0.239334 0.246715 0.191287 0.241955 0.407964 0.436733 0.371869 0.428987 0.401716 0.461944 0.442025 0.464722 0.462803 0.718426 0.764257 0.731888 1.22735 0.928689 0.508084 0.644052 0.630935 0.593207 0.692445 0.664611 0.580365 0.656976 0.638439 0.547827 0.752814 0.581115 0.787367 0.562684 0.445501 0.0961271 0.398763 0.573785 0.289462 0.387986 0.374671 0.543471 0.765231 0.423255 0.371914 0.316997 0.636895 0.485461 0.582191 0.646332 0.420243 0.576129 0.644686 0.55952 0.449254 0.376766 0.391309 0.455397 0.315935 0.384363 0.684828 0.50966 0.287973 0.394542 0.0789286 0.252826 0.43221 0.438391 0.463938 0.470806 0.592766 0.565519 0.566676 0.457154 0.281992 0.646359 0.485606 0.479561 0.151844 0.425906 0.240473 0.232241 0.383957 0.308565 0.181132 0.5184 0.298174 0.290226 0.259704 0.164662 0.226675 1.16233 1.19231 1.15327 1.19178 1.17378 1.20941 1.21964 1.18979 1.18544 1.18276 1.20001 1.22002 1.18958 1.18509 1.16702 1.1791 1.1669 1.19032 1.19811 1.16171 1.14688 0.701649 1.03222 0.655223 0.710433 0.578189 0.731106 0.807857 0.64049 0.520538 0.415743 0.358343 0.55662 0.400507 0.538384 0.533351 0.506955 0.601462 0.770357 0.664612 0.702563 0.708597 0.530616 0.103745 0.34338 0.553198 0.553633 0.406345 0.440591 0.392617 0.32371 0.490901 0.475114 0.495992 0.395275 0.643481 0.475691 0.620199 0.863391 0.556345 0.618238 0.511943 0.49525 0.675675 0.848857 0.533897 0.418329 0.346339 0.29928 0.305515 0.482543 0.432259 0.395535 0.427954 0.473127 0.566627 0.567875 0.586691 0.685201 0.592158 0.62178 0.657901 0.602539 0.593464 0.634069 0.64071 0.582486 0.630963 0.636731 0.665285 0.707836 0.68876 0.636052 0.557265 0.447202 0.523514 0.426372 0.560972 0.411807 0.515775 0.579667 0.485753 0.470318 0.356065 0.507119 0.36312 0.459322 0.616411 0.609558 0.572173 0.491831 0.532517 0.6019 0.587297 0.50779 0.459482 0.479276 0.586507 0.421331 0.42971 0.456156 0.500542 0.515673 0.544654 0.493741 0.4794 0.409578 0.412031 0.361421 0.473686 0.492194 0.395128 0.434908 0.405059 0.185408 0.335986 0.257798 0.343418 0.31714 0.476568 0.437006 0.350864 0.23782 0.272164 1.13879 1.19806 1.17261 1.16519 1.1787 1.17309 1.20179 1.19476 1.19168 1.19248 1.18975 1.18253 1.19256 1.17532 1.1905 1.18415 1.19549 1.19363 1.18426 1.10795 0.624215 0.591775 0.648246 0.615282 0.56741 0.48234 0.588907 0.344746 0.471378 0.456421 0.421661 0.42186 0.58141 0.54439 0.57963 0.639221 0.644939 0.587302 0.629493 0.558351 0.382019 0.536824 0.475728 0.453502 0.522237 0.497343 0.468781 0.467099 0.495333 0.456284 0.498234 0.445863 0.465022 0.48017 0.515023 0.477308 0.502984 0.383939 0.388333 0.426114 0.535482 0.396465 0.322041 0.67305 1.19389 0.492492 0.364361 0.332012 0.328104 0.336787 0.348204 0.388042 0.421119 0.462662 0.457419 0.454948 0.528164 0.424836 0.406404 0.465526 0.486454 0.523129 0.597895 0.611511 0.587244 0.611946 0.58187 0.558337 0.534333 0.588493 0.649143 0.638138 0.556717 0.587321 0.53924 0.571711 0.578289 0.533231 0.55926 0.542831 0.505926 0.473285 0.50318 0.516001 0.477649 0.448098 0.451151 0.528601 0.525924 0.559073 0.490513 0.541695 0.510807 0.539839 0.525353 0.544247 0.5363 0.530942 0.510778 0.525779 0.520404 0.49456 0.535703 0.513427 0.503681 0.521828 0.512825 0.535325 0.489886 0.421397 0.452839 0.411944 0.442793 0.415019 0.402393 0.426518 0.449719 0.431882 0.397121 0.412774 0.371852 0.401114 0.43802 0.34949 0.427941 0.378842 0.298994 0.326111 0.292028 1.192 1.18015 1.18492 1.14483 1.17183 1.20755 1.20412 1.19329 1.19045 1.18896 1.17768 1.18761 1.2132 1.18327 1.19165 1.20081 1.18682 0.536616 0.508437 0.568166 0.525445 0.53267 0.473339 0.491971 0.412168 0.404669 0.668798 0.660255 0.622926 0.59811 0.628391 0.602263 0.521844 0.559538 0.509112 0.502128 0.508327 0.504548 0.512898 0.516251 0.54278 0.525465 0.515805 0.515492 0.522432 0.481972 0.474534 0.44861 0.367218 0.411274 0.404169 0.382578 0.303085 0.399286 0.471731 0.803765 0.400523 0.253243 0.232336 0.224792 0.292665 0.354955 0.329293 0.424986 0.424325 0.413235 0.427048 0.467586 0.48787 0.466098 0.441293 0.44886 0.443547 0.478819 0.513136 0.525969 0.547897 0.555174 0.533409 0.529831 0.541726 0.532534 0.480889 0.465261 0.607005 0.611319 0.570167 0.599277 0.574496 0.560296 0.598642 0.584072 0.559572 0.541062 0.528009 0.522479 0.526631 0.504548 0.480685 0.507289 0.502534 0.529186 0.554091 0.542231 0.53765 0.544492 0.518524 0.497503 0.510458 0.51559 0.524691 0.522288 0.527728 0.511008 0.521966 0.519345 0.521319 0.518726 0.50218 0.504759 0.518164 0.48885 0.469007 0.476986 0.444535 0.42563 0.438021 0.467159 0.43022 0.484185 0.461019 0.443353 0.46153 0.419774 0.379625 1.20113 1.18974 1.17942 1.15299 1.17031 1.18219 1.20502 1.19178 1.18526 1.17143 1.17211 1.18755 1.17479 1.19471 1.19997 1.18227 1.18938 1.19294 1.17765 1.20051 1.17423 0.497057 0.46173 0.487124 0.515223 0.510327 0.545298 0.52029 0.529596 0.481847 0.464116 0.39603 0.712484 0.474615 0.631145 0.583844 0.498463 0.614118 0.641266 0.501834 0.520967 0.516832 0.51434 0.519796 0.523248 0.530885 0.538235 0.536267 0.530913 0.524499 0.517072 0.503025 0.511529 0.494793 0.465171 0.446769 0.460998 0.40808 0.394501 0.379939 0.383514 0.381145 0.387401 0.358904 0.357034 0.363746 0.383754 0.413281 0.435777 0.443694 0.447019 0.471741 0.461407 0.472532 0.457067 0.472629 0.473357 0.495841 0.519432 0.521587 0.537559 0.520346 0.520543 0.512396 0.517439 0.534761 0.600493 0.55838 0.554953 0.559878 0.586059 0.557754 0.525869 0.517411 0.50926 0.507652 0.519097 0.530123 0.540941 0.556414 0.554658 0.532156 0.523552 0.513601 0.505621 0.518828 0.506697 0.499108 0.504007 0.518575 0.529197 0.525884 0.521595 0.506506 0.516513 0.488931 0.493233 0.489968 0.494771 0.504828 0.473182 0.421476 0.449282 0.480747 0.487125 0.509077 0.500804 0.491491 0.465681 0.485596 0.450137 0.397778 0.414215 0.40043 1.18508 1.19892 1.19238 1.13977 1.13933 1.16691 1.17983 1.18555 1.16967 1.16995 1.18358 1.17022 1.19082 1.19567 1.18193 1.19771 1.18297 1.16136 1.10443 1.07308 1.19178 1.20407 0.465545 0.447391 0.438211 0.475604 0.452629 0.503431 0.470872 0.523317 0.536845 0.567736 0.514944 0.457134 0.638922 0.590551 0.589812 0.664787 0.606473 0.578871 0.557357 0.485199 0.560147 0.522277 0.520677 0.522869 0.529413 0.526295 0.525618 0.53101 0.538858 0.534623 0.535816 0.524797 0.529144 0.508481 0.515615 0.492374 0.430926 0.481164 0.415249 0.370186 0.387607 0.354664 0.361067 0.38438 0.342552 0.395183 0.412493 0.448853 0.501406 0.49034 0.535212 0.444898 0.462764 0.493809 0.496558 0.511389 0.524719 0.538365 0.53923 0.499221 0.498994 0.494614 0.478115 0.589036 0.553299 0.54167 0.544618 0.546232 0.611671 0.548787 0.575251 0.549659 0.535087 0.519322 0.51186 0.502954 0.520576 0.541152 0.55168 0.564742 0.563091 0.558953 0.524785 0.534797 0.549277 0.527635 0.52078 0.49226 0.501763 0.477651 0.52369 0.499495 0.530499 0.532702 0.53682 0.499838 0.499725 0.510649 0.499655 0.504942 0.51364 0.480136 0.507718 0.529851 0.536717 0.51857 0.504199 0.531733 0.504604 0.476199 0.410922 0.411574 0.413732 0.396882 1.19276 1.1934 1.19808 1.19315 1.19268 1.16373 1.17722 1.16468 1.18412 1.17084 1.18281 1.18234 1.17346 1.18596 1.18183 1.18248 1.20726 1.18211 1.1053 1.23689 1.18282 0.430187 0.442579 0.485274 0.459506 0.526928 0.479626 0.593109 0.422808 0.527709 0.544411 0.462111 0.596135 0.528926 0.616832 0.612048 0.665459 0.537659 0.521394 0.549845 0.541324 0.613327 0.526002 0.541403 0.518605 0.520736 0.519211 0.513376 0.517494 0.536307 0.537993 0.5357 0.538776 0.527688 0.520178 0.532312 0.515822 0.524478 0.498583 0.449668 0.417487 0.357779 0.365922 0.299778 0.381974 0.433455 0.397576 0.411923 0.428434 0.432018 0.462741 0.490727 0.509801 0.506839 0.592161 0.488968 0.497847 0.507241 0.526908 0.544923 0.536407 0.529894 0.483247 0.508187 0.555711 0.571703 0.569512 0.554498 0.536149 0.570327 0.55498 0.480476 0.501085 0.521367 0.510386 0.546812 0.543985 0.578418 0.594059 0.623341 0.555887 0.527936 0.547064 0.530798 0.523901 0.536832 0.43917 0.481855 0.53621 0.503056 0.545642 0.55462 0.553379 0.515386 0.516223 0.522833 0.573234 0.564842 0.492178 0.483915 0.526751 0.546742 0.555753 0.487129 0.548287 0.4135 0.431878 1.19044 1.18943 1.18724 1.17003 1.17717 1.16747 1.16636 1.18399 1.16613 1.16558 1.18264 1.18684 1.17942 1.2086 1.19222 1.19808 1.15807 1.1615 1.10576 1.10846 1.22374 1.18331 0.443814 0.492348 0.450277 0.532569 0.469905 0.670091 0.345827 0.420732 0.461791 0.54959 0.664455 0.699851 0.579254 0.599011 0.588717 0.57595 0.557164 0.528022 0.512332 0.506788 0.501004 0.534406 0.533442 0.538058 0.551263 0.537868 0.534588 0.537427 0.525188 0.53806 0.534254 0.542488 0.559197 0.44309 0.538189 0.364253 0.338848 0.212171 0.482509 0.44411 0.469712 0.489508 0.480027 0.538453 0.55406 0.553004 0.492557 0.514259 0.521275 0.509329 0.55104 0.541023 0.516681 0.530264 0.490406 0.506967 0.538013 0.563581 0.576576 0.573656 0.60866 0.56134 0.574515 0.580867 0.600671 0.520259 0.562058 0.494417 0.511998 0.524578 0.55308 0.555138 0.575735 0.624868 0.55779 0.538654 0.544747 0.513623 0.527426 0.542248 0.565574 0.546264 0.534398 0.464007 0.491741 0.527787 0.533824 0.572694 0.56863 0.544314 0.5219 0.522601 0.537737 0.561436 0.572379 0.5268 0.504069 0.556661 0.556372 0.579355 0.571473 0.413058 1.22512 1.13543 1.18234 1.18783 1.19811 1.16849 1.1735 1.17654 1.18017 1.21489 1.19178 1.16511 1.17928 1.18572 1.22681 1.19404 1.2234 1.16384 1.15484 1.17593 1.19816 1.20321 1.18455 0.475917 0.519685 0.485825 0.47436 0.589719 0.417211 0.700147 0.639098 0.484283 0.617004 0.690471 0.620686 0.572718 0.568884 0.545415 0.514576 0.496142 0.512964 0.524088 0.570278 0.548854 0.522341 0.517266 0.559239 0.531682 0.553799 0.543331 0.548803 0.563878 0.609717 0.586471 0.429153 0.461715 0.497937 0.593095 0.43043 0.462692 0.480488 0.480017 0.478621 0.504316 0.563502 0.54606 0.581126 0.514407 0.516975 0.525273 0.517673 0.542085 0.526641 0.501523 0.491556 0.519487 0.523101 0.561793 0.61688 0.585505 0.616045 0.593569 0.592429 0.52317 0.643903 0.567029 0.546564 0.499126 0.513552 0.53798 0.560977 0.559013 0.574966 0.539233 0.598615 0.568937 0.528634 0.622955 0.553786 0.58185 0.560417 0.497413 0.543583 0.645714 0.597603 0.561797 0.544191 0.535025 0.536264 0.541958 0.553283 0.558572 0.565138 0.570512 0.611956 0.595406 0.533526 0.535085 0.531119 0.529345 0.567433 0.586263 0.598113 0.441306 0.636762 0.392931 0.3544 1.16354 1.18292 1.18728 1.19244 1.19178 1.19178 1.18234 1.16788 1.18973 1.19709 1.1624 1.18242 1.19178 1.17129 1.18131 1.17024 1.18262 1.19155 1.18834 1.17934 0.459764 0.487361 0.58543 0.582822 0.621094 0.487488 0.498664 0.635187 0.387431 0.631024 0.447466 0.764771 0.721919 0.777535 0.529685 0.685615 0.599992 0.59323 0.568635 0.55372 0.548979 0.55684 0.530451 0.528116 0.486543 0.502672 0.510162 0.513895 0.554685 0.530658 0.522092 0.50969 0.518272 0.527801 0.60941 0.717644 0.568766 0.786594 0.751229 0.412736 0.404738 0.457605 0.551734 0.520459 0.54343 0.602406 0.572907 0.517594 0.530571 0.52564 0.535794 0.533581 0.537721 0.538138 0.53675 0.530988 0.504574 0.525312 0.520677 0.562586 0.578215 0.597734 0.604822 0.617316 0.604876 0.598656 0.62797 0.67938 0.491273 0.503746 0.516459 0.540203 0.551982 0.561671 0.520712 0.592926 0.566323 0.557356 0.60227 0.531672 0.599743 0.566393 0.523704 0.562517 0.514714 0.621032 0.657496 0.547042 0.555682 0.55543 0.567005 0.58143 0.577732 0.580659 0.568367 0.528924 0.539595 0.593145 0.576706 0.621441 0.621551 0.64976 0.567598 0.354142 1.19178 1.18085 1.19199 1.19175 1.19178 1.18181 1.16919 1.17627 1.19089 1.19305 1.16279 1.19734 1.17114 1.17122 1.18152 1.20008 1.17012 1.17308 1.18421 1.06939 0.506716 0.609258 0.558762 0.399794 0.551876 0.698874 0.711649 0.644506 0.687032 0.623623 0.598481 0.572249 0.565879 0.561813 0.563941 0.514384 0.479043 0.507849 0.535553 0.538651 0.499646 0.527194 0.516715 0.602265 0.719042 0.641743 0.656648 0.455273 0.500117 0.544197 0.608441 0.583248 0.544736 0.523238 0.537741 0.540981 0.537798 0.532224 0.531608 0.538031 0.544154 0.509131 0.501349 0.532026 0.541409 0.532491 0.645968 0.568459 0.576189 0.627895 0.618483 0.622727 0.663366 0.751476 0.529927 0.551427 0.558011 0.556463 0.575859 0.560789 0.551218 0.546081 0.531288 0.576831 0.566224 0.544136 0.525755 0.564726 0.576452 0.606783 0.630482 0.622473 0.579477 0.571619 0.601503 0.570134 0.57751 0.579486 0.583133 0.57327 0.568414 0.542786 0.56087 0.591065 0.635071 0.640771 0.643186 0.664355 0.656571 0.339428 1.19199 1.1876 1.19178 1.19178 1.1921 1.18441 1.1821 1.19169 1.19126 1.19308 1.1673 1.19245 1.18783 1.1802 1.19478 1.20547 1.16504 1.18732 1.16759 1.2185 1.16933 0.51015 0.609524 0.597673 0.525081 0.536272 0.42349 0.521186 0.60226 0.65721 0.647502 0.672448 0.628235 0.613619 0.579992 0.573271 0.574269 0.575788 0.567527 0.570639 0.561258 0.559153 0.535862 0.528997 0.432238 0.538145 0.562222 0.564247 0.63788 0.672136 0.637786 0.638069 0.493379 0.447167 0.55781 0.604032 0.64616 0.691355 0.585147 0.55666 0.563172 0.530729 0.529356 0.528171 0.520135 0.550783 0.529808 0.527716 0.546403 0.526449 0.58875 0.535311 0.533079 0.714445 0.643444 0.640669 0.6239 0.682607 0.745746 0.715542 0.558598 0.568857 0.559773 0.56916 0.5688 0.555542 0.506861 0.505232 0.555651 0.588155 0.537624 0.5522 0.577501 0.610648 0.63358 0.614896 0.520131 0.480299 0.616076 0.607795 0.589634 0.567281 0.561509 0.567157 0.556568 0.591353 0.56642 0.601479 0.627019 0.675145 0.357815 1.19178 1.19018 1.19179 1.19178 1.19187 1.1863 1.1859 1.18208 1.19123 1.19178 1.16866 1.19205 1.19203 1.19447 1.17577 1.1846 1.19722 1.19162 1.1823 1.17398 1.18605 1.18306 1.16503 0.499271 0.565675 0.636683 0.377952 0.587191 0.589671 0.576986 0.650719 0.650208 0.670584 0.635402 0.623619 0.579979 0.578258 0.580133 0.54303 0.626621 0.521242 0.555283 0.390638 0.51604 0.516581 0.603356 0.530724 0.630294 0.635511 0.626922 0.615736 0.581975 0.717928 0.626376 0.597097 0.553243 0.538729 0.519841 0.557069 0.526713 0.53285 0.547345 0.6041 0.53109 0.560045 0.53946 0.738151 0.64925 0.675135 0.652144 0.635339 0.694806 0.753827 0.591815 0.538217 0.547471 0.57363 0.471617 0.521362 0.509909 0.503384 0.478496 0.509748 0.520809 0.57971 0.525175 0.557725 0.620659 0.579276 0.634878 0.611238 0.557503 0.690344 0.616611 0.585706 0.657818 0.589907 0.591961 0.578796 0.589161 0.563075 0.575232 0.60476 0.645483 0.667058 0.644656 0.34907 1.19059 1.17031 1.17449 1.18021 1.11446 1.07789 1.17397 0.488221 0.55273 0.631977 0.720557 0.476635 0.614871 0.584182 0.594536 0.593713 0.632278 0.632379 0.684074 0.634955 0.598125 0.582611 0.568035 0.579501 0.513466 0.670866 0.556045 0.511296 0.717486 0.563302 0.564444 0.585713 0.613812 0.626066 0.590761 0.622229 0.639588 0.741638 0.798549 0.62036 0.597532 0.547407 0.535424 0.501915 0.493848 0.525877 0.532548 0.546027 0.540073 0.747336 0.685533 0.654197 0.645282 0.679428 0.725962 0.723513 0.616769 0.698506 0.519567 0.507807 0.564076 0.565905 0.573236 0.60254 0.567879 0.628189 0.671601 0.587461 0.579138 0.599106 0.598011 0.607557 0.547845 0.651006 0.801515 0.526444 0.196311 0.611177 0.572323 0.643902 0.690236 0.620613 0.604395 0.603452 0.577516 0.575689 0.55555 0.632196 0.514628 0.716491 0.502512 0.600148 0.569412 0.608343 0.705451 0.720982 0.797401 0.594807 0.558239 0.700912 0.530407 0.535977 
SCALARS Stress float 1
LOOKUP_TABLE default
-13002700000.0 -12795600000.0 -12736200000.0 -13482200000.0 -12549700000.0 -13401600000.0 -13141000000.0 -13081800000.0 -12620800000.0 -12728000000.0 -12549700000.0 -12736900000.0 -12549700000.0 -12549700000.0 -12723100000.0 -12549700000.0 -12549700000.0 -12609400000.0 -12549700000.0 -12579700000.0 -12646400000.0 -12987700000.0 -13192500000.0 -12928600000.0 -12806800000.0 -12719400000.0 -12641300000.0 -12570900000.0 -12549700000.0 -12549700000.0 -12549700000.0 -12625500000.0 -12671300000.0 -12829700000.0 -12918700000.0 -12764400000.0 -12830400000.0 -12657200000.0 -12549700000.0 -12702300000.0 -12685600000.0 -12565400000.0 -12862300000.0 -12561100000.0 -12574300000.0 -12779500000.0 -13457600000.0 -13377500000.0 -13085300000.0 -12653100000.0 -12851300000.0 -12575900000.0 -13138900000.0 -13068800000.0 -12577000000.0 -12583600000.0 -12665100000.0 -12726500000.0 -13272700000.0 -12625800000.0 -12573800000.0 -12870800000.0 -12613700000.0 -12609600000.0 -12597800000.0 -13040900000.0 -13480900000.0 -13234800000.0 -13985500000.0 -14989100000.0 -14398100000.0 -14946300000.0 -14723000000.0 -14565900000.0 -14579300000.0 -13876500000.0 -12887600000.0 -12699500000.0 -12549700000.0 -13027600000.0 -12604900000.0 -13034200000.0 -12549700000.0 -12796600000.0 -12669700000.0 -12997600000.0 -13198500000.0 -15201300000.0 -14896800000.0 -14912200000.0 -13755900000.0 -14345000000.0 -12580500000.0 -13106000000.0 -12681100000.0 -16358200000.0 -15628100000.0 -16879300000.0 -19403300000.0 -18838200000.0 -18801000000.0 -17325800000.0 -13343400000.0 -13017300000.0 -13142900000.0 -12549700000.0 -13214600000.0 -12585500000.0 -12549700000.0 -13194800000.0 -12549700000.0 -12549800000.0 -12870800000.0 -12549700000.0 -12868600000.0 -12549700000.0 -14168700000.0 -12549700000.0 -12549700000.0 -12549700000.0 -12588400000.0 -12556400000.0 -12549700000.0 -12565800000.0 -12663900000.0 -12965500000.0 -13159900000.0 -13748800000.0 -14115000000.0 -13883000000.0 -13972900000.0 -13915300000.0 -13764800000.0 -13030700000.0 -13254800000.0 -13237900000.0 -13342500000.0 -13167200000.0 -12747400000.0 -13131600000.0 -14632100000.0 -12758800000.0 -13504000000.0 -13647100000.0 -13232300000.0 -13422800000.0 -13180600000.0 -13369200000.0 -12549700000.0 -13611500000.0 -13073600000.0 -14550900000.0 -12573500000.0 -12553400000.0 -12549700000.0 -12818900000.0 -12980100000.0 -14502000000.0 -12751000000.0 -12968300000.0 -12549700000.0 -12549700000.0 -13236700000.0 -12549700000.0 -12549700000.0 -12595400000.0 -12812800000.0 -13220300000.0 -12920700000.0 -12819900000.0 -12583200000.0 -14883500000.0 -15079100000.0 -15540600000.0 -15019400000.0 -17321400000.0 -12747000000.0 -12951200000.0 -12798200000.0 -18558700000.0 -12584900000.0 -14369800000.0 -14135600000.0 -13606900000.0 -14562300000.0 -13065200000.0 -14220000000.0 -12586900000.0 -13503200000.0 -12625100000.0 -14050000000.0 -19948900000.0 -15308300000.0 -14872100000.0 -14782200000.0 -16716200000.0 -17316000000.0 -17848500000.0 -13862800000.0 -12549700000.0 -19994600000.0 -17485800000.0 -19108400000.0 -15772200000.0 -19475600000.0 -12733200000.0 -18175500000.0 -14436600000.0 -15216800000.0 -14330300000.0 -14823900000.0 -13495300000.0 -12703100000.0 -13931200000.0 -12555800000.0 -12592700000.0 -13241100000.0 -12549700000.0 -13513100000.0 -12549700000.0 -14651100000.0 -12641300000.0 -12621200000.0 -12549700000.0 -12825600000.0 -12950200000.0 -12849700000.0 -12984200000.0 -13220600000.0 -13719400000.0 -15047200000.0 -16743000000.0 -14797500000.0 -13938800000.0 -14745700000.0 -13721400000.0 -14782800000.0 -12569600000.0 -12679900000.0 -14508700000.0 -12549700000.0 -13457000000.0 -15537800000.0 -12878700000.0 -12946200000.0 -12642000000.0 -15556800000.0 -14492400000.0 -13630300000.0 -12705400000.0 -14489100000.0 -17504100000.0 -14049100000.0 -13756600000.0 -13561600000.0 -14829400000.0 -15420700000.0 -20392100000.0 -18059800000.0 -18421800000.0 -15696800000.0 -14964600000.0 -15761900000.0 -16418500000.0 -16451900000.0 -15461300000.0 -16263100000.0 -15137500000.0 -15318200000.0 -15208900000.0 -17240900000.0 -24554500000.0 -29787700000.0 -14086800000.0 -13665400000.0 -14146600000.0 -13622000000.0 -26665000000.0 -21739900000.0 -21772100000.0 -17322000000.0 -18589500000.0 -19281800000.0 -17609000000.0 -15884800000.0 -16383900000.0 -14725200000.0 -20325000000.0 -12686000000.0 -13847700000.0 -12731800000.0 -14901000000.0 -13071800000.0 -16723000000.0 -18354700000.0 -16444600000.0 -18808800000.0 -12549700000.0 -21375400000.0 -13162300000.0 -18234800000.0 -20678800000.0 -13543900000.0 -19673400000.0 -20139800000.0 -13304700000.0 -14976200000.0 -12549700000.0 -14307900000.0 -14394100000.0 -13874300000.0 -14627300000.0 -14056600000.0 -13361600000.0 -14124900000.0 -13099300000.0 -15050400000.0 -13546100000.0 -15920600000.0 -12873500000.0 -13003900000.0 -12848400000.0 -12549700000.0 -13010000000.0 -12586500000.0 -12746800000.0 -13772800000.0 -12612100000.0 -13177600000.0 -14230500000.0 -14747400000.0 -14582900000.0 -13697500000.0 -20113800000.0 -19889900000.0 -16393700000.0 -20888500000.0 -19009900000.0 -19245900000.0 -21253300000.0 -21201700000.0 -18074700000.0 -16700800000.0 -15830500000.0 -20172700000.0 -13535600000.0 -13133100000.0 -12741500000.0 -15675800000.0 -12745100000.0 -16111600000.0 -12872100000.0 -17129900000.0 -22749700000.0 -14095800000.0 -13724000000.0 -14565900000.0 -13605800000.0 -20476800000.0 -12549700000.0 -12549700000.0 -12549700000.0 -16753500000.0 -16304500000.0 -18629600000.0 -17028300000.0 -16971500000.0 -15590800000.0 -23708200000.0 -24232900000.0 -18898400000.0 -21595200000.0 -24344300000.0 -14284000000.0 -32316700000.0 -30665100000.0 -28825700000.0 -32235700000.0 -13093100000.0 -12576500000.0 -22790600000.0 -21634200000.0 -23861100000.0 -20481400000.0 -24739800000.0 -15834100000.0 -16823000000.0 -14848000000.0 -21256000000.0 -15875600000.0 -19284400000.0 -20045200000.0 -21730500000.0 -25070300000.0 -16569100000.0 -15936400000.0 -12959900000.0 -12713100000.0 -27149800000.0 -13989700000.0 -20838200000.0 -23015600000.0 -17791500000.0 -14155200000.0 -20543500000.0 -18098100000.0 -17178400000.0 -14489600000.0 -14319800000.0 -14336700000.0 -13327400000.0 -14185800000.0 -14543400000.0 -12857200000.0 -13761200000.0 -12549700000.0 -15053400000.0 -12771000000.0 -16553700000.0 -15181500000.0 -14628400000.0 -13887800000.0 -14306500000.0 -13998700000.0 -13418400000.0 -13889900000.0 -13053800000.0 -17045800000.0 -15746300000.0 -14090400000.0 -13376600000.0 -21120600000.0 -23433000000.0 -13795700000.0 -16114200000.0 -14170600000.0 -13870000000.0 -18517500000.0 -13691800000.0 -15919400000.0 -19211900000.0 -27152800000.0 -14502400000.0 -14157400000.0 -18018600000.0 -13515300000.0 -19430600000.0 -17585100000.0 -13428500000.0 -24654700000.0 -15575000000.0 -14671500000.0 -16910500000.0 -14005200000.0 -12549700000.0 -12677600000.0 -13079100000.0 -18413800000.0 -23755300000.0 -13450800000.0 -12914800000.0 -20786800000.0 -20102500000.0 -13153800000.0 -16131700000.0 -23431900000.0 -21389500000.0 -19067800000.0 -23410600000.0 -24893800000.0 -20742900000.0 -12976500000.0 -19216700000.0 -25801700000.0 -34124800000.0 -32154500000.0 -12977100000.0 -12592700000.0 -20205500000.0 -12803300000.0 -18469500000.0 -31790400000.0 -29717600000.0 -30609100000.0 -21009000000.0 -23152700000.0 -18561200000.0 -13396800000.0 -15213100000.0 -23748800000.0 -12982000000.0 -20049600000.0 -17855100000.0 -18041500000.0 -23698500000.0 -12549700000.0 -23753500000.0 -20952900000.0 -30152300000.0 -19030800000.0 -19096800000.0 -20488900000.0 -20435400000.0 -16327900000.0 -15415900000.0 -16645600000.0 -13193200000.0 -13097900000.0 -15113500000.0 -18164700000.0 -18336700000.0 -19268200000.0 -17907100000.0 -19428200000.0 -17008000000.0 -23129400000.0 -19719900000.0 -20099000000.0 -21152200000.0 -23373900000.0 -17956700000.0 -17501800000.0 -17883400000.0 -18647100000.0 -12561700000.0 -12649000000.0 -15211800000.0 -12688100000.0 -27699700000.0 -16173200000.0 -15382800000.0 -15085700000.0 -12712900000.0 -14020000000.0 -13042400000.0 -12549700000.0 -18716000000.0 -17243200000.0 -25783800000.0 -27555900000.0 -26915000000.0 -27806300000.0 -36226000000.0 -20464400000.0 -19089400000.0 -27604500000.0 -16629100000.0 -16501000000.0 -24174800000.0 -22979400000.0 -24421200000.0 -19624600000.0 -22719800000.0 -25294700000.0 -27915300000.0 -39780700000.0 -27619400000.0 -28832300000.0 -18404200000.0 -17812000000.0 -20964100000.0 -18816300000.0 -22495600000.0 -23340100000.0 -16411700000.0 -25237400000.0 -13562800000.0 -24187200000.0 -23543200000.0 -12578000000.0 -19306800000.0 -30909200000.0 -25425700000.0 -36314400000.0 -21491100000.0 -15376700000.0 -22511900000.0 -29199000000.0 -27732300000.0 -19390100000.0 -20184900000.0 -12549700000.0 -14155000000.0 -16476800000.0 -12941400000.0 -28143300000.0 -22165200000.0 -20987800000.0 -21877800000.0 -33283200000.0 -33593100000.0 -37729800000.0 -33991900000.0 -27735600000.0 -21823800000.0 -24007800000.0 -13534600000.0 -13158100000.0 -15520300000.0 -12921900000.0 -12743700000.0 -23076600000.0 -15939400000.0 -12889000000.0 -14290500000.0 -15645900000.0 -16610800000.0 -19182400000.0 -14350900000.0 -13588200000.0 -16435400000.0 -12604000000.0 -13047100000.0 -21634000000.0 -21964500000.0 -22649100000.0 -24034700000.0 -28753200000.0 -27425400000.0 -20378400000.0 -21541400000.0 -33877300000.0 -14045200000.0 -17507400000.0 -13364600000.0 -16169700000.0 -14867000000.0 -13597400000.0 -13250600000.0 -13120700000.0 -19482000000.0 -19852700000.0 -14120900000.0 -16410800000.0 -19349700000.0 -13391900000.0 -19674700000.0 -13008800000.0 -18725700000.0 -30763100000.0 -24704800000.0 -33728300000.0 -23907200000.0 -19000400000.0 -18159300000.0 -14199600000.0 -19449500000.0 -17084700000.0 -12549700000.0 -12697300000.0 -14905700000.0 -31381700000.0 -18144800000.0 -17724400000.0 -24604700000.0 -34596900000.0 -33187800000.0 -43165300000.0 -38775300000.0 -35501700000.0 -33628200000.0 -43252900000.0 -15914900000.0 -35415300000.0 -35190100000.0 -18967100000.0 -34963300000.0 -40347500000.0 -22233800000.0 -21864400000.0 -26335200000.0 -27959400000.0 -23687800000.0 -35852200000.0 -18320000000.0 -28860800000.0 -23729300000.0 -26589200000.0 -15647400000.0 -18073700000.0 -12831600000.0 -15427200000.0 -25379200000.0 -12869500000.0 -13206000000.0 -12720100000.0 -24789200000.0 -12549700000.0 -52579000000.0 -37071000000.0 -24444800000.0 -40378000000.0 -25006500000.0 -27106700000.0 -28650700000.0 -28436000000.0 -32865000000.0 -36470700000.0 -26707600000.0 -27895500000.0 -26680400000.0 -24165500000.0 -23863500000.0 -22819600000.0 -20121400000.0 -15581700000.0 -21065900000.0 -14315200000.0 -17851700000.0 -20089000000.0 -19544000000.0 -20787300000.0 -12603400000.0 -14423800000.0 -12817600000.0 -15686900000.0 -13228900000.0 -23155200000.0 -19923100000.0 -25598100000.0 -28908200000.0 -15093900000.0 -17014500000.0 -17220000000.0 -18258800000.0 -13938400000.0 -13595400000.0 -13962700000.0 -18496500000.0 -13239400000.0 -15796100000.0 -15142600000.0 -13807600000.0 -18245500000.0 -15646800000.0 -15327500000.0 -14287900000.0 -16600700000.0 -20416300000.0 -27068700000.0 -33960000000.0 -26730900000.0 -33940700000.0 -25989900000.0 -15107400000.0 -16389300000.0 -13612100000.0 -18686300000.0 -14032700000.0 -12549700000.0 -15302200000.0 -14165400000.0 -38116100000.0 -16836200000.0 -18365900000.0 -20750900000.0 -36828600000.0 -12549700000.0 -22689600000.0 -14336800000.0 -12769600000.0 -27502500000.0 -18809200000.0 -20282900000.0 -39608200000.0 -31332600000.0 -38254000000.0 -23700800000.0 -24579400000.0 -42792100000.0 -18974600000.0 -27755300000.0 -24315100000.0 -33056800000.0 -22266300000.0 -18624100000.0 -39345000000.0 -39804500000.0 -18218400000.0 -27723100000.0 -15593000000.0 -20973500000.0 -27346500000.0 -12609400000.0 -14028000000.0 -12602100000.0 -22601400000.0 -25458700000.0 -18520700000.0 -26334700000.0 -42846900000.0 -40038900000.0 -22747100000.0 -14989100000.0 -15224200000.0 -15492600000.0 -30658100000.0 -15188800000.0 -31960600000.0 -12549700000.0 -21693300000.0 -21952200000.0 -13301300000.0 -14063400000.0 -15239200000.0 -14310400000.0 -15626900000.0 -19240800000.0 -20265300000.0 -21187900000.0 -14245200000.0 -20682900000.0 -19977300000.0 -13963200000.0 -16269000000.0 -17783400000.0 -21510800000.0 -21775800000.0 -20440900000.0 -20048100000.0 -24288200000.0 -28551600000.0 -22058400000.0 -23886700000.0 -17706400000.0 -18963700000.0 -18937700000.0 -17631000000.0 -28443500000.0 -28500100000.0 -26001200000.0 -23695000000.0 -26413200000.0 -27882100000.0 -28985500000.0 -22073700000.0 -25604600000.0 -35971500000.0 -12549700000.0 -25779900000.0 -22747400000.0 -31404800000.0 -30730500000.0 -27191400000.0 -26984300000.0 -12921700000.0 -16258400000.0 -29731100000.0 -27074000000.0 -23206200000.0 -23960100000.0 -27933200000.0 -24946500000.0 -13750700000.0 -14928100000.0 -15787900000.0 -12681400000.0 -20229600000.0 -21246800000.0 -22196700000.0 -22475000000.0 -26158700000.0 -21574000000.0 -12549700000.0 -29934600000.0 -19005100000.0 -29119900000.0 -25791000000.0 -20392400000.0 -20025100000.0 -30633700000.0 -23942300000.0 -27970300000.0 -45902700000.0 -12549700000.0 -42920900000.0 -35424300000.0 -20846000000.0 -12973200000.0 -12914800000.0 -27788400000.0 -14255500000.0 -22022900000.0 -14217600000.0 -25618600000.0 -18139900000.0 -16348200000.0 -28652800000.0 -14096100000.0 -20940500000.0 -24638400000.0 -38362600000.0 -13145900000.0 -35840800000.0 -29203300000.0 -12579800000.0 -16477500000.0 -33699000000.0 -19966000000.0 -22607800000.0 -12728300000.0 -12737900000.0 -21718000000.0 -17922800000.0 -14075000000.0 -12954000000.0 -12549700000.0 -19034600000.0 -21574100000.0 -19220800000.0 -18040700000.0 -12867100000.0 -19340600000.0 -15777400000.0 -21615900000.0 -18623200000.0 -12687200000.0 -13462200000.0 -14194100000.0 -12574300000.0 -24219800000.0 -24635200000.0 -29068500000.0 -12587000000.0 -26127300000.0 -13610900000.0 -24040500000.0 -19757300000.0 -12549700000.0 -12568100000.0 -18231800000.0 -12783700000.0 -22247300000.0 -26676300000.0 -12549700000.0 -12591300000.0 -13332900000.0 -21529900000.0 -20924400000.0 -23978400000.0 -35499500000.0 -12549700000.0 -25007800000.0 -13433500000.0 -16089000000.0 -30989000000.0 -21372600000.0 -23323300000.0 -34178200000.0 -14694700000.0 -12746700000.0 -18350200000.0 -14481300000.0 -20594000000.0 -15434100000.0 -27698800000.0 -18735900000.0 -26318200000.0 -21984500000.0 -30680300000.0 -29864800000.0 -37808200000.0 -28190800000.0 -59512500000.0 -55444200000.0 -51856900000.0 -14927300000.0 -51132100000.0 -49300600000.0 -52157800000.0 -51287900000.0 -53398200000.0 -60219400000.0 -58646300000.0 -75717400000.0 -40323300000.0 -34077100000.0 -51292600000.0 -76545800000.0 -39401200000.0 -23972500000.0 -21281600000.0 -27065300000.0 -19401100000.0 -19469400000.0 -17589000000.0 -25379800000.0 -13017600000.0 -20737300000.0 -22063300000.0 -14595900000.0 -17733300000.0 -15210600000.0 -18996400000.0 -16092700000.0 -13720200000.0 -37744600000.0 -31992600000.0 -12790300000.0 -14268000000.0 -17827800000.0 -32318400000.0 -12549700000.0 -18549200000.0 -19102600000.0 -13886200000.0 -15342300000.0 -14976600000.0 -13855900000.0 -12944300000.0 -20030000000.0 -16122600000.0 -16125300000.0 -20441300000.0 -16025600000.0 -26428400000.0 -18244300000.0 -14821200000.0 -21009500000.0 -18092200000.0 -16897300000.0 -18261200000.0 -12924300000.0 -17003400000.0 -15745200000.0 -12799000000.0 -13264900000.0 -12656000000.0 -29571700000.0 -12735800000.0 -19515300000.0 -18941000000.0 -24737900000.0 -22790500000.0 -12853200000.0 -12919900000.0 -19174700000.0 -18857100000.0 -27503000000.0 -13503000000.0 -13558400000.0 -16275300000.0 -19081300000.0 -20104000000.0 -15940700000.0 -16307100000.0 -39351800000.0 -31501600000.0 -23964800000.0 -31556500000.0 -13579000000.0 -46225800000.0 -32755000000.0 -38029100000.0 -33238800000.0 -23176600000.0 -18748300000.0 -22594700000.0 -20158000000.0 -19512500000.0 -21635200000.0 -35621300000.0 -32778100000.0 -17476500000.0 -23563700000.0 -13071600000.0 -19572400000.0 -36508200000.0 -23317000000.0 -19624800000.0 -23845400000.0 -14182200000.0 -29980800000.0 -27506900000.0 -17177300000.0 -37650800000.0 -13378600000.0 -17824200000.0 -41408200000.0 -35569600000.0 -44266200000.0 -29698300000.0 -12549700000.0 -22678000000.0 -34136200000.0 -12553400000.0 -25645700000.0 -15343800000.0 -21980000000.0 -13567600000.0 -13390400000.0 -24733300000.0 -14876300000.0 -19453300000.0 -18997200000.0 -22725500000.0 -12772900000.0 -19484600000.0 -22672400000.0 -19995100000.0 -21371900000.0 -46424700000.0 -25946300000.0 -30227100000.0 -17648800000.0 -39447000000.0 -24009400000.0 -23372400000.0 -29193000000.0 -27082200000.0 -26498800000.0 -21727000000.0 -17665100000.0 -19415000000.0 -25575300000.0 -13198800000.0 -27254300000.0 -21202600000.0 -20547700000.0 -26600300000.0 -22983500000.0 -24211600000.0 -22075000000.0 -17408100000.0 -12549700000.0 -17386700000.0 -16394300000.0 -14929400000.0 -32419000000.0 -13195400000.0 -15720600000.0 -16660800000.0 -26965500000.0 -25814100000.0 -19459300000.0 -23102500000.0 -16244000000.0 -13084400000.0 -26890500000.0 -12549700000.0 -12620000000.0 -16252100000.0 -16876300000.0 -22032500000.0 -18604900000.0 -36070900000.0 -12549700000.0 -32558500000.0 -36192500000.0 -35884100000.0 -37313500000.0 -13604000000.0 -30134300000.0 -25495900000.0 -21253200000.0 -27096300000.0 -19532200000.0 -20738800000.0 -19353400000.0 -16613100000.0 -19748800000.0 -12689100000.0 -35410200000.0 -29294000000.0 -33401300000.0 -36805000000.0 -12584900000.0 -47608700000.0 -19329600000.0 -21717600000.0 -13235000000.0 -43010500000.0 -17909400000.0 -20623000000.0 -33566100000.0 -16741600000.0 -14795700000.0 -38508800000.0 -12796700000.0 -41741000000.0 -21743400000.0 -50207600000.0 -32797800000.0 -29618300000.0 -33855300000.0 -38413400000.0 -43110200000.0 -34697900000.0 -32849300000.0 -41391600000.0 -34239100000.0 -43986000000.0 -33141700000.0 -30179800000.0 -36985600000.0 -58252300000.0 -54364800000.0 -57934600000.0 -78091700000.0 -31038600000.0 -12778000000.0 -39116500000.0 -20709000000.0 -24435600000.0 -17381200000.0 -20353300000.0 -18738600000.0 -18432800000.0 -14404000000.0 -14289200000.0 -14940700000.0 -27994300000.0 -28044900000.0 -24198500000.0 -22865300000.0 -23398400000.0 -32126100000.0 -42954000000.0 -21834800000.0 -26649800000.0 -28294800000.0 -20366300000.0 -23682600000.0 -25198500000.0 -22073000000.0 -29174900000.0 -29469200000.0 -27921600000.0 -32371600000.0 -25899100000.0 -27258600000.0 -25674700000.0 -27300700000.0 -33104600000.0 -20260300000.0 -15592300000.0 -18668600000.0 -18222800000.0 -18930300000.0 -23507600000.0 -28670200000.0 -25242700000.0 -25450300000.0 -37712500000.0 -22284800000.0 -27391400000.0 -38190300000.0 -12549700000.0 -12549700000.0 -64723700000.0 -37140100000.0 -47328000000.0 -27355300000.0 -29693300000.0 -20660100000.0 -16929400000.0 -24829700000.0 -29441000000.0 -22766200000.0 -23335400000.0 -23581800000.0 -37739200000.0 -15873500000.0 -12918200000.0 -17307300000.0 -15090500000.0 -35189600000.0 -25661100000.0 -25813200000.0 -12596700000.0 -12788700000.0 -28748500000.0 -28226200000.0 -33581300000.0 -58434300000.0 -31756400000.0 -17451600000.0 -27888600000.0 -17005700000.0 -19621400000.0 -16711800000.0 -13676900000.0 -48054200000.0 -28981200000.0 -57384600000.0 -24232100000.0 -15332700000.0 -23322600000.0 -13238000000.0 -19609200000.0 -15409800000.0 -13183000000.0 -24179400000.0 -23092600000.0 -32472100000.0 -26536200000.0 -25373700000.0 -17150100000.0 -12887900000.0 -12553200000.0 -12582100000.0 -12549700000.0 -56311400000.0 -43704900000.0 -18643100000.0 -16243000000.0 -18614900000.0 -19789500000.0 -22184400000.0 -13951000000.0 -16748700000.0 -13557400000.0 -12933700000.0 -20504600000.0 -14433300000.0 -15509900000.0 -14890300000.0 -17501800000.0 -19404900000.0 -12549700000.0 -28961600000.0 -29465300000.0 -22034100000.0 -27932500000.0 -24441400000.0 -23562200000.0 -32841400000.0 -20470100000.0 -22568700000.0 -14310000000.0 -17619400000.0 -30112800000.0 -21931600000.0 -16410000000.0 -12701200000.0 -30179100000.0 -15562600000.0 -12893700000.0 -13269300000.0 -16130300000.0 -13506900000.0 -33495300000.0 -12666100000.0 -16026700000.0 -12912100000.0 -30314400000.0 -16511500000.0 -18367100000.0 -12920600000.0 -43635900000.0 -59653300000.0 -20291600000.0 -15571800000.0 -14809100000.0 -55988600000.0 -42120300000.0 -20777000000.0 -23497300000.0 -21544600000.0 -13026200000.0 -13217900000.0 -13578200000.0 -13400000000.0 -23220900000.0 -32162700000.0 -16285300000.0 -21059900000.0 -25704000000.0 -27099300000.0 -36167300000.0 -12654500000.0 -38171300000.0 -33909200000.0 -23139700000.0 -24661000000.0 -33927600000.0 -27762900000.0 -27367400000.0 -37820800000.0 -19585000000.0 -12725000000.0 -19528700000.0 -14296500000.0 -12949700000.0 -35467000000.0 -33986100000.0 -30894100000.0 -64154600000.0 -51638700000.0 -33732100000.0 -32210400000.0 -24276500000.0 -21080800000.0 -12856300000.0 -37277100000.0 -27226000000.0 -33663800000.0 -15777200000.0 -29943000000.0 -17012200000.0 -13503200000.0 -12957500000.0 -13082500000.0 -12786900000.0 -19325800000.0 -64118300000.0 -32339200000.0 -18317200000.0 -17695500000.0 -15245300000.0 -27089900000.0 -21824100000.0 -15924200000.0 -15776400000.0 -21193100000.0 -13069100000.0 -14100000000.0 -12831700000.0 -16067200000.0 -18216400000.0 -16613300000.0 -29080400000.0 -14581500000.0 -13356700000.0 -16447000000.0 -12830500000.0 -15320600000.0 -12638500000.0 -26166000000.0 -20004900000.0 -25586500000.0 -36506300000.0 -46368300000.0 -20627700000.0 -13299700000.0 -12599400000.0 -27982300000.0 -17916500000.0 -21273500000.0 -17902600000.0 -14281300000.0 -15470600000.0 -35227300000.0 -14578500000.0 -16861000000.0 -12680100000.0 -33811800000.0 -42899800000.0 -40333500000.0 -34019400000.0 -46753400000.0 -57992500000.0 -22091200000.0 -17978200000.0 -14089400000.0 -66433700000.0 -25963300000.0 -15476600000.0 -13137200000.0 -19265500000.0 -14767100000.0 -15447000000.0 -18238100000.0 -16521500000.0 -21661200000.0 -18261000000.0 -37302400000.0 -24557900000.0 -34282800000.0 -24320000000.0 -21667600000.0 -21448900000.0 -42522500000.0 -15855900000.0 -17045100000.0 -20761700000.0 -12659100000.0 -32283700000.0 -12841200000.0 -25502600000.0 -40701600000.0 -22310600000.0 -23733900000.0 -27866000000.0 -38593500000.0 -32197100000.0 -45349600000.0 -28550600000.0 -26538700000.0 -33954000000.0 -42465800000.0 -45142900000.0 -49336700000.0 -29955800000.0 -25130200000.0 -32249700000.0 -25919300000.0 -30209900000.0 -16258300000.0 -13465700000.0 -13864300000.0 -14260500000.0 -18068000000.0 -53418100000.0 -29633900000.0 -17769700000.0 -16392800000.0 -25499800000.0 -22132400000.0 -18793300000.0 -21631500000.0 -24506900000.0 -22254800000.0 -22795900000.0 -23901700000.0 -23042500000.0 -19288200000.0 -17088800000.0 -29831700000.0 -13439200000.0 -12624500000.0 -16848900000.0 -12681400000.0 -14661700000.0 -12549900000.0 -21466500000.0 -20648900000.0 -17146400000.0 -28046500000.0 -25934200000.0 -20593300000.0 -25840900000.0 -29832700000.0 -16517100000.0 -18126900000.0 -17265100000.0 -13108800000.0 -13387800000.0 -40782900000.0 -20964700000.0 -24357900000.0 -33479500000.0 -14013300000.0 -26467400000.0 -20459500000.0 -13236200000.0 -66001000000.0 -23977800000.0 -51766200000.0 -14460500000.0 -14189500000.0 -48020800000.0 -49997000000.0 -20077200000.0 -16059300000.0 -28472500000.0 -20417300000.0 -15289900000.0 -14171500000.0 -38004900000.0 -42838500000.0 -12549700000.0 -13261900000.0 -18338900000.0 -12549700000.0 -19094000000.0 -22931000000.0 -39147100000.0 -13420000000.0 -13283500000.0 -21852900000.0 -25453400000.0 -32283000000.0 -19164800000.0 -16476900000.0 -31834200000.0 -21434100000.0 -17565600000.0 -34171800000.0 -24214100000.0 -17337800000.0 -42520500000.0 -26467900000.0 -33109800000.0 -31260100000.0 -12939900000.0 -15743000000.0 -16600300000.0 -26003200000.0 -12549700000.0 -21897100000.0 -12571000000.0 -20200600000.0 -14105700000.0 -31967300000.0 -15157400000.0 -12740500000.0 -13993000000.0 -14079400000.0 -12745900000.0 -12981000000.0 -15947200000.0 -31688400000.0 -28495800000.0 -23613400000.0 -12574700000.0 -12549700000.0 -26706000000.0 -19466800000.0 -16929900000.0 -19491200000.0 -14979300000.0 -17679300000.0 -14232300000.0 -15131000000.0 -15459100000.0 -14097000000.0 -12549700000.0 -23528600000.0 -18241100000.0 -22771300000.0 -22849500000.0 -24106300000.0 -25818100000.0 -28271400000.0 -14533500000.0 -16367100000.0 -15010100000.0 -16485500000.0 -17310500000.0 -23974100000.0 -19526500000.0 -32107700000.0 -24333500000.0 -21256500000.0 -15561900000.0 -22319000000.0 -12549700000.0 -16571800000.0 -25780600000.0 -49614600000.0 -13846600000.0 -26951500000.0 -33645900000.0 -33459300000.0 -22231400000.0 -31533200000.0 -25553100000.0 -90740000000.0 -36887500000.0 -44659800000.0 -49784800000.0 -39935200000.0 -37864400000.0 -43715700000.0 -19113900000.0 -26500900000.0 -36201800000.0 -25045500000.0 -30494600000.0 -54831700000.0 -32656700000.0 -30856300000.0 -29311300000.0 -28294900000.0 -22892100000.0 -25232900000.0 -20192700000.0 -19945300000.0 -33462800000.0 -18842200000.0 -17550500000.0 -33296700000.0 -25813700000.0 -12549700000.0 -27338400000.0 -12619800000.0 -23270000000.0 -20459200000.0 -34018700000.0 -26436200000.0 -21838700000.0 -36910500000.0 -15758500000.0 -12895300000.0 -12572000000.0 -41447800000.0 -20296500000.0 -22554900000.0 -24699800000.0 -35059200000.0 -31193600000.0 -34543900000.0 -12549700000.0 -18184400000.0 -17431000000.0 -23633900000.0 -12822900000.0 -29589600000.0 -14807400000.0 -13511800000.0 -13849300000.0 -13624800000.0 -14231300000.0 -15477700000.0 -30197100000.0 -12966900000.0 -29427900000.0 -27516400000.0 -22323200000.0 -16701900000.0 -13857000000.0 -13503500000.0 -15733700000.0 -13144000000.0 -13597000000.0 -18053200000.0 -19877300000.0 -17630500000.0 -18099700000.0 -18990400000.0 -19663500000.0 -14270300000.0 -12940700000.0 -12649100000.0 -12748500000.0 -13741800000.0 -26040300000.0 -13536800000.0 -24958800000.0 -21328600000.0 -24079800000.0 -33211700000.0 -12549700000.0 -25894200000.0 -29062500000.0 -20488300000.0 -15080000000.0 -15336000000.0 -31393000000.0 -30977300000.0 -12549700000.0 -50153000000.0 -29335600000.0 -12694600000.0 -21351600000.0 -15708900000.0 -29549000000.0 -12553000000.0 -26398400000.0 -35000500000.0 -20949400000.0 -117999000000.0 -50810500000.0 -34577600000.0 -47573400000.0 -77114000000.0 -60382200000.0 -45921900000.0 -36669700000.0 -38488800000.0 -48641300000.0 -12753000000.0 -14773200000.0 -19137800000.0 -12549700000.0 -20692200000.0 -16631500000.0 -23641400000.0 -16533200000.0 -20122400000.0 -26404300000.0 -29344700000.0 -16996300000.0 -13250700000.0 -12549700000.0 -12671600000.0 -12897600000.0 -18365700000.0 -25410500000.0 -22291000000.0 -18260800000.0 -35313000000.0 -22953700000.0 -35741800000.0 -15471600000.0 -15411900000.0 -12978500000.0 -19583200000.0 -18930400000.0 -19764600000.0 -13153600000.0 -30656400000.0 -34723700000.0 -30523600000.0 -34170700000.0 -49872400000.0 -35166100000.0 -13767100000.0 -12549700000.0 -13766700000.0 -12777100000.0 -12783500000.0 -13125200000.0 -14911800000.0 -21716400000.0 -18480800000.0 -24157600000.0 -12911700000.0 -20541000000.0 -16115600000.0 -13665300000.0 -13467100000.0 -14947900000.0 -14471800000.0 -13240500000.0 -20099900000.0 -13647100000.0 -13137400000.0 -13645600000.0 -13453500000.0 -14276300000.0 -15709100000.0 -12765900000.0 -12622100000.0 -12654800000.0 -12549700000.0 -12611200000.0 -19226200000.0 -19810200000.0 -12719100000.0 -13077700000.0 -25074400000.0 -21888800000.0 -34783800000.0 -38187800000.0 -20444000000.0 -16306300000.0 -27323800000.0 -17782000000.0 -37302000000.0 -21815800000.0 -37918900000.0 -28703000000.0 -12691300000.0 -21129700000.0 -17229000000.0 -35646400000.0 -17014400000.0 -52206600000.0 -64125700000.0 -76252400000.0 -13513900000.0 -66177000000.0 -72172500000.0 -24139400000.0 -49691500000.0 -33429500000.0 -35175000000.0 -53951000000.0 -65112500000.0 -32374500000.0 -32754000000.0 -16350800000.0 -27994300000.0 -27846800000.0 -23229700000.0 -14780400000.0 -15664000000.0 -16968500000.0 -13013600000.0 -17045100000.0 -19266800000.0 -19535400000.0 -12549700000.0 -17173700000.0 -14191800000.0 -14441600000.0 -14689300000.0 -22797400000.0 -13448900000.0 -27874300000.0 -15651200000.0 -28456600000.0 -12549700000.0 -30733500000.0 -24361700000.0 -20556500000.0 -23716700000.0 -18365600000.0 -17831000000.0 -22743600000.0 -21421400000.0 -19988900000.0 -37388100000.0 -29493100000.0 -30687500000.0 -27490700000.0 -20983700000.0 -13484400000.0 -12549700000.0 -13882100000.0 -12796500000.0 -12806300000.0 -14107800000.0 -12993900000.0 -15569600000.0 -23015600000.0 -12549700000.0 -15108500000.0 -15050700000.0 -13271700000.0 -12688400000.0 -13545500000.0 -12549700000.0 -14612400000.0 -20050100000.0 -13026000000.0 -12902400000.0 -12611800000.0 -12827500000.0 -13451400000.0 -12555000000.0 -13898800000.0 -12615400000.0 -12584000000.0 -12776900000.0 -12798700000.0 -15470600000.0 -15383000000.0 -23492300000.0 -22786800000.0 -34137700000.0 -18307700000.0 -15148400000.0 -16827800000.0 -51894000000.0 -43056300000.0 -42151200000.0 -38552600000.0 -45088800000.0 -40006500000.0 -17295400000.0 -38045600000.0 -35612500000.0 -39945300000.0 -28102100000.0 -22645000000.0 -68855800000.0 -13169400000.0 -46378900000.0 -65344700000.0 -51525500000.0 -70450600000.0 -68097400000.0 -15061200000.0 -40465100000.0 -42909900000.0 -57057100000.0 -32590800000.0 -36943500000.0 -13013000000.0 -57671600000.0 -22210400000.0 -13877100000.0 -16426200000.0 -24173500000.0 -15062100000.0 -16171800000.0 -13427600000.0 -15621800000.0 -14122900000.0 -16862100000.0 -18589700000.0 -17651100000.0 -12580300000.0 -16223900000.0 -12754200000.0 -13870800000.0 -13897300000.0 -18480300000.0 -17742800000.0 -17937800000.0 -15333500000.0 -20556300000.0 -17887000000.0 -28303200000.0 -17828600000.0 -14707800000.0 -16352900000.0 -17557200000.0 -17635300000.0 -18361200000.0 -18431500000.0 -26943300000.0 -18905900000.0 -13015500000.0 -12569500000.0 -38025600000.0 -17892400000.0 -14269500000.0 -16978900000.0 -17222700000.0 -16880700000.0 -16953400000.0 -15959300000.0 -15940600000.0 -15749200000.0 -13182900000.0 -20669400000.0 -20718200000.0 -19402300000.0 -17540000000.0 -17543500000.0 -17763200000.0 -16914200000.0 -16041500000.0 -16926600000.0 -12596900000.0 -12549700000.0 -12583500000.0 -12826100000.0 -13386700000.0 -12918400000.0 -12788100000.0 -13214200000.0 -12746300000.0 -12589400000.0 -14024000000.0 -13154900000.0 -21329500000.0 -12586000000.0 -12685300000.0 -19512600000.0 -33278600000.0 -28226200000.0 -33183600000.0 -45878300000.0 -18270600000.0 -14936600000.0 -19418100000.0 -17329200000.0 -75144200000.0 -32556900000.0 -41093700000.0 -39521200000.0 -63590300000.0 -39138400000.0 -63916300000.0 -13161700000.0 -25201500000.0 -26387400000.0 -97505900000.0 -139414000000.0 -20724800000.0 -20310700000.0 -76835500000.0 -26253900000.0 -48147400000.0 -20274400000.0 -24523600000.0 -12549700000.0 -43592400000.0 -27821500000.0 -20452600000.0 -21434600000.0 -23927300000.0 -14312100000.0 -13336500000.0 -15456900000.0 -15360300000.0 -12766600000.0 -19186800000.0 -14990400000.0 -16128500000.0 -12549700000.0 -13723500000.0 -14812700000.0 -13085700000.0 -13168400000.0 -19592500000.0 -14734900000.0 -15333200000.0 -12549700000.0 -19063500000.0 -25944700000.0 -12549700000.0 -16547800000.0 -12701900000.0 -12608900000.0 -12565400000.0 -14669000000.0 -13422100000.0 -18505800000.0 -24762900000.0 -17353900000.0 -19188700000.0 -31565100000.0 -18515900000.0 -15265900000.0 -14278200000.0 -12597000000.0 -12586500000.0 -13686300000.0 -13392300000.0 -13124100000.0 -13542800000.0 -13572700000.0 -13328400000.0 -13836400000.0 -15335900000.0 -14437200000.0 -13844200000.0 -14100000000.0 -14368100000.0 -14722900000.0 -15880600000.0 -16932200000.0 -14314700000.0 -14062600000.0 -14378100000.0 -14566800000.0 -15345000000.0 -14496100000.0 -14954800000.0 -14807400000.0 -13962200000.0 -15193400000.0 -16441900000.0 -17560000000.0 -28901600000.0 -23544300000.0 -23882100000.0 -28697100000.0 -14766700000.0 -20417100000.0 -13119600000.0 -44137200000.0 -37243200000.0 -22569100000.0 -16761800000.0 -19420100000.0 -62574800000.0 -26314500000.0 -25552200000.0 -27356100000.0 -69728000000.0 -12549700000.0 -43841100000.0 -40701700000.0 -14392800000.0 -96536800000.0 -13721000000.0 -97606100000.0 -15853600000.0 -14824800000.0 -74429100000.0 -12549700000.0 -44856000000.0 -27061000000.0 -30799400000.0 -40601500000.0 -23830600000.0 -22476000000.0 -24764400000.0 -21083000000.0 -13750300000.0 -13404500000.0 -14991200000.0 -13619900000.0 -16037200000.0 -19832500000.0 -15180500000.0 -14271700000.0 -15338400000.0 -15389600000.0 -15037600000.0 -14323800000.0 -14631200000.0 -19027000000.0 -14950100000.0 -14854800000.0 -17268400000.0 -18656800000.0 -31586900000.0 -15046900000.0 -14474300000.0 -21428300000.0 -18622900000.0 -17331400000.0 -16924600000.0 -16394900000.0 -13476400000.0 -17299700000.0 -12643300000.0 -16103300000.0 -26933300000.0 -14923900000.0 -15139400000.0 -13612600000.0 -12802300000.0 -13341300000.0 -12550100000.0 -12551300000.0 -12617600000.0 -13022900000.0 -12796600000.0 -12601900000.0 -12549700000.0 -13088100000.0 -13086000000.0 -12611900000.0 -12553100000.0 -12549700000.0 -12584900000.0 -12549700000.0 -13811600000.0 -15875900000.0 -15571800000.0 -15220200000.0 -15080300000.0 -14454100000.0 -14329400000.0 -14097300000.0 -14597400000.0 -15743800000.0 -17528300000.0 -19369400000.0 -26626000000.0 -12839800000.0 -15366600000.0 -13658400000.0 -24513700000.0 -19910300000.0 -20980400000.0 -22684500000.0 -34203800000.0 -12798100000.0 -41727200000.0 -31558400000.0 -34356700000.0 -43671100000.0 -40128100000.0 -13264900000.0 -26154300000.0 -72233700000.0 -49891300000.0 -25723000000.0 -50042700000.0 -105757000000.0 -15165600000.0 -14622500000.0 -12835500000.0 -20441900000.0 -93269600000.0 -32649000000.0 -45911300000.0 -22494800000.0 -57137600000.0 -20133300000.0 -12695600000.0 -23500900000.0 -12641500000.0 -12549700000.0 -18872300000.0 -18783300000.0 -19903900000.0 -19096000000.0 -20929200000.0 -17341900000.0 -21413500000.0 -19511500000.0 -13279400000.0 -14145600000.0 -13220200000.0 -12951300000.0 -12554600000.0 -12652000000.0 -12549700000.0 -15893500000.0 -13435900000.0 -13894700000.0 -13778400000.0 -14513700000.0 -24633600000.0 -14157200000.0 -14101000000.0 -15627300000.0 -13733500000.0 -14384800000.0 -15854700000.0 -13080000000.0 -13224600000.0 -16586800000.0 -12794300000.0 -20499400000.0 -19476100000.0 -17400700000.0 -15355300000.0 -12855900000.0 -12713800000.0 -12995800000.0 -12549700000.0 -12555800000.0 -12610600000.0 -12871200000.0 -12697900000.0 -12549700000.0 -12549700000.0 -12549700000.0 -12818700000.0 -12570600000.0 -12549700000.0 -12549700000.0 -12595400000.0 -12708100000.0 -13717100000.0 -12929500000.0 -12893100000.0 -12576100000.0 -12922100000.0 -13460400000.0 -13318700000.0 -14417800000.0 -14867100000.0 -14709400000.0 -14419100000.0 -17242100000.0 -19303100000.0 -14984100000.0 -19747900000.0 -21548800000.0 -24250300000.0 -19896000000.0 -23798300000.0 -23588900000.0 -27280900000.0 -35521400000.0 -45580700000.0 -13788200000.0 -36375800000.0 -51328200000.0 -58106400000.0 -60809300000.0 -69315300000.0 -103734000000.0 -52332800000.0 -55920000000.0 -89836700000.0 -116683000000.0 -23388600000.0 -62567600000.0 -42813200000.0 -102028000000.0 -29157500000.0 -54096400000.0 -45839500000.0 -55856400000.0 -28181200000.0 -50748400000.0 -63149800000.0 -21859900000.0 -18140900000.0 -16386400000.0 -15362000000.0 -15559200000.0 -15634400000.0 -13413500000.0 -13164200000.0 -13198000000.0 -13383400000.0 -15692400000.0 -17527100000.0 -14022800000.0 -15693500000.0 -13886300000.0 -14477500000.0 -13513200000.0 -13294400000.0 -14966800000.0 -12566300000.0 -12827800000.0 -12650800000.0 -12866000000.0 -20244200000.0 -12869200000.0 -12659400000.0 -15289700000.0 -12549700000.0 -13171200000.0 -13297400000.0 -17354200000.0 -16522300000.0 -20453300000.0 -20931800000.0 -13671300000.0 -14704200000.0 -12682800000.0 -12627800000.0 -12549700000.0 -12682700000.0 -12550400000.0 -12552000000.0 -12565800000.0 -12662800000.0 -12598500000.0 -12549700000.0 -12549700000.0 -12549700000.0 -12648500000.0 -12549700000.0 -12549700000.0 -12549700000.0 -12558400000.0 -12621700000.0 -13283200000.0 -13009400000.0 -12998900000.0 -12921100000.0 -12640000000.0 -12681400000.0 -12734400000.0 -13215500000.0 -12775800000.0 -12981800000.0 -13003300000.0 -13857500000.0 -13481400000.0 -13066300000.0 -14525300000.0 -13964800000.0 -13397500000.0 -15514500000.0 -16083400000.0 -16426100000.0 -13881300000.0 -14811200000.0 -53830300000.0 -37182100000.0 -53273600000.0 -43967800000.0 -17341700000.0 -35652900000.0 -60884600000.0 -41179100000.0 -117387000000.0 -66518700000.0 -67827600000.0 -59674800000.0 -30016200000.0 -78346500000.0 -53208000000.0 -19926000000.0 -29102000000.0 -43343800000.0 -71551000000.0 -24728900000.0 -16408200000.0 -17335500000.0 -15259400000.0 -17061400000.0 -16799600000.0 -15818500000.0 -12826700000.0 -12623700000.0 -12594300000.0 -12670200000.0 -12812600000.0 -12889500000.0 -12960800000.0 -12663900000.0 -14305500000.0 -13864100000.0 -12549700000.0 -13042200000.0 -13037300000.0 -13125700000.0 -13105500000.0 -13583700000.0 -13949900000.0 -13880900000.0 -14259900000.0 -14926000000.0 -15433500000.0 -14818400000.0 -12797400000.0 -13402100000.0 -12779900000.0 -13255600000.0 -12845500000.0 -12788300000.0 -13819600000.0 -12702200000.0 -17072600000.0 -12726100000.0 -15942100000.0 -15757900000.0 -14388200000.0 -13000900000.0 -25225500000.0 -21694300000.0 -34866800000.0 -75165000000.0 -50984000000.0 -54859200000.0 -66713600000.0 -47444900000.0 -60560600000.0 -50484700000.0 -59781000000.0 -64550000000.0 -12889800000.0 -104863000000.0 -43272600000.0 -38997100000.0 -54297100000.0 -61982800000.0 -49350600000.0 -73479500000.0 -17933800000.0 -12556100000.0 -26638900000.0 -21908200000.0 -30052500000.0 -53490400000.0 -31281100000.0 -14417800000.0 -84105300000.0 -51314500000.0 -12549700000.0 -53284200000.0 -80438100000.0 -103268000000.0 -48807100000.0 -110069000000.0 -104341000000.0 -68034100000.0 -51296500000.0 -17408500000.0 -58273600000.0 -85836100000.0 -17854500000.0 -35651000000.0 -36496300000.0 -53245700000.0 -33065900000.0 -37306300000.0 -110653000000.0 -126367000000.0 -89926200000.0 -28742700000.0 -110928000000.0 -49439500000.0 -230250000000.0 -56177000000.0 -140113000000.0 -68435000000.0 -74543600000.0 -13284100000.0 -125296000000.0 -16098400000.0 -14961000000.0 -41134500000.0 -28066200000.0 -56849000000.0 -28858800000.0 -96867600000.0 -13056200000.0 -44590100000.0 -13127900000.0 -143866000000.0 -238532000000.0 -14146000000.0 -34548800000.0 -93710500000.0 -12998500000.0 -42564500000.0 -68799800000.0 -70895500000.0 -126946000000.0 -14135800000.0 -14571800000.0 -12549700000.0 -12549700000.0 -63327000000.0 -48447200000.0 -129137000000.0 -121054000000.0 -26535400000.0 -40668600000.0 -23153500000.0 -18690000000.0 -198472000000.0 -96248200000.0 -73298400000.0 -120873000000.0 -37248000000.0 -78684700000.0 -81998700000.0 -34416600000.0 -15331900000.0 -17595300000.0 -12549700000.0 -12549700000.0 -12549700000.0 -18149900000.0 -23823800000.0 -66228100000.0 -55653700000.0 -49057100000.0 -105666000000.0 -12916600000.0 -60548400000.0 -49231100000.0 -43526300000.0 -219746000000.0 -64411000000.0 -72462800000.0 -51450400000.0 -117715000000.0 -31405300000.0 -199486000000.0 -91645800000.0 -53211200000.0 -38717700000.0 -22154500000.0 -12549700000.0 -12549700000.0 -12549700000.0 -12549700000.0 -12549700000.0 -12549700000.0 -12549700000.0 -12549700000.0 -12549700000.0 -12549700000.0 -12549700000.0 -12549700000.0 -12549700000.0 -12549700000.0 -12549700000.0 -12549700000.0 -12549700000.0 -12549700000.0 -12549700000.0 -12549700000.0 -12549700000.0 -12549700000.0 -12549700000.0 -12549700000.0 -12549700000.0 -12549700000.0 -12549700000.0 -12549700000.0 -19832300000.0 -78345900000.0 -53105400000.0 -39016300000.0 -98207500000.0 -84970100000.0 -80415100000.0 -51627800000.0 -98356600000.0 -291227000000.0 -117812000000.0 -28953900000.0 -45555000000.0 -180396000000.0 -178349000000.0 -101713000000.0 -65301100000.0 -44653900000.0 -14468800000.0 -12549700000.0 -12549700000.0 -12549700000.0 -12549700000.0 -12549700000.0 -12549700000.0 -12549700000.0 -12549700000.0 -12549700000.0 -12549700000.0 -12549700000.0 -12549700000.0 -12549700000.0 -12549700000.0 -12549700000.0 -12549700000.0 -12549700000.0 -12549700000.0 -12549700000.0 -12549700000.0 -12549700000.0 -12549700000.0 -12549700000.0 -12549700000.0 -12549700000.0 -12549700000.0 -12549700000.0 -12651300000.0 -12842000000.0 -75681200000.0 -65502400000.0 -18315900000.0 -131367000000.0 -31275700000.0 -124982000000.0 -115168000000.0 -192678000000.0 -169275000000.0 -106615000000.0 -71225500000.0 -99630100000.0 -170449000000.0 -91579600000.0 -171803000000.0 -36332700000.0 -187478000000.0 -103953000000.0 -34572000000.0 -37412200000.0 -32320200000.0 -126964000000.0 -38495000000.0 -24198900000.0 -12549700000.0 -12549700000.0 -12549700000.0 -12549700000.0 -12549700000.0 -32871100000.0 -12549700000.0 -20923300000.0 -12549700000.0 -12549700000.0 -12549700000.0 -12549700000.0 -12549700000.0 -12549700000.0 -12549700000.0 -12549700000.0 -12549700000.0 -12549700000.0 -12549700000.0 -12549700000.0 -56687400000.0 -12549700000.0 -12549700000.0 -12549700000.0 -12549700000.0 -12549700000.0 -12549700000.0 -12549700000.0 -12549700000.0 -19561500000.0 -12549700000.0 -12549700000.0 -12561300000.0 -12549700000.0 -12549700000.0 -12549600000.0 -15416500000.0 -32916600000.0 -41998100000.0 -49871600000.0 -162760000000.0 -149954000000.0 -87223500000.0 -86638500000.0 -27700900000.0 -80770600000.0 -77747200000.0 -216742000000.0 -313235000000.0 -230579000000.0 -169211000000.0 -234512000000.0 -134308000000.0 -145081000000.0 -164394000000.0 -12549700000.0 -12549700000.0 -18477300000.0 -14795800000.0 -12883200000.0 -87760200000.0 -81290100000.0 -48249200000.0 -12549700000.0 -12549700000.0 -12549700000.0 -132007000000.0 -75756000000.0 -15291500000.0 -12549700000.0 -17557600000.0 -111788000000.0 -70637500000.0 -44780200000.0 -13161500000.0 -12549700000.0 -12549700000.0 -12549700000.0 -12549700000.0 -12549700000.0 -12549700000.0 -67609100000.0 -8933780000.0 -24246600000.0 -13718600000.0 -13099400000.0 -3.97773e+12 -3.32573e+12 -12549700000.0 -3.48531e+12 -3.2345e+12 -544471000000.0 -12549700000.0 -2.98176e+12 -162361000000.0 -12549700000.0 -5.79757e+12 -3.75786e+12 -2.86476e+12 -12520100000.0 -12614800000.0 -13413900000.0 -22791200000.0 -26471300000.0 -15843200000.0 -4.97784e+12 -25534200000.0 -3.67845e+12 -104025000000.0 -12549700000.0 -12548900000.0 -4.76448e+12 -3.80464e+12 -6.44035e+12 -31606000000.0 -16985600000.0 -12549700000.0 -524470000000.0 -2.86098e+12 -3.48535e+12 -5.30822e+12 -5.12393e+12 -88314600000.0 -508323000000.0 -1.75602e+12 -12541000000.0 -12549700000.0 -13016100000.0 -4.33577e+12 -12962600000.0 -476482000000.0 -3.37738e+12 -4.23931e+12 -2.9582e+12 -2.53657e+12 -400079000000.0 -12549600000.0 -60689200000.0 -562494000000.0 -12767200000.0 -1.78857e+12 -23532500000.0 -4.61438e+12 -6.85056e+12 -4.78728e+12 -3.37207e+12 -136780000000.0 -18304500000.0 -40766700000.0 -136865000000.0 -149591000000.0 -147190000000.0 -185268000000.0 -206043000000.0 -277103000000.0 -202283000000.0 -214386000000.0 -288184000000.0 -311088000000.0 -216478000000.0 -192999000000.0 -113646000000.0 -195157000000.0 -186386000000.0 -299729000000.0 -462167000000.0 -375314000000.0 -438843000000.0 -530630000000.0 -297528000000.0 -226788000000.0 -4.67224e+12 -5.47213e+12 -4.88514e+12 -1.915e+12 -954476000000.0 -249393000000.0 -2.82728e+12 -3.42609e+12 -927574000000.0 -3.43579e+12 -3.80418e+12 -28414800000.0 -54533800000.0 -4.18999e+12 -147421000000.0 -186084000000.0 -12549700000.0 -15788500000.0 -22088000000.0 -2.86474e+12 -116637000000.0 -3.53925e+12 -287611000000.0 -501376000000.0 -900753000000.0 -171490000000.0 -17544400000.0 -2.30154e+12 -4.52067e+12 -3.96495e+12 -12549700000.0 -5.17552e+12 -895459000000.0 -4.12979e+12 -3.87735e+12 -4.17839e+12 -3.94746e+12 -4.21456e+12 -3.25568e+12 -12549700000.0 -12549700000.0 -12549600000.0 -2.67257e+12 -5.49485e+12 -12549700000.0 -4.20263e+12 -12549700000.0 -3.04822e+12 -322709000000.0 -531250000000.0 -2.69975e+12 -4.51961e+12 -4.54153e+12 -9.59743e+12 -7.79573e+12 -6.57035e+12 -2.94309e+12 -4.6512e+12 -4.93984e+12 -5.47723e+12 -5.0338e+12 -6.7882e+12 -5.55602e+12 -4.47095e+12 -3.31379e+12 -5.7792e+12 -5.00865e+12 -4.2881e+12 -3.60732e+12 -3.34017e+12 -6.75616e+12 -3.63195e+12 -3.19259e+12 -4.99102e+12 -3.51268e+12 -4.98996e+12 -4.71306e+12 -5.64351e+12 -7.30937e+12 -3.83647e+12 -9.68116e+12 -9.04533e+12 -5.23509e+12 -4.27628e+12 -1.18747e+13 -8.57451e+12 -8.39952e+12 -8.49088e+12 -4.37632e+12 -5.90735e+12 -5.90248e+12 -6.264e+12 -3.68009e+12 -3.3271e+12 -1.59993e+12 -4.64767e+12 -7.1738e+12 -3.87005e+12 -3.76493e+12 -5.6304e+12 -5.23205e+12 -786310000000.0 -5.22259e+12 -4.7587e+12 -5.64756e+12 -2.72656e+12 -8.54422e+12 -7.7872e+12 -3.25683e+12 -6.16899e+12 -6.46778e+12 -3.85789e+12 -4.50067e+12 -6.74918e+12 -3.84401e+12 -5.56893e+12 -5.07659e+12 -3.67677e+12 -1.09914e+13 -3.80543e+12 -5.72075e+12 -4.91198e+12 -3.05762e+12 -5.75599e+12 -5.7466e+12 -2.83785e+12 -4.95077e+12 -1.16885e+13 -6.80014e+12 -4.58614e+12 -4.09217e+12 -15366700000.0 -152182000000.0 -34461300000.0 -16533300000.0 -203833000000.0 -14948500000.0 -117314000000.0 -176043000000.0 -247858000000.0 -98669500000.0 -59586100000.0 -186737000000.0 -26681100000.0 -281806000000.0 -15879700000.0 -352048000000.0 -561231000000.0 -139223000000.0 -300228000000.0 -12549600000.0 -2.48708e+12 -3.16973e+12 -5.81744e+12 -3.12985e+12 -5.89978e+12 -5.77011e+12 -7.10885e+12 -4.93776e+12 -3.96483e+12 -5.36807e+12 -5.72883e+12 -1.95908e+12 -3.94434e+12 -4.0053e+12 -2.77901e+12 -3.0593e+12 -5.7522e+12 -4.03212e+12 -5.01637e+12 -3.8363e+12 -4.43281e+12 -6.3148e+12 -5.34755e+12 -1.23501e+13 -4.4898e+12 -5.59002e+12 -3.8679e+12 -411230000000.0 -6.40402e+12 -4.0309e+12 -5.72344e+12 -3.15131e+12 -7.43053e+12 -4.47661e+12 -6.90227e+12 -5.13295e+12 -4.87531e+12 -4.5014e+12 -5.23157e+12 -8.03102e+12 -4.03062e+12 -9.5267e+12 -5.03258e+12 -3.0938e+12 -6.66835e+12 -3.56631e+12 -4.09508e+12 -5.42033e+12 -5.92353e+12 -3.75088e+12 -3.83178e+12 -5.16744e+12 -6.23374e+12 -4.70421e+12 -4.97978e+12 -4.82737e+12 -8.52743e+12 -5.29712e+12 -6.6976e+12 -7.30572e+12 -7.00151e+12 -5.75288e+12 -5.98817e+12 -7.95334e+12 -6.76084e+12 -6.02525e+12 -7.51455e+12 -3.80514e+12 -4.09599e+12 -5.82098e+12 -3.5235e+12 -5.33581e+12 -5.82693e+12 -7.39718e+12 -4.98057e+12 -4.40922e+12 -2.68059e+12 -4.99719e+12 -4.70277e+12 -3.54681e+12 -3.37456e+12 -3.92571e+12 -5.16528e+12 -7.75514e+12 -5.1736e+12 -7.17195e+12 -4.56322e+12 -4.40641e+12 -9.15624e+12 -4.0826e+12 -7.23918e+12 -5.24874e+12 -4.37188e+12 -6.18784e+12 -5.74716e+12 -2.75902e+12 -5.32955e+12 -7.90798e+12 -3.96901e+12 -5.79003e+12 -8.24542e+12 -6.50577e+12 -7.12755e+12 -5.328e+12 -4.24267e+12 -5.09138e+12 -6.20386e+12 -3.15923e+12 -8.58299e+12 -6.65105e+12 -6.41175e+12 -3.58195e+12 -3.85235e+12 -5.2336e+12 -2.43784e+12 -6.44158e+12 -5.06545e+12 -8.74986e+12 -6.39584e+12 -8.14815e+12 -5.15494e+12 -7.33929e+12 -7.04659e+12 -3.17487e+12 -8.96534e+12 -5.35689e+12 -6.08294e+12 -6.5622e+12 -5.79934e+12 -4.06434e+12 -5.47483e+12 -5.40282e+12 -7.34399e+12 -8.04486e+12 -4.73559e+12 -6.28067e+12 -7.1933e+12 -5.66661e+12 -9.98543e+12 -8.66355e+12 -6.05632e+12 -3.90436e+12 -2.16981e+12 -6.2038e+12 -6.96924e+12 -6.45134e+12 -7.44519e+12 -3.9607e+12 -5.74271e+12 -7.22941e+12 -7.15961e+12 -5.88248e+12 -34673100000.0 -376117000000.0 -73111100000.0 -300047000000.0 -365352000000.0 -303735000000.0 -244966000000.0 -264844000000.0 -360463000000.0 -78980000000.0 -139229000000.0 -268410000000.0 -292910000000.0 -274396000000.0 -315997000000.0 -516778000000.0 -285534000000.0 -443424000000.0 -276573000000.0 -6.06133e+12 -134553000000.0 -6.51473e+12 -7.9161e+12 -7.03728e+12 -7.08685e+12 -6.01738e+12 -5.33093e+12 -6.37202e+12 -2.61837e+12 -3.92896e+12 -7.85069e+12 -5.90034e+12 -7.78927e+12 -7.64843e+12 -2.93355e+12 -1.05506e+13 -3.90562e+12 -3.33734e+12 -6.20215e+12 -8.28771e+12 -3.76678e+12 -8.41204e+12 -6.30653e+12 -8.59917e+12 -4.61839e+12 -6.14273e+12 -4.01727e+12 -9.84584e+12 -7.80361e+12 -3.03653e+12 -5.93441e+12 -5.20221e+12 -6.79274e+12 -5.03639e+12 -5.11085e+12 -9.77279e+12 -6.44211e+12 -5.5525e+12 -7.50576e+12 -7.83696e+12 -8.23342e+12 -5.01343e+12 -5.83261e+12 -6.85159e+12 -3.8013e+12 -6.34551e+12 -7.40028e+12 -4.83145e+12 -5.76832e+12 -7.16528e+12 -7.50103e+12 -1.01317e+12 -6.39491e+12 -1.0216e+13 -5.62866e+12 -8.42678e+12 -3.31739e+12 -3.57999e+12 -3.60371e+12 -5.0402e+12 -5.69397e+12 -8.51302e+12 -5.42e+12 -8.02909e+12 -6.85546e+12 -5.78015e+12 -7.26275e+12 -4.59932e+12 -9.47451e+12 -6.86887e+12 -4.03273e+12 -4.93109e+12 -5.54701e+12 -8.4996e+12 -8.29753e+12 -7.8513e+12 -6.65193e+12 -3.97828e+12 -6.85554e+12 -2.88122e+12 -3.11285e+12 -5.63714e+12 -5.0749e+12 -6.93991e+12 -5.11057e+12 -5.58424e+12 -5.06487e+12 -4.72332e+12 -6.00768e+12 -3.64628e+12 -5.21716e+12 -5.71819e+12 -3.3948e+12 -5.12509e+12 -2.27093e+12 -4.02678e+12 -4.32822e+12 -4.57805e+12 -5.17372e+12 -6.56199e+12 -7.86292e+12 -4.74894e+12 -6.76324e+12 -9.76852e+12 -3.7889e+12 -2.88019e+12 -3.96717e+12 -6.07345e+12 -6.83222e+12 -7.05929e+12 -7.03256e+12 -6.96238e+12 -5.22373e+12 -5.21426e+12 -8.11026e+12 -6.22439e+12 -5.82624e+12 -2.85931e+12 -3.21978e+12 -5.00052e+12 -5.71351e+12 -8.21212e+12 -5.79275e+12 -6.42059e+12 -7.54948e+12 -5.22014e+12 -7.20038e+12 -6.50336e+12 -6.10852e+12 -5.66726e+12 -6.19027e+12 -4.06614e+12 -8.99972e+12 -4.68551e+12 -5.47072e+12 -5.23805e+12 -4.33805e+12 -2.34134e+12 -4.5599e+12 -4.68359e+12 -6.12105e+12 -5.13651e+12 -6.16509e+12 -3.90152e+12 -7.41286e+12 -6.79101e+12 -5.93917e+12 -3.01988e+12 -2.66611e+12 -2.85046e+12 -28550000000.0 -393978000000.0 -436054000000.0 -12549700000.0 -50069300000.0 -103561000000.0 -89770800000.0 -185301000000.0 -111071000000.0 -86270900000.0 -315790000000.0 -170720000000.0 -82204400000.0 -166452000000.0 -177209000000.0 -53516200000.0 -71743900000.0 -243844000000.0 -14457700000.0 -328645000000.0 -314217000000.0 -3.16479e+12 -402952000000.0 -4.96539e+12 -3.53168e+12 -5.24312e+12 -4.22367e+12 -5.45425e+12 -7.33552e+12 -5.75898e+12 -4.65942e+12 -7.1358e+12 -4.11652e+12 -6.54169e+12 -9.72491e+12 -7.20334e+12 -3.57112e+12 -6.27576e+12 -6.0667e+12 -4.62797e+12 -7.49896e+12 -6.53315e+12 -9.45357e+12 -4.7604e+12 -5.67963e+12 -3.26901e+12 -3.7475e+12 -9.97629e+12 -6.20294e+12 -6.49959e+12 -7.61355e+12 -5.5305e+12 -8.68898e+12 -3.04539e+12 -6.57456e+12 -5.31201e+12 -6.66449e+12 -5.91325e+12 -8.15462e+12 -5.41417e+12 -7.34421e+12 -6.26105e+12 -5.53761e+12 -7.99305e+12 -7.74783e+12 -7.82001e+12 -7.09973e+12 -5.97278e+12 -9.04865e+12 -8.03697e+12 -7.79124e+12 -6.76585e+12 -4.47536e+12 -9.34827e+12 -5.41798e+12 -6.50427e+12 -6.42557e+12 -8.98522e+12 -5.57988e+12 -3.19057e+12 -2.78333e+12 -4.36279e+12 -5.10967e+12 -4.79781e+12 -5.13864e+12 -6.4484e+12 -9.30102e+12 -4.33141e+12 -4.55124e+12 -3.57668e+12 -4.16316e+12 -4.66939e+12 -6.1394e+12 -7.82638e+12 -2.37168e+12 -5.75607e+12 -3.56844e+12 -5.04693e+12 -6.32026e+12 -2.20322e+12 -1.01731e+13 -6.3091e+12 -5.21521e+12 -5.81323e+12 -5.44037e+12 -5.6716e+12 -4.7829e+12 -6.0109e+12 -4.55093e+12 -4.75163e+12 -7.55038e+12 -7.36219e+12 -6.90947e+12 -4.43179e+12 -5.83941e+12 -5.08805e+12 -5.41567e+12 -4.48136e+12 -7.82389e+12 -9.63658e+12 -4.50792e+12 -2.71271e+12 -2.75047e+12 -2.85671e+12 -3.85656e+12 -5.07448e+12 -7.76057e+12 -5.23837e+12 -5.33859e+12 -6.11e+12 -2.63163e+12 -4.47909e+12 -5.19673e+12 -7.86562e+12 -3.96687e+12 -8.26648e+12 -5.02554e+12 -6.03981e+12 -3.51603e+12 -5.71638e+12 -6.0254e+12 -3.48072e+12 -3.59628e+12 -4.18585e+12 -58978500000.0 -78187300000.0 -26940000000.0 -319542000000.0 -128479000000.0 -100892000000.0 -161427000000.0 -30602600000.0 -66953000000.0 -172543000000.0 -39042200000.0 -126700000000.0 -160324000000.0 -84108600000.0 -57550000000.0 -221554000000.0 -67182400000.0 -27262900000.0 -325454000000.0 -212691000000.0 -4.68077e+12 -5.38405e+12 -3.15035e+12 -8.56963e+12 -6.62237e+12 -4.58849e+12 -3.67937e+12 -6.21622e+12 -2.47886e+12 -5.63952e+12 -6.06841e+12 -4.06058e+12 -4.21868e+12 -7.41832e+12 -1.03466e+13 -6.29858e+12 -5.28843e+12 -5.21281e+12 -6.99505e+12 -5.92092e+12 -6.55538e+12 -8.82205e+12 -4.79542e+12 -5.5616e+12 -5.49095e+12 -7.33899e+12 -5.66795e+12 -7.97331e+12 -8.23059e+12 -4.3715e+12 -6.47728e+12 -7.70262e+12 -4.52224e+12 -4.07669e+12 -3.55406e+12 -4.67771e+12 -5.73551e+12 -5.06851e+12 -5.46119e+12 -5.91256e+12 -4.97365e+12 -4.81298e+12 -4.1282e+12 -5.99375e+12 -3.30246e+12 -5.11807e+12 -5.49476e+12 -4.52308e+12 -5.74836e+12 -4.48423e+12 -3.76891e+12 -2.41279e+12 -5.48334e+12 -5.33796e+12 -5.82035e+12 -4.80791e+12 -5.03584e+12 -8.23846e+12 -4.85418e+12 -5.86982e+12 -6.91123e+12 -6.45593e+12 -3.49569e+12 -2.38863e+12 -4.31918e+12 -6.91518e+12 -5.02275e+12 -5.54785e+12 -6.92091e+12 -5.36646e+12 -3.263e+12 -5.85776e+12 -4.53264e+12 -8.01403e+12 -1.95535e+12 -3.29418e+12 -3.88113e+12 -4.91918e+12 -2.7488e+12 -4.9948e+12 -4.93341e+12 -4.86608e+12 -4.22406e+12 -4.349e+12 -5.09151e+12 -4.82798e+12 -7.55543e+12 -7.73011e+12 -5.17363e+12 -4.66871e+12 -5.68983e+12 -4.23374e+12 -6.79938e+12 -4.43464e+12 -4.45045e+12 -5.22257e+12 -6.31914e+12 -5.16609e+12 -5.93805e+12 -3.47776e+12 -6.18078e+12 -5.32771e+12 -2.51553e+12 -3.39697e+12 -4.09122e+12 -2.76136e+12 -5.85089e+12 -4.46553e+12 -6.82383e+12 -5.78226e+12 -4.29751e+12 -3.38753e+12 -7.79386e+12 -3.51861e+12 -4.28049e+12 -4.39331e+12 -5.96391e+12 -6.17203e+12 -5.45936e+12 -3.07532e+12 -4.12248e+12 -6.91995e+12 -5.52511e+12 -2.4833e+12 -3.24185e+12 -5.3924e+12 -4.001e+12 -4.51214e+12 -2.22436e+12 -27402400000.0 -52826300000.0 -79197600000.0 -256686000000.0 -192236000000.0 -136219000000.0 -54675200000.0 -149175000000.0 -199935000000.0 -112881000000.0 -49640400000.0 -54261600000.0 -138084000000.0 -140444000000.0 -155286000000.0 -346988000000.0 -232435000000.0 -4.44268e+12 -3.85811e+12 -6.97463e+12 -7.38646e+12 -7.74084e+12 -2.16089e+12 -3.79766e+12 -4.24674e+12 -7.15944e+12 -5.85675e+12 -5.482e+12 -8.49092e+12 -8.18244e+12 -5.01781e+12 -8.02443e+12 -4.15435e+12 -7.48284e+12 -5.48863e+12 -4.16644e+12 -4.99028e+12 -5.76862e+12 -6.10382e+12 -3.535e+12 -5.04086e+12 -5.939e+12 -6.75962e+12 -4.11335e+12 -3.08072e+12 -6.42595e+12 -4.60192e+12 -6.26622e+12 -5.16888e+12 -4.67635e+12 -5.03322e+12 -5.37048e+12 -1.48973e+12 -2.48751e+12 -4.38377e+12 -4.27002e+12 -3.5077e+12 -5.41093e+12 -5.77941e+12 -8.36584e+12 -4.52424e+12 -5.50472e+12 -4.50962e+12 -3.52779e+12 -4.43577e+12 -2.86538e+12 -5.3434e+12 -3.4498e+12 -4.69875e+12 -6.30278e+12 -3.92534e+12 -3.40986e+12 -4.39126e+12 -6.02236e+12 -7.09006e+12 -4.42814e+12 -3.62119e+12 -5.77012e+12 -1.43364e+12 -5.39206e+12 -4.61426e+12 -3.33161e+12 -5.26767e+12 -6.10301e+12 -4.24953e+12 -4.31048e+12 -5.05249e+12 -5.31194e+12 -3.63165e+12 -5.72869e+12 -1.44219e+12 -2.98981e+12 -5.45442e+12 -5.3624e+12 -4.33941e+12 -4.22005e+12 -4.18977e+12 -4.85743e+12 -4.43223e+12 -3.80975e+12 -5.41941e+12 -4.2633e+12 -3.52022e+12 -4.11015e+12 -2.8643e+12 -4.09634e+12 -6.84864e+12 -5.67159e+12 -5.01491e+12 -6.85527e+12 -5.52252e+12 -5.0268e+12 -4.38408e+12 -7.58777e+12 -4.70114e+12 -3.86354e+12 -4.2305e+12 -4.45308e+12 -6.83849e+12 -4.22902e+12 -7.40619e+12 -4.23863e+12 -3.49079e+12 -5.00047e+12 -3.08076e+12 -5.3754e+12 -5.04313e+12 -6.37467e+12 -4.31461e+12 -3.91928e+12 -5.50479e+12 -3.682e+12 -6.3585e+12 -5.75856e+12 -4.73915e+12 -14499300000.0 -25996100000.0 -16669800000.0 -128133000000.0 -27260800000.0 -210265000000.0 -239507000000.0 -12549700000.0 -269655000000.0 -204596000000.0 -187292000000.0 -228473000000.0 -263415000000.0 -384742000000.0 -310943000000.0 -264527000000.0 -173117000000.0 -111330000000.0 -246535000000.0 -25312300000.0 -283377000000.0 -3.48281e+12 -3.43339e+12 -2.5844e+12 -2.2721e+12 -4.20766e+12 -4.50548e+12 -3.271e+12 -5.56208e+12 -8.4075e+12 -7.18812e+12 -6.22795e+12 -2.68894e+12 -5.87058e+12 -4.38155e+12 -3.77823e+12 -2.42065e+12 -3.33705e+12 -3.13491e+12 -3.73892e+12 -6.44348e+12 -3.7015e+12 -3.13572e+12 -8.17373e+12 -4.97627e+12 -3.05762e+12 -7.23175e+12 -7.56375e+12 -2.377e+12 -4.11953e+12 -5.46712e+12 -3.59613e+12 -4.42478e+12 -6.54686e+12 -3.61775e+12 -5.61804e+12 -5.15139e+12 -4.93365e+12 -2.71588e+12 -5.11471e+12 -4.64417e+12 -3.45824e+12 -5.25207e+12 -6.67635e+12 -4.85934e+12 -5.03463e+12 -6.66102e+12 -3.50426e+12 -3.42345e+12 -3.5039e+12 -3.74398e+12 -3.02631e+12 -3.68044e+12 -3.95198e+12 -5.38871e+12 -2.54941e+12 -3.44384e+12 -2.36629e+12 -6.13351e+12 -4.09031e+12 -3.39306e+12 -2.73379e+12 -5.14476e+12 -2.88718e+12 -3.73596e+12 -3.9009e+12 -6.59037e+12 -5.88743e+12 -8.15171e+12 -4.0102e+12 -3.63033e+12 -3.87413e+12 -7.83399e+12 -4.37522e+12 -3.58052e+12 -3.11317e+12 -2.45425e+12 -2.22683e+12 -3.64509e+12 -5.70368e+12 -5.558e+12 -2.93563e+12 -5.1542e+12 -4.9076e+12 -6.28786e+12 -3.35451e+12 -3.42555e+12 -2.62179e+12 -3.81007e+12 -1.83322e+12 -5.50586e+12 -3.64939e+12 -4.29512e+12 -2.86043e+12 -6.22841e+12 -5.72654e+12 -7.11713e+12 -3.86519e+12 -4.79641e+12 -4.26547e+12 -3.46499e+12 -4.87279e+12 -2.54263e+12 -5.29191e+12 -3.45341e+12 -5.70028e+12 -2.37444e+12 -5.0139e+12 -4.95149e+12 -3.85865e+12 -4.63538e+12 -3.23832e+12 -1.92678e+12 -1.76832e+12 -15160000000.0 -35168300000.0 -49307400000.0 -110376000000.0 -87274700000.0 -31314900000.0 -91876700000.0 -153161000000.0 -89237000000.0 -153838000000.0 -182353000000.0 -124913000000.0 -196133000000.0 -110314000000.0 -272021000000.0 -179969000000.0 -141021000000.0 -236404000000.0 -261198000000.0 -161773000000.0 -12549700000.0 -49768900000.0 -3.03936e+12 -3.97091e+12 -4.5046e+12 -3.84574e+12 -2.77995e+12 -4.71718e+12 -3.62659e+12 -4.47202e+12 -6.3286e+12 -3.01782e+12 -3.43917e+12 -3.72848e+12 -5.00846e+12 -2.77254e+12 -4.533e+12 -3.28148e+12 -5.42785e+12 -4.23592e+12 -2.58836e+12 -5.81229e+12 -2.5953e+12 -7.32554e+12 -3.0208e+12 -2.43617e+12 -5.16937e+12 -1.71641e+12 -2.73909e+12 -2.83938e+12 -6.92882e+12 -3.00753e+12 -2.37535e+12 -3.71849e+12 -3.73163e+12 -2.62356e+12 -5.89236e+12 -6.52049e+12 -6.01099e+12 -5.33456e+12 -2.48314e+12 -5.52672e+12 -2.7356e+12 -4.90144e+12 -3.94485e+12 -4.99504e+12 -4.35502e+12 -4.03893e+12 -4.568e+12 -3.55403e+12 -4.89806e+12 -3.29528e+12 -3.63102e+12 -4.63209e+12 -5.89415e+12 -4.52585e+12 -4.89916e+12 -2.80477e+12 -6.80743e+12 -5.26753e+12 -1.72304e+12 -4.67521e+12 -3.54617e+12 -4.66505e+12 -2.01593e+12 -7.79761e+12 -3.45661e+12 -5.58277e+12 -6.69032e+12 -2.73526e+12 -756054000000.0 -4.44902e+12 -4.67423e+12 -3.07518e+12 -3.7589e+12 -4.20283e+12 -4.25324e+12 -4.21712e+12 -4.30966e+12 -3.18024e+12 -2.13928e+12 -4.45273e+12 -4.34208e+12 -4.38336e+12 -2.77434e+12 -5.03811e+12 -2.28599e+12 -3.48032e+12 -3.81006e+12 -4.61817e+12 -4.27032e+12 -5.876e+12 -6.01685e+12 -2.97734e+12 -3.58806e+12 -1.99371e+12 -4.6568e+12 -4.4397e+12 -5.38829e+12 -2.71443e+12 -2.50056e+12 -4.1953e+12 -3.97594e+12 -6.32699e+12 -4.94748e+12 -2.21242e+12 -3.74543e+12 -3.94866e+12 -3.03828e+12 -3.60228e+12 -2.23334e+12 -4.70296e+12 -1.55137e+12 -2.39326e+12 -5.25644e+12 -1.64874e+12 -18202400000.0 -18178600000.0 -32581900000.0 -76451500000.0 -13607700000.0 -85716400000.0 -129139000000.0 -117079000000.0 -64259600000.0 -60536400000.0 -63136100000.0 -101753000000.0 -34705000000.0 -40259100000.0 -176769000000.0 -84616900000.0 -62210700000.0 -15695500000.0 -144658000000.0 -102692000000.0 -22961900000.0 -3.88792e+12 -4.72316e+12 -3.4811e+12 -3.58525e+12 -2.88921e+12 -2.40798e+12 -2.99843e+12 -5.67997e+12 -3.06113e+12 -2.84174e+12 -3.59993e+12 -4.47581e+12 -2.60249e+12 -4.7067e+12 -3.67019e+12 -4.11997e+12 -3.77636e+12 -2.42519e+12 -2.07267e+12 -4.16565e+12 -2.56664e+12 -2.72098e+12 -4.15019e+12 -2.4942e+12 -4.43667e+12 -2.40713e+12 -2.63022e+12 -4.74518e+12 -3.05072e+12 -4.25323e+12 -2.4932e+12 -1.31784e+12 -3.01818e+12 -4.31843e+12 -4.84794e+12 -5.02987e+12 -3.76898e+12 -3.42285e+12 -1.86215e+12 -3.30637e+12 -3.47718e+12 -2.08896e+12 -5.58288e+12 -1.98645e+12 -2.24552e+12 -3.27455e+12 -3.07478e+12 -4.97056e+12 -5.53862e+12 -3.48242e+12 -2.51104e+12 -4.42776e+12 -2.13175e+12 -3.51571e+12 -4.68245e+12 -5.06522e+12 -3.88902e+12 -3.202e+12 -4.19987e+12 -2.02094e+12 -2.44167e+12 -5.28719e+12 -2.98468e+12 -3.40017e+12 -4.77851e+12 -2.797e+12 -4.0204e+12 -4.70829e+12 -4.60001e+12 -4.41866e+12 -3.66025e+12 -4.03172e+12 -1.93058e+12 -3.8462e+12 -2.13019e+12 -4.61081e+12 -3.16808e+12 -3.10433e+12 -1.47651e+12 -3.37983e+12 -3.01415e+12 -2.29136e+12 -3.04833e+12 -2.45566e+12 -4.01738e+12 -7.15391e+12 -2.67094e+12 -4.27035e+12 -2.38008e+12 -5.47091e+12 -2.12466e+12 -3.61478e+12 -3.45126e+12 -4.31276e+12 -2.64462e+12 -5.21313e+12 -3.18431e+12 -2.94888e+12 -1.40856e+12 -3.64367e+12 -4.26525e+12 -3.23942e+12 -3.30517e+12 -3.33023e+12 -4.17978e+12 -1.90188e+12 -13515000000.0 -76033700000.0 -38789700000.0 -37452200000.0 -54617500000.0 -55786300000.0 -44812600000.0 -82727800000.0 -85660200000.0 -114248000000.0 -136207000000.0 -125865000000.0 -188527000000.0 -51214200000.0 -12849300000.0 -68250200000.0 -61157800000.0 -71775200000.0 -92810300000.0 -102666000000.0 -146096000000.0 -15214000000.0 -3.68664e+12 -3.76808e+12 -4.14507e+12 -2.33562e+12 -4.27619e+12 -4.11027e+12 -3.2407e+12 -3.51897e+12 -3.33244e+12 -2.9983e+12 -5.08135e+12 -2.56125e+12 -5.74577e+12 -2.85141e+12 -2.22965e+12 -2.73747e+12 -2.09176e+12 -3.86259e+12 -2.81575e+12 -2.99614e+12 -2.07315e+12 -4.40143e+12 -2.60758e+12 -4.67269e+12 -2.80004e+12 -4.0162e+12 -4.55164e+12 -5.06776e+12 -3.21239e+12 -5.32102e+12 -3.12978e+12 -3.04885e+12 -3.78697e+12 -3.55177e+12 -3.96813e+12 -1.89559e+12 -2.79534e+12 -2.52572e+12 -2.66099e+12 -3.95587e+12 -2.5029e+12 -1.9595e+12 -982501000000.0 -2.64915e+12 -4.46808e+12 -5.66058e+12 -2.27656e+12 -4.61934e+12 -3.38541e+12 -3.30607e+12 -2.43036e+12 -2.88837e+12 -1.91868e+12 -2.15066e+12 -3.56887e+12 -1.48006e+12 -3.52218e+12 -1.94462e+12 -2.83459e+12 -1.58376e+12 -2.28074e+12 -3.96826e+12 -1.93192e+12 -4.25308e+12 -3.09171e+12 -3.79207e+12 -2.37849e+12 -2.83016e+12 -2.29669e+12 -2.93534e+12 -3.27534e+12 -4.40957e+12 -734017000000.0 -2.78343e+12 -2.78362e+12 -2.88292e+12 -2.24164e+12 -2.59398e+12 -4.05205e+12 -1.72774e+12 -1.48964e+12 -2.95565e+12 -1.71402e+12 -3.04181e+12 -3.27008e+12 -3.14245e+12 -2.14441e+12 -5.0324e+12 -2.87962e+12 -1.98665e+12 -2.9258e+12 -2.59934e+12 -2.28978e+12 -2.65573e+12 -3.60955e+12 -2.27405e+12 -3.29235e+12 -1.69637e+12 -2.57794e+12 -3.70673e+12 -3.4833e+12 -2.76847e+12 -70696500000.0 -53311100000.0 -57245600000.0 -17010200000.0 -22234300000.0 -54499400000.0 -33967600000.0 -65025000000.0 -99228500000.0 -64757900000.0 -12549700000.0 -149877000000.0 -74125000000.0 -31895200000.0 -17588700000.0 -185495000000.0 -102527000000.0 -83028800000.0 -81257100000.0 -72496300000.0 -137477000000.0 -296378000000.0 -282675000000.0 -3.7267e+12 -2.70221e+12 -3.31002e+12 -3.2476e+12 -2.8562e+12 -602542000000.0 -1.88278e+12 -2.14799e+12 -2.43479e+12 -5.08708e+12 -3.48456e+12 -4.45213e+12 -4.74298e+12 -4.14951e+12 -3.26472e+12 -3.18588e+12 -2.07766e+12 -1.98691e+12 -3.47119e+12 -1.55147e+12 -2.30825e+12 -2.27459e+12 -846471000000.0 -2.89516e+12 -2.56231e+12 -656127000000.0 -3.51159e+12 -1.41996e+12 -3.23108e+12 -2.54336e+12 -5.38197e+12 -2.74423e+12 -2.27139e+12 -2.83791e+12 -2.67802e+12 -1.13272e+12 -1.99431e+12 -4.03304e+12 -2.82288e+12 -2.52155e+12 -2.95211e+12 -2.05331e+12 -2.28744e+12 -2.94741e+12 -1.64547e+12 -3.14927e+12 -3.49537e+12 -3.16643e+12 -5.01298e+12 -2.78648e+12 -1.74562e+12 -1.96211e+12 -1.82881e+12 -2.43854e+12 -3.81787e+12 -2.29855e+12 -2.2125e+12 -1.32565e+12 -2.46785e+12 -3.32103e+12 -1.14375e+12 -2.04746e+12 -2.09365e+12 -764448000000.0 -2.45296e+12 -2.42277e+12 -2.23976e+12 -2.66617e+12 -3.76407e+12 -2.57584e+12 -2.47578e+12 -2.65993e+12 -2.12758e+12 -2.75087e+12 -2.31052e+12 -2.24047e+12 -1.46271e+12 -1.94892e+12 -3.04299e+12 -2.29239e+12 -1.43016e+12 -2.01792e+12 -3.29701e+12 -2.93088e+12 -2.09128e+12 -1.2356e+12 -1.22498e+12 -2.16592e+12 -3.40966e+12 -2.26391e+12 -1.54586e+12 -3.01272e+12 -2.24539e+12 -1.39951e+12 -3.18301e+12 -1.7755e+12 -3.25919e+12 -2.0353e+12 -2.24108e+12 -2.75929e+12 -3.36954e+12 -3.08612e+12 -871445000000.0 -2.15796e+12 -23066200000.0 -32763300000.0 -23289900000.0 -12790200000.0 -12549700000.0 -12549700000.0 -63574200000.0 -72690200000.0 -13253500000.0 -18912000000.0 -91798300000.0 -49733000000.0 -12549700000.0 -72233400000.0 -89284700000.0 -291863000000.0 -162327000000.0 -119139000000.0 -13883600000.0 -226263000000.0 -2.34187e+12 -1.28722e+12 -2.28416e+12 -1.15897e+12 -1.36712e+12 -2.54428e+12 -4.3659e+12 -2.99727e+12 -1.77344e+12 -2.88917e+12 -2.42283e+12 -2.98697e+12 -2.56171e+12 -3.95729e+12 -1.3351e+12 -2.561e+12 -1.87051e+12 -4.18939e+12 -2.30808e+12 -2.94123e+12 -1.03017e+12 -1.36155e+12 -1.84418e+12 -1.98806e+12 -2.29277e+12 -1.97475e+12 -1.75016e+12 -2.0229e+12 -1.87928e+12 -3.46749e+12 -1.47604e+12 -4.15487e+12 -2.14031e+12 -2.78091e+12 -2.63531e+12 -2.74918e+12 -2.58279e+12 -3.44275e+12 -1.93392e+12 -2.73033e+12 -1.09613e+12 -2.77209e+12 -2.97237e+12 -3.07698e+12 -1.35677e+12 -2.40739e+12 -3.03717e+12 -2.29193e+12 -2.19947e+12 -917435000000.0 -2.88643e+12 -2.82186e+12 -3.57875e+12 -2.53249e+12 -941516000000.0 -2.15576e+12 -2.20708e+12 -1.74495e+12 -1.66879e+12 -195765000000.0 -1.81993e+12 -1.66211e+12 -1.42044e+12 -2.66912e+12 -1.91891e+12 -1.73987e+12 -1.27681e+12 -1.14419e+12 -377070000000.0 -639390000000.0 -2.70211e+12 -2.34325e+12 -1.52914e+12 -2.66297e+12 -2.59708e+12 -3.56383e+12 -146060000000.0 -2.22941e+12 -2.14428e+12 -3.77207e+12 -2.0805e+12 -3.1153e+12 -2.3662e+12 -4.0858e+12 -1.02563e+12 -3.26764e+12 -2.1851e+12 -3.63133e+12 -2.25004e+12 -2.35342e+12 -1.85176e+12 -1.80177e+12 -1.74694e+12 -1.58955e+12 -1.48312e+12 -1.37279e+12 -1.37501e+12 -3.53625e+12 -334525000000.0 -977058000000.0 -3.23924e+12 -2.02261e+12 -609445000000.0 -2.78277e+12 -12549700000.0 -21012000000.0 -13473600000.0 -12671000000.0 -12549700000.0 -31584600000.0 -35177300000.0 -27727100000.0 -14581800000.0 -12788100000.0 -58634400000.0 -17537600000.0 -25285900000.0 -20728100000.0 -30628000000.0 -33097900000.0 -121363000000.0 -172997000000.0 -152893000000.0 -94657700000.0 -931193000000.0 -2.62444e+12 -2.13576e+12 -2.28605e+12 -2.10601e+12 -1.11167e+12 -1.53678e+12 -1.77476e+12 -954151000000.0 -2.60122e+12 -2.39876e+12 -1.50774e+12 -1.59725e+12 -1.89578e+12 -2.5005e+12 -1.46398e+12 -2.55137e+12 -3.26241e+12 -1.44242e+12 -2.35992e+12 -3.27886e+12 -2.24383e+12 -3.26769e+12 -922081000000.0 -2.46643e+12 -2.68741e+12 -1.79783e+12 -1.77567e+12 -3.09407e+12 -1.29148e+12 -3.31598e+12 -2.64675e+12 -1.66548e+12 -1.5474e+12 -1.33975e+12 -1.80107e+12 -1.81201e+12 -1.89934e+12 -1.04167e+12 -1.53305e+12 -1.6793e+12 -1.78442e+12 -478356000000.0 -1.01949e+12 -1.57155e+12 -793299000000.0 -1.72999e+12 -1.0301e+12 -886067000000.0 -1.19896e+12 -1.11634e+12 -1.45509e+12 -835560000000.0 -989331000000.0 -2.5948e+12 -1.73767e+12 -1.29597e+12 -1.05754e+12 -893854000000.0 -2.46631e+12 -1.88076e+12 -2.13254e+12 -1.00979e+12 -2.14732e+12 -1.06944e+12 -1.6508e+12 -1.34934e+12 -1.65117e+12 -1.12818e+12 -1.20467e+12 -1.25498e+12 -1.92405e+12 -2.1136e+12 -1.40451e+12 -820700000000.0 -1.00585e+12 -1.02053e+12 -1.05428e+12 -2.05311e+12 -1.15833e+12 -1.23913e+12 -2.39032e+12 -1.00311e+12 -1.60511e+12 -1.38125e+12 -1.65614e+12 -2.28037e+12 -895642000000.0 -1.05077e+12 -1.38628e+12 -12673600000.0 -14845800000.0 -12549700000.0 -12549700000.0 -12697400000.0 -24739500000.0 -26257300000.0 -14418900000.0 -15516100000.0 -15678500000.0 -47783300000.0 -17200200000.0 -19310000000.0 -20848400000.0 -19827600000.0 -21173900000.0 -62101800000.0 -69925700000.0 -66125200000.0 -159108000000.0 -114332000000.0 -1.15373e+12 -1.52966e+12 -1.97437e+12 -1.8734e+12 -402961000000.0 -2.44329e+12 -1.83604e+12 -1.14402e+12 -2.3094e+12 -1.17894e+12 -1.78813e+12 -2.25092e+12 -1.26063e+12 -1.11815e+12 -1.6691e+12 -1.13748e+12 -745118000000.0 -1.2994e+12 -1.46479e+12 -1.75794e+12 -1.96494e+12 -2.61716e+12 -1.42631e+12 -2.42509e+12 -1.77161e+12 -894678000000.0 -1.85124e+12 -942790000000.0 -2.51048e+12 -637313000000.0 -1.36168e+12 -934395000000.0 -1.11233e+12 -1.75015e+12 -1.06975e+12 -2.24946e+12 -2.39247e+12 -2.6692e+12 -2.56547e+12 -1.1654e+12 -1.0125e+12 -1.41853e+12 -1.24996e+12 -625312000000.0 -1.29821e+12 -1.1478e+12 -729544000000.0 -922560000000.0 -1.7585e+12 -289879000000.0 -1.28361e+12 -1.9952e+12 -1.00577e+12 -750078000000.0 -1.12615e+12 -605641000000.0 -1.07241e+12 -1.58425e+12 -1.54039e+12 -803983000000.0 -2.12099e+12 -1.45839e+12 -1.14902e+12 -1.60948e+12 -704884000000.0 -2.11282e+12 -1.21181e+12 -873087000000.0 -1.44429e+12 -1.51506e+12 -409912000000.0 -842207000000.0 -891598000000.0 -1.62815e+12 -2.15541e+12 -1.26488e+12 -660324000000.0 -1.20788e+12 -211540000000.0 -772359000000.0 -1.70711e+12 -1.48691e+12 -787088000000.0 -1.07899e+12 -1.25298e+12 -1.59317e+12 -175529000000.0 -468900000000.0 -959314000000.0 -777974000000.0 -12549700000.0 -13461400000.0 -12581600000.0 -12549700000.0 -12652400000.0 -15749200000.0 -13461200000.0 -17236400000.0 -12721600000.0 -12549700000.0 -37599800000.0 -13408400000.0 -14405200000.0 -16466200000.0 -37443600000.0 -19814600000.0 -31736200000.0 -13942000000.0 -40154800000.0 -69012800000.0 -15943800000.0 -138113000000.0 -210432000000.0 -397573000000.0 -605381000000.0 -1.4501e+12 -1.77375e+12 -1.08878e+12 -770865000000.0 -1.62993e+12 -1.02325e+12 -2.23355e+12 -904687000000.0 -987822000000.0 -1.24745e+12 -1.8815e+12 -1.35161e+12 -1.92824e+12 -428571000000.0 -1.32719e+12 -708279000000.0 -1.03164e+12 -1.00456e+12 -458147000000.0 -998823000000.0 -1.44455e+12 -1.09269e+12 -840383000000.0 -1.62141e+12 -835796000000.0 -2.20307e+12 -1.52211e+12 -1.48716e+12 -640876000000.0 -1.57567e+12 -938415000000.0 -2.27157e+12 -1.09002e+12 -816757000000.0 -877371000000.0 -522473000000.0 -822125000000.0 -136153000000.0 -955875000000.0 -61896400000.0 -246308000000.0 -1.10189e+12 -521020000000.0 -1.03681e+12 -1.05611e+12 -787746000000.0 -904222000000.0 -758430000000.0 -724080000000.0 -218441000000.0 -624606000000.0 -651240000000.0 -137718000000.0 -288859000000.0 -265016000000.0 -1.03795e+12 -194988000000.0 -271279000000.0 -836262000000.0 -968550000000.0 -897090000000.0 -1.42095e+12 -383525000000.0 -596905000000.0 -417709000000.0 -320984000000.0 -870497000000.0 -638947000000.0 -219690000000.0 -248158000000.0 -349468000000.0 -476205000000.0 -772951000000.0 -627797000000.0 -306717000000.0 -540614000000.0 -185473000000.0 -323917000000.0 -176471000000.0 -328789000000.0 -934919000000.0 -345503000000.0 -12792900000.0 -19212500000.0 -29027400000.0 -41526800000.0 -82670200000.0 -44713200000.0 -15566900000.0 -472914000000.0 -1.21577e+12 -919184000000.0 -1.09877e+12 -794750000000.0 -1.18053e+12 -610620000000.0 -420663000000.0 -580927000000.0 -1.02077e+12 -810447000000.0 -379518000000.0 -368020000000.0 -764290000000.0 -309635000000.0 -504348000000.0 -1.35624e+12 -580014000000.0 -715384000000.0 -756406000000.0 -185054000000.0 -241501000000.0 -679992000000.0 -454999000000.0 -550264000000.0 -534592000000.0 -423923000000.0 -1.02048e+12 -149029000000.0 -766682000000.0 -477432000000.0 -932068000000.0 -338163000000.0 -470189000000.0 -437883000000.0 -1.21557e+12 -381925000000.0 -522780000000.0 -1.08699e+12 -1.26995e+12 -193481000000.0 -541135000000.0 -478030000000.0 -413134000000.0 -278844000000.0 -171190000000.0 -120945000000.0 -291270000000.0 -193360000000.0 -164813000000.0 -251968000000.0 -274374000000.0 -250029000000.0 -312818000000.0 -81379500000.0 -153299000000.0 -120131000000.0 -89359900000.0 -84279500000.0 -264264000000.0 -263003000000.0 -160854000000.0 -125579000000.0 -203582000000.0 -263282000000.0 -189989000000.0 -474417000000.0 -242496000000.0 -176181000000.0 -196556000000.0 -444788000000.0 -387853000000.0 -180996000000.0 -163700000000.0 -197042000000.0 -124114000000.0 -208765000000.0 -70194800000.0 -93251100000.0 -69281700000.0 -208806000000.0 -204881000000.0 -113707000000.0 -268988000000.0 -261294000000.0 -226999000000.0 -174004000000.0 -140645000000.0 -124106000000.0 -252652000000.0 -270747000000.0 -376945000000.0 -88172800000.0 -147640000000.0 -95447300000.0 