# vtk DataFile Version 2.0
Time step 5
ASCII
DATASET UNSTRUCTURED_GRID
POINTS 5000 float
27619.2 230026.0 0
182967.0 230842.0 0
2378.44 233229.0 0
8072.5 232811.0 0
12491.7 232443.0 0
16845.3 232245.0 0
22355.6 233136.0 0
33154.4 232927.0 0
38115.2 233445.0 0
42633.2 233660.0 0
47500.0 233614.0 0
52137.1 233568.0 0
57030.2 232291.0 0
62763.5 233183.0 0
67994.7 233613.0 0
72688.5 232712.0 0
77500.0 233446.0 0
82500.0 233398.0 0
87393.3 232707.0 0
92500.0 233554.0 0
97283.8 233609.0 0
101374.0 233285.0 0
106077.0 232994.0 0
111888.0 233139.0 0
117804.0 233263.0 0
123281.0 233437.0 0
128293.0 233646.0 0
133355.0 232764.0 0
138034.0 233725.0 0
142500.0 233675.0 0
147500.0 233467.0 0
152551.0 233223.0 0
157568.0 233180.0 0
162554.0 233179.0 0
167053.0 232863.0 0
171882.0 231575.0 0
177727.0 231543.0 0
183370.0 235918.0 0
187319.0 232552.0 0
192500.0 233912.0 0
196194.0 233087.0 0
201768.0 232192.0 0
207611.0 232996.0 0
212982.0 232819.0 0
218161.0 233495.0 0
222499.0 233840.0 0
225857.0 233288.0 0
230317.0 232790.0 0
235733.0 233534.0 0
241076.0 232168.0 0
246283.0 234473.0 0
252767.0 234055.0 0
259121.0 234668.0 0
263864.0 235657.0 0
268843.0 234629.0 0
274044.0 234735.0 0
278981.0 233355.0 0
286351.0 235028.0 0
291736.0 235551.0 0
297327.0 233390.0 0
303617.0 234381.0 0
312132.0 234570.0 0
317933.0 235201.0 0
323250.0 235206.0 0
327591.0 235346.0 0
332216.0 234957.0 0
337234.0 234694.0 0
341045.0 235853.0 0
345968.0 234336.0 0
350845.0 236012.0 0
355468.0 235296.0 0
361994.0 233872.0 0
372052.0 232040.0 0
368066.0 235437.0 0
377054.0 234045.0 0
382643.0 234811.0 0
388144.0 234036.0 0
394021.0 233373.0 0
399110.0 235268.0 0
403563.0 232534.0 0
408505.0 233726.0 0
412500.0 235184.0 0
417500.0 235078.0 0
422606.0 233811.0 0
427286.0 234940.0 0
432553.0 232948.0 0
437537.0 235050.0 0
442255.0 234205.0 0
446396.0 233611.0 0
450781.0 234523.0 0
455320.0 234657.0 0
460309.0 234702.0 0
465863.0 234774.0 0
471692.0 234064.0 0
477107.0 232807.0 0
481412.0 235561.0 0
485868.0 232508.0 0
491662.0 234175.0 0
497601.0 232627.0 0
2245.13 238938.0 0
5748.71 236218.0 0
6903.82 241118.0 0
10942.6 236879.0 0
17067.3 238162.0 0
22821.3 238856.0 0
28322.6 236396.0 0
34695.7 238287.0 0
40107.7 238564.0 0
44249.0 238984.0 0
48062.7 237760.0 0
52500.0 238569.0 0
57916.2 237746.0 0
62750.3 238640.0 0
67506.7 238009.0 0
72249.9 237847.0 0
77500.0 238820.0 0
82116.9 238248.0 0
87807.4 237513.0 0
92498.7 238728.0 0
97219.8 238490.0 0
102523.0 237974.0 0
108167.0 237695.0 0
112500.0 238742.0 0
117500.0 238847.0 0
122500.0 238752.0 0
127702.0 238230.0 0
132498.0 238277.0 0
137520.0 238514.0 0
142834.0 237997.0 0
147064.0 238172.0 0
152075.0 237970.0 0
157063.0 237263.0 0
161520.0 237957.0 0
166739.0 237550.0 0
172692.0 237203.0 0
178105.0 236980.0 0
182213.0 241088.0 0
188463.0 237033.0 0
193413.0 237964.0 0
198120.0 237592.0 0
203799.0 237864.0 0
213628.0 237348.0 0
209226.0 238247.0 0
217672.0 238592.0 0
222108.0 238699.0 0
226931.0 237546.0 0
232206.0 238035.0 0
237702.0 238751.0 0
243300.0 238887.0 0
248204.0 238590.0 0
252278.0 240551.0 0
256879.0 239156.0 0
262289.0 239785.0 0
267326.0 239520.0 0
271715.0 238773.0 0
276898.0 239185.0 0
282066.0 236746.0 0
282799.0 240446.0 0
287500.0 240121.0 0
292685.0 240099.0 0
298175.0 238912.0 0
303005.0 240038.0 0
307767.0 236777.0 0
307488.0 240121.0 0
312501.0 240316.0 0
317499.0 240078.0 0
322504.0 239707.0 0
327500.0 240101.0 0
332500.0 240174.0 0
337649.0 239636.0 0
343244.0 238942.0 0
347654.0 239542.0 0
352621.0 239998.0 0
361653.0 239185.0 0
357909.0 239742.0 0
365337.0 239189.0 0
373082.0 238838.0 0
378933.0 238555.0 0
382078.0 239793.0 0
388219.0 239127.0 0
393400.0 239425.0 0
397985.0 239814.0 0
402891.0 238722.0 0
408268.0 238000.0 0
412755.0 239249.0 0
417426.0 239598.0 0
422220.0 238461.0 0
427832.0 239963.0 0
433166.0 238225.0 0
437500.0 240115.0 0
443103.0 238548.0 0
447456.0 237672.0 0
451870.0 239047.0 0
457078.0 239461.0 0
462445.0 240361.0 0
466706.0 239328.0 0
470241.0 240610.0 0
475207.0 239367.0 0
480847.0 240829.0 0
486643.0 238889.0 0
492130.0 241070.0 0
496852.0 238136.0 0
2238.43 244126.0 0
12054.9 243016.0 0
16511.7 243421.0 0
20631.6 242967.0 0
26874.6 243238.0 0
32571.8 243366.0 0
37980.4 243125.0 0
42696.8 243366.0 0
47371.3 242496.0 0
51665.1 244152.0 0
56388.7 243338.0 0
61938.7 243445.0 0
67501.9 242902.0 0
73560.7 243460.0 0
78316.4 243970.0 0
82057.7 242986.0 0
87064.4 243061.0 0
92506.8 243200.0 0
97539.0 243070.0 0
102655.0 243737.0 0
107957.0 242476.0 0
112500.0 243538.0 0
116754.0 243534.0 0
120843.0 243134.0 0
125856.0 242604.0 0
131205.0 244110.0 0
136486.0 244048.0 0
141089.0 242133.0 0
146436.0 243068.0 0
151970.0 244643.0 0
156587.0 241840.0 0
162097.0 243639.0 0
170006.0 242274.0 0
176327.0 242853.0 0
188215.0 243221.0 0
194427.0 242933.0 0
200152.0 242581.0 0
204349.0 243879.0 0
208077.0 243099.0 0
213288.0 242070.0 0
217691.0 243777.0 0
222514.0 243103.0 0
227233.0 242530.0 0
232572.0 243498.0 0
237520.0 243634.0 0
241934.0 243953.0 0
247189.0 242853.0 0
252024.0 245516.0 0
257611.0 243875.0 0
262604.0 244566.0 0
267375.0 243987.0 0
272929.0 244068.0 0
279876.0 243120.0 0
283576.0 245366.0 0
287237.0 245448.0 0
291091.0 244522.0 0
296791.0 243991.0 0
302253.0 245283.0 0
307692.0 244553.0 0
313200.0 245604.0 0
318212.0 244839.0 0
322487.0 243710.0 0
326876.0 245354.0 0
331917.0 245327.0 0
336558.0 244324.0 0
341436.0 243179.0 0
346839.0 243945.0 0
351937.0 244843.0 0
356127.0 243589.0 0
361346.0 243878.0 0
366632.0 243296.0 0
371272.0 244977.0 0
377814.0 244481.0 0
384437.0 243120.0 0
392473.0 244289.0 0
388480.0 246225.0 0
397257.0 244197.0 0
402858.0 244936.0 0
409199.0 243624.0 0
414349.0 246125.0 0
418953.0 244314.0 0
424055.0 243313.0 0
427715.0 246138.0 0
432198.0 243875.0 0
437242.0 244835.0 0
442194.0 243767.0 0
448075.0 242745.0 0
453895.0 244532.0 0
458769.0 245249.0 0
462865.0 244938.0 0
467500.0 245226.0 0
472440.0 243898.0 0
477832.0 244734.0 0
482738.0 245476.0 0
491584.0 245126.0 0
496637.0 244721.0 0
2182.12 250125.0 0
8032.53 246885.0 0
13249.6 247561.0 0
17556.1 247382.0 0
22333.3 247375.0 0
26824.7 250728.0 0
31958.8 247472.0 0
37479.1 248881.0 0
43142.3 249433.0 0
48966.6 247246.0 0
53811.5 250190.0 0
59014.8 249047.0 0
63417.3 248283.0 0
67905.2 250313.0 0
72456.5 249956.0 0
77017.3 247814.0 0
82091.3 248535.0 0
87287.5 249272.0 0
92240.1 250256.0 0
97728.3 249699.0 0
102740.0 251278.0 0
107696.0 247842.0 0
113055.0 248008.0 0
118081.0 248028.0 0
123338.0 247172.0 0
127500.0 250222.0 0
132599.0 250716.0 0
137681.0 248467.0 0
142513.0 249531.0 0
147905.0 248154.0 0
156867.0 247566.0 0
153240.0 251053.0 0
160528.0 250083.0 0
166734.0 245901.0 0
164569.0 250665.0 0
171011.0 249229.0 0
177238.0 251026.0 0
182318.0 246557.0 0
186576.0 250519.0 0
191608.0 250152.0 0
197140.0 247838.0 0
202965.0 247767.0 0
208743.0 250849.0 0
214441.0 247445.0 0
218795.0 250187.0 0
222318.0 247415.0 0
227804.0 247866.0 0
233934.0 248673.0 0
237453.0 247044.0 0
242327.0 250128.0 0
246821.0 248017.0 0
251649.0 250720.0 0
256050.0 248720.0 0
260513.0 248465.0 0
266409.0 248696.0 0
271798.0 250390.0 0
278332.0 248614.0 0
284286.0 250245.0 0
288659.0 248694.0 0
292890.0 250372.0 0
298839.0 250342.0 0
303879.0 250440.0 0
307500.0 250265.0 0
312262.0 250088.0 0
321139.0 249048.0 0
316332.0 249655.0 0
325947.0 250518.0 0
330026.0 249261.0 0
334521.0 251169.0 0
339892.0 248589.0 0
346150.0 250199.0 0
352892.0 250413.0 0
357497.0 247526.0 0
361846.0 249853.0 0
366857.0 247978.0 0
371874.0 250608.0 0
382833.0 248600.0 0
387335.0 250353.0 0
392982.0 250539.0 0
399443.0 249993.0 0
408024.0 248931.0 0
404230.0 249811.0 0
412298.0 250571.0 0
416858.0 249926.0 0
421337.0 250647.0 0
425793.0 249818.0 0
431163.0 250075.0 0
437433.0 249023.0 0
442151.0 249364.0 0
446839.0 247880.0 0
451083.0 248812.0 0
455815.0 250103.0 0
461586.0 249827.0 0
467337.0 249917.0 0
472877.0 248809.0 0
479107.0 250193.0 0
487602.0 246580.0 0
484946.0 250691.0 0
489149.0 251317.0 0
492151.0 248941.0 0
496773.0 251354.0 0
1481.81 254778.0 0
7168.79 254688.0 0
11970.6 252854.0 0
17145.2 253682.0 0
23049.1 254288.0 0
29893.8 253647.0 0
34528.6 254509.0 0
39405.1 253868.0 0
43194.3 255947.0 0
47970.6 253826.0 0
52742.6 255808.0 0
57022.3 254147.0 0
63015.6 254295.0 0
68311.6 255478.0 0
73033.9 254071.0 0
77947.1 254516.0 0
83237.0 254578.0 0
88040.0 254675.0 0
92500.0 255130.0 0
97518.7 255336.0 0
101473.0 255175.0 0
105874.0 254912.0 0
111417.0 254035.0 0
116744.0 254691.0 0
122190.0 253921.0 0
126967.0 254734.0 0
131286.0 255145.0 0
136612.0 254162.0 0
142221.0 255556.0 0
147019.0 253755.0 0
151808.0 255680.0 0
157926.0 254570.0 0
167011.0 253680.0 0
163551.0 255114.0 0
170908.0 255781.0 0
182825.0 254974.0 0
193573.0 254273.0 0
189081.0 255025.0 0
198165.0 255193.0 0
203099.0 254363.0 0
207335.0 256292.0 0
212101.0 255107.0 0
216347.0 253677.0 0
221194.0 253872.0 0
226280.0 255770.0 0
232004.0 254324.0 0
237929.0 253122.0 0
242942.0 254621.0 0
248143.0 254594.0 0
252970.0 254901.0 0
257797.0 253934.0 0
262730.0 252081.0 0
267590.0 254607.0 0
272680.0 256272.0 0
278426.0 255276.0 0
283527.0 254822.0 0
288778.0 254011.0 0
293430.0 254988.0 0
297445.0 256371.0 0
302639.0 254747.0 0
307229.0 255103.0 0
312055.0 254813.0 0
317149.0 254068.0 0
322493.0 254609.0 0
331132.0 254714.0 0
327344.0 255449.0 0
341432.0 254036.0 0
337112.0 255172.0 0
346988.0 256040.0 0
351909.0 256119.0 0
357898.0 253945.0 0
367169.0 252889.0 0
362941.0 254856.0 0
370404.0 256139.0 0
374742.0 256153.0 0
377821.0 251781.0 0
383161.0 254492.0 0
388081.0 254505.0 0
398033.0 255955.0 0
403110.0 253828.0 0
408202.0 253783.0 0
414519.0 254166.0 0
417837.0 255205.0 0
422655.0 255452.0 0
427445.0 254029.0 0
431137.0 255501.0 0
436016.0 253889.0 0
441831.0 254993.0 0
448108.0 253527.0 0
453871.0 255060.0 0
459218.0 255276.0 0
464703.0 254698.0 0
469232.0 255912.0 0
473386.0 254127.0 0
477702.0 256296.0 0
482214.0 255126.0 0
486944.0 255035.0 0
492279.0 255605.0 0
2738.15 258817.0 0
7815.91 261168.0 0
12602.0 257375.0 0
17960.9 259451.0 0
23597.9 260051.0 0
28534.2 257766.0 0
33369.2 260077.0 0
38834.5 258712.0 0
43363.2 260141.0 0
48282.7 259787.0 0
53838.0 260505.0 0
59498.0 259172.0 0
64654.1 260229.0 0
68105.9 260127.0 0
72056.8 258001.0 0
76260.0 259517.0 0
82126.2 260130.0 0
88066.8 259765.0 0
92804.2 260286.0 0
101657.0 259872.0 0
97068.8 259891.0 0
106595.0 260260.0 0
111177.0 258883.0 0
115509.0 259406.0 0
121002.0 259941.0 0
127566.0 260021.0 0
133406.0 259572.0 0
138818.0 260056.0 0
143829.0 260133.0 0
148471.0 259819.0 0
152873.0 260205.0 0
157070.0 260274.0 0
161454.0 259022.0 0
166780.0 259139.0 0
172309.0 261509.0 0
176671.0 257291.0 0
176876.0 261613.0 0
181157.0 261753.0 0
186652.0 259966.0 0
192220.0 259574.0 0
197697.0 260895.0 0
202501.0 258872.0 0
206572.0 260885.0 0
210649.0 259892.0 0
216350.0 259568.0 0
222648.0 259647.0 0
228273.0 261307.0 0
236186.0 258062.0 0
241083.0 260446.0 0
246506.0 261042.0 0
250996.0 259053.0 0
256799.0 260125.0 0
262856.0 257641.0 0
268295.0 259904.0 0
272850.0 261153.0 0
277782.0 261189.0 0
282092.0 258753.0 0
287100.0 260104.0 0
292992.0 259371.0 0
297871.0 261561.0 0
301865.0 258634.0 0
306293.0 260171.0 0
311520.0 260500.0 0
317025.0 259183.0 0
322500.0 260523.0 0
328130.0 260069.0 0
334005.0 259100.0 0
342575.0 259920.0 0
348307.0 260757.0 0
355829.0 258334.0 0
352603.0 260499.0 0
360697.0 259654.0 0
366662.0 259700.0 0
372641.0 261034.0 0
378745.0 259456.0 0
383602.0 258600.0 0
387417.0 258988.0 0
392237.0 256980.0 0
391047.0 261728.0 0
396096.0 261732.0 0
400393.0 260147.0 0
405248.0 259084.0 0
411978.0 258388.0 0
417844.0 260013.0 0
422957.0 261075.0 0
427151.0 258275.0 0
432121.0 260067.0 0
437084.0 259129.0 0
441898.0 260533.0 0
447183.0 259729.0 0
452766.0 260284.0 0
458244.0 260711.0 0
462538.0 260254.0 0
466501.0 259291.0 0
471726.0 260268.0 0
477004.0 260997.0 0
482383.0 260466.0 0
487828.0 259885.0 0
492607.0 261119.0 0
497517.0 257084.0 0
2992.54 264599.0 0
13463.5 263207.0 0
23655.7 265751.0 0
28541.2 263102.0 0
33467.4 265663.0 0
38264.0 263891.0 0
42943.1 264378.0 0
49538.2 264614.0 0
53591.7 265472.0 0
58498.1 265059.0 0
63342.2 264223.0 0
66943.1 264572.0 0
71716.4 263339.0 0
78014.3 264737.0 0
83456.2 265941.0 0
88114.9 264791.0 0
93011.6 264918.0 0
97925.9 264400.0 0
106021.0 264691.0 0
102190.0 265419.0 0
110977.0 264181.0 0
116837.0 264154.0 0
126629.0 264877.0 0
122735.0 265502.0 0
131566.0 264368.0 0
135569.0 266176.0 0
140044.0 265557.0 0
145348.0 264669.0 0
151052.0 264800.0 0
157054.0 265619.0 0
162180.0 263658.0 0
167293.0 264220.0 0
171618.0 266808.0 0
176317.0 265389.0 0
185865.0 265297.0 0
191635.0 265475.0 0
197400.0 266447.0 0
202673.0 264251.0 0
207645.0 264878.0 0
212197.0 264256.0 0
217253.0 266061.0 0
223364.0 265673.0 0
233930.0 262473.0 0
233368.0 266930.0 0
238398.0 266091.0 0
243807.0 265730.0 0
248640.0 265351.0 0
252106.0 263545.0 0
255490.0 266187.0 0
262479.0 264786.0 0
268646.0 264874.0 0
273365.0 265681.0 0
278293.0 266573.0 0
282698.0 263978.0 0
287805.0 266110.0 0
293010.0 264697.0 0
297591.0 266723.0 0
302543.0 264530.0 0
308320.0 265327.0 0
313173.0 265096.0 0
317500.0 264704.0 0
322228.0 266075.0 0
326193.0 264692.0 0
330422.0 265077.0 0
335486.0 265516.0 0
337930.0 262150.0 0
340744.0 265913.0 0
346283.0 266913.0 0
351362.0 264934.0 0
356269.0 263011.0 0
361076.0 265497.0 0
366676.0 265427.0 0
371349.0 265991.0 0
377428.0 266560.0 0
383692.0 263036.0 0
387837.0 266326.0 0
392720.0 266183.0 0
403633.0 265059.0 0
409242.0 263838.0 0
414125.0 264661.0 0
417404.0 264496.0 0
420592.0 264658.0 0
427815.0 264685.0 0
433471.0 264340.0 0
438027.0 264012.0 0
442810.0 265348.0 0
448442.0 265627.0 0
453860.0 265183.0 0
458343.0 265753.0 0
462724.0 265166.0 0
467555.0 264305.0 0
472777.0 265707.0 0
479503.0 265232.0 0
483827.0 265293.0 0
488079.0 265063.0 0
492497.0 265275.0 0
497503.0 262151.0 0
497787.0 266889.0 0
2142.43 270540.0 0
8586.27 267078.0 0
13589.8 270547.0 0
18198.5 266931.0 0
18444.1 271845.0 0
22152.3 270221.0 0
27309.6 270372.0 0
32174.3 269923.0 0
37310.3 270191.0 0
42388.1 271742.0 0
46316.8 268475.0 0
51313.4 270835.0 0
57260.6 271161.0 0
63469.0 269393.0 0
68462.8 267932.0 0
73385.1 270867.0 0
79649.2 270271.0 0
84952.1 270882.0 0
90004.9 269360.0 0
94799.6 271426.0 0
98245.8 268596.0 0
101181.0 271728.0 0
105557.0 269162.0 0
111266.0 270533.0 0
118465.0 269674.0 0
124041.0 270048.0 0
128544.0 268277.0 0
133388.0 270386.0 0
137883.0 269387.0 0
141918.0 270453.0 0
147418.0 269984.0 0
152982.0 270080.0 0
157355.0 271316.0 0
161955.0 269195.0 0
167280.0 269178.0 0
170909.0 270787.0 0
176978.0 270378.0 0
181071.0 267366.0 0
187055.0 270297.0 0
191692.0 270768.0 0
196535.0 271907.0 0
201901.0 269948.0 0
207432.0 269858.0 0
213268.0 270025.0 0
219927.0 271121.0 0
228962.0 267428.0 0
225032.0 270960.0 0
228757.0 271523.0 0
232478.0 270642.0 0
237154.0 271379.0 0
241931.0 269711.0 0
246388.0 269796.0 0
251374.0 269111.0 0
257800.0 271399.0 0
262740.0 270819.0 0
268209.0 270489.0 0
273987.0 270604.0 0
279322.0 272060.0 0
284652.0 270346.0 0
289517.0 271051.0 0
293241.0 269432.0 0
296854.0 271719.0 0
302434.0 270486.0 0
307425.0 270768.0 0
311835.0 269164.0 0
316556.0 269247.0 0
321090.0 271133.0 0
326246.0 269893.0 0
331546.0 270195.0 0
337193.0 270829.0 0
342927.0 271305.0 0
346753.0 271527.0 0
351487.0 270074.0 0
356536.0 268333.0 0
362106.0 271543.0 0
367360.0 270261.0 0
371999.0 270449.0 0
382402.0 270454.0 0
387040.0 271031.0 0
391573.0 270695.0 0
395889.0 271875.0 0
398245.0 267307.0 0
405819.0 270943.0 0
411525.0 269224.0 0
416985.0 268282.0 0
422699.0 269469.0 0
428187.0 270930.0 0
432808.0 268929.0 0
438494.0 269617.0 0
444418.0 270322.0 0
450222.0 271915.0 0
455337.0 269621.0 0
460960.0 270731.0 0
468708.0 269448.0 0
465555.0 271771.0 0
473181.0 271152.0 0
477821.0 269910.0 0
482454.0 270082.0 0
486703.0 269522.0 0
490745.0 269554.0 0
495095.0 270886.0 0
2183.42 274991.0 0
7136.7 273092.0 0
12355.7 276595.0 0
17938.8 276267.0 0
23141.8 275044.0 0
28928.0 276398.0 0
32585.9 273361.0 0
36137.7 275983.0 0
41174.9 276018.0 0
46930.9 274938.0 0
52746.1 275516.0 0
62103.3 274799.0 0
67859.5 274775.0 0
78178.5 274942.0 0
82905.5 275701.0 0
88782.9 275451.0 0
93966.8 275994.0 0
97849.5 274535.0 0
101285.0 276000.0 0
105766.0 274634.0 0
110313.0 275865.0 0
115582.0 275420.0 0
121695.0 274791.0 0
128262.0 274403.0 0
137508.0 273579.0 0
133665.0 275209.0 0
142047.0 275704.0 0
148144.0 276517.0 0
153592.0 274883.0 0
158064.0 275497.0 0
163164.0 275021.0 0
168498.0 274239.0 0
173413.0 274019.0 0
177761.0 274823.0 0
182403.0 272181.0 0
181523.0 276716.0 0
186346.0 275528.0 0
191441.0 275260.0 0
201184.0 275514.0 0
207195.0 275869.0 0
212212.0 274909.0 0
216908.0 276002.0 0
221709.0 276074.0 0
226252.0 275472.0 0
231165.0 274834.0 0
235992.0 275995.0 0
241386.0 274650.0 0
246802.0 274699.0 0
252467.0 274567.0 0
257582.0 276564.0 0
263881.0 276251.0 0
269761.0 276096.0 0
274734.0 275531.0 0
283743.0 274723.0 0
288332.0 276045.0 0
292424.0 274458.0 0
298392.0 276674.0 0
303340.0 275561.0 0
307453.0 275241.0 0
311906.0 274385.0 0
317155.0 274017.0 0
323252.0 276044.0 0
327990.0 274544.0 0
332724.0 275243.0 0
337451.0 276119.0 0
342190.0 275230.0 0
345760.0 275341.0 0
349704.0 274184.0 0
355741.0 274532.0 0
361021.0 276695.0 0
366924.0 274978.0 0
373728.0 275576.0 0
378565.0 273144.0 0
383172.0 276085.0 0
388087.0 275424.0 0
392578.0 275062.0 0
397610.0 275874.0 0
400505.0 272336.0 0
403554.0 276270.0 0
412640.0 274368.0 0
408293.0 275849.0 0
417413.0 273385.0 0
420948.0 275902.0 0
425118.0 274772.0 0
431927.0 274566.0 0
437641.0 275800.0 0
443573.0 275836.0 0
454201.0 274873.0 0
458448.0 275967.0 0
463467.0 276028.0 0
468735.0 274821.0 0
473796.0 275686.0 0
478514.0 274890.0 0
483207.0 276223.0 0
486817.0 273720.0 0
491713.0 275515.0 0
497425.0 275525.0 0
2098.94 279338.0 0
6910.6 278916.0 0
12482.5 281969.0 0
16012.3 280069.0 0
20044.5 280443.0 0
24881.6 280236.0 0
32091.5 280737.0 0
37534.9 281651.0 0
43228.7 280554.0 0
48589.3 280913.0 0
53434.8 280022.0 0
57497.8 277289.0 0
57258.2 282162.0 0
62545.8 280109.0 0
67211.9 280088.0 0
73590.3 277559.0 0
78956.9 280339.0 0
84128.4 280438.0 0
88199.0 280455.0 0
92508.1 279981.0 0
97474.1 278914.0 0
102547.0 280379.0 0
107290.0 279349.0 0
111938.0 280011.0 0
117990.0 280930.0 0
123266.0 280027.0 0
127775.0 279771.0 0
132824.0 280258.0 0
138518.0 279581.0 0
143122.0 280521.0 0
151916.0 280284.0 0
156606.0 280312.0 0
161573.0 280058.0 0
166854.0 279071.0 0
173157.0 280188.0 0
178514.0 280370.0 0
183761.0 281174.0 0
189467.0 280294.0 0
195873.0 277516.0 0
193935.0 281341.0 0
199589.0 280386.0 0
203700.0 281089.0 0
208098.0 281067.0 0
212660.0 279592.0 0
219081.0 280774.0 0
223284.0 280131.0 0
227639.0 280233.0 0
232493.0 280001.0 0
238091.0 280306.0 0
242618.0 280868.0 0
247127.0 279502.0 0
252354.0 280788.0 0
257564.0 280863.0 0
267625.0 280505.0 0
271672.0 279948.0 0
279594.0 277420.0 0
276000.0 280401.0 0
283862.0 279104.0 0
288155.0 281355.0 0
293284.0 279016.0 0
298651.0 281424.0 0
302500.0 280129.0 0
306970.0 279533.0 0
312082.0 280046.0 0
317229.0 278894.0 0
325230.0 279949.0 0
321625.0 280995.0 0
329115.0 279205.0 0
334680.0 280682.0 0
340021.0 279755.0 0
344677.0 279614.0 0
350608.0 279769.0 0
357111.0 281505.0 0
363581.0 281340.0 0
369684.0 279834.0 0
375141.0 280884.0 0
378357.0 277613.0 0
379896.0 281530.0 0
384061.0 281183.0 0
388258.0 279878.0 0
393232.0 280079.0 0
397918.0 280112.0 0
402013.0 280548.0 0
406499.0 280349.0 0
412492.0 280208.0 0
418314.0 279189.0 0
423475.0 279902.0 0
428575.0 278406.0 0
433701.0 280797.0 0
439962.0 281804.0 0
445263.0 280493.0 0
450397.0 278319.0 0
455743.0 280059.0 0
459644.0 280139.0 0
462833.0 280076.0 0
467083.0 280115.0 0
472158.0 280039.0 0
477637.0 280274.0 0
482562.0 280526.0 0
487218.0 279298.0 0
492549.0 280738.0 0
497820.0 280272.0 0
3062.76 284421.0 0
8495.85 283388.0 0
12162.5 286508.0 0
16237.6 284262.0 0
21089.5 285358.0 0
27227.3 285671.0 0
32664.6 284925.0 0
37261.2 286991.0 0
41850.5 285603.0 0
47927.7 286395.0 0
53255.2 285020.0 0
58946.9 285904.0 0
62637.6 284527.0 0
71164.3 282347.0 0
67056.5 284531.0 0
71776.3 286472.0 0
76523.7 285581.0 0
82367.7 284257.0 0
86454.2 284100.0 0
91313.8 284915.0 0
96705.6 284035.0 0
101360.0 285005.0 0
106485.0 284493.0 0
112448.0 285504.0 0
118121.0 286306.0 0
123297.0 285266.0 0
128453.0 284255.0 0
133241.0 285719.0 0
138706.0 285296.0 0
147747.0 282475.0 0
143797.0 284566.0 0
146845.0 286779.0 0
152554.0 284864.0 0
157510.0 285099.0 0
162797.0 284203.0 0
167974.0 284496.0 0
172399.0 285985.0 0
177319.0 285439.0 0
182469.0 286073.0 0
187137.0 285225.0 0
192283.0 285343.0 0
197931.0 285155.0 0
202880.0 285101.0 0
207293.0 285927.0 0
212101.0 284551.0 0
217264.0 285854.0 0
222496.0 284545.0 0
227534.0 285530.0 0
232670.0 284699.0 0
237306.0 284571.0 0
241512.0 285541.0 0
246237.0 284459.0 0
250570.0 285645.0 0
254742.0 285333.0 0
258957.0 285994.0 0
262372.0 282415.0 0
267340.0 285826.0 0
272468.0 283818.0 0
277126.0 285648.0 0
283048.0 284502.0 0
288040.0 285920.0 0
292539.0 284599.0 0
297133.0 285340.0 0
301830.0 285055.0 0
306783.0 284251.0 0
311556.0 285335.0 0
316279.0 283750.0 0
320559.0 285356.0 0
326267.0 284787.0 0
332730.0 286592.0 0
338421.0 285679.0 0
343552.0 284485.0 0
348329.0 285083.0 0
353362.0 285785.0 0
358764.0 286904.0 0
363360.0 286813.0 0
367801.0 285408.0 0
372496.0 284903.0 0
377512.0 286132.0 0
382448.0 284472.0 0
386861.0 284338.0 0
391334.0 284533.0 0
395960.0 284243.0 0
401081.0 285373.0 0
406234.0 285166.0 0
411582.0 286529.0 0
417281.0 284330.0 0
422049.0 286728.0 0
427976.0 284622.0 0
435661.0 286008.0 0
440122.0 286725.0 0
448442.0 282968.0 0
444656.0 285530.0 0
448703.0 286102.0 0
452970.0 284858.0 0
458348.0 283740.0 0
463018.0 284248.0 0
467999.0 285116.0 0
473310.0 285179.0 0
478215.0 285178.0 0
482500.0 285269.0 0
486116.0 284150.0 0
490555.0 284786.0 0
495534.0 284614.0 0
2813.97 290304.0 0
7481.71 287781.0 0
9416.08 291712.0 0
12205.7 290153.0 0
16840.2 289809.0 0
23236.5 290796.0 0
28140.9 290779.0 0
32559.9 289052.0 0
44103.1 290791.0 0
51606.3 289519.0 0
56126.7 289335.0 0
61367.6 289923.0 0
67209.9 290039.0 0
72942.6 291015.0 0
81054.2 288547.0 0
77812.0 292046.0 0
86992.7 289687.0 0
93108.9 290933.0 0
98623.0 289338.0 0
103785.0 289478.0 0
108655.0 289822.0 0
113794.0 290855.0 0
118835.0 291555.0 0
123721.0 290279.0 0
128565.0 289407.0 0
133198.0 290217.0 0
137672.0 290670.0 0
143040.0 288689.0 0
146677.0 290791.0 0
150583.0 288866.0 0
155548.0 289105.0 0
161098.0 289078.0 0
167142.0 290530.0 0
172918.0 290286.0 0
178090.0 290926.0 0
183361.0 290893.0 0
189127.0 290010.0 0
194045.0 289921.0 0
198883.0 290774.0 0
203621.0 289344.0 0
208184.0 290973.0 0
213056.0 289618.0 0
217756.0 291160.0 0
222500.0 290182.0 0
227500.0 290103.0 0
232366.0 288951.0 0
236366.0 288849.0 0
241018.0 289904.0 0
246227.0 290172.0 0
252670.0 290486.0 0
257728.0 289700.0 0
262511.0 289125.0 0
268634.0 290505.0 0
272392.0 288459.0 0
276531.0 290664.0 0
282664.0 290265.0 0
287660.0 290305.0 0
292976.0 290066.0 0
297648.0 289222.0 0
301796.0 291232.0 0
306570.0 289108.0 0
311517.0 290550.0 0
317318.0 289596.0 0
323024.0 289967.0 0
326849.0 289764.0 0
331364.0 290928.0 0
335466.0 291629.0 0
340607.0 290524.0 0
345124.0 288993.0 0
349904.0 289717.0 0
355505.0 291608.0 0
361571.0 291464.0 0
367125.0 290672.0 0
372497.0 289789.0 0
377526.0 291839.0 0
382736.0 289185.0 0
388845.0 289176.0 0
397051.0 289100.0 0
393210.0 291330.0 0
402147.0 290975.0 0
407341.0 289799.0 0
411876.0 291812.0 0
416954.0 290032.0 0
421649.0 291447.0 0
426195.0 290700.0 0
432010.0 289950.0 0
437833.0 290806.0 0
443186.0 290527.0 0
447819.0 289496.0 0
452589.0 290718.0 0
457603.0 288598.0 0
462912.0 289391.0 0
468085.0 290184.0 0
472959.0 290254.0 0
477985.0 290013.0 0
482618.0 290346.0 0
487602.0 289371.0 0
493202.0 289597.0 0
497806.0 288971.0 0
2449.96 295626.0 0
7153.39 295210.0 0
11954.4 295412.0 0
17358.5 296068.0 0
23107.8 296811.0 0
28523.3 295265.0 0
32442.7 293573.0 0
37876.2 292605.0 0
39323.2 297562.0 0
43243.4 296212.0 0
48862.1 292499.0 0
47670.3 296316.0 0
52642.6 295349.0 0
57895.3 294184.0 0
63812.5 295589.0 0
68961.6 295850.0 0
71669.5 294741.0 0
75356.1 296652.0 0
81153.0 295926.0 0
87117.5 296335.0 0
92045.3 295466.0 0
96757.3 295149.0 0
101928.0 293784.0 0
107481.0 295867.0 0
113373.0 295831.0 0
118401.0 296770.0 0
123366.0 295322.0 0
128509.0 294560.0 0
133414.0 294743.0 0
137776.0 296221.0 0
141644.0 293251.0 0
145584.0 295586.0 0
150846.0 294567.0 0
156901.0 294287.0 0
162766.0 295005.0 0
170758.0 295055.0 0
175125.0 296650.0 0
179355.0 295677.0 0
182865.0 294834.0 0
186908.0 294969.0 0
192281.0 294595.0 0
197628.0 296338.0 0
202651.0 294265.0 0
206801.0 296053.0 0
211037.0 294946.0 0
215649.0 295525.0 0
221057.0 295602.0 0
226983.0 295668.0 0
231738.0 293083.0 0
237791.0 294784.0 0
244048.0 295393.0 0
249082.0 295090.0 0
254374.0 296525.0 0
257372.0 293041.0 0
260305.0 295088.0 0
265432.0 294191.0 0
272304.0 294755.0 0
279382.0 295359.0 0
285336.0 294583.0 0
290000.0 294210.0 0
293058.0 297150.0 0
297002.0 294368.0 0
301911.0 296436.0 0
306574.0 294438.0 0
312396.0 296603.0 0
318425.0 295407.0 0
323589.0 294906.0 0
328291.0 293263.0 0
332561.0 295805.0 0
341417.0 295023.0 0
337459.0 295989.0 0
346195.0 294008.0 0
351518.0 295978.0 0
358999.0 296084.0 0
364405.0 295937.0 0
368995.0 295274.0 0
373365.0 294630.0 0
377296.0 296892.0 0
381356.0 294978.0 0
386946.0 295324.0 0
393321.0 296160.0 0
398514.0 294716.0 0
402901.0 295877.0 0
407772.0 295082.0 0
415575.0 295769.0 0
420944.0 296634.0 0
424566.0 294671.0 0
428907.0 295306.0 0
434017.0 294928.0 0
438613.0 295965.0 0
442670.0 294775.0 0
447575.0 294743.0 0
452827.0 295710.0 0
458068.0 294409.0 0
463341.0 294172.0 0
468082.0 295472.0 0
473527.0 294647.0 0
478045.0 295159.0 0
482701.0 294542.0 0
487371.0 294930.0 0
492373.0 294524.0 0
497565.0 293585.0 0
2467.12 300602.0 0
7676.11 300199.0 0
11981.2 299592.0 0
15691.5 301147.0 0
20868.3 301875.0 0
26858.7 300796.0 0
33987.3 298643.0 0
39838.5 301811.0 0
44519.4 300717.0 0
48560.3 300052.0 0
52831.8 300507.0 0
59077.5 299300.0 0
63849.8 300702.0 0
67564.3 299993.0 0
71637.4 299943.0 0
78508.9 300150.0 0
82472.2 300939.0 0
87132.9 301918.0 0
92278.4 300182.0 0
97275.9 300226.0 0
102410.0 299643.0 0
106970.0 301845.0 0
110953.0 300301.0 0
115722.0 301283.0 0
120976.0 301404.0 0
126499.0 300049.0 0
132355.0 299731.0 0
137046.0 300723.0 0
142130.0 299636.0 0
147548.0 299468.0 0
152356.0 300333.0 0
157228.0 299396.0 0
161852.0 300501.0 0
167096.0 299225.0 0
172370.0 300166.0 0
178005.0 300937.0 0
183369.0 298970.0 0
189942.0 299616.0 0
194943.0 300957.0 0
203112.0 299841.0 0
199308.0 301571.0 0
207545.0 300204.0 0
212370.0 299879.0 0
217584.0 300256.0 0
223343.0 300307.0 0
227634.0 300633.0 0
232685.0 299982.0 0
238699.0 300699.0 0
242786.0 299696.0 0
247109.0 299561.0 0
251864.0 301096.0 0
257514.0 301043.0 0
262495.0 299291.0 0
267975.0 299412.0 0
273265.0 301441.0 0
279522.0 301478.0 0
283676.0 298782.0 0
288737.0 299235.0 0
293558.0 301543.0 0
298610.0 300375.0 0
302618.0 300442.0 0
307500.0 300078.0 0
312923.0 302404.0 0
316501.0 300270.0 0
321406.0 300374.0 0
327725.0 299030.0 0
333446.0 300839.0 0
340825.0 299105.0 0
337844.0 301915.0 0
346467.0 300577.0 0
352465.0 300952.0 0
358079.0 301705.0 0
362781.0 299820.0 0
367708.0 300481.0 0
373313.0 299575.0 0
377831.0 301579.0 0
383217.0 300607.0 0
388982.0 301126.0 0
397782.0 299164.0 0
393985.0 301398.0 0
402246.0 300523.0 0
407795.0 300850.0 0
417938.0 299664.0 0
413583.0 301156.0 0
421002.0 300795.0 0
426193.0 300712.0 0
432128.0 299680.0 0
436780.0 299862.0 0
442485.0 299708.0 0
448522.0 301601.0 0
453266.0 299825.0 0
458306.0 300876.0 0
463505.0 298659.0 0
467907.0 300761.0 0
471753.0 298338.0 0
476256.0 300150.0 0
480909.0 298491.0 0
485436.0 299522.0 0
490681.0 300234.0 0
496080.0 298842.0 0
3013.68 305740.0 0
8207.45 305294.0 0
12718.6 305041.0 0
17386.0 305873.0 0
21971.6 306435.0 0
26143.8 305701.0 0
30803.6 304215.0 0
35733.3 304399.0 0
43077.5 304883.0 0
47557.7 304072.0 0
51592.3 304572.0 0
56719.8 304634.0 0
62451.0 304646.0 0
67227.0 305185.0 0
72576.4 305102.0 0
78106.1 304227.0 0
82758.1 305351.0 0
86508.4 306019.0 0
90426.4 305297.0 0
95488.8 305222.0 0
101383.0 305288.0 0
106858.0 306803.0 0
112052.0 305048.0 0
118143.0 305987.0 0
123092.0 305857.0 0
127486.0 305190.0 0
132073.0 305179.0 0
137103.0 305312.0 0
141548.0 306682.0 0
145934.0 304352.0 0
151078.0 306658.0 0
155859.0 304258.0 0
161731.0 306760.0 0
169196.0 305572.0 0
175875.0 306711.0 0
181506.0 305839.0 0
186059.0 303339.0 0
190867.0 304833.0 0
195611.0 305590.0 0
200250.0 307133.0 0
204703.0 304363.0 0
208640.0 305673.0 0
212263.0 304545.0 0
217135.0 305673.0 0
222302.0 304908.0 0
227289.0 305204.0 0
232528.0 304288.0 0
236664.0 305480.0 0
242057.0 304202.0 0
247334.0 304660.0 0
251973.0 305343.0 0
256595.0 306259.0 0
261816.0 304671.0 0
267255.0 304088.0 0
271218.0 306747.0 0
276628.0 306146.0 0
284854.0 303830.0 0
289979.0 304040.0 0
293639.0 306131.0 0
297338.0 304752.0 0
302205.0 303573.0 0
307522.0 304006.0 0
310661.0 306000.0 0
317010.0 304882.0 0
326455.0 304407.0 0
321778.0 306325.0 0
331605.0 305766.0 0
336462.0 305797.0 0
341597.0 305014.0 0
346775.0 306188.0 0
350677.0 305030.0 0
354773.0 306033.0 0
363448.0 304983.0 0
368539.0 305703.0 0
372693.0 304466.0 0
377149.0 306692.0 0
381479.0 305168.0 0
385982.0 305635.0 0
391711.0 306150.0 0
397964.0 304894.0 0
403540.0 305523.0 0
408248.0 305952.0 0
412640.0 306151.0 0
417342.0 305030.0 0
422235.0 304748.0 0
427015.0 307071.0 0
433107.0 305612.0 0
438784.0 303971.0 0
443846.0 305211.0 0
448479.0 307427.0 0
453209.0 304659.0 0
457462.0 306565.0 0
462667.0 305452.0 0
467726.0 305480.0 0
472037.0 303753.0 0
476293.0 305052.0 0
481330.0 303758.0 0
487082.0 304431.0 0
492129.0 306349.0 0
497347.0 304411.0 0
2741.33 311172.0 0
8063.94 310311.0 0
15047.4 310179.0 0
11814.3 312743.0 0
20036.5 310763.0 0
25531.7 310587.0 0
32625.5 310946.0 0
39436.7 307890.0 0
42459.9 312519.0 0
47220.6 309348.0 0
52678.4 308712.0 0
57806.5 310829.0 0
63760.7 309942.0 0
69545.9 310389.0 0
74639.6 310782.0 0
78982.4 308953.0 0
82952.6 310299.0 0
87558.7 310462.0 0
93171.9 310548.0 0
98883.8 310531.0 0
103924.0 310781.0 0
107217.0 310853.0 0
111597.0 310830.0 0
120038.0 310779.0 0
123867.0 310368.0 0
128309.0 309833.0 0
132820.0 309495.0 0
136841.0 310003.0 0
141029.0 310875.0 0
146442.0 310268.0 0
151867.0 311979.0 0
156575.0 310226.0 0
161134.0 312381.0 0
166370.0 311708.0 0
172436.0 310445.0 0
179165.0 310250.0 0
184002.0 311051.0 0
189121.0 309283.0 0
193478.0 310155.0 0
197337.0 310325.0 0
203088.0 310668.0 0
207215.0 308519.0 0
212428.0 310011.0 0
217473.0 310177.0 0
221625.0 309743.0 0
226405.0 310208.0 0
231594.0 308525.0 0
236398.0 310400.0 0
241186.0 309447.0 0
248714.0 309506.0 0
252959.0 309099.0 0
256467.0 311236.0 0
260376.0 309309.0 0
265664.0 309114.0 0
273127.0 310406.0 0
275852.0 310085.0 0
281997.0 309349.0 0
288381.0 308860.0 0
293573.0 310802.0 0
298756.0 309173.0 0
304648.0 308014.0 0
309391.0 309566.0 0
314143.0 308087.0 0
312697.0 312695.0 0
318100.0 309552.0 0
323094.0 311644.0 0
327566.0 309031.0 0
332500.0 310246.0 0
336738.0 310398.0 0
341735.0 310590.0 0
346939.0 310561.0 0
351667.0 309510.0 0
357484.0 309979.0 0
363267.0 311308.0 0
368557.0 309947.0 0
373482.0 310964.0 0
379256.0 311065.0 0
382727.0 308950.0 0
387172.0 311241.0 0
392445.0 312071.0 0
396026.0 309590.0 0
400842.0 310222.0 0
406012.0 309865.0 0
411271.0 311296.0 0
417007.0 310579.0 0
422160.0 309611.0 0
426307.0 312651.0 0
431366.0 311290.0 0
438069.0 309354.0 0
443958.0 311034.0 0
453341.0 309884.0 0
448995.0 312030.0 0
458270.0 310701.0 0
462204.0 310460.0 0
467241.0 310490.0 0
472226.0 308652.0 0
478163.0 309680.0 0
483643.0 308778.0 0
487919.0 309008.0 0
491882.0 311326.0 0
496627.0 309897.0 0
2120.48 315990.0 0
6715.56 315252.0 0
11025.8 316417.0 0
16448.7 315400.0 0
22245.1 315566.0 0
26904.3 315194.0 0
37894.4 316443.0 0
43971.7 316987.0 0
47251.1 314472.0 0
52225.3 314077.0 0
57430.8 316900.0 0
62731.8 315310.0 0
67643.6 315791.0 0
72720.7 315326.0 0
77878.8 315000.0 0
83361.9 315018.0 0
88687.0 315464.0 0
93441.4 315397.0 0
97383.9 315116.0 0
102463.0 315971.0 0
107448.0 314099.0 0
111899.0 317142.0 0
116231.0 313683.0 0
120478.0 316524.0 0
126052.0 314896.0 0
131876.0 314252.0 0
137491.0 314860.0 0
143359.0 315703.0 0
148460.0 315013.0 0
157648.0 315145.0 0
153211.0 316403.0 0
163249.0 315159.0 0
167921.0 317027.0 0
171043.0 314132.0 0
176103.0 314447.0 0
182244.0 316523.0 0
188958.0 314506.0 0
194060.0 315045.0 0
199287.0 314690.0 0
203607.0 316209.0 0
207461.0 313426.0 0
210938.0 317063.0 0
216261.0 315579.0 0
221753.0 314050.0 0
226351.0 315525.0 0
232281.0 314606.0 0
238253.0 314819.0 0
245165.0 313956.0 0
251793.0 314214.0 0
257262.0 315743.0 0
262088.0 313930.0 0
269940.0 313359.0 0
266261.0 317493.0 0
274181.0 315768.0 0
277884.0 313250.0 0
283071.0 315731.0 0
288564.0 314167.0 0
292861.0 316385.0 0
296971.0 313967.0 0
302730.0 314386.0 0
308510.0 315247.0 0
318182.0 314856.0 0
323880.0 317067.0 0
328627.0 314196.0 0
333837.0 315983.0 0
339312.0 315352.0 0
344601.0 314953.0 0
349619.0 314585.0 0
354123.0 313440.0 0
358589.0 316141.0 0
363834.0 316876.0 0
368145.0 314637.0 0
372382.0 315485.0 0
377024.0 315521.0 0
382538.0 314614.0 0
387497.0 315859.0 0
392181.0 316166.0 0
396229.0 314969.0 0
401285.0 315677.0 0
406722.0 314995.0 0
411193.0 316145.0 0
415469.0 315603.0 0
421102.0 315162.0 0
427974.0 316411.0 0
430776.0 315884.0 0
435964.0 315317.0 0
442181.0 316949.0 0
446776.0 315370.0 0
451356.0 316616.0 0
456154.0 314449.0 0
461471.0 315488.0 0
466888.0 315861.0 0
472867.0 313834.0 0
477977.0 315116.0 0
482319.0 313135.0 0
487592.0 314083.0 0
493282.0 315181.0 0
498144.0 314329.0 0
2826.41 320775.0 0
8301.82 320158.0 0
12809.3 319666.0 0
16579.1 320224.0 0
20633.1 320200.0 0
25554.0 321267.0 0
31366.8 318776.0 0
37291.9 321802.0 0
41716.2 320811.0 0
47372.2 320930.0 0
53015.7 320220.0 0
58738.7 322171.0 0
63576.9 320460.0 0
68289.6 320247.0 0
72473.2 320163.0 0
77213.3 320088.0 0
82057.6 320130.0 0
86332.2 319119.0 0
91314.1 319963.0 0
96811.0 319505.0 0
101423.0 322009.0 0
107506.0 321990.0 0
116585.0 319776.0 0
113174.0 321948.0 0
121185.0 321276.0 0
125961.0 320846.0 0
132173.0 320455.0 0
137898.0 320501.0 0
142955.0 321071.0 0
147730.0 319579.0 0
152823.0 321026.0 0
157737.0 320128.0 0
162945.0 319670.0 0
167732.0 322056.0 0
172662.0 319242.0 0
178438.0 319569.0 0
182766.0 321622.0 0
186696.0 319084.0 0
192356.0 319716.0 0
197076.0 320150.0 0
201586.0 319920.0 0
207227.0 320084.0 0
212749.0 320222.0 0
217599.0 321520.0 0
221836.0 318704.0 0
227373.0 320496.0 0
232120.0 320263.0 0
237026.0 319988.0 0
241670.0 318778.0 0
240291.0 322063.0 0
246144.0 319291.0 0
250765.0 320083.0 0
255419.0 319792.0 0
260886.0 320295.0 0
266477.0 322794.0 0
271258.0 319439.0 0
277793.0 319353.0 0
282968.0 322225.0 0
288126.0 319415.0 0
293081.0 321278.0 0
298045.0 319177.0 0
303050.0 319925.0 0
307737.0 320203.0 0
313846.0 319878.0 0
318758.0 319619.0 0
322133.0 322611.0 0
329196.0 319604.0 0
333344.0 320238.0 0
336890.0 319910.0 0
342540.0 320387.0 0
347870.0 320065.0 0
353088.0 319049.0 0
357696.0 321520.0 0
362413.0 321655.0 0
367686.0 320158.0 0
373430.0 320118.0 0
378189.0 320410.0 0
382469.0 319838.0 0
387500.0 320395.0 0
391010.0 320222.0 0
394348.0 319617.0 0
398126.0 319607.0 0
406125.0 321008.0 0
412519.0 320675.0 0
418133.0 320256.0 0
423250.0 320278.0 0
428094.0 320342.0 0
432989.0 320446.0 0
437868.0 320922.0 0
441963.0 321594.0 0
447258.0 320019.0 0
451834.0 321812.0 0
456134.0 319486.0 0
461019.0 321098.0 0
466198.0 320736.0 0
470806.0 318680.0 0
475967.0 320066.0 0
482466.0 319115.0 0
488684.0 319555.0 0
492826.0 321995.0 0
497029.0 319004.0 0
2489.76 325230.0 0
7268.44 324936.0 0
11980.4 323669.0 0
17751.4 324529.0 0
22220.0 325123.0 0
25762.4 325809.0 0
29753.5 327402.0 0
33590.3 324390.0 0
36946.3 326768.0 0
41381.9 326032.0 0
46390.5 326196.0 0
51558.3 325565.0 0
56766.0 326346.0 0
62321.7 325973.0 0
67634.3 325031.0 0
72608.7 324762.0 0
76719.5 325814.0 0
81392.5 325262.0 0
87114.8 324117.0 0
92408.2 325206.0 0
97351.6 325314.0 0
102452.0 327154.0 0
106789.0 327127.0 0
111763.0 325853.0 0
117511.0 325337.0 0
123307.0 325346.0 0
128772.0 325882.0 0
134043.0 325460.0 0
137950.0 325227.0 0
142169.0 325157.0 0
147224.0 325308.0 0
152745.0 325946.0 0
159312.0 324446.0 0
163230.0 324917.0 0
166888.0 326550.0 0
172543.0 323515.0 0
178150.0 325084.0 0
183549.0 326322.0 0
188441.0 324086.0 0
194103.0 324794.0 0
199246.0 324588.0 0
204339.0 324984.0 0
209663.0 325283.0 0
214143.0 324009.0 0
217567.0 325906.0 0
222057.0 324171.0 0
226152.0 324750.0 0
230471.0 325587.0 0
235837.0 324607.0 0
243764.0 323278.0 0
240169.0 326425.0 0
250567.0 325449.0 0
256653.0 325605.0 0
262499.0 325964.0 0
272438.0 325041.0 0
278223.0 325133.0 0
282955.0 327765.0 0
289513.0 324859.0 0
294423.0 325690.0 0
298887.0 324554.0 0
303111.0 323897.0 0
307243.0 325305.0 0
312414.0 326019.0 0
317266.0 324392.0 0
323848.0 327175.0 0
327191.0 324315.0 0
332357.0 324380.0 0
338250.0 325052.0 0
343506.0 325794.0 0
346280.0 323355.0 0
350720.0 325008.0 0
358429.0 325836.0 0
363011.0 326524.0 0
367699.0 325502.0 0
372950.0 325749.0 0
377713.0 324800.0 0
383157.0 324939.0 0
387780.0 325112.0 0
390799.0 325199.0 0
394961.0 324251.0 0
400913.0 323906.0 0
404426.0 327272.0 0
409935.0 326471.0 0
416582.0 326186.0 0
423025.0 325903.0 0
428527.0 325103.0 0
433235.0 325249.0 0
438384.0 326212.0 0
443998.0 325599.0 0
448631.0 325617.0 0
452077.0 325792.0 0
457146.0 325889.0 0
462705.0 325503.0 0
466668.0 326575.0 0
470632.0 323818.0 0
476242.0 326412.0 0
482694.0 325816.0 0
488424.0 324858.0 0
492913.0 325655.0 0
497162.0 324791.0 0
2649.56 329581.0 0
8122.4 329315.0 0
13030.4 328159.0 0
17307.5 329403.0 0
22229.8 329338.0 0
26174.7 329684.0 0
34007.5 330007.0 0
38705.6 330247.0 0
43466.4 331056.0 0
47618.2 330195.0 0
51860.5 331209.0 0
58761.8 330904.0 0
64337.2 331251.0 0
68864.4 330051.0 0
73717.8 329299.0 0
77187.9 329941.0 0
80549.7 330321.0 0
86178.4 330365.0 0
92887.5 330209.0 0
98331.6 330575.0 0
103048.0 331127.0 0
108822.0 330447.0 0
112912.0 330043.0 0
117534.0 331035.0 0
122438.0 330163.0 0
126558.0 330774.0 0
131944.0 330191.0 0
136918.0 329676.0 0
140286.0 331959.0 0
144039.0 330257.0 0
150225.0 329768.0 0
157067.0 329493.0 0
162989.0 329297.0 0
167850.0 331080.0 0
173209.0 329186.0 0
178922.0 331182.0 0
183282.0 330578.0 0
187055.0 329499.0 0
192185.0 329720.0 0
197116.0 328984.0 0
202121.0 329826.0 0
207589.0 330414.0 0
213869.0 328285.0 0
217090.0 331035.0 0
220694.0 329065.0 0
225592.0 328673.0 0
229830.0 330691.0 0
236261.0 330050.0 0
240676.0 331746.0 0
245406.0 329287.0 0
252900.0 330439.0 0
257753.0 330969.0 0
262199.0 330703.0 0
267373.0 328235.0 0
272581.0 331075.0 0
277831.0 330148.0 0
289380.0 329554.0 0
285827.0 331444.0 0
292986.0 329221.0 0
297421.0 330121.0 0
303302.0 328965.0 0
308907.0 330567.0 0
314611.0 331440.0 0
319581.0 328745.0 0
323450.0 331725.0 0
328528.0 329758.0 0
334442.0 329446.0 0
338167.0 331378.0 0
342849.0 331107.0 0
348311.0 330033.0 0
354749.0 329165.0 0
358942.0 329793.0 0
362368.0 330561.0 0
366777.0 330518.0 0
372035.0 331118.0 0
376911.0 328445.0 0
377258.0 332694.0 0
380677.0 329129.0 0
386658.0 329685.0 0
391349.0 328627.0 0
396505.0 330016.0 0
400496.0 328254.0 0
401865.0 333256.0 0
407734.0 331936.0 0
413269.0 331834.0 0
418182.0 331305.0 0
422172.0 331000.0 0
426324.0 330218.0 0
430745.0 329204.0 0
435558.0 331279.0 0
441852.0 330895.0 0
447379.0 329982.0 0
452634.0 330106.0 0
457334.0 331739.0 0
461515.0 329729.0 0
465780.0 330748.0 0
470704.0 329546.0 0
476952.0 332290.0 0
480989.0 330521.0 0
485300.0 330633.0 0
491302.0 330428.0 0
497454.0 330218.0 0
2069.69 333767.0 0
6967.19 334327.0 0
12861.2 333566.0 0
18879.2 334291.0 0
24673.1 334073.0 0
30425.7 334107.0 0
35642.5 335756.0 0
40040.0 334299.0 0
43438.9 336742.0 0
47343.3 334358.0 0
51717.1 336051.0 0
56665.9 335970.0 0
61908.6 336125.0 0
66559.9 335699.0 0
71571.0 334199.0 0
77077.8 333517.0 0
82191.1 335250.0 0
88542.3 336581.0 0
92929.1 334341.0 0
94237.8 338288.0 0
97500.0 335242.0 0
102232.0 335045.0 0
107079.0 334665.0 0
112181.0 334329.0 0
117497.0 335643.0 0
122403.0 333892.0 0
127513.0 335767.0 0
132389.0 334782.0 0
135348.0 338126.0 0
137854.0 334567.0 0
142394.0 335024.0 0
147691.0 334671.0 0
153034.0 333610.0 0
157142.0 335997.0 0
161077.0 333854.0 0
165344.0 335011.0 0
171560.0 334999.0 0
176512.0 335519.0 0
180596.0 335758.0 0
185283.0 334516.0 0
190506.0 333957.0 0
189189.0 338083.0 0
195634.0 334575.0 0
201572.0 335251.0 0
206798.0 335749.0 0
212683.0 334117.0 0
218452.0 335558.0 0
223150.0 333456.0 0
227629.0 336269.0 0
232636.0 334565.0 0
238081.0 335709.0 0
243691.0 335494.0 0
248592.0 334340.0 0
251939.0 337393.0 0
255325.0 334540.0 0
260058.0 335090.0 0
266762.0 335260.0 0
272715.0 335925.0 0
276510.0 334525.0 0
281586.0 333847.0 0
286843.0 336015.0 0
292465.0 333986.0 0
298349.0 335973.0 0
303178.0 334213.0 0
307405.0 335236.0 0
312170.0 336768.0 0
318803.0 335231.0 0
323379.0 336241.0 0
327705.0 335332.0 0
332227.0 333902.0 0
337008.0 335105.0 0
341407.0 336248.0 0
347420.0 335416.0 0
353351.0 334481.0 0
358542.0 333603.0 0
363866.0 334945.0 0
368596.0 334736.0 0
372385.0 335291.0 0
378586.0 337650.0 0
383117.0 334118.0 0
388398.0 335647.0 0
392540.0 333405.0 0
396975.0 335369.0 0
408444.0 336608.0 0
412756.0 336759.0 0
417500.0 335141.0 0
423309.0 335004.0 0
429707.0 333928.0 0
433264.0 335520.0 0
438770.0 334984.0 0
445508.0 334271.0 0
449956.0 334793.0 0
454312.0 334985.0 0
458302.0 336211.0 0
461998.0 334034.0 0
466453.0 335420.0 0
472225.0 335406.0 0
477133.0 337063.0 0
481603.0 335169.0 0
487372.0 335601.0 0
492860.0 336319.0 0
497632.0 335196.0 0
3495.07 339653.0 0
8838.97 340445.0 0
12772.6 338985.0 0
18119.1 340465.0 0
23797.0 339396.0 0
29106.3 339673.0 0
33803.2 339846.0 0
38579.4 340345.0 0
43704.5 341376.0 0
47748.3 339100.0 0
52108.9 340596.0 0
57044.0 341364.0 0
61863.2 340835.0 0
66436.8 340290.0 0
71649.2 340080.0 0
78195.5 340698.0 0
84076.0 339955.0 0
87660.8 341625.0 0
99307.7 339970.0 0
103942.0 341089.0 0
108436.0 339588.0 0
113737.0 339105.0 0
118260.0 340216.0 0
122394.0 338282.0 0
126700.0 340693.0 0
131418.0 339835.0 0
139901.0 339105.0 0
145172.0 339762.0 0
152079.0 339716.0 0
157702.0 341211.0 0
162177.0 338963.0 0
167813.0 339155.0 0
173891.0 340424.0 0
179170.0 339788.0 0
183966.0 340329.0 0
193891.0 340413.0 0
198652.0 339126.0 0
202725.0 340545.0 0
207458.0 340872.0 0
212840.0 340477.0 0
217750.0 340021.0 0
222332.0 338797.0 0
226629.0 340901.0 0
231537.0 339968.0 0
236474.0 340374.0 0
241155.0 340421.0 0
247469.0 339260.0 0
251549.0 341368.0 0
256860.0 339943.0 0
262275.0 339919.0 0
267130.0 342528.0 0
272821.0 340590.0 0
277909.0 340222.0 0
282692.0 339297.0 0
287472.0 341419.0 0
293466.0 340580.0 0
298877.0 340849.0 0
303351.0 339231.0 0
308233.0 339934.0 0
315547.0 341103.0 0
311373.0 342084.0 0
320464.0 340099.0 0
326066.0 340753.0 0
333097.0 339968.0 0
339042.0 340685.0 0
343371.0 340139.0 0
347296.0 340218.0 0
351732.0 339877.0 0
357588.0 338887.0 0
363014.0 339936.0 0
368219.0 339574.0 0
372205.0 343129.0 0
373529.0 338550.0 0
377893.0 343283.0 0
383199.0 340264.0 0
388335.0 341318.0 0
392234.0 338372.0 0
397040.0 340007.0 0
402859.0 339963.0 0
407536.0 340198.0 0
411376.0 341093.0 0
416233.0 339757.0 0
421447.0 339535.0 0
426953.0 338581.0 0
431538.0 341152.0 0
436109.0 338919.0 0
442587.0 339277.0 0
449421.0 340385.0 0
454731.0 339339.0 0
458808.0 340381.0 0
462294.0 338204.0 0
462572.0 342815.0 0
466133.0 340272.0 0
470494.0 340358.0 0
475455.0 340767.0 0
480293.0 340743.0 0
485942.0 341160.0 0
491493.0 340503.0 0
496580.0 340621.0 0
3146.38 346311.0 0
8313.69 344605.0 0
13636.7 344868.0 0
18346.5 346975.0 0
23000.5 344877.0 0
28395.3 344816.0 0
33777.6 344746.0 0
38786.3 345280.0 0
42505.8 345209.0 0
47500.0 345018.0 0
52500.0 345076.0 0
57870.4 346668.0 0
62769.1 345316.0 0
67019.5 344946.0 0
73097.5 346089.0 0
78471.1 346490.0 0
82609.1 345046.0 0
87136.0 345545.0 0
92093.2 343535.0 0
97522.7 345318.0 0
102111.0 344928.0 0
107215.0 345349.0 0
113452.0 344535.0 0
117706.0 345741.0 0
121483.0 343563.0 0
125909.0 346420.0 0
129877.0 343864.0 0
135561.0 343818.0 0
141760.0 343959.0 0
147705.0 345484.0 0
152906.0 345055.0 0
156987.0 345653.0 0
162536.0 345049.0 0
168826.0 344614.0 0
173867.0 345709.0 0
178811.0 344830.0 0
183544.0 345718.0 0
188759.0 343981.0 0
193872.0 345427.0 0
198371.0 344147.0 0
203223.0 344730.0 0
201207.0 347836.0 0
207025.0 345228.0 0
211045.0 345293.0 0
216401.0 344527.0 0
222767.0 344974.0 0
228695.0 345130.0 0
233122.0 344356.0 0
237795.0 344914.0 0
242941.0 345200.0 0
248249.0 344804.0 0
253946.0 345147.0 0
258784.0 344984.0 0
262766.0 345028.0 0
266812.0 348289.0 0
271394.0 344917.0 0
276152.0 344623.0 0
282013.0 345335.0 0
287382.0 345925.0 0
291672.0 346047.0 0
297506.0 345132.0 0
305159.0 344810.0 0
309472.0 345841.0 0
313396.0 345770.0 0
318434.0 344595.0 0
322500.0 345303.0 0
328557.0 345507.0 0
332897.0 346031.0 0
336827.0 344446.0 0
340900.0 344527.0 0
345927.0 344676.0 0
352082.0 345953.0 0
357207.0 344168.0 0
361928.0 344803.0 0
367480.0 345772.0 0
383657.0 346398.0 0
388778.0 346023.0 0
392950.0 343508.0 0
398400.0 345420.0 0
406213.0 344246.0 0
408545.0 347117.0 0
411348.0 345384.0 0
415351.0 344508.0 0
420473.0 344971.0 0
427000.0 345085.0 0
432904.0 345078.0 0
438007.0 344667.0 0
444197.0 345380.0 0
453886.0 344245.0 0
449133.0 346238.0 0
458735.0 344451.0 0
466647.0 345112.0 0
471850.0 344832.0 0
477248.0 344912.0 0
482812.0 345467.0 0
489987.0 344648.0 0
493168.0 346662.0 0
497260.0 346548.0 0
2171.38 351554.0 0
6280.64 350500.0 0
11606.4 350841.0 0
17634.3 351404.0 0
22455.5 350457.0 0
28433.0 349912.0 0
33584.4 350174.0 0
38600.3 349894.0 0
43583.2 350084.0 0
47980.2 350110.0 0
52511.7 350020.0 0
57291.2 351094.0 0
62274.0 350374.0 0
67452.0 349286.0 0
71686.7 351671.0 0
76825.9 350467.0 0
81435.5 349927.0 0
86032.6 349589.0 0
91506.8 349915.0 0
97949.5 350686.0 0
102771.0 349167.0 0
107034.0 351265.0 0
111272.0 349113.0 0
115650.0 349321.0 0
120938.0 349421.0 0
125976.0 351459.0 0
131271.0 349397.0 0
137726.0 349923.0 0
134601.0 353397.0 0
143202.0 350084.0 0
149371.0 351048.0 0
153324.0 348908.0 0
157489.0 350302.0 0
161951.0 351219.0 0
166218.0 349206.0 0
171073.0 349546.0 0
176484.0 350402.0 0
181158.0 348960.0 0
186315.0 350490.0 0
191594.0 348795.0 0
192493.0 353614.0 0
196667.0 349853.0 0
202412.0 352749.0 0
208389.0 350030.0 0
214171.0 349272.0 0
218740.0 348470.0 0
218061.0 353126.0 0
222264.0 350705.0 0
226891.0 349932.0 0
232589.0 349392.0 0
237045.0 352382.0 0
240638.0 349393.0 0
246272.0 350831.0 0
252405.0 350494.0 0
257041.0 348838.0 0
261770.0 351038.0 0
272069.0 349310.0 0
275235.0 352925.0 0
277596.0 349172.0 0
282629.0 352342.0 0
288897.0 350604.0 0
295170.0 350208.0 0
301236.0 349470.0 0
307280.0 350417.0 0
312770.0 350802.0 0
317739.0 349102.0 0
321760.0 351182.0 0
325927.0 349504.0 0
331383.0 350864.0 0
336433.0 349152.0 0
338089.0 353444.0 0
342269.0 349860.0 0
348058.0 350067.0 0
352530.0 351579.0 0
357645.0 349516.0 0
363279.0 349705.0 0
367911.0 351222.0 0
372448.0 348617.0 0
377839.0 349212.0 0
382081.0 353008.0 0
387571.0 351049.0 0
393076.0 349222.0 0
397937.0 351788.0 0
403683.0 349564.0 0
409215.0 350871.0 0
413703.0 349285.0 0
418113.0 350710.0 0
422334.0 349887.0 0
427518.0 351764.0 0
432505.0 349321.0 0
436626.0 349444.0 0
442718.0 350759.0 0
447266.0 349960.0 0
451791.0 350263.0 0
455880.0 348574.0 0
461834.0 349765.0 0
468563.0 350337.0 0
474553.0 349999.0 0
479579.0 348571.0 0
481660.0 352415.0 0
486989.0 349889.0 0
493449.0 350995.0 0
498364.0 350898.0 0
2129.68 355854.0 0
6359.15 355181.0 0
11051.0 357601.0 0
16386.6 355732.0 0
20833.4 355313.0 0
25695.1 354460.0 0
32067.1 355427.0 0
37709.1 354884.0 0
42832.9 355157.0 0
48296.9 354973.0 0
52981.2 355198.0 0
57650.6 355355.0 0
62469.1 355020.0 0
67239.7 354891.0 0
73329.5 355746.0 0
77223.4 354525.0 0
81068.8 355000.0 0
77166.3 358562.0 0
86715.7 354719.0 0
92834.3 356418.0 0
98418.3 355732.0 0
102922.0 353941.0 0
106691.0 357060.0 0
111498.0 354457.0 0
117098.0 353793.0 0
121975.0 356343.0 0
126556.0 355415.0 0
131009.0 356056.0 0
139350.0 355933.0 0
146166.0 355458.0 0
152856.0 355722.0 0
158758.0 354871.0 0
162347.0 357574.0 0
165981.0 354412.0 0
171457.0 354715.0 0
177146.0 356644.0 0
182915.0 355487.0 0
188146.0 356363.0 0
197290.0 356836.0 0
202307.0 358142.0 0
206976.0 356921.0 0
212551.0 354862.0 0
222811.0 355555.0 0
228464.0 355275.0 0
233427.0 354577.0 0
237309.0 356476.0 0
241475.0 354651.0 0
246757.0 357242.0 0
252333.0 355967.0 0
256808.0 353585.0 0
258116.0 358530.0 0
262876.0 356559.0 0
268469.0 354440.0 0
273766.0 357155.0 0
278245.0 355702.0 0
283882.0 358685.0 0
287299.0 355256.0 0
292303.0 355611.0 0
298769.0 355582.0 0
303747.0 353738.0 0
303715.0 357609.0 0
307492.0 355674.0 0
312151.0 355635.0 0
316746.0 354103.0 0
321024.0 355518.0 0
316519.0 358657.0 0
327127.0 355586.0 0
333554.0 356165.0 0
338636.0 357979.0 0
342414.0 355419.0 0
347013.0 354920.0 0
352088.0 356359.0 0
357053.0 355258.0 0
361958.0 354375.0 0
366199.0 355245.0 0
370632.0 355414.0 0
376217.0 354763.0 0
386466.0 356036.0 0
383132.0 357140.0 0
391747.0 355181.0 0
396540.0 355846.0 0
401579.0 356271.0 0
406926.0 354636.0 0
411734.0 354617.0 0
416932.0 355195.0 0
422573.0 355229.0 0
427343.0 357024.0 0
432313.0 355566.0 0
437775.0 353747.0 0
442425.0 356302.0 0
447867.0 354331.0 0
451822.0 357356.0 0
455914.0 354310.0 0
461426.0 356251.0 0
465987.0 354717.0 0
471697.0 356186.0 0
477345.0 354797.0 0
480812.0 356115.0 0
485672.0 356549.0 0
491040.0 355636.0 0
497062.0 355764.0 0
3995.37 360230.0 0
7942.69 361609.0 0
14153.9 362056.0 0
17530.0 359836.0 0
22682.9 360358.0 0
27944.3 358937.0 0
32740.0 361133.0 0
38226.9 360197.0 0
43380.0 360103.0 0
48099.1 360365.0 0
52500.0 360131.0 0
57056.7 360271.0 0
62066.7 359297.0 0
66748.6 360081.0 0
71816.4 360450.0 0
82500.0 360283.0 0
87445.9 360045.0 0
91887.8 362243.0 0
97500.0 360122.0 0
102500.0 360039.0 0
106517.0 361085.0 0
110816.0 360227.0 0
116888.0 359436.0 0
122157.0 361630.0 0
126518.0 359704.0 0
131295.0 361506.0 0
136475.0 361312.0 0
143458.0 359792.0 0
149021.0 361065.0 0
154352.0 361255.0 0
158572.0 359652.0 0
162316.0 362060.0 0
166346.0 359720.0 0
171936.0 360530.0 0
177276.0 362543.0 0
180989.0 360088.0 0
185239.0 360632.0 0
192268.0 359871.0 0
196915.0 361963.0 0
201831.0 363254.0 0
206917.0 361806.0 0
211398.0 360467.0 0
217278.0 359107.0 0
223118.0 361240.0 0
228551.0 360693.0 0
233874.0 359316.0 0
237131.0 361978.0 0
241245.0 360393.0 0
249150.0 361986.0 0
253630.0 360845.0 0
260831.0 361552.0 0
265105.0 361497.0 0
270072.0 360012.0 0
278051.0 361141.0 0
282815.0 363384.0 0
289225.0 360480.0 0
295231.0 360645.0 0
300465.0 361222.0 0
304780.0 361211.0 0
307966.0 359686.0 0
311707.0 359958.0 0
322772.0 359997.0 0
327208.0 361574.0 0
331927.0 360588.0 0
337186.0 363763.0 0
342454.0 361051.0 0
347052.0 359805.0 0
351746.0 361475.0 0
355873.0 359562.0 0
360513.0 359303.0 0
366977.0 360350.0 0
362643.0 363697.0 0
373428.0 360348.0 0
379771.0 359979.0 0
384469.0 362692.0 0
388609.0 360371.0 0
397195.0 359538.0 0
393397.0 361871.0 0
401060.0 362418.0 0
406661.0 360212.0 0
413429.0 360542.0 0
418670.0 361575.0 0
421740.0 359899.0 0
425674.0 361156.0 0
430227.0 360447.0 0
437115.0 360054.0 0
443044.0 361170.0 0
448291.0 360461.0 0
453179.0 360820.0 0
458084.0 360478.0 0
462627.0 360145.0 0
466688.0 359566.0 0
471070.0 362425.0 0
476520.0 359011.0 0
476386.0 363846.0 0
481015.0 360088.0 0
486765.0 361983.0 0
491111.0 360206.0 0
497300.0 361432.0 0
2628.57 365305.0 0
7013.26 365143.0 0
11301.3 365409.0 0
16985.7 365163.0 0
21397.7 365368.0 0
27779.6 364701.0 0
34163.1 365584.0 0
38383.5 365342.0 0
42610.9 365095.0 0
46624.3 365063.0 0
51281.2 364945.0 0
56111.3 364860.0 0
61608.9 365203.0 0
67703.0 364903.0 0
73234.0 365418.0 0
78686.5 364189.0 0
83220.6 364449.0 0
83015.7 368725.0 0
87324.5 364902.0 0
91432.1 366813.0 0
94965.0 368132.0 0
97506.2 365067.0 0
102361.0 364743.0 0
107500.0 365053.0 0
112857.0 364810.0 0
118061.0 365347.0 0
123221.0 366126.0 0
127082.0 364176.0 0
131192.0 367317.0 0
136105.0 365849.0 0
141249.0 364479.0 0
146969.0 366602.0 0
152423.0 365801.0 0
158378.0 365739.0 0
163585.0 365911.0 0
167711.0 364606.0 0
173066.0 366969.0 0
178186.0 366797.0 0
181039.0 364684.0 0
185779.0 366356.0 0
192295.0 365835.0 0
197681.0 366538.0 0
206259.0 365846.0 0
210839.0 365565.0 0
216368.0 365181.0 0
221643.0 366512.0 0
227073.0 366225.0 0
231959.0 364057.0 0
236090.0 365178.0 0
236941.0 368969.0 0
240641.0 366039.0 0
245098.0 363853.0 0
252326.0 365679.0 0
257627.0 364289.0 0
262520.0 365277.0 0
269640.0 365131.0 0
274781.0 365823.0 0
279227.0 366642.0 0
283070.0 366858.0 0
286653.0 364744.0 0
292052.0 365685.0 0
298291.0 366368.0 0
303316.0 364898.0 0
306732.0 367700.0 0
311565.0 365135.0 0
317736.0 364468.0 0
323335.0 364837.0 0
331077.0 365085.0 0
343249.0 366633.0 0
347883.0 364135.0 0
351708.0 366539.0 0
357585.0 364067.0 0
366375.0 365605.0 0
371179.0 365892.0 0
376857.0 365325.0 0
381652.0 365726.0 0
384194.0 368793.0 0
388392.0 365629.0 0
392721.0 366316.0 0
396737.0 365432.0 0
403100.0 367442.0 0
408453.0 366069.0 0
413067.0 367148.0 0
417079.0 365533.0 0
422199.0 364659.0 0
427639.0 365979.0 0
432524.0 364324.0 0
436972.0 366181.0 0
442310.0 366291.0 0
447234.0 367081.0 0
451311.0 364858.0 0
456713.0 366442.0 0
462309.0 364491.0 0
467414.0 366492.0 0
472529.0 367438.0 0
481797.0 365373.0 0
486825.0 366670.0 0
493363.0 363913.0 0
491916.0 368800.0 0
497977.0 366137.0 0
3493.88 371401.0 0
8891.98 369464.0 0
13576.0 369932.0 0
18643.4 370155.0 0
22972.8 369053.0 0
27295.3 370857.0 0
32684.9 369945.0 0
37700.2 370001.0 0
42508.1 370233.0 0
47824.3 369930.0 0
52921.8 369645.0 0
57401.6 369169.0 0
61082.1 371898.0 0
65039.2 369562.0 0
70146.7 370020.0 0
76522.1 370487.0 0
88517.5 370163.0 0
93854.8 373165.0 0
98957.5 370081.0 0
98405.2 373939.0 0
103404.0 368818.0 0
106595.0 370988.0 0
111416.0 369947.0 0
117657.0 371713.0 0
122245.0 369825.0 0
126339.0 370050.0 0
132500.0 373038.0 0
137118.0 370445.0 0
142722.0 370530.0 0
147025.0 370745.0 0
153259.0 370965.0 0
157883.0 371077.0 0
162413.0 370151.0 0
167664.0 369893.0 0
172821.0 372920.0 0
177210.0 370846.0 0
181177.0 369032.0 0
184225.0 372700.0 0
189412.0 371034.0 0
195461.0 370878.0 0
201336.0 370486.0 0
207550.0 370688.0 0
213055.0 370128.0 0
218629.0 371299.0 0
223780.0 370454.0 0
227755.0 372462.0 0
232085.0 369310.0 0
241036.0 371707.0 0
246327.0 368927.0 0
251173.0 370119.0 0
256755.0 370679.0 0
262916.0 369430.0 0
268010.0 370172.0 0
273619.0 371238.0 0
279181.0 371098.0 0
282999.0 371945.0 0
287452.0 370163.0 0
293500.0 371008.0 0
297552.0 371128.0 0
302591.0 369492.0 0
307592.0 371704.0 0
312834.0 369869.0 0
311337.0 373727.0 0
317637.0 370580.0 0
322580.0 370669.0 0
326986.0 368987.0 0
329817.0 372106.0 0
332625.0 369978.0 0
338036.0 370199.0 0
342701.0 371721.0 0
346461.0 370730.0 0
351039.0 371632.0 0
355887.0 369138.0 0
362233.0 369746.0 0
357464.0 373477.0 0
368624.0 370631.0 0
373789.0 370604.0 0
379238.0 370557.0 0
388278.0 370335.0 0
392414.0 370126.0 0
395691.0 373900.0 0
398407.0 369656.0 0
402026.0 372100.0 0
406476.0 371061.0 0
411358.0 371107.0 0
416973.0 371216.0 0
422754.0 370085.0 0
428099.0 371672.0 0
433571.0 370385.0 0
438912.0 371327.0 0
444002.0 371293.0 0
448877.0 371347.0 0
453759.0 371317.0 0
458703.0 371185.0 0
463452.0 370470.0 0
469462.0 370600.0 0
472928.0 371888.0 0
477653.0 369663.0 0
483401.0 370486.0 0
487857.0 372442.0 0
497368.0 370840.0 0
1389.04 375850.0 0
6360.36 376360.0 0
11321.0 374898.0 0
17342.2 375389.0 0
22343.0 374833.0 0
27883.8 376873.0 0
33756.3 375310.0 0
38834.2 375192.0 0
43283.3 375090.0 0
47804.5 375145.0 0
52593.8 374420.0 0
57500.0 375220.0 0
63143.6 375801.0 0
67695.5 374828.0 0
72428.3 374531.0 0
76196.0 376630.0 0
81716.3 375334.0 0
86400.5 378736.0 0
88543.9 374845.0 0
91562.5 378934.0 0
97793.1 378510.0 0
102222.0 374628.0 0
106803.0 374840.0 0
108490.0 378778.0 0
112830.0 375850.0 0
117997.0 377547.0 0
122683.0 374919.0 0
127448.0 374687.0 0
131216.0 376072.0 0
135169.0 374986.0 0
140591.0 376306.0 0
149071.0 374506.0 0
152521.0 378740.0 0
154383.0 375019.0 0
158788.0 375519.0 0
163218.0 375037.0 0
167613.0 375025.0 0
171407.0 377310.0 0
177106.0 375546.0 0
181228.0 376050.0 0
187134.0 378100.0 0
192492.0 375346.0 0
197455.0 375474.0 0
202896.0 376859.0 0
208829.0 376171.0 0
214080.0 375238.0 0
218720.0 376629.0 0
223680.0 375868.0 0
228183.0 376647.0 0
232140.0 374636.0 0
231131.0 379080.0 0
236560.0 373953.0 0
241650.0 375737.0 0
245941.0 374768.0 0
251760.0 375008.0 0
256808.0 376332.0 0
260804.0 374864.0 0
265904.0 375048.0 0
272213.0 375995.0 0
276840.0 375432.0 0
279856.0 378953.0 0
281045.0 375143.0 0
285841.0 375841.0 0
291346.0 375149.0 0
296656.0 375749.0 0
302244.0 374453.0 0
302653.0 379048.0 0
307080.0 375739.0 0
315801.0 375851.0 0
321670.0 375164.0 0
326702.0 374231.0 0
327631.0 378943.0 0
331931.0 374632.0 0
332483.0 378513.0 0
336851.0 376113.0 0
342237.0 375899.0 0
346467.0 374787.0 0
350405.0 376479.0 0
355778.0 379120.0 0
361475.0 376248.0 0
366534.0 375247.0 0
371933.0 375775.0 0
377917.0 376408.0 0
384422.0 374502.0 0
390445.0 374375.0 0
397217.0 378860.0 0
400419.0 375974.0 0
404335.0 375675.0 0
408760.0 375427.0 0
413754.0 375851.0 0
418291.0 376209.0 0
423162.0 375152.0 0
421263.0 379081.0 0
427770.0 376530.0 0
431740.0 374967.0 0
436195.0 375593.0 0
441403.0 375918.0 0
446501.0 375423.0 0
451344.0 375677.0 0
457158.0 375703.0 0
462367.0 375907.0 0
467351.0 374687.0 0
472210.0 375987.0 0
477143.0 375436.0 0
484168.0 375368.0 0
488355.0 376620.0 0
493167.0 374685.0 0
498225.0 375246.0 0
2756.1 379711.0 0
8506.19 380859.0 0
14087.5 380027.0 0
19115.7 380097.0 0
23216.4 379322.0 0
22190.4 384090.0 0
27640.6 382176.0 0
32361.8 380018.0 0
37499.8 380267.0 0
41004.5 379873.0 0
45288.3 380458.0 0
50482.4 379750.0 0
56015.0 380570.0 0
60793.2 379507.0 0
65901.3 379888.0 0
62515.7 384114.0 0
71981.7 379989.0 0
78715.1 380515.0 0
82724.7 381111.0 0
94619.7 383935.0 0
103651.0 380948.0 0
108492.0 383436.0 0
114511.0 381074.0 0
118184.0 381105.0 0
121979.0 379294.0 0
126769.0 379801.0 0
122603.0 383768.0 0
131923.0 380642.0 0
136322.0 379671.0 0
140654.0 382410.0 0
145947.0 379646.0 0
157216.0 379962.0 0
153987.0 383665.0 0
161555.0 380137.0 0
167129.0 380989.0 0
173225.0 381346.0 0
177980.0 380379.0 0
182344.0 380293.0 0
185127.0 383092.0 0
192853.0 380432.0 0
198365.0 379649.0 0
201907.0 382561.0 0
206767.0 381372.0 0
210917.0 380036.0 0
215618.0 380787.0 0
221118.0 380648.0 0
226613.0 381842.0 0
232284.0 384077.0 0
236690.0 379433.0 0
242751.0 379329.0 0
248353.0 380044.0 0
254008.0 380169.0 0
258070.0 383492.0 0
262555.0 379999.0 0
269367.0 380714.0 0
275582.0 379859.0 0
278783.0 383556.0 0
283925.0 380956.0 0
289441.0 380003.0 0
294226.0 380017.0 0
298628.0 380928.0 0
303094.0 383457.0 0
306249.0 380306.0 0
307964.0 384095.0 0
311257.0 379468.0 0
317960.0 379884.0 0
322722.0 380506.0 0
330897.0 382624.0 0
336299.0 382121.0 0
340883.0 379429.0 0
345076.0 379514.0 0
342440.0 384217.0 0
348807.0 380378.0 0
364753.0 380077.0 0
369432.0 380416.0 0
373989.0 379850.0 0
372922.0 384073.0 0
381896.0 379414.0 0
378326.0 382590.0 0
387097.0 380150.0 0
383392.0 383030.0 0
392081.0 379336.0 0
401375.0 380437.0 0
406154.0 379945.0 0
411358.0 380155.0 0
416423.0 380523.0 0
421465.0 384077.0 0
425760.0 380705.0 0
431500.0 380131.0 0
437189.0 380451.0 0
442729.0 381438.0 0
448512.0 380235.0 0
453938.0 379908.0 0
456754.0 383806.0 0
459618.0 380305.0 0
463633.0 379925.0 0
468732.0 379620.0 0
466815.0 383931.0 0
473185.0 380305.0 0
478724.0 379951.0 0
482994.0 379746.0 0
487240.0 380511.0 0
491428.0 379427.0 0
493238.0 383489.0 0
496254.0 379178.0 0
497750.0 383792.0 0
2373.27 384783.0 0
6795.43 385409.0 0
12198.0 385853.0 0
17352.9 384778.0 0
17067.7 388774.0 0
27112.1 386479.0 0
31621.8 384660.0 0
36604.1 385376.0 0
42093.2 385004.0 0
47575.5 384841.0 0
52706.3 385253.0 0
57725.7 385187.0 0
62475.7 388700.0 0
66729.6 384248.0 0
70486.4 386965.0 0
75528.8 384585.0 0
80532.6 386162.0 0
86751.3 384647.0 0
91558.3 388486.0 0
99774.7 384818.0 0
104839.0 385268.0 0
102665.0 388868.0 0
108560.0 389025.0 0
113419.0 385993.0 0
117309.0 388918.0 0
117875.0 384444.0 0
127406.0 385034.0 0
131628.0 384835.0 0
135877.0 384659.0 0
138730.0 389257.0 0
143054.0 387234.0 0
148652.0 384848.0 0
158478.0 385302.0 0
162500.0 385441.0 0
166349.0 387099.0 0
170942.0 385159.0 0
176198.0 385112.0 0
180993.0 384738.0 0
184641.0 386894.0 0
190079.0 385795.0 0
196704.0 384493.0 0
201197.0 387676.0 0
206109.0 386597.0 0
211238.0 384646.0 0
217110.0 386364.0 0
222293.0 385558.0 0
227631.0 386493.0 0
237090.0 384760.0 0
241874.0 384827.0 0
247604.0 385905.0 0
253160.0 385417.0 0
258395.0 388580.0 0
262317.0 385671.0 0
266956.0 386525.0 0
273503.0 386086.0 0
279363.0 389258.0 0
282270.0 385271.0 0
286765.0 385962.0 0
292697.0 384836.0 0
298447.0 386520.0 0
308924.0 388890.0 0
313190.0 385428.0 0
318785.0 384633.0 0
322200.0 387679.0 0
326094.0 384964.0 0
331146.0 387962.0 0
337275.0 386865.0 0
347395.0 386238.0 0
351779.0 384321.0 0
358947.0 384490.0 0
361473.0 388571.0 0
363894.0 384845.0 0
368279.0 384741.0 0
377380.0 387082.0 0
382551.0 388329.0 0
386932.0 385136.0 0
391180.0 384319.0 0
397366.0 384289.0 0
393527.0 388660.0 0
403389.0 385335.0 0
408342.0 384222.0 0
412607.0 385377.0 0
409013.0 388948.0 0
416782.0 385062.0 0
418967.0 389004.0 0
428608.0 385308.0 0
423615.0 388581.0 0
434544.0 384850.0 0
436095.0 388660.0 0
439606.0 386290.0 0
444257.0 386069.0 0
447627.0 385165.0 0
447208.0 388819.0 0
451874.0 384535.0 0
457379.0 388765.0 0
461745.0 385402.0 0
467481.0 389029.0 0
471110.0 384611.0 0
471914.0 388251.0 0
476331.0 384697.0 0
483832.0 384867.0 0
480418.0 389068.0 0
489001.0 384351.0 0
491847.0 388369.0 0
497339.0 388652.0 0
2459.87 389622.0 0
7886.69 390308.0 0
13629.5 391022.0 0
19405.4 393590.0 0
23323.4 389332.0 0
25085.4 393695.0 0
28696.4 390885.0 0
33560.9 389569.0 0
38576.2 389792.0 0
42885.1 390346.0 0
47200.5 389893.0 0
52217.6 390713.0 0
57038.5 389655.0 0
60711.4 393371.0 0
66351.1 390033.0 0
73812.7 390407.0 0
77500.0 390260.0 0
81508.2 394044.0 0
83043.7 390449.0 0
87417.3 390629.0 0
91331.5 393849.0 0
96984.2 389407.0 0
113494.0 391780.0 0
117591.0 394253.0 0
122685.0 389481.0 0
128296.0 389868.0 0
133624.0 389370.0 0
136776.0 393207.0 0
142405.0 392312.0 0
147169.0 389887.0 0
152851.0 389488.0 0
158629.0 389902.0 0
163350.0 391023.0 0
166996.0 391000.0 0
168487.0 394159.0 0
170818.0 389891.0 0
176040.0 390088.0 0
181428.0 390308.0 0
186596.0 390558.0 0
191446.0 391992.0 0
196579.0 390329.0 0
200927.0 392025.0 0
205225.0 391500.0 0
210326.0 390296.0 0
215367.0 390931.0 0
219951.0 390687.0 0
225042.0 389985.0 0
230918.0 390047.0 0
237066.0 389637.0 0
242184.0 392043.0 0
247933.0 391863.0 0
253616.0 390743.0 0
259161.0 392883.0 0
263354.0 390571.0 0
268927.0 391532.0 0
274079.0 391423.0 0
284998.0 391366.0 0
289331.0 390097.0 0
289089.0 394365.0 0
293406.0 390036.0 0
297350.0 391352.0 0
303396.0 390088.0 0
307719.0 393073.0 0
313549.0 390849.0 0
318261.0 389685.0 0
321780.0 390860.0 0
326081.0 390756.0 0
322288.0 394462.0 0
335340.0 389669.0 0
332822.0 394261.0 0
339523.0 390919.0 0
344807.0 389898.0 0
350444.0 390032.0 0
347370.0 394497.0 0
356532.0 389524.0 0
362020.0 393853.0 0
366577.0 390069.0 0
372893.0 389790.0 0
377848.0 391262.0 0
381739.0 394342.0 0
386859.0 394377.0 0
388340.0 389597.0 0
392163.0 394053.0 0
398875.0 390105.0 0
402168.0 394205.0 0
404205.0 390823.0 0
410907.0 393964.0 0
414008.0 390115.0 0
421544.0 394141.0 0
427634.0 390463.0 0
432787.0 389894.0 0
438259.0 392672.0 0
443368.0 390144.0 0
447200.0 392820.0 0
451872.0 390166.0 0
462274.0 391525.0 0
471060.0 393140.0 0
475674.0 390495.0 0
481155.0 393676.0 0
485507.0 390651.0 0
490459.0 394269.0 0
496840.0 394464.0 0
2925.23 395052.0 0
8450.04 395873.0 0
13869.2 396260.0 0
23252.4 397818.0 0
29302.6 395603.0 0
34747.6 394737.0 0
32374.6 398563.0 0
39784.6 394423.0 0
37781.3 398229.0 0
43383.2 395674.0 0
46868.6 394911.0 0
51431.3 395884.0 0
55947.3 395185.0 0
66268.8 394899.0 0
72453.5 395433.0 0
77908.9 394901.0 0
81142.3 398558.0 0
85812.6 395346.0 0
93867.3 398937.0 0
97582.8 394939.0 0
103104.0 394509.0 0
109130.0 395333.0 0
114641.0 395779.0 0
121497.0 394742.0 0
118307.0 398353.0 0
126725.0 395134.0 0
123227.0 399231.0 0
132563.0 396119.0 0
139817.0 396912.0 0
147095.0 395360.0 0
143834.0 399313.0 0
153915.0 395958.0 0
159517.0 394988.0 0
162697.0 399503.0 0
164331.0 395459.0 0
168101.0 399519.0 0
173253.0 394601.0 0
173270.0 399131.0 0
178155.0 395028.0 0
182284.0 394916.0 0
182956.0 399372.0 0
187152.0 395699.0 0
192512.0 397162.0 0
197453.0 395405.0 0
203219.0 395778.0 0
207648.0 395129.0 0
213048.0 394900.0 0
217667.0 394700.0 0
217646.0 399244.0 0
222107.0 395161.0 0
227288.0 395142.0 0
232910.0 395599.0 0
237973.0 394909.0 0
241373.0 396889.0 0
244967.0 396091.0 0
251358.0 396387.0 0
255849.0 395014.0 0
258002.0 398981.0 0
262110.0 395006.0 0
262940.0 399197.0 0
267380.0 396688.0 0
272012.0 395358.0 0
277501.0 395054.0 0
282443.0 395280.0 0
288219.0 399218.0 0
294245.0 394940.0 0
299230.0 394980.0 0
297283.0 399205.0 0
304126.0 395984.0 0
311481.0 395758.0 0
317119.0 394834.0 0
322682.0 398749.0 0
326874.0 396231.0 0
336334.0 399212.0 0
338185.0 395453.0 0
342565.0 395895.0 0
351931.0 394854.0 0
356851.0 395518.0 0
352874.0 399453.0 0
366603.0 395480.0 0
363230.0 399555.0 0
371187.0 395095.0 0
376713.0 395880.0 0
373551.0 398802.0 0
388444.0 399133.0 0
393386.0 399102.0 0
397991.0 396084.0 0
406049.0 395895.0 0
412802.0 398479.0 0
415854.0 394914.0 0
427317.0 395708.0 0
433125.0 396434.0 0
443327.0 396409.0 0
451217.0 395702.0 0
456870.0 394654.0 0
461434.0 396993.0 0
466227.0 396049.0 0
476172.0 396509.0 0
485078.0 396802.0 0
2507.74 400416.0 0
6704.38 399908.0 0
7444.48 404138.0 0
11398.3 400825.0 0
18402.5 399688.0 0
23596.3 403684.0 0
28434.2 400248.0 0
32407.8 402707.0 0
36946.4 402345.0 0
42532.2 399614.0 0
46900.8 400262.0 0
50728.2 400777.0 0
55865.7 400011.0 0
62199.3 399795.0 0
68055.1 399584.0 0
67860.5 404348.0 0
71945.8 400654.0 0
76201.7 400499.0 0
86134.5 400824.0 0
81922.2 403580.0 0
90910.1 403950.0 0
99384.4 400028.0 0
101964.0 404339.0 0
104475.0 399528.0 0
109152.0 401122.0 0
113733.0 399606.0 0
116936.0 403776.0 0
127950.0 400317.0 0
131989.0 400869.0 0
136002.0 400128.0 0
133199.0 404140.0 0
143094.0 403932.0 0
147926.0 400632.0 0
152651.0 401623.0 0
157857.0 400545.0 0
161877.0 404096.0 0
177710.0 400070.0 0
188334.0 401247.0 0
184065.0 404460.0 0
192841.0 401720.0 0
196030.0 399971.0 0
200657.0 400206.0 0
206110.0 400025.0 0
212140.0 400564.0 0
218305.0 404573.0 0
221973.0 401030.0 0
226504.0 400275.0 0
231279.0 400566.0 0
236629.0 400001.0 0
241629.0 400605.0 0
247450.0 401254.0 0
253528.0 400975.0 0
257757.0 404396.0 0
262818.0 403856.0 0
267364.0 402005.0 0
272281.0 399980.0 0
280066.0 399795.0 0
276138.0 402643.0 0
284288.0 399800.0 0
285635.0 404266.0 0
292763.0 399576.0 0
298547.0 404541.0 0
301795.0 400425.0 0
304017.0 404482.0 0
307500.0 400069.0 0
313412.0 400631.0 0
318344.0 400073.0 0
321986.0 402643.0 0
326518.0 401605.0 0
331882.0 400564.0 0
340381.0 400181.0 0
346716.0 400449.0 0
351898.0 404673.0 0
357749.0 400707.0 0
369184.0 400035.0 0
376748.0 400525.0 0
373363.0 402933.0 0
382064.0 400535.0 0
397806.0 401365.0 0
393526.0 404713.0 0
403157.0 401266.0 0
408773.0 400443.0 0
417199.0 399781.0 0
413439.0 403184.0 0
422467.0 400356.0 0
427821.0 401049.0 0
432473.0 402712.0 0
437456.0 400572.0 0
442831.0 402026.0 0
447980.0 400027.0 0
453311.0 399994.0 0
451283.0 404263.0 0
458171.0 400664.0 0
463428.0 401000.0 0
468041.0 400742.0 0
472454.0 400868.0 0
477033.0 402282.0 0
480942.0 399658.0 0
484882.0 401803.0 0
489358.0 399986.0 0
492772.0 404289.0 0
497149.0 400583.0 0
2336.3 405228.0 0
2079.54 409662.0 0
6166.23 408632.0 0
12229.3 405518.0 0
17382.1 405145.0 0
20927.7 409620.0 0
28951.0 405087.0 0
26646.6 409254.0 0
34985.1 406969.0 0
41864.5 404907.0 0
47807.8 405042.0 0
52568.1 404888.0 0
52376.9 409608.0 0
57373.8 405338.0 0
62889.6 406109.0 0
69816.2 408931.0 0
72911.1 404900.0 0
77741.7 405217.0 0
85879.4 406025.0 0
81568.1 409439.0 0
96850.5 405191.0 0
106521.0 405381.0 0
103037.0 409214.0 0
111623.0 405806.0 0
119509.0 408927.0 0
124546.0 405104.0 0
129967.0 405676.0 0
137675.0 404978.0 0
133895.0 409716.0 0
137750.0 409610.0 0
142005.0 408962.0 0
148624.0 406033.0 0
153174.0 409544.0 0
153913.0 405521.0 0
157635.0 405988.0 0
162396.0 409283.0 0
166568.0 405985.0 0
172591.0 404614.0 0
178887.0 405323.0 0
182687.0 409625.0 0
188289.0 405940.0 0
187314.0 409453.0 0
192409.0 405644.0 0
197124.0 404929.0 0
197345.0 409174.0 0
202944.0 405198.0 0
208191.0 404773.0 0
207984.0 409447.0 0
213138.0 406579.0 0
222654.0 404911.0 0
221526.0 408863.0 0
226818.0 405236.0 0
232149.0 405760.0 0
237518.0 405407.0 0
242674.0 405186.0 0
247362.0 407579.0 0
252400.0 405909.0 0
255978.0 409667.0 0
266138.0 407597.0 0
271896.0 405752.0 0
280041.0 405177.0 0
282442.0 409143.0 0
292153.0 405057.0 0
301892.0 409201.0 0
308831.0 405802.0 0
313012.0 404779.0 0
312897.0 409376.0 0
317924.0 405874.0 0
324657.0 406386.0 0
329917.0 405863.0 0
330945.0 409696.0 0
335839.0 405042.0 0
342137.0 405219.0 0
347343.0 406237.0 0
357152.0 405827.0 0
363281.0 406537.0 0
369125.0 405381.0 0
373821.0 408454.0 0
377798.0 404686.0 0
382128.0 407135.0 0
387166.0 404735.0 0
399532.0 406373.0 0
404494.0 406450.0 0
408845.0 405365.0 0
413760.0 408980.0 0
418433.0 404639.0 0
419773.0 409582.0 0
423496.0 405896.0 0
428732.0 406047.0 0
433484.0 407430.0 0
437868.0 405887.0 0
442058.0 406541.0 0
446627.0 405015.0 0
445430.0 409790.0 0
455885.0 405483.0 0
457972.0 409515.0 0
460790.0 405562.0 0
465345.0 405142.0 0
466231.0 409500.0 0
470023.0 405312.0 0
475281.0 407513.0 0
481496.0 406264.0 0
487496.0 405906.0 0
497676.0 406127.0 0
1781.53 413560.0 0
6740.08 413903.0 0
10412.0 409859.0 0
15233.7 409944.0 0
12507.9 414342.0 0
17993.8 414587.0 0
27952.0 414671.0 0
31717.8 411290.0 0
38268.8 410785.0 0
42571.6 410127.0 0
42696.2 414424.0 0
47161.9 410272.0 0
50098.4 413422.0 0
56232.9 410648.0 0
60064.0 410561.0 0
65178.1 410975.0 0
75330.6 410099.0 0
87277.0 411040.0 0
92896.6 409695.0 0
98174.4 410327.0 0
104174.0 414305.0 0
108424.0 410004.0 0
110326.0 414808.0 0
114118.0 410800.0 0
119209.0 414353.0 0
124502.0 411617.0 0
129391.0 409794.0 0
127619.0 414815.0 0
131976.0 414240.0 0
137166.0 413743.0 0
142477.0 414414.0 0
147496.0 411762.0 0
157713.0 410209.0 0
162640.0 414463.0 0
168362.0 410065.0 0
167897.0 414779.0 0
173096.0 414039.0 0
173851.0 409867.0 0
177784.0 410084.0 0
188432.0 412970.0 0
192565.0 410106.0 0
198246.0 413763.0 0
203126.0 410795.0 0
207385.0 414056.0 0
211935.0 411342.0 0
216764.0 410973.0 0
222148.0 414064.0 0
226169.0 410130.0 0
231004.0 410989.0 0
236930.0 411322.0 0
242628.0 410211.0 0
247264.0 411951.0 0
251266.0 410615.0 0
258862.0 414746.0 0
262253.0 410134.0 0
265719.0 412428.0 0
270248.0 411348.0 0
276816.0 410473.0 0
283484.0 414017.0 0
287649.0 409981.0 0
293177.0 411114.0 0
297967.0 412208.0 0
302654.0 414853.0 0
307430.0 411307.0 0
318819.0 412590.0 0
324270.0 410926.0 0
327987.0 409815.0 0
330409.0 414579.0 0
334329.0 410263.0 0
336592.0 414371.0 0
339060.0 409942.0 0
344731.0 410940.0 0
352204.0 410896.0 0
358863.0 411389.0 0
364649.0 412852.0 0
368941.0 410193.0 0
371998.0 414409.0 0
378859.0 411264.0 0
384287.0 411113.0 0
389336.0 410600.0 0
395420.0 410694.0 0
399727.0 412665.0 0
402781.0 410252.0 0
407912.0 410825.0 0
412197.0 414382.0 0
416805.0 413320.0 0
421518.0 414463.0 0
424717.0 410722.0 0
429468.0 411011.0 0
433976.0 411338.0 0
436928.0 410722.0 0
437631.0 414808.0 0
440330.0 410584.0 0
442228.0 414702.0 0
452355.0 410083.0 0
461979.0 410834.0 0
468343.0 414155.0 0
470602.0 409983.0 0
474016.0 412934.0 0
479380.0 411490.0 0
485591.0 411314.0 0
491442.0 409872.0 0
496990.0 411171.0 0
2594.99 417997.0 0
12538.7 419323.0 0
23341.1 415525.0 0
28488.7 419108.0 0
34045.3 416763.0 0
38264.2 415296.0 0
41916.4 419413.0 0
47500.0 415657.0 0
52366.9 417377.0 0
57365.4 415053.0 0
62628.7 415428.0 0
67455.9 415321.0 0
72641.2 415565.0 0
78184.0 415150.0 0
80974.5 419364.0 0
83543.0 414913.0 0
88182.5 416497.0 0
93296.2 415652.0 0
98461.3 414797.0 0
101434.0 418528.0 0
106837.0 418945.0 0
112103.0 419477.0 0
114771.0 415934.0 0
120860.0 419450.0 0
123161.0 415839.0 0
126171.0 418819.0 0
138273.0 419420.0 0
147281.0 416760.0 0
143762.0 419382.0 0
152744.0 415402.0 0
158158.0 414920.0 0
156968.0 419269.0 0
178498.0 415342.0 0
173787.0 419605.0 0
184286.0 414908.0 0
188391.0 418114.0 0
192652.0 415227.0 0
203043.0 416933.0 0
211991.0 416076.0 0
217279.0 416345.0 0
227555.0 415177.0 0
232990.0 415873.0 0
238378.0 417445.0 0
244146.0 415587.0 0
249658.0 415042.0 0
248194.0 419853.0 0
253755.0 416849.0 0
264004.0 416052.0 0
261520.0 419793.0 0
268216.0 415749.0 0
266099.0 419698.0 0
273231.0 415571.0 0
270546.0 419581.0 0
278471.0 416774.0 0
288875.0 415491.0 0
294033.0 416283.0 0
298330.0 417032.0 0
307403.0 416412.0 0
312640.0 415490.0 0
316993.0 416986.0 0
320199.0 417987.0 0
324271.0 415723.0 0
335120.0 419626.0 0
341989.0 416927.0 0
348100.0 415558.0 0
352394.0 417239.0 0
356374.0 415942.0 0
360842.0 416425.0 0
367570.0 417303.0 0
377308.0 416390.0 0
382420.0 415326.0 0
383470.0 419696.0 0
388169.0 417010.0 0
394958.0 417058.0 0
399906.0 418046.0 0
403757.0 415329.0 0
408509.0 417033.0 0
412571.0 419861.0 0
418010.0 418461.0 0
426816.0 415547.0 0
432345.0 415324.0 0
443085.0 419748.0 0
447274.0 415201.0 0
452759.0 415979.0 0
458456.0 414978.0 0
463731.0 414935.0 0
463623.0 418944.0 0
468181.0 419399.0 0
471993.0 416912.0 0
477791.0 415354.0 0
479156.0 419930.0 0
481953.0 415182.0 0
486073.0 416956.0 0
491504.0 415964.0 0
497380.0 416515.0 0
2568.47 423225.0 0
7482.4 420731.0 0
10793.7 424059.0 0
14319.7 424890.0 0
18027.3 420744.0 0
23874.2 420525.0 0
27558.7 424078.0 0
32917.0 422779.0 0
37383.4 420841.0 0
43463.3 424029.0 0
47468.1 420074.0 0
52318.3 422947.0 0
56433.1 420329.0 0
57218.3 424792.0 0
61230.2 420324.0 0
62503.8 424959.0 0
66726.2 420486.0 0
71236.7 425053.0 0
72097.0 420914.0 0
75425.9 424651.0 0
76565.5 420256.0 0
80973.3 424849.0 0
85427.7 420389.0 0
86322.6 424721.0 0
90798.9 421385.0 0
96585.5 420079.0 0
103424.0 423722.0 0
109404.0 424119.0 0
116328.0 423364.0 0
121961.0 424364.0 0
126912.0 424114.0 0
131819.0 420261.0 0
135820.0 424856.0 0
142833.0 424752.0 0
147969.0 421682.0 0
152714.0 421004.0 0
162293.0 419917.0 0
158634.0 423292.0 0
167954.0 420377.0 0
164465.0 424223.0 0
173832.0 424986.0 0
178680.0 422834.0 0
183777.0 420496.0 0
188123.0 424080.0 0
192642.0 420946.0 0
198707.0 421188.0 0
203576.0 421477.0 0
208002.0 420065.0 0
214333.0 420817.0 0
218659.0 420425.0 0
222500.0 420080.0 0
227873.0 420369.0 0
226875.0 424363.0 0
233947.0 421022.0 0
238578.0 422417.0 0
242824.0 420995.0 0
252501.0 420634.0 0
252021.0 424918.0 0
256644.0 420683.0 0
262711.0 424720.0 0
268176.0 424268.0 0
275314.0 421496.0 0
282635.0 420160.0 0
282849.0 424740.0 0
288134.0 421278.0 0
294294.0 421162.0 0
298957.0 420662.0 0
297640.0 424949.0 0
303534.0 420521.0 0
308281.0 420337.0 0
307817.0 424854.0 0
311769.0 421373.0 0
315550.0 420240.0 0
317558.0 424837.0 0
322220.0 422212.0 0
327778.0 420821.0 0
339314.0 421091.0 0
342960.0 422718.0 0
346680.0 420018.0 0
350668.0 420850.0 0
348056.0 424582.0 0
352583.0 424214.0 0
357881.0 420858.0 0
363351.0 420484.0 0
367517.0 421633.0 0
373035.0 420899.0 0
379345.0 421543.0 0
386486.0 422227.0 0
391805.0 422969.0 0
398194.0 421317.0 0
402652.0 421113.0 0
407467.0 421323.0 0
416744.0 424234.0 0
423009.0 420654.0 0
427770.0 420253.0 0
426774.0 424146.0 0
432268.0 420571.0 0
437389.0 420103.0 0
441866.0 424923.0 0
448553.0 420492.0 0
452090.0 423912.0 0
455631.0 420174.0 0
460156.0 420941.0 0
461602.0 424991.0 0
474192.0 420282.0 0
470988.0 423319.0 0
483833.0 420407.0 0
481754.0 424807.0 0
487394.0 420708.0 0
491923.0 422134.0 0
497474.0 421789.0 0
2078.71 427840.0 0
6944.58 426554.0 0
11723.0 428412.0 0
16867.3 428818.0 0
21935.7 425761.0 0
26525.0 429571.0 0
33089.8 429288.0 0
37792.3 425296.0 0
41793.7 428347.0 0
47820.8 425343.0 0
46462.8 429995.0 0
52882.6 429451.0 0
59783.3 429284.0 0
65086.1 430208.0 0
67126.9 425849.0 0
70022.7 430128.0 0
76647.4 429329.0 0
86930.5 429237.0 0
92080.1 427656.0 0
97708.0 425453.0 0
103355.0 429932.0 0
108992.0 429525.0 0
112956.0 427509.0 0
116624.0 429401.0 0
119346.0 427110.0 0
122590.0 428977.0 0
127354.0 429326.0 0
131297.0 425298.0 0
133221.0 430119.0 0
139116.0 429465.0 0
148852.0 426879.0 0
154185.0 425177.0 0
153596.0 429951.0 0
158230.0 427790.0 0
163548.0 428826.0 0
168894.0 425872.0 0
177255.0 427026.0 0
183024.0 426386.0 0
187897.0 429179.0 0
192930.0 425808.0 0
197369.0 426123.0 0
196733.0 429477.0 0
202608.0 425611.0 0
207678.0 425522.0 0
212319.0 425251.0 0
217550.0 425303.0 0
222811.0 425170.0 0
226904.0 428909.0 0
231153.0 425460.0 0
236058.0 425859.0 0
241000.0 425819.0 0
242851.0 429674.0 0
246220.0 425356.0 0
252470.0 429473.0 0
257628.0 425656.0 0
261353.0 429267.0 0
266119.0 429370.0 0
273138.0 426472.0 0
278325.0 426045.0 0
286891.0 426630.0 0
292148.0 426021.0 0
299659.0 429740.0 0
302806.0 425758.0 0
308602.0 429188.0 0
312569.0 425876.0 0
317223.0 429881.0 0
322224.0 427350.0 0
326997.0 426531.0 0
332430.0 425185.0 0
338427.0 425286.0 0
341772.0 429853.0 0
344375.0 426379.0 0
346662.0 429082.0 0
351826.0 429241.0 0
356566.0 426188.0 0
358876.0 429747.0 0
362388.0 426121.0 0
369086.0 426750.0 0
374400.0 426471.0 0
377307.0 430146.0 0
378113.0 425920.0 0
382500.0 425238.0 0
381126.0 430162.0 0
387591.0 426079.0 0
391068.0 428482.0 0
396100.0 425535.0 0
400434.0 425682.0 0
399155.0 430159.0 0
405361.0 425497.0 0
408050.0 429175.0 0
410788.0 425545.0 0
422369.0 426321.0 0
427857.0 429986.0 0
431254.0 425735.0 0
436886.0 425959.0 0
437254.0 430154.0 0
446890.0 425533.0 0
452096.0 429278.0 0
456796.0 425963.0 0
462002.0 429913.0 0
466558.0 425524.0 0
472125.0 430153.0 0
475986.0 425402.0 0
482781.0 429342.0 0
487181.0 425433.0 0
494059.0 427377.0 0
498274.0 426112.0 0
497879.0 430274.0 0
3287.25 433154.0 0
8516.03 431429.0 0
12580.5 432579.0 0
21450.1 430753.0 0
24060.5 434270.0 0
38473.0 431893.0 0
38739.6 435245.0 0
43143.6 434030.0 0
48660.1 433784.0 0
57419.4 434020.0 0
62157.4 433931.0 0
73703.9 431747.0 0
77240.1 434482.0 0
81846.5 430900.0 0
86346.0 433827.0 0
92968.8 432044.0 0
97305.6 431347.0 0
107298.0 434561.0 0
113007.0 431557.0 0
117876.0 433843.0 0
123577.0 434465.0 0
129158.0 433953.0 0
133118.0 435193.0 0
137878.0 434955.0 0
144740.0 430973.0 0
147821.0 435069.0 0
149624.0 431738.0 0
157861.0 432906.0 0
168076.0 430725.0 0
173621.0 430773.0 0
179609.0 430568.0 0
183289.0 435330.0 0
184030.0 431276.0 0
188133.0 434387.0 0
192722.0 430444.0 0
192691.0 434799.0 0
197567.0 434913.0 0
200946.0 430851.0 0
202633.0 435309.0 0
206626.0 430677.0 0
208486.0 435331.0 0
212706.0 430690.0 0
218263.0 430423.0 0
217727.0 435008.0 0
222552.0 430956.0 0
227993.0 434606.0 0
232142.0 430691.0 0
233098.0 435224.0 0
237558.0 430822.0 0
241743.0 433941.0 0
247829.0 431318.0 0
256815.0 430760.0 0
261445.0 435058.0 0
268194.0 434766.0 0
270750.0 430368.0 0
276079.0 431118.0 0
282484.0 430521.0 0
288669.0 431615.0 0
294433.0 431497.0 0
304554.0 430354.0 0
301646.0 435008.0 0
308198.0 434886.0 0
312563.0 430630.0 0
313855.0 435072.0 0
318216.0 434266.0 0
321678.0 431814.0 0
325563.0 430659.0 0
330799.0 431381.0 0
326588.0 435022.0 0
336391.0 430162.0 0
335363.0 434933.0 0
340382.0 435197.0 0
347961.0 433762.0 0
353307.0 434792.0 0
362014.0 431909.0 0
358048.0 433642.0 0
366627.0 432189.0 0
371280.0 434507.0 0
373359.0 430283.0 0
376786.0 434918.0 0
381939.0 435043.0 0
386240.0 430967.0 0
394796.0 431547.0 0
397864.0 434449.0 0
401829.0 434728.0 0
403932.0 430357.0 0
407278.0 434483.0 0
411906.0 431305.0 0
417862.0 430410.0 0
422629.0 433770.0 0
424099.0 430656.0 0
426920.0 434815.0 0
432350.0 430874.0 0
436678.0 434946.0 0
441527.0 430252.0 0
446954.0 430874.0 0
451298.0 435118.0 0
457097.0 430974.0 0
462518.0 434879.0 0
466890.0 430522.0 0
466499.0 434838.0 0
478121.0 431409.0 0
487390.0 431330.0 0
493057.0 432636.0 0
3558.9 440151.0 0
9234.23 436591.0 0
17832.9 435494.0 0
23232.9 439107.0 0
28632.5 437055.0 0
34711.9 435959.0 0
40051.6 438943.0 0
46963.0 438583.0 0
52738.2 436654.0 0
61650.9 439392.0 0
66535.9 436018.0 0
71789.9 435635.0 0
78119.8 439600.0 0
82354.2 436838.0 0
91200.4 436120.0 0
86820.4 439898.0 0
96331.5 436306.0 0
101494.0 435942.0 0
112978.0 436891.0 0
117898.0 439560.0 0
127890.0 439544.0 0
134397.0 439968.0 0
143383.0 436749.0 0
152891.0 435662.0 0
148627.0 439667.0 0
163067.0 435422.0 0
158202.0 439634.0 0
168094.0 439858.0 0
169312.0 435679.0 0
174215.0 436297.0 0
178592.0 435521.0 0
183287.0 439950.0 0
188416.0 439806.0 0
194331.0 439595.0 0
199405.0 440285.0 0
206918.0 439657.0 0
213097.0 436494.0 0
217427.0 439952.0 0
222534.0 435514.0 0
222242.0 440277.0 0
227145.0 440208.0 0
232058.0 439538.0 0
237593.0 436226.0 0
241710.0 439255.0 0
245691.0 436356.0 0
250069.0 435956.0 0
254969.0 435964.0 0
251701.0 439982.0 0
268817.0 439939.0 0
273816.0 436283.0 0
279326.0 435947.0 0
283617.0 435431.0 0
283384.0 439937.0 0
287083.0 436554.0 0
287812.0 440237.0 0
291452.0 435862.0 0
292942.0 440320.0 0
296304.0 436598.0 0
312706.0 440080.0 0
317641.0 438654.0 0
322158.0 436225.0 0
331039.0 437077.0 0
326789.0 440265.0 0
337801.0 440089.0 0
342309.0 439712.0 0
347169.0 439137.0 0
356957.0 437824.0 0
352587.0 440282.0 0
361792.0 436312.0 0
366377.0 437005.0 0
368885.0 440237.0 0
373195.0 439356.0 0
385841.0 435796.0 0
387304.0 439687.0 0
391168.0 435795.0 0
396489.0 438741.0 0
402262.0 439624.0 0
413100.0 436747.0 0
408324.0 440393.0 0
418822.0 436519.0 0
423584.0 439916.0 0
427499.0 439724.0 0
431398.0 436310.0 0
432661.0 440346.0 0
441768.0 435721.0 0
442013.0 440110.0 0
445870.0 435649.0 0
448131.0 440308.0 0
453329.0 440164.0 0
457927.0 436118.0 0
462382.0 439577.0 0
467465.0 439109.0 0
471080.0 435581.0 0
475631.0 435873.0 0
478665.0 439595.0 0
482335.0 435460.0 0
487408.0 436975.0 0
492238.0 437506.0 0
497486.0 435416.0 0
497977.0 439930.0 0
8891.07 443619.0 0
13422.6 440540.0 0
18860.9 442474.0 0
27050.6 442259.0 0
32689.4 442017.0 0
37915.3 445025.0 0
43590.3 443556.0 0
50640.5 442885.0 0
56001.7 441633.0 0
61534.4 444596.0 0
67511.5 441604.0 0
73358.1 441366.0 0
77212.9 445223.0 0
82173.5 442511.0 0
86577.4 445059.0 0
91837.6 441740.0 0
96874.5 440837.0 0
101786.0 441460.0 0
107824.0 441416.0 0
114358.0 441941.0 0
122286.0 442073.0 0
117601.0 444059.0 0
132211.0 444654.0 0
140002.0 440826.0 0
144584.0 442951.0 0
153158.0 440796.0 0
153801.0 445518.0 0
164139.0 441620.0 0
172377.0 440876.0 0
168741.0 444966.0 0
178133.0 440792.0 0
177238.0 445512.0 0
181657.0 444619.0 0
186750.0 444821.0 0
197856.0 444113.0 0
202920.0 440625.0 0
202813.0 445090.0 0
208730.0 444804.0 0
212652.0 441270.0 0
214111.0 445450.0 0
218383.0 445045.0 0
222502.0 445151.0 0
226765.0 445098.0 0
232152.0 444927.0 0
236780.0 441340.0 0
238193.0 445547.0 0
242283.0 444408.0 0
246764.0 441435.0 0
252136.0 444532.0 0
257027.0 441818.0 0
263675.0 441682.0 0
269035.0 445066.0 0
273139.0 441434.0 0
277934.0 440892.0 0
283369.0 445175.0 0
287600.0 445206.0 0
291829.0 444954.0 0
296341.0 440649.0 0
300148.0 440695.0 0
296270.0 443880.0 0
306786.0 441341.0 0
317424.0 444030.0 0
321698.0 440709.0 0
323269.0 445494.0 0
328568.0 445335.0 0
332737.0 441965.0 0
336956.0 445061.0 0
341887.0 444376.0 0
347371.0 444825.0 0
358306.0 443266.0 0
363557.0 440668.0 0
367101.0 444764.0 0
373088.0 444903.0 0
377957.0 440488.0 0
382635.0 440871.0 0
378491.0 445291.0 0
387418.0 444802.0 0
391804.0 441520.0 0
395882.0 444512.0 0
401256.0 445123.0 0
411306.0 444805.0 0
413524.0 441448.0 0
414857.0 445409.0 0
418419.0 442519.0 0
428194.0 443621.0 0
433186.0 445254.0 0
437194.0 440549.0 0
438181.0 444858.0 0
442105.0 444429.0 0
446075.0 445025.0 0
451603.0 445460.0 0
457767.0 441386.0 0
456411.0 444998.0 0
460681.0 444939.0 0
465791.0 443998.0 0
472711.0 441285.0 0
484053.0 441145.0 0
480323.0 444393.0 0
488414.0 441035.0 0
494105.0 441168.0 0
497172.0 444802.0 0
3227.0 447317.0 0
8693.09 448738.0 0
14044.9 446771.0 0
19095.6 447451.0 0
23435.2 446002.0 0
21981.0 450200.0 0
28444.4 446888.0 0
33118.4 447560.0 0
42932.6 449295.0 0
47691.2 446595.0 0
52322.0 447760.0 0
57877.6 446073.0 0
56727.2 450219.0 0
65174.3 446017.0 0
62310.9 450466.0 0
68714.3 449738.0 0
73290.2 446434.0 0
77337.0 450235.0 0
81707.1 447728.0 0
90978.8 446348.0 0
87970.8 450059.0 0
95787.4 445953.0 0
101239.0 446627.0 0
98007.3 450052.0 0
106512.0 447475.0 0
112126.0 445644.0 0
110741.0 450603.0 0
116472.0 449225.0 0
121363.0 446958.0 0
126976.0 446315.0 0
137415.0 445534.0 0
133241.0 449536.0 0
142466.0 447644.0 0
146546.0 450604.0 0
148531.0 446055.0 0
151317.0 450048.0 0
159551.0 445648.0 0
164863.0 447283.0 0
172903.0 446186.0 0
176183.0 450196.0 0
182003.0 450157.0 0
188074.0 450286.0 0
192582.0 445915.0 0
198861.0 449200.0 0
205743.0 449300.0 0
212619.0 450021.0 0
217000.0 450282.0 0
221281.0 449994.0 0
226732.0 450274.0 0
231663.0 450036.0 0
236950.0 450403.0 0
243222.0 449861.0 0
247170.0 446457.0 0
248081.0 450444.0 0
252039.0 449090.0 0
257554.0 446720.0 0
261122.0 446332.0 0
261297.0 450618.0 0
266234.0 450040.0 0
274052.0 445874.0 0
271135.0 450149.0 0
278587.0 445663.0 0
276121.0 450271.0 0
282681.0 449984.0 0
287486.0 450094.0 0
292167.0 449956.0 0
296729.0 448276.0 0
301605.0 446342.0 0
306642.0 446649.0 0
307910.0 450193.0 0
311568.0 445867.0 0
316228.0 449550.0 0
321540.0 450628.0 0
325778.0 449719.0 0
330254.0 450558.0 0
332822.0 446510.0 0
335527.0 449787.0 0
341206.0 450057.0 0
352824.0 445658.0 0
359968.0 450027.0 0
362647.0 445840.0 0
366257.0 450619.0 0
374102.0 449657.0 0
378648.0 450598.0 0
382900.0 445835.0 0
383542.0 449967.0 0
391724.0 446322.0 0
388758.0 450322.0 0
393680.0 450153.0 0
397966.0 449198.0 0
402774.0 450399.0 0
406696.0 446287.0 0
407556.0 449850.0 0
411188.0 449652.0 0
417080.0 449510.0 0
423284.0 445601.0 0
422136.0 450253.0 0
427413.0 449970.0 0
432534.0 450209.0 0
436969.0 449615.0 0
442641.0 449259.0 0
448020.0 449625.0 0
457807.0 449007.0 0
466437.0 449335.0 0
470301.0 446405.0 0
472491.0 450652.0 0
475689.0 447041.0 0
484354.0 446246.0 0
480723.0 449802.0 0
490516.0 446117.0 0
497549.0 450404.0 0
1960.91 452441.0 0
6206.26 452634.0 0
12108.6 452279.0 0
17686.1 452146.0 0
20404.9 455274.0 0
23692.6 455084.0 0
26020.9 451049.0 0
32391.0 451894.0 0
37253.1 450902.0 0
41231.4 453886.0 0
48043.2 451374.0 0
47786.9 455701.0 0
52808.2 453304.0 0
57497.1 455080.0 0
61928.2 455641.0 0
66394.9 455235.0 0
71096.5 454774.0 0
73406.3 451508.0 0
75861.9 454987.0 0
83619.7 451969.0 0
87202.4 455678.0 0
93318.2 450704.0 0
92497.1 455593.0 0
97009.6 454243.0 0
102338.0 451544.0 0
106404.0 451892.0 0
121528.0 451519.0 0
126187.0 452063.0 0
123524.0 455763.0 0
130713.0 454808.0 0
135828.0 454030.0 0
138055.0 450612.0 0
142253.0 452516.0 0
147391.0 455617.0 0
152416.0 454738.0 0
156144.0 451296.0 0
161031.0 450715.0 0
165392.0 452436.0 0
170510.0 450897.0 0
177553.0 454808.0 0
182053.0 455407.0 0
193644.0 451932.0 0
198218.0 454821.0 0
202600.0 451730.0 0
202739.0 455382.0 0
208449.0 454856.0 0
216184.0 454216.0 0
220693.0 455065.0 0
231093.0 454728.0 0
246380.0 455454.0 0
256536.0 450671.0 0
259730.0 455508.0 0
268856.0 455115.0 0
273327.0 454837.0 0
278476.0 455298.0 0
283303.0 454536.0 0
287134.0 454556.0 0
291625.0 455404.0 0
296905.0 453175.0 0
302013.0 451920.0 0
306400.0 453936.0 0
310498.0 455602.0 0
311768.0 451278.0 0
316325.0 455734.0 0
326799.0 454623.0 0
337431.0 455205.0 0
342601.0 454889.0 0
347489.0 450970.0 0
351122.0 455475.0 0
353572.0 451099.0 0
363212.0 455524.0 0
370956.0 452103.0 0
368227.0 454963.0 0
374616.0 455171.0 0
379354.0 455288.0 0
383857.0 454983.0 0
392529.0 453741.0 0
388747.0 455772.0 0
397379.0 454730.0 0
402508.0 454033.0 0
407124.0 454450.0 0
413289.0 454737.0 0
418713.0 455188.0 0
423787.0 454365.0 0
428412.0 455591.0 0
433677.0 454881.0 0
438410.0 453901.0 0
442851.0 455016.0 0
448408.0 454898.0 0
452893.0 451331.0 0
457582.0 453786.0 0
462067.0 451422.0 0
467133.0 455111.0 0
472832.0 454979.0 0
476609.0 452303.0 0
477841.0 455756.0 0
482408.0 455261.0 0
486015.0 451203.0 0
489220.0 455513.0 0
492969.0 451926.0 0
497561.0 455067.0 0
3388.97 457047.0 0
8452.54 456240.0 0
12816.4 457221.0 0
17739.4 457660.0 0
24052.4 459366.0 0
29043.0 455771.0 0
27420.9 459982.0 0
37071.6 457116.0 0
43011.1 457733.0 0
47266.0 459945.0 0
51070.7 457481.0 0
55379.8 460296.0 0
61095.0 460188.0 0
66300.2 460396.0 0
72737.5 460639.0 0
81226.6 456408.0 0
82544.9 460572.0 0
85976.1 460603.0 0
101466.0 456185.0 0
97048.9 459208.0 0
106511.0 456266.0 0
112160.0 456193.0 0
118277.0 455847.0 0
127116.0 459435.0 0
133576.0 460688.0 0
139784.0 456608.0 0
143482.0 455817.0 0
144742.0 459920.0 0
157464.0 455827.0 0
154452.0 459565.0 0
161966.0 455926.0 0
159480.0 459962.0 0
167803.0 456053.0 0
163636.0 460433.0 0
167560.0 460005.0 0
172632.0 456351.0 0
177020.0 460597.0 0
183375.0 460528.0 0
187384.0 456084.0 0
192317.0 456614.0 0
192022.0 459666.0 0
197217.0 460610.0 0
203265.0 460117.0 0
213531.0 456885.0 0
213900.0 460333.0 0
217674.0 460043.0 0
222304.0 460242.0 0
225822.0 455806.0 0
227442.0 460758.0 0
232901.0 460222.0 0
235931.0 455872.0 0
238532.0 460540.0 0
240585.0 455871.0 0
242945.0 460175.0 0
253342.0 455780.0 0
264269.0 456138.0 0
261008.0 460683.0 0
266125.0 460099.0 0
272037.0 460542.0 0
277188.0 459847.0 0
282392.0 459918.0 0
287832.0 458812.0 0
296278.0 458783.0 0
301098.0 456622.0 0
305894.0 459594.0 0
311896.0 460267.0 0
322322.0 456164.0 0
327618.0 460108.0 0
331703.0 455998.0 0
332797.0 460635.0 0
337231.0 460647.0 0
346627.0 456664.0 0
342021.0 459297.0 0
351933.0 460120.0 0
357241.0 455951.0 0
362784.0 460646.0 0
367472.0 459417.0 0
372155.0 459300.0 0
376732.0 460043.0 0
381859.0 460220.0 0
393835.0 460167.0 0
401968.0 457337.0 0
411579.0 459978.0 0
417261.0 460655.0 0
423416.0 460043.0 0
437552.0 457454.0 0
441069.0 459993.0 0
446659.0 460524.0 0
453791.0 456672.0 0
458244.0 460069.0 0
461452.0 455907.0 0
463952.0 460138.0 0
469114.0 460582.0 0
473865.0 459646.0 0
478629.0 460335.0 0
483110.0 459851.0 0
487745.0 460426.0 0
493642.0 456226.0 0
492526.0 460204.0 0
497350.0 460026.0 0
2889.56 462762.0 0
8314.07 461033.0 0
7235.44 465666.0 0
14861.0 461556.0 0
11618.7 464772.0 0
20303.0 461725.0 0
17450.1 465727.0 0
21851.3 465289.0 0
26445.2 464360.0 0
30988.2 460928.0 0
35265.3 462106.0 0
31933.4 465692.0 0
40825.4 461827.0 0
42431.2 465782.0 0
50896.1 462035.0 0
46539.2 464748.0 0
58263.5 465426.0 0
63523.8 464860.0 0
68099.7 464701.0 0
78899.8 461311.0 0
81943.5 465081.0 0
91477.1 461200.0 0
87002.1 465220.0 0
97397.6 465639.0 0
102890.0 461838.0 0
108914.0 460991.0 0
112214.0 465190.0 0
113418.0 460897.0 0
116824.0 463258.0 0
121522.0 460957.0 0
128521.0 465604.0 0
139906.0 461992.0 0
144163.0 465009.0 0
149441.0 461179.0 0
148383.0 465664.0 0
153096.0 465059.0 0
158090.0 464195.0 0
162625.0 465033.0 0
167900.0 464885.0 0
171581.0 461353.0 0
173581.0 464563.0 0
181558.0 465480.0 0
188521.0 460838.0 0
186446.0 465528.0 0
192143.0 464415.0 0
201869.0 464862.0 0
209080.0 461901.0 0
214292.0 464714.0 0
218690.0 465336.0 0
222500.0 465413.0 0
232462.0 465367.0 0
237224.0 465673.0 0
242575.0 464966.0 0
247918.0 461216.0 0
251897.0 461123.0 0
252500.0 465416.0 0
255939.0 461391.0 0
261515.0 465888.0 0
267195.0 465735.0 0
277620.0 464431.0 0
286699.0 464273.0 0
291668.0 461705.0 0
300666.0 461259.0 0
296803.0 464916.0 0
302675.0 465634.0 0
307631.0 465020.0 0
312369.0 465368.0 0
317019.0 462216.0 0
321017.0 465849.0 0
322121.0 460955.0 0
331853.0 465117.0 0
343007.0 464252.0 0
347056.0 461680.0 0
352882.0 465818.0 0
357570.0 462194.0 0
362211.0 465075.0 0
366392.0 464082.0 0
372311.0 464250.0 0
377101.0 464539.0 0
381156.0 464891.0 0
387427.0 461149.0 0
396905.0 465245.0 0
399428.0 460977.0 0
401820.0 465778.0 0
405614.0 461469.0 0
412969.0 464911.0 0
422564.0 465200.0 0
426816.0 465763.0 0
429775.0 460958.0 0
432892.0 464994.0 0
435315.0 460933.0 0
437641.0 465624.0 0
443054.0 464861.0 0
451947.0 461212.0 0
452399.0 465169.0 0
456578.0 465363.0 0
461860.0 465157.0 0
467534.0 465546.0 0
472438.0 464145.0 0
477248.0 464956.0 0
482216.0 464649.0 0
488483.0 465830.0 0
492965.0 465017.0 0
497500.0 465059.0 0
1217.99 466541.0 0
2786.8 470280.0 0
7973.14 471083.0 0
12966.4 469569.0 0
17631.1 470244.0 0
22085.9 469438.0 0
27538.4 470693.0 0
33245.9 470746.0 0
37510.8 466779.0 0
42101.0 470455.0 0
47613.0 469762.0 0
52555.5 466483.0 0
56919.1 470907.0 0
62092.4 469807.0 0
67591.0 469982.0 0
71714.3 466833.0 0
76730.6 466135.0 0
84110.8 470584.0 0
91749.5 467370.0 0
99024.6 471002.0 0
102453.0 467180.0 0
107093.0 466099.0 0
108841.0 470340.0 0
112802.0 469770.0 0
117925.0 468106.0 0
122725.0 466285.0 0
134980.0 467456.0 0
139399.0 466138.0 0
143138.0 469986.0 0
150898.0 470343.0 0
157101.0 469852.0 0
162853.0 469800.0 0
167742.0 470912.0 0
172972.0 469000.0 0
177210.0 466066.0 0
178011.0 470591.0 0
183219.0 470212.0 0
188076.0 470251.0 0
192530.0 469933.0 0
197569.0 466243.0 0
197308.0 470886.0 0
202500.0 470289.0 0
206243.0 467425.0 0
212650.0 470112.0 0
217500.0 470245.0 0
222500.0 470114.0 0
226879.0 466421.0 0
232681.0 470081.0 0
237802.0 470574.0 0
242683.0 469503.0 0
247377.0 466080.0 0
247439.0 470477.0 0
251990.0 469789.0 0
256679.0 466064.0 0
256349.0 470284.0 0
260756.0 470882.0 0
265539.0 470949.0 0
272716.0 466385.0 0
277047.0 470543.0 0
282093.0 467256.0 0
286750.0 470456.0 0
291422.0 466730.0 0
303930.0 470326.0 0
308151.0 469447.0 0
312883.0 470809.0 0
316543.0 467073.0 0
326536.0 466016.0 0
323375.0 469970.0 0
333171.0 470551.0 0
337600.0 466299.0 0
342803.0 470064.0 0
347526.0 466730.0 0
351201.0 470848.0 0
358003.0 467675.0 0
362878.0 470704.0 0
368538.0 468335.0 0
378306.0 468967.0 0
385636.0 466601.0 0
383006.0 470966.0 0
391362.0 466167.0 0
398008.0 470347.0 0
407791.0 467120.0 0
403353.0 470619.0 0
412573.0 470130.0 0
417915.0 466367.0 0
422210.0 469742.0 0
430501.0 468331.0 0
441254.0 470238.0 0
448195.0 466009.0 0
452552.0 470311.0 0
459342.0 470688.0 0
464466.0 469174.0 0
474312.0 468805.0 0
479304.0 469867.0 0
483866.0 469296.0 0
492548.0 468951.0 0
497500.0 470033.0 0
1936.07 475340.0 0
5974.33 475861.0 0
11433.3 474662.0 0
17231.2 475494.0 0
23224.6 475008.0 0
28220.3 476127.0 0
33399.5 476144.0 0
37719.7 472967.0 0
42410.7 475591.0 0
47107.4 474930.0 0
52118.2 471697.0 0
62677.3 475040.0 0
67343.1 475015.0 0
72982.7 471717.0 0
76200.4 475844.0 0
78178.4 471349.0 0
89638.8 471707.0 0
87200.2 475277.0 0
94318.9 471807.0 0
97444.1 476012.0 0
104136.0 471725.0 0
108312.0 475676.0 0
115865.0 472011.0 0
113677.0 475730.0 0
121902.0 471118.0 0
118974.0 475388.0 0
127998.0 472970.0 0
134853.0 472666.0 0
138677.0 471099.0 0
138331.0 475617.0 0
146866.0 472021.0 0
143242.0 475006.0 0
146957.0 475544.0 0
162770.0 474875.0 0
167712.0 475912.0 0
173399.0 475286.0 0
177993.0 475898.0 0
181812.0 475481.0 0
187154.0 475007.0 0
193364.0 475829.0 0
198731.0 474889.0 0
202924.0 475018.0 0
207982.0 472065.0 0
212275.0 475513.0 0
217524.0 475014.0 0
222435.0 475136.0 0
228057.0 471734.0 0
231498.0 474941.0 0
236445.0 475264.0 0
241666.0 474138.0 0
247445.0 475626.0 0
253641.0 475172.0 0
258937.0 475338.0 0
262974.0 475152.0 0
267459.0 475651.0 0
270799.0 471461.0 0
273527.0 475761.0 0
277963.0 476032.0 0
282098.0 471662.0 0
282325.0 475208.0 0
287114.0 475650.0 0
292360.0 471881.0 0
298477.0 471300.0 0
301842.0 475423.0 0
306237.0 474453.0 0
310632.0 475083.0 0
318546.0 471680.0 0
327884.0 471282.0 0
331375.0 475549.0 0
336148.0 476007.0 0
337924.0 471942.0 0
347045.0 473475.0 0
356615.0 472989.0 0
367632.0 475502.0 0
373222.0 472022.0 0
384750.0 475578.0 0
388432.0 471508.0 0
393463.0 471605.0 0
394461.0 476020.0 0
399796.0 475788.0 0
407929.0 472394.0 0
403848.0 475206.0 0
412920.0 475514.0 0
417621.0 471537.0 0
422679.0 474831.0 0
427039.0 471402.0 0
432070.0 475324.0 0
435079.0 471101.0 0
441439.0 476051.0 0
446632.0 472829.0 0
462086.0 475648.0 0
469128.0 471109.0 0
473593.0 475708.0 0
484091.0 473433.0 0
479745.0 475399.0 0
488085.0 471070.0 0
492963.0 474425.0 0
2250.07 479711.0 0
10558.3 480537.0 0
22166.7 479791.0 0
38207.8 477448.0 0
47723.3 480703.0 0
51975.5 476409.0 0
53689.7 481269.0 0
57378.4 476461.0 0
63891.7 480367.0 0
68753.8 480284.0 0
71445.8 476618.0 0
73146.2 481116.0 0
77772.2 481139.0 0
81908.1 477164.0 0
87356.7 480058.0 0
91861.0 476334.0 0
102862.0 477318.0 0
107352.0 480926.0 0
112500.0 480104.0 0
117438.0 480248.0 0
123646.0 477708.0 0
127891.0 478968.0 0
133278.0 476876.0 0
137305.0 480645.0 0
142931.0 480287.0 0
151335.0 476178.0 0
148036.0 480162.0 0
157270.0 476193.0 0
162920.0 480023.0 0
167378.0 480451.0 0
172150.0 481151.0 0
177546.0 480034.0 0
182579.0 480402.0 0
186903.0 480118.0 0
197619.0 480848.0 0
203320.0 479923.0 0
207318.0 476436.0 0
208093.0 481057.0 0
213124.0 480674.0 0
217943.0 480009.0 0
221957.0 479992.0 0
226541.0 476238.0 0
225760.0 480530.0 0
230746.0 480417.0 0
236532.0 480483.0 0
242376.0 480077.0 0
252216.0 480213.0 0
256700.0 479990.0 0
261581.0 479988.0 0
272557.0 480381.0 0
283282.0 479475.0 0
288653.0 480746.0 0
291219.0 476524.0 0
296274.0 477413.0 0
301233.0 480470.0 0
307631.0 480548.0 0
315133.0 476333.0 0
320183.0 476638.0 0
325715.0 476683.0 0
323296.0 481219.0 0
332205.0 480456.0 0
342030.0 476725.0 0
347290.0 478460.0 0
351509.0 476257.0 0
356357.0 478824.0 0
361498.0 476863.0 0
367499.0 481054.0 0
372712.0 478678.0 0
378637.0 476377.0 0
382389.0 480203.0 0
386560.0 481105.0 0
389554.0 476882.0 0
392264.0 481193.0 0
397456.0 480828.0 0
402387.0 480304.0 0
407228.0 477333.0 0
411625.0 480671.0 0
418097.0 476245.0 0
422779.0 479978.0 0
427508.0 476646.0 0
432657.0 480140.0 0
436411.0 476399.0 0
438160.0 481026.0 0
446053.0 477932.0 0
451436.0 476979.0 0
457300.0 476899.0 0
462329.0 480760.0 0
467300.0 477058.0 0
477779.0 480538.0 0
482871.0 480432.0 0
487383.0 477333.0 0
492470.0 480734.0 0
497910.0 476265.0 0
497464.0 480264.0 0
5623.43 481624.0 0
17040.1 481970.0 0
27079.3 481442.0 0
32730.3 481566.0 0
38100.4 482294.0 0
42536.6 481686.0 0
58804.6 482194.0 0
82469.8 482232.0 0
92501.3 481495.0 0
98282.4 481491.0 0
102956.0 482028.0 0
121741.0 481590.0 0
125736.0 482361.0 0
131753.0 482436.0 0
153126.0 481619.0 0
158386.0 481540.0 0
191192.0 481541.0 0
247943.0 481274.0 0
266943.0 481438.0 0
277970.0 481474.0 0
293515.0 481767.0 0
297360.0 483374.0 0
313627.0 481275.0 0
318713.0 481405.0 0
327553.0 482363.0 0
337523.0 481498.0 0
342980.0 482639.0 0
347399.0 482432.0 0
351984.0 481672.0 0
358900.0 482999.0 0
363389.0 481774.0 0
372559.0 483178.0 0
377261.0 481750.0 0
406573.0 482331.0 0
417332.0 481621.0 0
427615.0 481861.0 0
443336.0 481802.0 0
448199.0 481690.0 0
452862.0 482715.0 0
457487.0 481527.0 0
467063.0 482455.0 0
472262.0 481919.0 0
487756.0 482461.0 0
POINT_DATA 5000
SCALARS Radius float 1
LOOKUP_TABLE default
5782.6 5120.0 4796.58 3979.26 3471.03 5253.55 5820.48 4862.21 5113.21 3929.19 4107.03 4478.15 5379.87 5925.6 4501.51 4792.73 4736.58 4931.38 3485.26 4329.05 4151.94 4049.23 5337.48 6124.89 5708.81 5252.48 4780.03 5495.39 3996.0 3856.1 4665.12 3383.4 4133.88 4834.9 3850.77 6044.04 5415.48 5085.53 3863.18 2356.98 4998.37 6182.6 5492.18 5258.36 5061.3 3642.12 3163.97 5812.43 5122.66 5906.14 5484.19 7513.1 5254.28 4436.4 5733.48 4672.91 5580.89 5645.7 5176.86 6810.52 5840.26 6110.27 5561.06 5073.35 3615.22 5670.04 4380.59 3589.27 6716.79 3607.45 5759.91 7613.27 5529.52 4951.03 5255.32 6037.08 5096.78 6756.95 4129.43 6324.23 3843.58 3320.52 4194.5 4270.53 5344.25 5191.63 4593.7 4150.99 4216.92 4742.68 4344.58 5634.83 5495.84 6268.1 4861.06 5374.51 5320.28 6739.08 4797.52 4569.12 4298.67 5873.69 5960.66 6608.73 5011.84 7034.11 6261.42 4502.5 3771.48 4043.57 4271.69 5681.38 4138.42 3708.04 5513.6 3240.09 4556.36 6082.81 3191.99 4685.34 5601.05 4929.8 3586.91 3103.0 3554.9 4015.92 5542.21 4487.31 3936.02 4044.71 5980.74 4094.62 4927.02 5546.39 5325.36 5484.83 5538.89 5351.6 4730.36 4715.55 5867.73 3951.75 5013.56 4499.64 4375.68 5542.27 5054.98 6030.06 5170.02 3557.27 4927.31 4688.68 4402.52 4517.56 4182.53 5903.42 3588.44 3955.56 3761.32 4118.05 4366.19 5553.16 3672.51 2938.66 4940.78 4231.61 4008.92 3942.53 3379.84 4827.82 3997.1 3260.67 5123.52 3038.33 4392.68 4333.2 7199.21 4523.7 2240.39 5091.39 5293.9 3912.37 6142.94 4727.24 4602.25 4790.08 5082.47 4763.45 5445.87 3815.26 4704.72 4177.94 4571.7 5896.46 5022.8 3784.5 3780.23 6481.79 5224.12 7042.12 4819.73 6326.39 4471.58 4962.09 3999.48 4359.62 6946.21 2586.12 5433.8 4011.77 5499.11 3633.87 5922.5 5198.77 5987.17 6013.14 2765.2 4901.41 5110.37 5664.98 4382.74 5927.43 4651.28 4384.42 3693.63 4516.43 5481.78 5637.59 4937.14 5043.05 5816.2 5693.81 5109.54 6483.19 5945.65 6759.9 7021.47 5416.38 6059.59 2720.68 4955.55 5701.86 3563.63 4238.81 4468.59 5885.03 2837.58 5325.02 5200.76 5017.13 4862.64 5185.34 4432.58 6684.56 3968.64 4688.67 2635.86 5292.64 6166.5 5065.13 5936.02 5305.17 4861.08 4003.05 5390.22 4712.33 4805.87 5227.21 5697.78 4667.36 4091.31 6372.62 4295.38 5615.42 7565.34 5923.5 4612.68 4281.49 4973.83 6342.25 6691.39 4840.84 5135.69 5344.0 4020.32 6045.46 4245.72 5908.1 6048.7 6133.92 3719.84 4178.4 3095.48 4166.08 4123.6 4850.14 3382.7 6817.32 4319.79 6098.14 4472.17 4203.26 5188.81 4730.41 6057.22 5062.71 6125.34 4527.08 5347.48 4850.01 3970.25 5147.67 3979.82 5011.31 5138.31 5264.06 4659.59 6327.9 4048.37 6355.42 4362.19 5690.56 4948.92 3115.91 4493.48 3307.12 5924.89 4002.16 4174.52 4138.16 3486.22 3829.13 4684.5 6230.49 6458.82 5418.62 4601.27 5493.32 5740.68 5926.61 6051.14 5836.15 3261.21 4345.55 6704.06 3653.41 3871.88 3856.01 5246.2 4390.66 5279.39 3673.74 5205.43 6116.18 7447.37 4924.6 4385.06 4733.32 7184.19 2899.43 2924.37 3867.67 5399.73 4290.3 4660.72 3888.21 5891.05 6038.78 6902.81 6644.76 4254.17 5629.19 5090.24 5740.84 5530.87 4310.18 7134.64 5978.9 4187.56 3629.62 4997.27 4301.06 4877.67 4290.14 6562.18 4156.38 5316.75 4541.21 4164.68 5669.65 5934.22 5624.49 5762.59 7092.87 5163.55 4666.81 3703.1 3954.91 6471.55 2965.01 6643.85 3637.61 6222.42 5654.31 3745.84 5690.26 4156.2 4497.59 5965.78 4374.35 4810.12 5643.58 5215.05 4292.06 5577.04 5006.58 4602.86 3688.8 4548.16 3369.23 5449.18 5492.26 5244.78 5762.84 3937.74 4749.8 6084.86 5478.92 4778.34 5551.36 6894.71 3091.3 4414.54 5789.98 7054.71 3641.64 5489.43 5747.75 4277.89 5054.25 4796.33 4195.44 5539.32 5360.19 6496.85 5600.93 4874.39 5541.59 4124.71 5728.85 4827.23 4911.47 5803.39 5863.59 4381.97 6257.19 3255.82 5242.73 2812.98 4065.69 5603.15 4695.45 6052.7 3921.18 3798.62 5308.1 3666.57 4907.89 4937.02 5655.21 4786.6 4645.41 4433.59 4320.28 6445.94 5542.14 4218.06 6308.71 4716.19 5514.76 3456.98 3498.2 5105.16 3066.13 4302.5 6006.16 6009.88 7055.53 5013.67 5826.04 5339.78 4143.78 4970.88 4763.66 4636.5 4940.42 5923.4 5499.39 5644.82 5501.93 5463.38 5945.21 4938.74 5696.88 5607.14 3923.03 5975.63 5252.34 6396.74 4138.46 2775.04 3821.72 4986.77 6318.18 5586.81 3948.17 4551.24 4621.75 5358.59 4220.88 4515.71 6519.71 6640.13 5082.6 5810.84 4230.54 5094.44 3748.24 4655.49 4467.94 4850.81 6038.14 6138.47 2540.31 6029.66 5527.54 5573.7 5697.4 4727.62 4270.95 4055.8 7325.81 5280.17 6425.26 4794.96 6186.19 4839.34 5083.08 6834.49 6337.56 5525.39 3998.5 5938.34 4024.3 6394.38 5555.28 5169.36 4737.14 4686.65 5834.74 5556.96 5788.23 5581.75 6392.01 6730.19 4907.06 4073.93 3735.44 6043.3 5952.75 6332.36 6122.55 2739.94 4931.53 5480.13 4223.33 5911.67 3323.28 6695.82 6405.76 5794.24 4678.38 5448.61 5050.65 4827.33 5206.48 5513.57 5729.23 5226.0 3365.82 4538.95 5965.15 4780.2 6090.91 4946.42 5019.93 5085.71 6116.33 6343.14 5462.21 5750.71 5470.77 4831.47 4643.85 4004.04 4289.17 5564.02 4274.61 2965.79 6898.19 6035.6 5137.34 4481.53 5330.45 4581.13 3610.4 4219.07 6387.01 5367.52 3092.35 4322.15 5210.03 3629.96 5478.47 5351.39 6142.37 6061.47 4933.21 5375.47 4723.12 5120.49 5262.61 6302.8 5409.61 6038.2 4005.44 5206.78 5555.88 6732.43 5143.58 3866.16 6362.12 4484.76 4840.01 2980.99 5611.2 7933.0 4455.12 5173.87 4894.16 5380.13 5711.87 5118.27 4941.22 5932.23 5791.61 3369.13 4479.66 5367.2 3043.85 5461.13 4726.76 3599.45 5839.13 5495.68 5489.34 5163.9 5708.14 5537.72 3920.42 8332.24 6155.31 4553.56 5329.64 5709.62 5835.78 4127.74 2476.04 3942.07 7443.72 3937.08 5260.34 4709.35 6586.45 4373.3 4750.78 4163.5 5724.64 5078.86 5100.1 3561.29 4963.34 3295.83 5081.78 4459.28 4260.92 6263.44 5960.56 5774.97 4118.84 4020.95 6313.06 3474.39 6470.3 4200.03 6062.05 5082.74 6915.83 6072.45 4410.55 7099.43 5526.14 5198.29 5423.0 5077.33 3856.59 4746.52 5413.79 6338.89 6202.55 5025.39 4714.54 5893.5 3320.11 5030.91 6022.17 5119.37 3982.23 6163.38 4566.18 3459.9 4964.09 5201.36 5024.9 4306.53 5659.17 5094.81 5972.06 5713.22 5861.71 5028.96 4359.04 3183.98 3794.63 4524.28 3778.1 5152.36 4511.82 5826.64 4220.65 6820.42 4816.2 6321.41 4896.52 4751.02 3372.79 5184.56 5282.64 4715.72 4669.66 4808.52 5046.33 5607.24 5053.92 6352.26 3847.38 3818.59 4863.72 5002.48 6623.85 4262.82 5102.36 4342.9 5069.84 4051.44 4241.89 6049.55 5941.72 5991.09 5133.97 6600.94 4788.58 5371.02 6155.1 5876.71 6262.72 5029.78 6515.84 4888.6 2990.77 4739.14 4918.77 4371.99 4219.78 3885.86 5235.29 4479.94 6250.23 6413.02 4863.27 5862.86 6049.79 3493.7 5374.98 4719.7 6939.12 4735.33 5092.37 6444.77 4287.63 5315.4 6449.45 3975.31 3689.45 3824.16 5572.95 3868.18 6723.16 5584.06 7111.16 4547.19 3817.13 5507.24 6851.54 4583.31 4503.89 5806.08 4997.27 4853.39 4093.08 4809.42 4449.22 5543.27 4717.05 6135.57 5998.38 4312.67 5423.8 4270.24 4989.15 5017.78 5015.69 6175.81 4727.24 6677.09 4305.57 6959.81 4829.35 5201.67 4089.76 5526.55 3192.41 5215.15 4987.87 3315.57 5804.71 4764.96 5727.3 4242.52 5356.51 4277.88 3057.03 4087.15 4143.08 7500.97 3948.23 5228.18 5787.31 5065.11 5868.82 4050.9 4978.31 4099.77 5054.74 4981.9 4656.78 4537.32 5126.91 3600.43 5131.24 5196.67 6496.67 5474.8 3664.11 5117.47 4925.63 5882.65 4434.19 5187.7 4623.61 4188.3 6261.75 5177.64 4255.31 5453.3 4407.9 3492.19 4584.5 5122.63 4703.08 6345.13 5274.19 5516.95 4406.4 5411.85 4413.85 4844.57 4027.46 6314.07 5776.37 4516.28 3627.82 4044.45 5125.78 5344.43 4373.47 5045.38 5350.88 5372.61 3686.21 6480.17 5023.15 4377.07 3813.22 5570.3 4336.42 5243.29 7589.94 3130.65 5628.24 5856.11 5287.2 3327.49 4109.88 4234.94 4562.29 5013.13 5080.66 3417.33 4926.42 4164.13 4642.34 4520.1 4947.52 5874.89 4293.03 4389.21 3791.79 4424.7 4925.44 4754.05 4951.47 6084.93 4307.28 3697.96 4739.42 5538.93 5020.12 2631.9 4745.45 5281.28 6255.18 4668.71 4758.21 7228.46 6362.14 6719.88 5978.82 5266.5 3927.99 4523.88 4066.38 4948.98 5227.52 4414.48 4092.24 5163.02 7144.24 4906.82 5687.83 5004.23 6442.69 6320.71 4648.04 6607.87 4721.32 3163.78 3293.56 5274.14 4903.82 5746.28 4082.47 5511.6 4338.08 4378.3 6134.99 4094.73 4718.54 4440.57 5548.29 6766.43 2315.64 4390.41 5226.56 5599.49 5313.22 3905.51 3999.94 4470.98 4864.22 3901.8 5759.46 3921.08 4190.31 5678.96 5262.19 4244.9 6070.58 6034.41 5452.83 5130.91 5402.24 4519.22 6445.22 5101.59 3844.9 3695.36 3963.86 3848.93 4306.11 5935.47 3402.32 5903.66 4528.49 5004.67 5365.89 5992.26 3960.8 5070.39 4980.85 5714.58 5110.45 5208.32 5248.77 4083.97 4607.02 5153.74 3895.51 4528.09 4165.81 5813.4 6291.51 4128.98 5882.89 6246.22 4188.32 5246.61 4100.38 5344.77 4723.48 5097.87 4899.11 4278.07 7267.18 6256.02 5320.92 5269.18 4406.1 5034.59 4942.77 4263.33 5080.18 4454.63 5912.61 3279.1 4403.98 4560.84 4729.43 5776.57 4562.74 5683.26 5598.74 5139.5 7493.3 4814.55 3527.05 3464.83 5698.77 2477.07 6413.11 4305.16 5092.28 4965.89 5659.95 4152.85 2908.7 4453.64 4517.73 5469.47 5660.16 4989.56 3838.47 2588.37 6736.03 6235.57 3623.87 5916.16 6113.95 4097.57 5017.5 5563.79 6171.13 5511.88 5083.41 4512.11 7055.42 5486.68 6048.86 4285.32 5490.43 5022.28 5197.52 4959.34 4948.5 4527.02 4531.14 4564.34 3838.56 4871.44 5076.35 6020.48 6375.99 5200.05 5234.29 5313.66 5419.37 4466.03 5409.33 4511.54 5196.0 4923.9 4973.78 3329.99 3947.47 3296.27 4713.25 4204.84 6243.0 6673.96 3556.85 5441.96 3435.9 5174.89 4288.3 5370.52 4652.29 5774.81 3746.31 5498.32 5027.98 5346.27 6475.1 4969.21 2691.29 2845.98 5289.52 5314.85 4305.43 5450.44 6510.17 5742.65 5592.32 5381.16 5565.13 6193.35 6086.96 5233.78 3701.27 5653.9 5046.21 4929.14 5894.61 3979.54 5304.13 5944.09 5833.06 4923.41 4497.31 5384.76 5529.42 5257.12 5243.43 4537.14 5551.9 3757.34 6415.61 4687.64 4419.71 5037.06 4541.8 5175.29 5842.56 5887.15 5412.31 3087.09 6934.37 3423.15 4890.5 4050.08 3981.07 5452.42 5328.22 6853.85 3497.9 2395.5 5941.61 5782.48 6248.6 3836.45 5683.61 5100.25 6894.26 4986.51 5339.38 5178.99 5383.07 4591.87 4790.78 5013.42 4247.15 6552.22 5651.07 6248.81 5273.35 4091.8 4645.58 2651.49 5512.23 5275.32 5985.29 4898.94 4178.15 4613.31 4733.04 6119.09 5788.66 5091.68 7531.29 5069.25 5048.89 5935.03 3161.47 3991.03 6390.78 7435.25 6826.57 4788.87 4495.87 3702.37 6022.72 4643.31 5527.33 6917.52 5402.21 4989.09 4880.14 4982.31 3848.54 4307.48 5941.4 5331.02 4871.96 4863.23 4402.67 4470.61 4631.83 4384.88 6887.27 6008.49 4806.34 4287.53 5612.21 5945.08 4968.03 3306.14 5490.58 4863.79 4702.06 3830.46 6031.67 4689.15 6138.12 4428.78 5409.66 4345.67 4765.72 4642.66 4752.14 5329.59 4888.12 4950.97 5512.16 3197.63 4863.96 5191.08 5203.08 7480.41 5163.77 4488.85 3731.84 4901.07 5186.3 3436.15 4151.76 4020.4 3493.47 4596.75 4933.65 5443.58 4558.46 5805.86 4049.02 4470.4 5311.03 5255.12 6169.11 5615.35 4027.09 6422.84 4502.18 5379.09 4602.85 4962.77 5872.05 4853.02 6259.23 5181.4 5670.2 4711.62 4247.23 4114.24 4268.65 4694.83 5509.42 4354.08 4256.43 5936.36 4520.62 3903.75 4755.47 4485.99 5127.16 5475.8 5314.69 6050.81 5543.46 4249.46 5965.81 4750.17 5660.85 2330.66 4177.19 4752.51 3587.05 6229.37 6718.19 5282.91 4425.84 3797.33 7256.35 4800.69 6566.1 3555.86 6386.78 4996.99 4896.39 6081.14 5480.83 4220.46 4607.85 5128.57 6000.7 3169.67 5604.21 3361.92 6710.88 5395.14 3967.48 6213.04 6622.11 3685.13 6790.73 4655.16 5251.4 3867.19 5857.79 4039.91 5276.7 5036.58 6119.63 5411.02 4752.9 4287.16 5199.44 4062.5 4435.51 5374.07 4588.7 3766.55 4579.69 3554.48 6496.52 5005.85 4216.17 6484.17 4721.02 4254.37 3374.08 4031.78 6098.1 5708.99 5687.85 5346.68 5296.29 4611.53 4285.66 4896.11 5172.53 4135.62 5801.99 5534.94 5210.48 7644.38 7552.94 6101.92 5323.3 5088.44 4998.21 4662.56 5166.79 5349.31 2976.22 4649.22 5394.55 5094.52 4946.74 2682.24 5928.32 5229.48 5475.7 4016.18 5526.75 5435.74 4244.99 5327.45 5560.26 6185.89 3997.96 4439.35 3460.94 3990.25 3691.0 3758.07 4236.14 4407.87 5733.62 5282.51 4460.92 5945.89 4042.28 4105.55 4340.76 6065.22 4221.28 4456.39 5514.84 3633.79 5421.53 5937.08 6070.3 5233.29 4312.56 4612.06 5204.04 4750.58 5926.11 6667.68 5235.11 5211.38 5089.62 4590.55 4741.26 5920.32 4255.85 5097.69 3988.3 6543.13 5149.72 5776.96 5464.25 5486.48 5301.47 4617.55 3645.12 5424.88 5415.85 8659.64 5683.95 5469.13 6027.62 5010.2 6123.03 5966.61 5711.11 4575.94 4938.72 3546.71 5768.57 5564.23 5950.04 4231.83 2435.33 6401.43 5020.71 2681.29 5094.48 3872.61 4238.4 4318.48 6132.95 5266.22 4860.33 3685.13 6004.68 4051.34 3627.55 6239.84 4635.6 4256.67 3457.48 3931.07 3405.98 5417.15 3688.16 4681.72 4945.39 5996.33 3950.63 5415.19 4612.62 3619.07 4467.04 4275.57 6385.23 2983.99 2614.4 6363.92 6205.93 4923.24 5830.72 6184.4 3828.81 4373.45 5309.98 4082.57 5255.18 5169.9 3004.16 4767.78 5235.17 4779.5 4421.12 5254.49 6649.96 4303.19 5784.3 4256.57 3914.2 6088.68 4643.56 4135.08 5620.74 4778.82 6124.08 5467.84 5053.95 5266.01 5253.37 5767.9 6515.8 5869.4 3685.65 3701.16 4186.6 5895.77 4732.09 6136.49 4356.25 4216.95 4209.49 5742.74 4244.21 4947.24 3875.05 6200.54 5148.58 4199.45 6599.66 4055.54 4233.8 5765.42 6098.95 4997.83 4893.49 5325.44 5021.88 5956.65 4498.25 4188.87 3735.24 6574.95 4074.48 6333.29 4558.47 5731.57 5997.88 5839.71 5576.92 6408.83 3930.79 5226.97 4004.35 3312.06 5180.76 3361.26 6799.4 5278.36 5865.39 4427.28 6079.11 3082.32 6430.39 3658.37 7440.72 3949.6 5703.6 6326.18 5661.62 6631.19 6648.68 4713.74 5626.61 5817.25 5407.78 4084.49 5061.98 6632.99 4537.6 5147.36 4419.61 7177.44 4563.46 6553.94 5726.66 5460.65 5652.0 5463.41 5225.33 4929.75 4435.36 6045.22 4614.3 5134.39 3532.3 5769.98 5442.32 2221.99 3580.58 4863.01 5356.79 5657.36 3619.79 5029.47 6306.21 2978.76 2040.66 7016.27 5884.9 3876.21 5689.26 4916.22 6022.7 4940.84 5750.07 4809.67 4757.74 6045.67 3946.28 3821.94 5439.9 5367.73 3540.11 3456.47 4652.01 5421.64 7234.66 4207.54 4886.12 6419.12 4976.12 4817.16 5453.98 3991.42 4388.63 5102.75 4597.29 4200.09 5931.77 5151.21 5398.64 6817.57 4477.04 3614.96 3886.68 5703.74 5662.55 5737.92 4360.23 5365.24 5293.51 4763.96 5754.18 5008.63 3418.99 4480.95 4993.35 4409.63 5521.25 3661.9 5370.85 5949.46 3178.54 4765.02 5376.71 4448.13 5070.29 4807.28 4867.08 2261.36 4266.03 5280.69 4220.03 6923.84 5227.59 5449.46 6179.96 5703.07 6113.54 4662.43 6260.79 3963.76 5528.53 6799.88 3062.43 5990.52 5426.78 2967.38 4159.35 6477.91 4237.98 6439.37 4081.97 5401.99 5580.92 5973.33 3583.21 5067.46 2511.46 4011.37 2775.69 4785.25 6519.43 5876.64 5424.46 4857.84 4908.49 4962.21 4858.44 3468.42 4673.35 4771.13 4992.42 5297.19 4351.38 4833.46 5933.7 7248.4 5280.12 4444.97 5984.81 3498.16 4409.27 4640.06 5471.74 3548.39 3673.28 4928.27 4858.51 3375.28 5625.65 4301.61 6107.89 4446.84 5660.55 5148.08 4834.87 3672.21 5760.22 5938.17 4795.43 5097.95 5108.06 3573.73 4693.52 6853.04 4745.43 5831.96 4747.55 3056.7 3755.95 6234.32 4586.19 4446.06 3450.93 4270.74 5132.68 6595.03 4558.15 6218.95 5222.16 5107.23 5136.08 5558.68 3776.94 4010.57 5629.39 2684.03 6157.04 4768.61 5075.55 4522.21 5506.19 6719.94 4950.67 6166.29 5453.6 5409.63 5294.77 4709.05 4630.82 4043.66 4813.08 5860.67 4540.86 3764.1 4835.83 5604.35 6316.56 4332.87 3091.67 6420.81 4715.58 4450.7 5151.52 5369.08 4347.74 5291.9 4009.62 2081.58 6505.78 5461.55 4270.15 6865.76 6449.64 6464.8 4684.44 4749.59 5799.69 5571.72 3809.69 3208.96 7051.9 4184.23 4144.57 5550.75 6834.41 6226.14 5466.33 3000.29 5721.05 4247.69 4514.39 4588.99 4321.21 4344.34 3583.49 5052.84 4366.74 5297.16 3184.64 5206.33 5530.49 5653.03 3718.69 4514.79 2216.82 4509.89 6752.75 5269.38 5607.3 2928.82 4222.4 4000.43 4568.41 3420.08 4912.04 4539.07 5464.68 2685.81 5591.76 4585.31 6625.18 5323.91 5097.45 6293.89 5737.75 2761.07 4983.39 5366.52 4690.55 5533.72 5533.42 4802.32 3678.08 4599.38 5246.47 4187.31 6191.29 3240.51 7422.36 5161.01 4298.15 4628.4 5832.37 6051.83 4642.93 4263.16 3973.12 3077.84 6024.75 6109.49 5567.93 5987.42 5332.65 4442.22 6451.33 5413.31 3012.99 6400.08 4743.59 5208.14 3317.83 3763.05 5092.24 5549.49 3101.75 5423.42 4518.04 4766.06 4874.18 5435.19 3298.2 7093.13 4953.1 5818.95 4093.99 3940.49 4406.05 4680.94 5828.35 5876.72 5236.43 5285.07 4680.14 4608.41 4187.94 5980.59 5021.77 3796.15 4801.8 7216.98 5271.02 4209.31 5718.28 6242.79 5950.45 5713.03 5849.65 5134.67 4165.21 4215.0 4936.96 4481.76 5452.78 5065.26 4304.41 6192.0 4940.28 5885.28 6579.31 3004.34 5323.55 3022.6 4811.76 4914.45 4698.87 4661.03 3624.7 5262.35 4691.91 4255.34 4475.83 4510.8 5889.35 5010.04 4394.56 4570.98 4275.07 5825.38 4185.61 4047.87 5742.47 3778.02 4917.99 6552.21 5417.8 5146.37 7132.12 4836.16 5518.57 5151.11 5463.48 5730.33 5545.46 4527.99 4543.1 4376.7 5190.61 8325.01 3764.06 4440.81 5941.9 5434.47 6642.76 5829.22 4497.78 4243.79 5811.18 5433.65 4008.15 4887.76 4669.06 4811.32 4286.49 6184.88 5829.32 4396.25 5551.95 3918.87 2275.45 4901.2 6605.86 4383.56 5012.5 3562.79 4516.53 4122.92 3604.14 4452.54 5089.1 2711.19 4028.32 4099.92 4884.59 3858.06 4511.7 4083.79 5263.27 6300.92 4173.54 5599.29 6038.68 5046.12 4807.4 7013.17 3805.67 4601.74 6506.86 5088.57 5580.34 3852.6 5775.31 4706.5 4603.5 4647.67 5375.12 4356.36 4892.44 5578.94 7610.49 4286.17 3684.56 5375.1 4172.6 5313.12 5351.56 3984.88 5160.59 4732.09 4320.42 5064.79 5480.3 7509.24 4146.81 5896.26 5388.78 6101.13 4573.72 5099.21 5636.4 4367.78 4350.12 5227.02 5670.0 4232.16 5300.96 4344.51 5680.94 3781.77 5581.55 5193.01 3474.5 6550.44 3860.83 6348.03 5732.27 4523.39 5278.56 5146.37 6917.62 4013.38 5631.14 4343.78 5263.3 3352.35 4909.65 6523.86 7693.4 4326.48 4437.07 3449.37 5491.9 6405.0 4659.16 5789.55 4909.31 4633.05 6522.59 5711.62 4798.17 4990.79 5166.79 6479.39 2895.63 4997.91 5079.22 5381.54 5810.77 4714.83 5474.15 7519.2 6355.68 4478.6 3953.55 4304.63 4063.9 4469.54 4314.56 3928.53 5606.51 5740.65 3834.47 6349.67 6329.53 4590.01 6101.86 4227.41 5993.0 4803.57 5966.42 4110.59 3332.49 5354.66 4214.44 5378.23 4787.97 3746.36 6789.23 3989.7 4777.03 4246.61 6028.09 5452.36 3804.5 6486.37 5498.42 3344.57 5318.53 5220.76 4281.98 7165.9 5344.83 7046.11 3427.63 4863.97 6342.48 5756.75 4587.67 5599.7 4163.74 6969.28 3665.95 5698.96 4095.75 3319.67 3603.51 4298.45 5222.51 6609.84 5135.96 3834.43 5658.37 4707.06 6074.94 5491.37 4250.88 3783.54 5268.38 3475.67 4792.39 7038.89 3863.67 4814.12 5067.56 6137.8 2735.53 5116.6 3747.03 2783.85 4356.49 4526.81 3994.07 4219.94 5907.46 6740.71 4264.91 5399.29 5971.22 6602.43 3568.28 5425.98 5996.66 4405.42 2995.67 3598.08 4599.81 5698.23 7300.58 3608.06 6633.61 5217.95 5484.36 4867.7 4277.24 5291.05 5161.1 4619.2 5166.41 5067.56 2596.96 5701.75 4350.15 4139.3 6541.45 4750.49 5078.31 5391.48 4923.43 5131.15 4847.14 3950.27 5116.66 3566.79 5374.67 4981.43 4741.28 4215.2 5069.89 4157.29 6813.72 5327.75 4609.02 4896.65 4638.18 4196.37 6448.66 4453.97 6945.98 5138.2 3503.41 5783.48 4701.5 4449.98 4504.35 4771.65 4840.44 5093.82 5951.81 3924.14 6918.35 4296.69 4834.3 6238.32 6804.79 6471.42 5283.8 4076.59 5369.5 4428.14 5164.1 6464.15 4479.11 4972.17 6685.4 5699.53 4222.77 6332.01 5527.23 4234.18 4805.33 7085.01 5980.95 6193.08 6069.3 5887.01 5168.35 5388.39 3728.18 5335.47 5633.61 5048.19 4243.26 6799.23 4888.27 4592.15 6487.56 4854.11 4998.22 5533.19 5417.21 6104.26 5583.61 6063.64 4986.71 7382.3 4022.56 5522.21 3772.3 4855.01 6208.9 4923.57 3340.09 6061.63 2279.05 4829.35 4075.28 8137.11 5484.32 6650.77 4067.96 4824.12 7104.73 6162.3 3272.75 4264.54 3516.27 7043.44 4263.78 4643.9 5228.75 6047.14 5009.83 5210.38 5717.8 3629.44 5003.78 3299.24 6246.56 4061.6 2603.64 5107.0 5473.72 6212.15 6502.97 4783.07 4946.23 4852.58 6083.28 5211.6 5806.31 3556.79 5456.71 7317.04 6412.67 7001.83 5012.97 4036.91 5589.37 5439.49 6639.64 5212.43 5454.12 6348.54 4066.57 5642.35 6372.13 5404.01 6016.19 4124.49 3230.13 5714.25 6176.67 5325.96 4850.06 5412.24 5016.02 7044.29 4920.21 4049.16 5851.61 3936.95 6153.94 6836.82 3862.77 3858.17 4631.99 4740.98 3185.39 5128.77 5934.82 7122.87 5797.36 5001.58 4153.84 5119.86 5089.26 5084.17 4901.44 3776.8 5096.43 6156.21 4653.83 2460.79 6171.71 3628.89 6589.82 4668.88 5027.43 5522.75 5867.64 4438.58 6059.93 5602.53 5073.02 6545.43 3472.91 6760.92 4989.2 4711.04 7144.05 4506.18 2970.9 6542.5 4383.47 5971.21 5261.19 3104.96 3831.52 4263.65 6106.43 4807.35 5467.63 5666.95 4642.2 4811.22 3683.86 4918.76 5293.75 4208.41 5826.78 2856.55 4553.68 5361.87 3758.22 4757.2 3205.68 5561.74 6100.73 4788.08 4745.79 5470.04 4908.75 3971.08 6204.65 4482.9 4593.7 4349.13 5110.11 6379.14 5216.26 3687.65 4887.52 5478.95 3851.85 6318.23 4206.98 5156.76 6357.47 6101.57 4891.38 5535.91 2949.12 5955.86 4533.37 4848.46 2779.99 5887.38 4581.37 6942.34 3658.05 5478.11 5526.31 5030.15 3644.78 3477.1 4078.93 4501.78 4922.49 3572.94 7039.98 4820.17 4729.42 5244.98 3886.72 5415.45 6592.93 4385.81 6350.71 6436.74 4456.11 5096.24 3908.98 5039.12 5769.14 6328.42 7307.21 3381.82 3619.72 4646.51 4565.93 7107.63 4831.93 5788.97 4023.93 5868.89 3274.85 5007.21 5494.28 4099.26 5610.53 5206.47 4580.06 4834.39 5493.89 5262.47 3512.94 4991.35 4587.7 4258.98 6761.81 3903.91 4568.64 3919.62 4127.53 5210.75 4474.83 6555.44 5658.14 4508.18 6214.73 2205.51 6358.93 5175.89 3894.64 3703.49 4268.19 4374.74 4532.7 4504.86 5975.23 4473.29 4198.94 6163.54 4211.82 6556.26 5684.25 5438.92 6550.4 3766.69 4891.67 6818.91 3503.65 3634.5 6631.28 6571.31 4392.65 4058.87 5174.75 5932.07 4984.46 5948.71 4793.65 3856.53 3992.97 5460.89 4532.89 5260.85 5742.09 2884.65 5807.46 4648.21 4393.16 3311.29 4549.69 6423.81 6192.77 4312.15 4583.52 6418.11 6015.02 5244.22 5585.14 6456.58 4159.81 4960.64 5792.98 4034.05 5690.96 5798.38 3862.91 4125.9 5366.11 3419.87 4824.81 5113.6 5944.3 3563.14 5135.5 5347.9 5851.63 4504.52 5212.92 5615.84 4464.73 4928.85 6440.38 5556.0 5545.59 4954.81 5755.15 4835.97 3926.11 6419.64 4057.17 7066.96 4467.0 4994.65 5196.92 3787.08 5644.81 5334.36 4728.55 4929.6 5750.35 4489.99 4548.45 4658.11 4551.26 5730.61 7124.45 5064.67 6618.21 5232.85 2617.39 4062.56 3717.47 6200.63 6816.66 3217.67 5079.64 996.652 5212.37 6003.78 2628.22 5058.51 4244.49 5036.98 5513.8 5188.53 4521.75 4027.63 5569.2 5350.88 5420.67 6413.15 6103.11 5048.55 6459.51 4024.31 4955.16 5844.72 5989.05 6040.74 4054.22 7228.94 5393.65 4961.99 6551.93 4595.12 3110.13 6484.43 4625.67 3485.54 4458.64 3657.69 3492.83 4883.63 6280.13 3684.15 5832.29 2606.51 4438.76 6006.89 3814.65 3965.3 5372.82 4983.3 7778.01 4402.17 5127.82 5124.17 5805.1 4064.58 4234.88 5782.43 4384.28 4456.26 4810.98 5091.22 6282.38 5640.72 5657.55 5727.79 5188.82 5043.14 4717.73 5072.5 3904.07 5748.9 3663.0 3742.31 6304.49 5134.72 4608.34 5464.83 2781.96 4431.23 5917.34 5601.55 4462.87 6545.99 5630.9 4554.68 4368.28 4692.32 4945.0 3127.83 4212.15 5114.07 4385.49 4263.18 7142.95 4559.74 4383.68 5836.26 6666.67 5144.44 4051.18 4583.94 5969.37 4928.35 5034.69 4509.46 3538.53 4680.69 6500.49 5965.58 4972.18 3352.34 4901.29 4050.03 4775.04 4120.07 4882.66 3429.57 6746.66 5410.33 4642.74 6735.97 5305.59 5416.45 4330.58 5754.6 3288.01 4904.51 4355.83 4147.31 2202.77 5751.15 5950.88 4149.55 4441.22 5853.89 3380.69 4140.4 3639.44 4386.8 5446.4 4725.01 5966.75 5510.9 3743.76 4505.28 4971.29 5510.45 4730.14 4941.02 3994.39 3864.92 6119.99 4618.73 4128.1 4446.58 7541.76 5401.4 5053.15 5910.86 6239.68 7320.78 4834.44 4708.31 4027.33 3873.92 5026.76 5023.41 4092.07 4546.44 4213.05 4224.3 4184.21 4700.07 5273.37 4732.37 4985.3 5713.36 4749.18 5553.94 4546.96 5424.55 4921.1 3814.16 5695.79 3622.8 5414.58 5577.41 5740.98 4346.07 4013.86 5759.79 4177.47 4218.16 2918.64 4140.92 4512.07 5984.8 5236.24 4585.04 5678.58 5260.52 6570.35 4242.63 3269.54 6015.22 6063.44 4826.52 5046.31 1937.5 3844.54 5849.53 5241.75 4651.99 4420.11 5863.0 6127.39 4607.18 5329.76 4124.76 7200.89 4813.33 4952.52 3840.21 4081.34 4954.76 3908.56 4844.83 5244.78 3636.15 6114.89 5135.63 6384.7 5952.38 6870.97 5351.86 6056.87 5474.01 5307.35 6201.86 7554.58 5166.89 4731.21 5491.63 5725.37 3868.62 5138.33 5153.18 3425.69 4763.4 6711.21 4236.86 5393.76 4983.1 6010.59 2955.36 3668.93 7123.04 4009.24 4775.49 4681.29 3220.29 5499.59 3845.9 5749.6 4439.71 4141.21 5667.51 4198.9 5431.29 4833.67 5325.91 5853.12 5157.38 6203.03 5235.87 6089.45 5810.17 4966.07 4657.24 4400.14 3669.32 4704.92 4762.1 4316.0 4287.25 4392.75 4271.07 4420.6 4475.38 5287.25 4589.06 4770.51 4184.47 6511.37 4012.92 3999.5 4598.54 5218.42 4933.49 6139.64 4896.43 5463.06 4639.8 3986.41 3185.09 6102.49 5114.23 5495.0 7407.91 5064.23 4454.74 2904.46 5512.44 6449.06 5120.92 4685.4 4337.32 4731.53 3763.9 4788.7 4577.73 5084.5 5640.12 3899.7 2403.72 5134.33 4147.49 4802.98 4833.55 3646.95 7224.99 6334.53 4749.96 5377.37 5652.87 5483.7 5018.69 3152.86 3896.27 5807.52 5963.36 5230.02 5087.14 4342.18 5169.48 6016.08 6776.22 3124.7 6064.71 6102.98 6060.17 5136.87 5902.67 5454.11 3779.45 5806.61 5784.37 3682.35 3756.96 5906.57 4932.29 3954.77 4990.23 3784.94 3125.13 6715.73 4174.44 4564.41 6331.74 5426.4 5951.86 4252.18 4659.88 5357.39 3791.41 5247.01 5702.4 4208.37 5069.9 952.938 5473.89 3673.6 3306.84 3450.07 5265.21 5191.26 5866.42 5544.27 3987.69 3484.81 6502.99 6219.34 4666.12 4191.01 5674.63 5340.05 4920.88 5890.25 4216.44 6710.14 5034.05 4426.02 4816.51 5345.73 4770.63 3990.94 4756.8 5477.8 4462.35 6069.78 4241.68 3469.18 2945.34 3372.95 4489.29 4301.93 5846.95 6061.85 4924.07 3200.6 6240.42 5146.0 5721.14 4288.45 4987.28 4918.64 6638.25 5078.59 4759.99 2646.13 4365.58 5419.57 5162.67 5760.98 4705.68 5469.35 5384.86 4019.34 4658.24 5869.67 4311.48 4899.73 5457.66 6394.19 5973.89 5366.22 6193.73 5518.11 3742.11 5712.35 5701.52 4743.9 5321.17 3719.11 4869.25 4467.13 3877.8 6273.6 3667.93 5024.32 4708.17 2741.2 5790.42 4644.88 3142.09 7350.26 5591.77 5182.13 6110.48 5003.3 6245.52 5106.46 6793.1 6016.87 4506.66 5515.73 4850.5 5209.55 5866.91 5763.05 2820.07 5129.68 4825.73 5076.84 6296.54 4841.7 5685.74 6740.35 4678.7 4550.92 6215.87 6060.06 5393.43 5308.33 4685.65 6023.07 6470.23 6506.63 5995.4 5322.11 5700.79 4726.2 4711.15 5188.22 3825.48 4841.23 3810.68 2804.54 4357.11 5005.6 4176.32 5532.75 6949.65 4095.83 5695.25 5676.61 5716.42 5268.15 5819.0 6347.72 3460.93 4629.02 5124.86 5914.5 4927.73 6006.16 5407.96 6206.98 4071.75 6562.03 4815.47 4410.82 4368.12 6443.99 5214.4 3889.98 4636.53 3629.49 5399.43 5766.05 5117.64 3835.81 4869.48 3623.19 4906.11 4387.39 4745.16 4564.1 5825.55 5509.51 4848.14 3199.4 4316.5 5254.24 4192.21 4914.03 3597.43 5086.29 5144.56 4158.91 5311.55 3360.86 5049.99 5545.21 4333.87 5001.87 5684.05 5638.7 5813.79 4028.22 5293.13 3852.82 3768.46 5167.53 4168.52 5800.81 5403.97 4068.31 6562.92 5166.05 5077.29 3671.06 5233.76 4683.28 6405.69 5679.74 4165.36 5288.33 5797.21 6019.35 6028.63 5146.1 6485.77 3869.39 5960.5 6896.55 5377.01 4140.04 3495.3 5125.17 4697.49 5735.08 7133.44 4750.81 4474.39 4658.59 4196.62 2809.19 4916.7 5486.89 7208.19 4549.51 5025.42 3587.93 4975.85 5323.95 4495.75 6171.01 5701.63 4603.04 4620.95 5368.93 4488.39 6121.56 4602.57 3565.32 4608.62 3419.07 5344.44 4626.72 5131.77 5549.71 4967.51 5193.58 5695.44 5034.34 3422.21 3916.42 5429.3 5510.96 6653.07 5532.72 4697.91 4584.81 5071.98 5719.79 4371.08 7261.51 4968.14 5949.73 4312.48 5527.13 5139.18 5551.43 4278.57 3034.16 6318.25 4201.03 6008.81 4493.79 4932.56 4279.44 4899.19 5058.34 3918.94 5575.11 5487.63 4507.36 7145.73 5368.66 4795.08 5501.73 3612.44 4697.24 7035.54 4217.36 6734.39 6549.8 4851.18 4871.77 5368.52 5811.26 5062.77 4884.93 6075.99 5262.79 5927.2 4419.79 5035.71 5407.69 5152.78 4117.9 4753.76 4781.9 4638.09 4441.91 5330.26 5828.25 5939.22 4668.8 4215.05 4271.93 4859.01 5524.45 5990.75 3953.26 5600.21 5459.92 6478.35 5453.77 4104.04 5353.66 5589.53 5593.79 4965.24 5196.08 4517.29 4849.5 6257.79 5796.26 4870.94 5578.18 5271.88 5559.79 7168.2 3763.85 5710.33 4096.86 3622.48 5001.51 6432.8 5115.42 3186.07 4369.86 5482.76 5173.82 7212.97 5490.64 5698.53 3769.2 3604.31 4507.46 5036.14 3468.45 5603.68 4944.51 4526.34 5610.95 3220.8 5042.75 5179.17 5579.39 5270.51 5148.1 5490.75 5224.64 5214.63 5783.94 6370.33 5081.08 4202.77 6864.06 5537.34 5192.49 3487.31 5726.42 6643.4 4674.9 5461.72 2549.95 6599.28 6224.85 4556.19 5648.78 6875.73 5226.42 6081.3 4983.43 5117.52 6311.89 5942.45 4150.76 5005.72 6142.88 5155.28 5111.26 5388.73 5205.38 4764.83 4600.71 3957.38 4494.15 5507.38 4710.88 4416.87 5300.17 4057.4 4896.67 5534.23 6025.77 6815.96 5339.6 4725.11 3626.86 6371.96 4604.1 5076.11 5322.07 5770.07 4282.11 5467.51 4625.53 4096.47 4542.16 5114.67 3543.37 2638.82 5030.33 5234.2 6379.38 5353.23 6229.83 4468.26 5106.33 5293.37 5198.94 5933.54 5464.05 5879.24 4571.74 3148.79 5740.78 4796.12 5997.91 5385.86 4082.4 4930.72 3745.02 5728.58 4887.73 3720.7 4211.36 3856.73 4450.49 5887.71 5635.32 4827.61 4316.45 5409.08 5481.64 4598.92 5241.22 6647.08 4979.52 3422.29 4407.79 6548.29 3495.68 3990.96 5352.24 7362.42 5793.12 5836.14 5473.05 4373.2 6022.78 5884.99 7025.09 4433.12 3392.26 7336.37 4361.24 5099.9 5138.93 6406.8 7086.69 6170.9 5833.78 4436.48 5758.98 5615.35 3967.76 6213.24 5987.88 3579.59 4228.53 6123.46 5057.59 4461.14 5285.6 4574.54 4949.55 3132.34 1969.87 5203.54 4841.28 4047.95 6889.5 4052.43 5383.9 3934.11 5158.44 4466.22 6153.71 5917.08 5483.37 5418.12 4714.66 5101.6 4656.01 6589.13 2347.41 5602.62 2030.03 5628.97 5527.27 5104.39 4612.13 5846.6 5327.05 4903.84 5438.55 4434.65 5977.66 4523.81 5065.74 5791.25 4873.23 4028.35 5410.6 2980.31 5453.2 6824.53 4742.82 4332.64 6791.86 4209.0 4820.68 6297.99 6424.77 5378.24 4538.89 5817.74 5661.6 5285.75 5385.03 5673.75 5360.67 5968.54 6263.3 4501.05 5592.54 4537.03 4114.2 4904.37 4326.06 4358.81 5034.46 4651.64 5757.29 5469.17 5061.75 3769.24 4087.32 6647.85 2569.12 4161.32 5161.74 5932.28 6945.69 5118.86 4183.4 4304.64 4733.79 4823.06 5254.49 5288.64 3757.23 6828.8 6883.86 3350.99 6161.94 4065.28 5939.29 5418.98 5615.06 5490.54 6189.67 6142.94 5001.69 6581.56 3980.46 4061.87 5165.31 3798.09 3886.56 5715.51 4496.51 4511.05 6561.94 5259.21 5092.93 5934.05 2803.01 4444.0 6771.18 4984.17 5327.39 5781.62 4037.86 4138.59 5714.51 4938.33 4484.78 4621.33 5157.73 4541.22 5847.91 3539.68 4934.66 4984.01 4109.44 6217.33 4290.49 4557.1 6688.53 5209.5 6175.27 5876.51 6731.89 4733.41 5264.83 6348.93 5136.51 6815.51 5232.16 4422.23 6031.22 3989.26 5485.84 3618.64 4335.79 5453.69 5918.95 5432.04 5689.56 6556.86 3242.31 6099.28 5372.25 3234.26 4169.15 4778.37 3494.16 5134.17 4074.16 4904.35 3247.97 5390.33 5124.34 5278.54 5729.0 5729.92 5016.46 4179.87 6224.13 4761.84 3661.67 5370.1 5517.65 4009.68 5114.51 3303.49 4622.73 5585.25 5256.75 6351.89 2960.5 4975.32 4298.7 3902.48 5237.55 3909.94 6030.39 4905.53 3799.01 7392.65 5319.1 4181.93 6570.43 3820.19 4979.5 4745.37 6200.05 5575.11 4052.49 4034.41 5061.74 5326.03 4420.35 4948.96 5117.83 5256.82 4013.86 4645.93 4288.5 4585.37 3721.69 5395.12 3456.3 6074.39 5317.83 4256.08 5881.93 4399.52 4554.24 6182.19 5910.66 7415.84 4981.81 5141.03 4970.55 4840.44 8123.59 5765.14 4767.54 4946.08 5121.08 4696.03 4605.39 6270.59 5927.1 6500.45 4907.55 4103.76 4286.61 2932.52 4603.66 4969.68 3901.53 6636.43 5431.14 5313.86 4457.05 5178.07 5189.91 5777.26 5703.84 3530.82 5797.32 4886.99 3921.27 3702.45 3161.1 5265.63 4898.29 4431.06 5730.2 4830.13 5620.88 5370.9 4529.77 4325.13 4262.74 6172.27 3783.79 5078.73 4248.14 5279.19 5192.92 5275.57 4786.66 5891.25 5095.52 5129.4 3720.38 4655.37 4731.37 5023.61 4672.86 6530.78 5560.23 5783.38 3043.77 4139.39 6264.03 5088.64 3562.8 6589.8 6920.92 3729.16 3573.84 3783.36 3038.91 4067.89 3922.28 4571.57 3445.92 5236.69 4121.07 4586.82 3133.28 6026.04 5859.17 4150.44 5522.34 5771.98 2649.69 5717.45 5772.57 5268.27 5244.95 5448.64 5901.8 6417.61 3830.7 5783.69 5350.9 3483.61 4262.52 6738.9 4460.89 4157.1 3939.96 4867.12 4637.3 1458.87 5734.07 3997.68 4819.83 4801.16 2927.84 5688.77 6177.68 4698.7 2848.44 6045.26 5743.8 4094.63 5084.76 6605.11 4757.87 3557.46 5971.95 6298.8 3979.46 3689.24 5151.19 4171.02 7012.36 5028.06 4293.3 4002.99 5587.3 5159.67 3572.73 4864.38 5764.52 3770.22 5684.88 4390.64 6523.78 4645.86 4608.01 4045.67 6005.95 4941.52 4308.49 5900.0 4581.1 6241.77 5317.19 7360.12 6223.98 4016.6 5821.49 7050.08 5580.44 5998.13 4746.15 6275.25 6892.33 4758.84 4505.3 4452.36 3976.0 4068.41 6463.71 4832.21 5059.37 4742.35 5394.79 5645.54 5264.08 4151.74 4526.87 5192.82 5245.95 4174.22 5821.42 4515.02 6294.09 5131.07 2970.24 4197.87 5524.28 5105.54 5731.43 6353.81 3414.67 3518.14 5444.36 5044.68 6908.32 5899.78 5000.74 6153.26 4813.81 3882.37 4634.25 4095.4 6351.48 6210.0 5432.4 7430.48 5992.06 8052.53 4970.12 6044.01 6520.19 5973.57 6241.48 6033.28 6286.27 5071.38 5616.66 4802.36 5368.28 6229.64 5466.13 4220.43 6263.87 6666.34 4645.91 6834.92 6379.33 5652.73 6321.97 5402.45 6509.54 6412.84 2589.19 6119.0 3792.06 5128.59 4993.49 5310.33 6583.37 3688.83 4848.98 5150.84 5184.98 5087.97 4467.51 5339.82 4519.03 4930.17 5110.27 4745.44 4085.96 5762.82 4612.68 4232.33 5462.6 5617.29 3035.06 5770.92 4262.19 3093.38 4597.88 4845.91 4878.93 5793.14 4491.26 4511.34 5009.21 5704.61 4379.91 4574.03 5290.37 4227.66 5850.38 4691.01 4594.89 3677.85 5214.71 3463.53 4924.52 6126.03 6044.69 5658.05 5462.1 6593.1 6032.45 5011.37 2827.92 4026.03 4441.44 3467.11 5336.61 4817.75 5563.09 4848.15 5637.53 5523.81 4718.61 5188.57 3873.79 5717.67 5357.33 5252.37 4499.54 5037.58 4046.22 5640.67 5545.68 6080.69 4967.93 6369.66 5678.08 5922.62 5125.45 5957.82 4188.16 6327.54 5507.07 2943.17 5327.71 4880.78 5257.38 5075.23 4975.56 7282.36 3826.01 5581.01 3928.99 4125.75 5130.57 5090.48 3985.93 5582.28 6071.59 6079.55 3856.4 5485.61 4137.16 4937.36 5308.4 4569.32 3402.44 5537.61 6084.88 4491.96 4397.06 4199.44 4053.12 4479.5 6261.67 5460.57 3435.13 5065.78 5703.34 4521.42 6668.98 6649.52 6043.34 4939.56 4747.68 4712.17 3808.04 4723.71 2002.78 5631.32 4461.67 6322.0 6345.2 4609.65 5488.96 5128.03 5410.73 5087.3 4942.63 6139.74 7066.26 4730.97 6150.31 5873.62 4677.84 4811.11 4996.91 5379.52 4866.8 5314.67 5563.47 4066.36 4000.51 3162.27 6033.93 5092.44 5432.2 4232.44 4612.4 3312.3 4746.19 6381.58 4439.09 3282.57 4798.13 5648.59 6697.45 5515.59 4432.32 3224.81 3775.38 5782.25 6457.89 4844.2 6572.17 3751.73 5555.89 3374.62 4766.47 4871.1 5872.45 4414.09 5191.29 3784.68 4947.64 3717.22 6305.9 6649.21 4654.92 4859.95 5286.55 4322.56 5522.18 5509.09 5625.02 3873.72 5212.05 4829.77 5479.86 6474.5 4444.92 6959.88 5749.53 5971.9 5247.73 4876.37 5034.02 4769.62 5945.25 5181.31 4696.06 5475.83 6189.29 5984.55 6581.13 5803.3 4721.98 5252.82 3543.98 5056.26 5878.55 4014.44 6604.72 6002.77 4431.46 3794.47 4610.55 3207.84 3977.98 4614.49 5400.69 4128.93 4462.5 4959.72 5573.31 5004.68 4023.88 5348.11 4405.61 6126.5 4034.88 3511.5 6007.1 5067.92 5357.14 3188.21 5919.27 3720.92 4793.06 6637.38 4975.57 6916.18 3057.3 5786.06 3868.69 5447.74 3920.44 4450.51 3768.62 6033.72 3851.47 4966.74 4959.94 5651.46 1635.31 5639.4 6185.73 5516.37 4083.24 6520.96 3771.91 5217.62 6178.19 4616.81 5212.2 5108.42 4630.5 3354.94 6296.36 4451.76 5237.27 7885.41 4907.03 4104.97 4575.72 5114.61 6118.13 2181.29 4420.3 4926.62 3917.09 6009.93 4083.1 5270.1 3482.73 5130.56 4957.99 4063.26 4997.89 4542.62 3470.69 5093.28 4132.08 6009.88 5223.1 4699.77 4850.49 4592.49 3625.98 4702.32 4763.04 4414.06 5944.52 4413.56 3746.62 4532.67 5316.05 4908.32 5260.13 4649.5 4810.74 5985.75 4149.17 4329.8 5672.46 5202.33 3228.27 3956.24 7558.99 4142.1 5043.14 5445.91 6842.54 4967.02 5675.45 6038.56 2807.46 5599.16 4179.8 3488.34 5658.35 5428.24 5108.84 4582.12 4295.25 4520.14 7394.47 4850.95 6271.22 3421.81 6188.33 3920.64 6111.23 5822.7 4137.41 3780.07 5466.49 4038.17 5007.41 3692.99 4907.48 6213.74 2329.93 6938.87 5412.07 5512.57 4806.99 4813.55 5856.43 3839.0 5349.85 5799.86 5715.25 4362.94 4611.21 6545.78 4870.14 4404.87 2932.2 5105.72 5767.65 5003.49 4750.76 4216.33 5497.27 4081.77 4948.21 4987.01 4202.12 6332.64 2694.25 6492.44 4613.32 5145.39 3996.93 6351.95 5195.09 5345.05 7679.2 6131.52 2626.41 4311.92 4981.55 5093.41 5144.23 6188.62 6153.07 5908.57 7296.47 5050.2 2513.38 4821.41 3995.08 5616.11 5019.84 4499.52 3900.93 3874.12 4028.13 5784.38 6476.35 6260.58 5728.27 3074.49 3053.19 6571.26 5580.95 3393.59 3549.92 4032.06 5246.81 5333.04 5089.1 5888.95 4521.99 5394.78 4812.59 3463.34 7115.67 3361.11 4998.37 5329.84 6559.82 3879.83 6565.95 4577.98 5886.81 4487.51 6805.02 5354.48 4729.45 6261.13 5374.09 4167.55 4720.34 5378.75 5244.47 5510.89 6186.24 4495.33 5282.67 4159.89 5178.55 5146.69 6818.23 4369.87 5652.19 5806.74 6578.62 3465.03 5229.56 6011.4 5172.1 6052.22 4469.82 5376.41 5003.63 4695.7 4944.08 4082.01 5269.39 3964.03 4305.35 5210.22 5832.72 5617.91 3903.9 4721.2 4444.95 4706.31 5161.02 3124.49 6265.48 4735.99 4203.68 5003.81 4739.56 3818.37 3352.46 4701.03 5434.04 5200.1 3997.52 4881.51 4909.74 6729.99 5310.33 6664.54 6842.35 5464.34 5259.48 3621.63 4777.96 5801.89 6833.5 5742.39 4780.16 4924.53 3834.01 5738.37 4433.23 4813.24 5759.19 4457.73 3113.64 4304.75 4067.24 5480.86 6139.9 4313.38 6598.99 5250.56 3633.58 2468.16 4339.97 5203.75 5169.09 5122.38 2853.68 2459.88 5262.85 5470.67 5901.71 5342.9 5733.12 5043.34 4246.24 6436.29 5402.81 4600.81 4919.13 5640.63 5168.97 4900.26 5002.38 4865.11 4731.16 5502.14 6470.87 4465.56 4131.08 5747.9 3864.19 4287.93 6203.24 5081.65 4488.41 4823.14 6679.12 4621.32 3878.8 4698.94 6284.12 3948.21 4796.04 5669.15 5296.05 4672.34 3330.85 5056.32 5533.52 5410.33 4747.24 4380.86 5576.16 5648.02 3308.75 4439.17 2451.27 5677.42 4929.35 5606.22 3943.77 5242.38 6081.35 5459.52 6262.18 5566.5 5663.36 6225.05 5579.04 5125.53 5994.21 4444.54 5779.9 6964.78 5299.03 4565.36 3922.98 5161.73 4025.08 4008.67 5254.93 4803.4 6608.94 2613.78 5417.07 5656.84 6789.66 4739.41 5312.2 5847.27 4490.2 4706.59 5734.84 3982.31 4950.07 4720.22 4582.24 2832.83 5827.3 6036.99 3010.1 3825.98 6294.14 5087.03 4667.84 3906.41 4691.15 4123.08 4512.6 4210.24 4260.38 4636.45 4932.27 5225.11 6793.49 5252.22 6060.19 4962.35 4333.23 4328.76 5561.63 4124.33 5783.88 4358.06 5647.93 6705.93 6201.49 5449.09 5154.74 4605.61 6898.8 5386.95 5332.11 5315.71 4893.72 6158.93 5373.78 5438.5 5345.65 5863.36 5699.4 5237.76 4286.84 6058.13 5263.86 6988.4 6635.51 4060.17 5302.53 4909.13 4287.61 4604.34 4863.27 2701.42 5442.79 5051.39 6673.92 5151.68 4884.94 5362.15 4609.98 4738.72 4752.31 4276.59 5405.6 3929.35 5403.81 4759.38 5082.25 4374.05 4287.15 5036.84 5504.65 5813.68 5732.11 3618.53 5040.9 4770.21 5596.68 8013.28 3846.55 3796.73 5283.65 3082.16 4644.68 2892.36 5416.41 4694.27 6760.64 2515.5 5177.88 5551.79 6981.47 3916.15 4474.96 4084.87 4790.63 5259.29 3584.05 4589.22 4818.53 5097.85 5584.64 6189.04 6224.64 4221.03 3799.55 5082.66 5638.51 4550.77 4337.93 3563.33 3550.88 4345.51 5536.0 6786.37 3860.8 5145.13 3747.96 5940.5 5093.51 5004.22 4601.54 4280.92 4696.92 6437.99 6632.04 6540.57 4977.64 6004.72 4072.4 4983.56 5699.51 4489.18 2489.44 4883.13 4632.75 4752.94 4994.98 3950.53 6423.96 5581.47 5894.69 4713.56 6051.35 6779.82 3999.81 5543.67 4867.13 6377.45 4502.12 6853.07 4633.59 4455.61 6874.6 5240.97 5106.9 5569.85 5523.96 4223.53 4884.93 4733.37 4535.94 6960.97 4523.9 5282.51 5669.41 4951.02 3919.47 4602.7 4868.66 4004.39 5159.9 4987.48 5943.61 5981.54 4248.58 5911.29 4542.25 4414.23 5233.88 4849.21 4785.55 3793.83 6189.81 5367.05 4758.76 4449.73 5647.11 4088.72 3945.62 4916.75 3743.85 6236.46 5342.17 6379.3 3795.63 5189.4 4576.71 4894.15 5201.3 5848.41 4048.73 6223.33 5438.6 7370.52 5611.29 4521.88 6568.45 3724.23 4963.88 7263.57 3832.09 5705.96 5267.65 5739.69 3509.34 5360.88 7360.62 3166.37 5369.42 4985.45 5207.08 5205.53 4714.52 5499.37 5543.05 4836.76 5333.16 5551.09 5755.98 4501.1 5392.85 4384.91 6550.61 4987.01 5529.09 6094.34 5448.68 4739.5 6210.48 4491.62 4182.05 3865.5 3255.93 6327.61 5733.59 5575.8 5268.93 3695.72 5306.31 3037.72 5126.08 5604.0 3760.4 3783.35 4037.16 6395.63 5479.17 5020.37 5245.4 5015.67 6538.04 6157.59 4090.28 4246.83 4726.5 5467.05 5103.3 5888.94 4727.98 4122.2 5175.88 4516.26 4790.16 3647.26 3731.58 4587.19 6028.89 4888.17 5077.2 4274.05 5275.27 4277.54 4531.46 5925.82 4072.95 
SCALARS Velocity float 1
LOOKUP_TABLE default
1.19178 1.243 1.32331 1.299 1.34506 1.24677 1.19178 1.19178 1.19178 1.19178 1.19178 1.19178 1.20467 1.19178 1.19178 1.19178 1.19178 1.19178 1.19178 1.19178 1.19178 1.19178 1.19178 1.19178 1.19178 1.19178 1.19178 1.19178 1.19178 1.19178 1.19178 1.19178 1.19343 1.19178 1.1973 1.19178 1.19178 1.2168 1.19178 1.19178 1.19178 1.1925 1.19174 1.26552 1.19182 1.19144 1.19185 1.19198 1.19124 1.19268 1.19208 1.19196 1.1919 1.19675 1.20657 1.19516 1.19402 1.19244 1.19834 1.19566 1.21095 1.19205 1.19174 1.1919 1.19083 1.19184 1.19467 1.19135 1.20759 1.18254 1.2012 1.2035 1.20524 1.21375 1.2114 1.20592 1.20384 1.20609 1.2206 1.21884 1.2275 1.19178 1.19178 1.25618 1.19719 1.21694 1.19178 1.21086 1.1995 1.21206 1.2186 1.23043 1.21847 1.22075 1.21389 1.20271 1.19208 1.20464 1.2006 1.37196 1.29011 1.16059 1.29848 1.20144 1.26667 1.19178 1.19182 1.19178 1.19178 1.19178 1.19178 1.2045 1.19178 1.19178 1.19178 1.19178 1.19178 1.19178 1.19178 1.19178 1.19178 1.19519 1.19178 1.19178 1.19178 1.25631 1.19178 1.19178 1.19474 1.19178 1.19176 1.19342 1.19125 1.19898 1.19178 1.19178 1.17367 1.19091 1.19419 1.19339 1.19336 1.49125 1.19168 1.1917 1.19096 1.19885 1.19181 1.19162 1.19104 1.19178 1.1962 1.19192 1.20015 1.21147 1.195 1.19507 1.19022 1.19158 1.19178 1.20289 1.19607 1.20977 1.19139 1.20215 1.19178 1.19157 1.21352 1.19178 1.19178 1.20957 1.19781 1.21239 1.19296 1.20345 1.20844 1.22453 1.2152 1.21031 1.23701 1.20391 1.19901 1.19271 1.21864 1.22696 1.22272 1.20279 1.25607 1.20196 1.22 1.19178 1.2157 1.20635 1.21376 1.2225 1.17834 1.21701 1.22877 1.2232 1.20209 1.21098 1.20196 1.20059 1.19178 1.34375 1.15346 1.56784 1.17551 2.09108 1.19176 1.19125 1.20179 1.2086 1.17005 1.19147 1.19221 1.19178 1.19178 1.19178 1.19178 1.19178 1.19178 1.19178 1.41857 1.19178 1.19039 1.20669 1.17929 1.18622 1.18641 1.19664 1.19183 1.18949 1.19228 1.19144 1.19034 1.18691 1.19176 1.18522 1.3161 2.00234 1.19381 1.72577 1.19171 1.232 1.77186 1.19178 1.2132 1.19118 1.22511 1.19769 1.19177 1.20023 1.21063 1.19576 1.19474 1.19001 1.18975 1.21095 1.19738 1.20935 1.20233 1.19455 1.20284 1.21302 1.17782 1.18044 1.21271 1.20147 1.21424 1.19448 1.21126 1.20073 1.22843 1.2129 1.21172 1.22694 1.20209 1.21861 1.19538 1.21643 1.22478 1.19689 1.19897 1.25189 1.23649 1.22294 1.21951 1.21647 1.20507 1.21582 1.19142 1.17974 1.19178 1.22491 1.20391 1.1991 1.20245 1.19284 1.19178 0.763368 1.05905 1.04968 1.08905 1.21408 2.07466 4.15008 4.45573 1.17319 1.19178 4.41003 2.90273 1.1932 3.30536 2.39831 3.68151 4.56199 1.19178 4.59695 1.19178 2.80138 2.39304 3.03479 1.16609 1.19178 1.20561 3.08354 4.59825 2.52404 1.24692 1.20062 1.22195 1.17891 1.21846 4.26062 1.21354 1.15272 1.20622 1.20666 2.77711 2.38272 1.19243 1.64015 1.21065 1.17096 2.78409 3.86816 1.19077 1.19176 2.87437 1.18812 1.20151 1.21264 1.21015 1.20697 1.19486 1.21361 1.19935 1.19013 1.20064 1.19163 1.19178 1.19738 1.19349 1.21797 1.193 1.22275 1.20771 1.20326 1.21475 1.19279 1.2077 1.19787 1.22668 1.21277 1.22295 1.21175 1.17342 1.2066 1.22384 1.17972 1.19432 1.19844 1.14827 1.24105 1.22374 1.21844 1.21556 1.21066 1.23324 1.2029 1.18907 1.23431 1.22142 1.20165 1.19656 1.20042 1.19178 1.19178 1.18982 1.21899 1.2293 1.23367 1.25056 1.21925 1.21629 1.20795 1.24955 1.23611 1.20542 1.18127 1.20207 1.21391 1.19376 1.21678 1.20647 1.19345 1.21282 1.19178 1.22284 1.19165 1.21969 1.20365 1.21581 1.21307 1.18959 1.20939 1.19407 1.20971 1.20252 1.20152 1.20938 1.22888 1.2063 1.23345 1.20526 1.20703 1.20391 1.18421 1.22831 1.18804 1.18257 1.22715 1.21029 1.18721 1.26933 1.19949 1.18443 1.24733 1.22391 1.20579 1.21709 1.19915 1.20698 1.19269 1.21279 1.19894 1.20562 1.19851 1.19178 1.19171 1.19579 1.21851 1.19396 1.18267 1.21596 1.20258 1.21286 1.21348 1.19494 1.19887 1.22524 1.19911 1.20282 1.20272 1.18587 1.21662 1.21779 1.19833 1.19267 1.21379 1.21734 1.1882 1.15531 1.20001 1.22336 1.2124 1.21163 1.21637 1.18786 1.17265 1.21244 1.20774 1.22207 1.15553 1.19272 1.19941 1.19705 1.22019 1.19178 1.23548 1.2496 1.21613 1.2155 1.20442 1.23525 1.23028 1.20665 1.17642 1.20525 1.19747 1.23077 1.21165 1.20541 1.19468 1.20516 1.21143 1.19224 1.20832 1.21767 1.20198 1.21292 1.21425 1.22398 1.2077 1.20638 1.20021 1.2071 1.19875 1.2096 1.20626 1.22106 1.21803 1.21443 1.21169 1.19368 1.20252 1.20533 1.18417 1.19984 1.18334 1.20032 1.19733 1.17066 1.19333 1.22657 1.2133 1.19773 1.23315 1.20686 1.21355 1.20303 1.20606 1.18349 1.21498 1.20451 1.20645 1.1943 1.18358 1.15878 1.1941 1.21788 1.1953 1.21488 1.20316 1.19409 1.21305 1.20405 1.20017 1.1986 1.19948 1.20193 1.19903 1.21033 1.21825 1.1648 1.18804 1.20677 1.18725 1.19427 1.23482 1.19046 1.2183 1.19937 1.21909 1.20434 1.20603 1.22151 1.18987 1.17575 1.19178 1.20689 1.20375 1.14983 1.19055 1.20271 1.1853 1.18692 1.21662 1.23062 1.21283 1.21433 1.20531 1.22788 1.22504 1.20061 1.18621 1.20522 1.20116 1.19161 1.21183 1.20186 1.19289 1.20304 1.21199 1.20953 1.2158 1.1506 1.20096 1.20681 1.20175 1.19178 1.21302 1.20932 1.20166 1.19489 1.20152 1.20834 1.2027 1.21946 1.21193 1.21114 1.20223 1.20628 1.19012 1.19924 1.1791 1.19897 1.20595 1.19417 1.19197 1.19033 1.18712 1.20512 1.21309 1.22075 1.20084 1.21849 1.20271 1.20442 1.18344 1.18419 1.20838 1.20504 1.17379 1.20685 1.18546 1.19178 1.21037 1.19655 1.22272 1.2081 1.17665 1.18027 1.18592 1.17917 1.20334 1.19395 1.1942 1.19973 1.20263 1.19823 1.20806 1.18904 1.19356 1.18184 1.21433 1.22996 1.22781 1.20806 1.19783 1.21887 1.19903 1.20311 1.22731 1.19264 1.18081 1.18239 1.20521 1.19178 1.16641 1.1893 1.1931 1.1853 1.18412 1.18303 1.19178 1.20763 1.18886 1.20105 1.19824 1.20877 1.18911 1.20927 1.18128 1.20009 1.20291 1.19618 1.20223 1.20098 1.19721 1.18999 1.20535 1.19493 1.20685 1.20512 1.20895 1.19824 1.21146 1.19906 1.20077 1.19323 1.2022 1.20119 1.19205 1.20872 1.19368 1.20696 1.17374 1.20038 1.21846 1.20663 1.20816 1.19521 1.19781 1.20523 1.19233 1.20437 1.1786 1.21314 1.19159 1.19058 1.1892 1.19094 1.18636 1.18938 1.19224 1.21197 1.19547 1.2002 1.21445 1.20155 1.20227 1.18272 1.22043 1.20252 1.21276 1.17788 1.19181 1.19138 1.17696 1.20697 1.19393 1.21537 1.21089 1.16792 1.1924 1.18592 1.19768 1.19265 1.18844 1.19907 1.20245 1.20103 1.18403 1.19518 1.22826 1.21414 1.18933 1.18758 1.22213 1.19552 1.247 1.21115 1.19701 1.20695 1.19903 1.20095 1.19741 1.20011 1.16323 1.16513 1.17799 1.18221 1.23012 1.21624 1.19366 1.18454 1.19737 1.18464 1.19438 1.20767 1.18513 1.20732 1.18151 1.20165 1.20072 1.19332 1.20102 1.1957 1.20889 1.19841 1.19237 1.19177 1.20097 1.19716 1.2095 1.19249 1.19535 1.19538 1.20629 1.2161 1.20056 1.20751 1.1802 1.20456 1.17218 1.19758 1.20204 1.20127 1.21023 1.2016 1.20316 1.19281 1.20205 1.20431 1.16709 1.21353 1.18187 1.14957 1.18888 1.19188 1.18856 1.19302 1.20858 1.19198 1.19236 1.20897 1.19766 1.198 1.21076 1.19864 1.19893 1.19165 1.21049 1.16438 1.17421 1.19686 1.19154 1.23199 1.20666 1.16471 1.19253 1.19813 1.19152 1.19449 1.1871 1.19993 1.20235 1.19424 1.19032 1.18264 1.19784 1.22 1.19186 1.19398 1.17765 1.21273 1.22645 1.24748 1.21379 1.20371 1.19391 1.20491 1.1927 1.19549 1.24745 1.19899 1.17463 1.18249 1.17061 1.23027 1.19338 1.19551 1.18206 1.19502 1.17969 1.19178 1.18455 1.19838 1.16729 1.1831 1.2044 1.19869 1.19234 1.19923 1.19559 1.20505 1.19243 1.18954 1.18955 1.20187 1.18996 1.19178 1.20061 1.19196 1.20272 1.19213 1.19396 1.19858 1.20581 1.19964 1.1954 1.21221 1.18063 1.16962 1.19178 1.19818 1.1961 1.19169 1.19059 1.1855 1.16657 1.16601 1.19123 1.20686 1.17226 1.21919 1.19678 1.19199 1.19178 1.22478 1.18625 1.14359 1.20504 1.18812 1.19246 1.21926 1.20547 1.18309 1.20191 1.20677 1.19489 1.20331 1.18959 1.19178 1.24126 1.17083 1.19708 1.20326 1.19934 1.22909 1.18464 1.13405 1.21178 1.18613 1.17734 1.1923 1.20305 1.19923 1.19207 1.18809 1.18345 1.1806 1.1966 1.2211 1.18959 1.20307 1.16564 1.23148 1.21482 1.19661 1.18444 1.18776 1.20226 1.19778 1.20055 1.17665 1.24785 1.20225 1.18161 1.18986 1.17727 1.15949 1.18608 1.19316 1.17902 1.18599 1.17701 1.19396 1.18125 1.19342 1.19178 1.17932 1.19504 1.19688 1.19178 1.18381 1.20484 1.19445 1.19267 1.18987 1.20348 1.21566 1.18412 1.18349 1.20206 1.18845 1.19929 1.19029 1.18966 1.19892 1.20395 1.19908 1.19294 1.1777 1.21397 1.18552 1.19178 1.20735 1.19178 1.19437 1.1911 1.1722 1.18862 1.19129 1.16114 1.1952 1.20854 1.18276 1.21842 1.19706 1.20915 1.1704 1.22432 1.18666 1.19551 1.20077 1.17157 1.18853 1.20201 1.20676 1.21774 1.20276 1.19656 1.20587 1.1946 1.20525 1.19128 1.18472 1.23981 1.16817 1.19543 1.19487 1.20894 1.16661 1.1916 1.21963 1.17805 1.18338 1.17345 1.19162 1.19682 1.18846 1.18037 1.18804 1.18343 1.19406 1.21636 1.19282 1.19706 1.16686 1.21324 1.0906 1.19222 1.18698 1.18677 1.20415 1.19544 1.1869 1.20362 1.1872 1.2443 1.19783 1.18382 1.1962 1.19178 1.18425 1.24368 1.20677 1.17795 1.17956 1.18158 1.17644 1.19465 1.18301 1.19606 1.20436 1.18251 1.20037 1.184 1.17755 1.19267 1.19785 1.21673 1.18242 1.18053 1.18826 1.19587 1.21259 1.19334 1.18905 1.1841 1.19842 1.20155 1.19771 1.193 1.21189 1.18776 1.20779 1.21513 1.19178 1.18933 1.1986 1.17166 1.18953 1.19646 1.16644 1.19906 1.22516 1.1809 1.19903 1.19416 1.19178 1.1709 1.22572 1.19171 1.19249 1.19169 1.17814 1.19178 1.2082 1.21254 1.20182 1.19661 1.20042 1.19138 1.20809 1.19359 1.17913 1.2386 1.16658 1.18436 1.20207 1.20668 1.15122 1.1866 1.20882 1.23726 1.18021 1.15866 1.18652 1.19379 1.18706 1.17878 1.18945 1.18752 1.20938 1.18268 1.19051 1.18868 1.16749 1.20151 1.07826 1.19292 1.19597 1.18243 1.19344 1.17034 1.20306 1.18732 1.2414 1.19262 1.18791 1.19739 1.2071 1.20919 1.24825 1.22233 1.17681 1.18668 1.17102 1.19305 1.17943 1.19399 1.19178 1.17397 1.16909 1.18431 1.18732 1.19194 1.20591 1.19263 1.18246 1.1096 1.20332 1.19333 1.16302 1.17916 1.18413 1.19976 1.20621 1.18781 1.18792 1.17766 1.19727 1.20021 1.19673 1.20364 1.21471 1.17385 1.20659 1.21469 1.19226 1.20072 1.16414 1.1704 1.18847 1.19313 1.20175 1.19412 1.18883 1.15247 1.17564 1.19192 1.19464 1.19782 1.21777 1.19862 1.19194 1.1809 1.17354 1.19178 1.19178 1.19669 1.19937 1.20182 1.2025 1.19908 1.14837 1.19574 1.20444 1.22329 1.1646 1.18184 1.19949 1.20335 1.20162 1.19805 1.16397 1.21821 1.18561 1.17234 1.1889 1.19042 1.186 1.17659 1.1676 1.18846 1.18057 1.19975 1.18582 1.18376 1.18602 1.15697 1.17286 1.20758 1.19604 1.18526 1.18291 1.16909 1.20386 1.19024 1.2411 1.18786 1.1875 1.20037 1.20394 1.21792 1.25188 1.22283 1.1761 1.18475 1.17081 1.19057 1.18316 1.15845 1.17953 1.17042 1.19147 1.19696 1.20438 1.18905 1.18 1.20559 1.17869 1.24462 1.17452 1.1777 1.19202 1.19541 1.20715 1.19178 1.19425 1.16565 1.17495 1.19723 1.19947 1.18597 1.16853 1.17667 1.21247 1.21616 1.18668 1.20929 1.16756 1.16639 1.19954 1.20174 1.18223 1.22472 1.18002 1.15445 1.21684 1.19369 1.2009 1.19906 1.19474 1.19615 1.19386 1.18351 1.20131 1.18195 1.18692 1.19353 1.23254 1.19541 1.20656 1.20104 1.19748 1.21256 1.22693 1.21295 1.16612 1.20574 1.18471 1.20144 1.20154 1.19229 1.17896 1.21902 1.19023 1.17277 1.19014 1.18927 1.17796 1.17417 1.19106 1.18368 1.20122 1.17966 1.18561 1.17925 1.18207 1.19332 1.15653 1.20001 1.19841 1.19094 1.17637 1.14909 1.19642 1.17789 1.23518 1.18398 1.1997 1.20616 1.20674 1.22889 1.18955 1.23047 1.1775 1.18285 1.1949 1.18411 1.18376 1.18866 1.17142 1.18363 1.20204 1.19495 1.20894 1.19044 1.17527 1.19176 1.17863 1.24745 1.17419 1.18481 1.19174 1.19357 1.20574 1.18411 1.1843 1.16589 1.17546 1.19544 1.21116 1.18536 1.1911 1.17362 1.18462 1.20218 1.18453 1.21058 1.15945 1.19212 1.20977 1.19715 1.17981 1.17672 1.22014 1.15595 1.21741 1.19829 1.21048 1.20099 1.19551 1.19665 1.19406 1.18234 1.2012 1.1841 1.18583 1.20079 1.25261 1.20078 1.20324 1.19751 1.19836 1.20986 1.22558 1.22292 1.20559 1.21948 1.20337 1.18233 1.1915 1.16871 1.19856 1.21439 1.20701 1.19934 1.18354 1.19035 1.2102 1.17469 1.19259 1.18503 1.18075 1.18525 1.19218 1.17727 1.17835 1.22393 1.18678 1.15095 1.18999 1.18549 1.16698 1.14892 1.18782 1.17307 1.19497 1.17665 1.22698 1.20078 1.21244 1.24029 1.18614 1.23066 1.17802 1.18158 1.18597 1.17526 1.18471 1.18791 1.17165 1.213 1.18158 1.19524 1.20149 1.18427 1.17023 1.17868 1.17629 1.24367 1.19036 1.18906 1.18669 1.19806 1.16803 1.18604 1.17574 1.17243 1.19289 1.20053 1.20992 1.18562 1.19137 1.17189 1.17946 1.19373 1.18482 1.20176 1.18971 1.1499 1.19547 1.18656 1.18784 1.19178 1.15046 1.1846 1.19178 1.19831 1.2074 1.19866 1.19454 1.20106 1.20092 1.1852 1.19178 1.17906 1.18538 1.17854 1.2553 1.19237 1.20066 1.19904 1.19785 1.20757 1.21983 1.18976 1.23736 1.22027 1.20432 1.19241 1.2099 1.19178 1.1661 1.19613 1.2131 1.19178 1.23265 1.18327 1.18965 1.15949 1.18233 1.15772 1.1918 1.11423 1.19446 1.20416 1.18497 1.17786 1.18646 1.18606 1.17321 1.18846 1.18351 1.16136 1.19146 1.19178 1.16514 1.19452 1.17471 1.22162 1.18085 1.2106 1.23283 1.18175 1.22316 1.17802 1.18414 1.17824 1.1902 1.18982 1.18905 1.16561 1.18407 1.19517 1.20088 1.18 1.17024 1.18248 1.17877 1.19333 1.19138 1.19225 1.18549 1.18632 1.1609 1.18636 1.17208 1.18993 1.15396 1.21502 1.21313 1.18379 1.1855 1.20913 1.18929 1.17299 1.20968 1.20223 1.28291 1.18193 1.20593 1.18471 1.18846 1.23167 1.18235 1.18609 1.16483 1.19298 1.20551 1.19812 1.19083 1.23528 1.23175 1.17884 1.17384 1.18401 1.20555 1.21342 1.17757 1.19516 1.20144 1.19649 1.20016 1.20504 1.21934 1.23234 1.20354 1.19055 1.20649 1.2091 1.1802 1.21468 1.20739 1.21974 1.20141 1.18374 1.1877 1.15634 1.17256 1.20129 1.19178 1.11554 1.19501 1.20235 1.18325 1.17398 1.19362 1.19112 1.22072 1.19178 1.18233 1.16176 1.15788 1.14608 1.17508 1.19513 1.17132 1.21825 1.17876 1.20311 1.22794 1.19178 1.20665 1.17896 1.18886 1.19725 1.18952 1.19353 1.18906 1.17388 1.16579 1.19444 1.1709 1.17012 1.1774 1.17074 1.19258 1.17742 1.19231 1.19241 1.19208 1.18965 1.18645 1.17671 1.16216 1.15495 1.17215 1.15634 1.19756 1.19178 1.18525 1.18448 1.20341 1.17097 1.18797 1.21084 1.19982 1.19965 1.19542 1.20489 1.19656 1.20001 1.19136 1.20427 1.18752 1.19178 1.1992 1.20265 1.18526 1.18715 1.23783 1.18333 1.17019 1.23031 1.18042 1.16922 1.2159 1.20951 1.1889 1.18792 1.17501 1.19384 1.20016 1.20693 1.21991 1.22806 1.19283 1.20402 1.18667 1.20872 1.20625 1.19367 1.22032 1.2283 1.19664 1.22791 1.17728 1.19538 1.16051 1.17778 1.20009 1.19178 1.19029 1.1951 1.18647 1.17763 1.17384 1.19816 1.20025 1.21468 1.17131 1.18213 1.15845 1.19178 1.14491 1.19299 1.19515 1.19178 1.20342 1.16471 1.2046 1.22415 1.19878 1.20052 1.17951 1.19006 1.20303 1.1905 1.19378 1.18921 1.17357 1.17208 1.16177 1.19415 1.17002 1.16948 1.17234 1.17309 1.19591 1.17631 1.15987 1.19525 1.1901 1.18665 1.18412 1.17579 1.16207 1.17813 1.15892 1.18721 1.19496 1.2053 1.19178 1.19178 1.20497 1.17199 1.20754 1.19542 1.19815 1.19956 1.19544 1.20648 1.19613 1.20082 1.18452 1.22637 1.20609 1.20023 1.19849 1.19952 1.2501 1.14666 1.21192 1.20715 1.2222 1.17756 1.2097 1.21207 1.1898 1.18707 1.1739 1.19531 1.19359 1.20576 1.21794 1.22598 1.19804 1.18345 1.18752 1.20658 1.20379 1.17522 1.182 1.22781 1.20438 1.22132 1.17513 1.19421 1.16033 1.19353 1.1934 1.19071 1.20131 1.18188 1.19227 1.18989 1.16704 1.19147 1.20099 1.21432 1.16692 1.17719 1.15095 1.21086 1.14099 1.20481 1.2035 1.2194 1.19548 1.15989 1.2051 1.21805 1.19928 1.19589 1.20418 1.19049 1.20632 1.18939 1.1942 1.21472 1.21129 1.17305 1.20873 1.19356 1.16873 1.1803 1.18378 1.21096 1.18475 1.20111 1.1931 1.18471 1.1866 1.18369 1.17715 1.18677 1.1867 1.15776 1.19251 1.19806 1.20791 1.19609 1.18556 1.19079 1.17622 1.23735 1.1979 1.19662 1.19807 1.19316 1.19178 1.19739 1.20307 1.19113 1.23322 1.21397 1.20096 1.17226 1.2177 1.2619 1.16058 1.2083 1.18802 1.20117 1.20902 1.20678 1.20821 1.20435 1.1875 1.18766 1.19474 1.18396 1.19239 1.18735 1.21607 1.18971 1.19956 1.18632 1.17596 1.19734 1.19192 1.1955 1.1842 1.18823 1.21885 1.22057 1.17886 1.19963 1.1665 1.19201 1.19058 1.18592 1.22493 1.19855 1.20307 1.18847 1.18058 1.16464 1.17535 1.19506 1.19749 1.16782 1.19144 1.20191 1.1588 1.19232 1.20134 1.20396 1.2156 1.18105 1.18644 1.15906 1.21397 1.20153 1.20447 1.19092 1.2036 1.18477 1.20504 1.19471 1.19029 1.19452 1.19939 1.18263 1.17147 1.20233 1.16678 1.18791 1.18767 1.172 1.1976 1.20107 1.19046 1.18566 1.18563 1.20247 1.19178 1.19122 1.20749 1.19374 1.15732 1.21692 1.19699 1.20794 1.1936 1.19055 1.17773 1.20607 1.22301 1.18595 1.20839 1.21034 1.19428 1.18028 1.20393 1.19036 1.20497 1.19062 1.19064 1.23534 1.23097 1.20094 1.20749 1.22716 1.20525 1.22439 1.19835 1.20037 1.20189 1.19722 1.20746 1.20771 1.20087 1.18311 1.18906 1.1966 1.18192 1.19076 1.18598 1.21271 1.19756 1.21099 1.17311 1.18403 1.19532 1.19333 1.1964 1.18645 1.18616 1.21493 1.21677 1.18399 1.20431 1.20297 1.19672 1.19383 1.19178 1.20468 1.18822 1.16185 1.1769 1.19178 1.19313 1.15648 1.17452 1.22057 1.22173 1.20037 1.21001 1.21295 1.23917 1.17801 1.17487 1.18459 1.21423 1.20143 1.20214 1.1869 1.18842 1.20119 1.20449 1.19468 1.19099 1.19265 1.20557 1.18875 1.15824 1.19958 1.16541 1.18595 1.18784 1.17154 1.1974 1.18468 1.18896 1.18671 1.18773 1.17214 1.21049 1.19666 1.17423 1.217 1.20005 1.18581 1.19797 1.20863 1.21484 1.17546 1.21082 1.20903 1.20131 1.198 1.20982 1.18113 1.22513 1.16826 1.22958 1.20186 1.20459 1.2155 1.20307 1.2158 1.1919 1.19813 1.19711 1.19126 1.20209 1.19178 1.19508 1.17665 1.17204 1.19284 1.19178 1.18868 1.18833 1.20972 1.19001 1.2082 1.17363 1.17272 1.1889 1.19394 1.19259 1.18958 1.18453 1.21135 1.21759 1.18157 1.20458 1.21072 1.21073 1.20122 1.19293 1.16489 1.20314 1.18913 1.1806 1.1567 1.16888 1.19224 1.19141 1.19862 1.18693 1.20594 1.24104 1.2051 1.22654 1.20369 1.24679 1.19222 1.18535 1.20025 1.19178 1.1914 1.19327 1.20365 1.1895 1.18807 1.20032 1.18713 1.18712 1.19117 1.19337 1.20535 1.18773 1.15967 1.19178 1.19178 1.18762 1.19179 1.20893 1.201 1.18519 1.19248 1.18357 1.20444 1.17272 1.22164 1.208 1.19178 1.19178 1.18674 1.1782 1.21456 1.19413 1.20415 1.21311 1.21198 1.17625 1.21329 1.20437 1.19917 1.20066 1.19781 1.18547 1.17144 1.22604 1.16795 1.19779 1.22519 1.19178 1.20225 1.20909 1.22175 1.21185 1.1843 1.20144 1.2003 1.1862 1.21285 1.03477 1.18041 1.19128 1.20071 1.18495 1.18868 1.1815 1.18163 1.21233 1.18152 1.18851 1.2459 1.19178 1.16373 1.19378 1.17364 1.18053 1.1905 1.20606 1.21743 1.18303 1.21973 1.19115 1.19178 1.21058 1.1911 1.20734 1.16516 1.16824 1.19608 1.19516 1.19719 1.19657 1.21764 1.23245 1.22237 1.22273 1.20226 1.18863 1.21692 1.21452 1.18831 1.18701 1.18197 1.19144 1.18772 1.18573 1.18632 1.18931 1.20518 1.19319 1.2056 1.1872 1.19137 1.19158 1.19188 1.19212 1.19178 1.20784 1.20428 1.19075 1.201 1.19176 1.20577 1.1724 1.20043 1.20198 1.1932 1.20494 1.18758 1.15615 1.21016 1.20061 1.21676 1.19178 1.20172 1.20687 1.17583 1.19214 1.20606 1.19774 1.18641 1.2003 1.19062 1.17225 1.19453 1.21864 1.21526 1.2282 1.18354 1.22116 1.22598 1.1903 1.23091 1.20491 1.18086 1.18995 1.19615 1.18775 1.19907 1.17902 1.21826 1.1685 1.19281 1.18349 1.18541 1.18453 1.20798 1.19942 1.18818 1.25186 1.20394 1.16136 1.18544 1.20938 1.19853 1.18261 1.19944 1.19854 1.21694 1.18636 1.21877 1.22281 1.20041 1.18841 1.19302 1.20502 1.19984 1.2201 1.1942 1.18331 1.2118 1.21062 1.19785 1.19675 1.21851 1.2151 1.1965 1.21927 1.22134 1.19393 1.21192 1.19163 1.2163 1.21549 1.18078 1.18233 1.19159 1.18672 1.1948 1.18629 1.19224 1.20025 1.20359 1.20229 1.18893 1.19178 1.19178 1.19178 1.19488 1.19838 1.20849 1.19321 1.2103 1.19977 1.21065 1.19232 1.20755 1.16965 1.19988 1.18804 1.19056 1.19993 1.2022 1.1567 1.18633 1.19313 1.19309 1.20518 1.18242 1.19638 1.2059 1.19215 1.186 1.1723 1.19889 1.23147 1.21519 1.18201 1.19467 1.18766 1.22069 1.1986 1.19178 1.19258 1.19441 1.18872 1.27477 1.27382 1.16695 1.25688 1.17343 1.16617 1.18032 1.18146 1.18802 1.17421 1.19185 1.18117 1.19373 1.18395 1.20033 1.18939 1.1998 1.17078 1.19318 1.19832 1.23286 1.19612 1.19125 1.21998 1.19727 1.22576 1.20357 1.20395 1.1914 1.1894 1.20221 1.19798 1.19797 1.22228 1.19711 1.21281 1.2092 1.19579 1.18882 1.21686 1.21272 1.19744 1.18056 1.20951 1.18718 1.21975 1.1879 1.18336 1.20995 1.18687 1.20832 1.17033 1.19383 1.16572 1.20262 1.20019 1.20848 1.21352 1.2008 1.18934 1.19194 1.19168 1.19178 1.19795 1.19864 1.20915 1.18453 1.19178 1.19201 1.20548 1.19178 1.19178 1.18808 1.18766 1.19844 1.20208 1.19666 1.18488 1.1852 1.19269 1.1988 1.20638 1.18076 1.18202 1.20394 1.18706 1.18317 1.18355 1.20965 1.19753 1.19569 1.2167 1.17731 1.18472 1.1926 1.18796 1.21913 1.1936 1.15758 1.19449 1.17306 1.18341 1.25641 1.12099 1.23539 1.16714 1.17169 1.18652 1.18071 1.17259 1.18249 1.1924 1.18064 1.16879 1.16922 1.20834 1.19599 1.15645 1.19497 1.18221 1.21972 1.21022 1.22267 1.21469 1.19976 1.20915 1.16539 1.16736 1.20042 1.24584 1.19392 1.20892 1.20153 1.17115 1.21076 1.19682 1.19136 1.2121 1.20772 1.19232 1.16673 1.20285 1.17275 1.18251 1.17289 1.18655 1.18831 1.20179 1.17742 1.21013 1.167 1.19766 1.19179 1.20745 1.16933 1.21658 1.21191 1.20058 1.19158 1.1951 1.1906 1.19204 1.19877 1.19856 1.20907 1.18741 1.20835 1.21332 1.21407 1.19179 1.20394 1.21997 1.21236 1.26046 1.19178 1.2067 1.2079 1.21736 1.25438 1.18459 1.18443 1.18447 1.19867 1.20169 1.18042 1.18432 1.19841 1.18268 1.18131 1.1823 1.21041 1.19372 1.18775 1.18158 1.18524 1.19704 1.19554 1.18396 1.19848 1.15908 1.16633 1.18936 1.21793 1.17976 1.18838 1.19178 1.22044 1.12283 1.17629 1.17843 1.18966 1.17892 1.17807 1.17568 1.16995 1.17809 1.19523 1.16884 1.20549 1.14935 1.1915 1.17238 1.22093 1.22351 1.19114 1.2019 1.13323 1.20446 1.2052 1.20853 1.23326 1.17124 1.19424 1.20909 1.17173 1.20795 1.18577 1.17346 1.20926 1.20365 1.10787 1.17133 1.19812 1.16058 1.12561 1.17748 1.20013 1.17364 1.23473 1.21165 1.16615 1.19685 1.2055 1.19361 1.1864 1.225 1.2078 1.19974 1.19461 1.18446 1.21201 1.18813 1.20453 1.19444 1.19964 1.20954 1.203 1.22025 1.22708 1.22975 1.23006 1.27178 1.21506 1.21903 1.20966 1.23594 1.18026 1.19062 1.18752 1.18796 1.19886 1.19978 1.18 1.19067 1.19903 1.17905 1.19652 1.19852 1.18328 1.19853 1.18722 1.18976 1.18592 1.19667 1.17409 1.20931 1.19798 1.19358 1.18439 1.21652 1.18579 1.19469 1.22658 1.24051 1.14421 1.16992 1.19921 1.18858 1.18514 1.16864 1.20265 1.15246 1.17987 1.20526 1.1968 1.15924 1.20229 1.19007 1.19275 1.19983 1.14437 1.17034 1.15769 1.21584 1.21202 1.21071 1.18821 1.20108 1.20695 1.20452 1.20695 1.2307 1.24357 1.16542 1.18458 1.19708 1.16937 1.20766 1.18698 1.17 1.19414 1.215 1.12631 1.15184 1.20055 1.12352 1.16781 1.17702 1.19046 1.21242 1.1706 1.16527 1.19936 1.19384 1.19305 1.18569 1.19211 1.20433 1.20609 1.19225 1.19407 1.21107 1.19178 1.19178 1.19404 1.20993 1.20884 1.21743 1.20919 1.20324 1.21839 1.23573 1.22778 1.23484 1.2158 1.19994 1.21385 1.20871 1.22757 1.18704 1.13784 1.19536 1.19433 1.19426 1.21036 1.20599 1.18828 1.20528 1.19947 1.18035 1.19659 1.15527 1.18107 1.19226 1.1809 1.19247 1.18311 1.19413 1.17456 1.17274 1.19179 1.18407 1.17063 1.23988 1.17136 1.21047 1.18462 1.19324 1.22409 1.20666 1.13637 1.19148 1.18432 1.19103 1.18674 1.21055 1.17762 1.21163 1.21415 1.14563 1.21719 1.17519 1.20877 1.20869 1.22142 1.21377 1.20019 1.14623 1.19638 1.1589 1.20316 1.21056 1.17998 1.19941 1.2042 1.19774 1.29928 1.20033 1.14405 1.27177 1.18679 1.16082 1.17088 1.21563 1.22047 1.1818 1.17697 1.23781 1.18397 1.16524 1.18438 1.20278 1.16425 1.22366 1.17666 1.19704 1.19481 1.16603 1.1911 1.16412 1.19997 1.18485 1.18923 1.24323 1.23309 1.23537 1.19898 1.21839 1.19098 1.19516 1.18528 1.17174 1.22063 1.18811 1.2057 1.19492 1.2184 1.19178 1.19178 1.23048 1.15544 1.1967 1.21289 1.19178 1.23051 1.18777 1.22733 1.15639 1.19062 1.19433 1.19825 1.20307 1.20296 1.20991 1.20205 1.17944 1.18881 1.19146 1.1844 1.1874 1.18203 1.19806 1.17667 1.16868 1.18843 1.17332 1.10278 1.18459 1.2369 1.19589 1.201 1.1798 1.15215 1.20427 1.19578 1.19153 1.17324 1.18318 1.19422 1.15958 1.19229 1.2117 1.19178 1.21359 1.20076 1.20391 1.17397 1.22894 1.20301 1.1815 1.24019 1.1935 1.19968 1.21226 1.20124 1.21135 1.21449 1.18939 1.16795 1.18884 1.23108 1.26883 1.17222 1.23804 1.18216 1.1879 1.21354 1.15967 1.17665 1.23903 1.17486 1.16755 1.19538 1.21488 1.2158 1.19312 1.23583 1.24177 1.19405 1.19812 1.20149 1.17852 1.18259 1.20359 1.19571 1.20794 1.19986 1.17719 1.18885 1.1967 1.19709 1.19002 1.21671 1.21936 1.1958 1.20805 1.18077 1.2303 1.19659 1.23713 1.17942 1.20027 1.15724 1.1966 1.23292 1.22495 1.17952 1.22178 1.19221 1.20749 1.211 1.21424 1.18255 1.15774 1.24212 1.20647 1.20831 1.1996 1.19178 1.19178 1.20008 1.19633 1.17335 1.18859 1.18332 1.18026 1.18978 1.18709 1.17624 1.16951 1.18678 1.16594 1.10862 1.23729 1.18419 1.18719 1.17232 1.13913 1.2003 1.16969 1.21226 1.18063 1.20904 1.17375 1.18569 1.18917 1.22006 1.20021 1.21523 1.17927 1.19363 1.2249 1.21643 1.18376 1.23457 1.20899 1.21922 1.20769 1.19196 1.19178 1.23188 1.17183 1.24358 1.19222 1.20549 1.15915 1.26927 1.12592 1.26262 1.18685 1.19831 1.15801 1.22467 1.20805 1.19164 1.14804 1.18799 1.19498 1.20135 1.18405 1.18126 1.17372 1.23585 1.22246 1.22332 1.17156 1.19493 1.19558 1.20007 1.20147 1.20235 1.20006 1.17411 1.18863 1.20225 1.23122 1.23534 1.19358 1.2264 1.22852 1.13447 1.23473 1.18436 1.23043 1.19405 1.19892 1.21315 1.19178 1.21199 1.19535 1.17473 1.21998 1.224 1.18538 1.25525 1.22449 1.18608 1.21745 1.2108 1.19111 1.19356 1.19709 1.23642 1.18665 1.15568 1.17722 1.20104 1.17463 1.182 1.18146 1.17798 1.18973 1.18648 1.17471 1.17158 1.18467 1.20168 1.18699 1.19393 1.22473 1.19148 1.16891 1.15937 1.14028 1.1928 1.15373 1.21377 1.1668 1.18456 1.18074 1.1933 1.18115 1.16067 1.21724 1.19547 1.22 1.18195 1.19443 1.1875 1.24346 1.23545 1.18013 1.19677 1.20557 1.17979 1.21632 1.17578 1.19177 1.21164 1.20155 1.2196 1.19498 1.17543 1.19062 1.18283 1.1521 1.15365 1.22107 1.22429 1.19508 1.16377 1.21975 1.24544 1.18373 1.20044 1.17909 1.19521 1.1969 1.17523 1.18892 1.18274 1.19935 1.19725 1.20051 1.16701 1.17939 1.21606 1.18878 1.20798 1.20613 1.22618 1.27751 1.08817 1.22681 1.19363 1.18518 1.19764 1.22378 1.2349 1.21508 1.18442 1.22584 1.22103 1.22097 1.19197 1.23916 1.21873 1.21451 1.18065 1.17888 1.19205 1.19289 1.19289 1.20081 1.20057 1.19541 1.21456 1.19554 1.18415 1.22973 1.2266 1.18951 1.19187 1.18339 1.18154 1.17004 1.19178 1.17695 1.19178 1.18557 1.20079 1.20175 1.18525 1.18724 1.1822 1.21041 1.17846 1.16652 1.18343 1.17051 1.17548 1.18327 1.17104 1.14746 1.19655 1.2268 1.19178 1.18362 1.19858 1.18989 1.20338 1.16679 1.1931 1.19644 1.18767 1.20277 1.26013 1.13205 1.17144 1.20383 1.21091 1.19952 1.18823 1.17816 1.2091 1.19279 1.20977 1.18772 1.17466 1.1814 1.15265 1.22154 1.22091 1.1607 1.26246 1.19157 1.17664 1.24325 1.21744 1.1658 1.17457 1.19767 1.19178 1.23535 1.24427 1.21676 1.19847 1.20774 1.18365 1.20546 1.25455 1.20666 1.19352 1.19337 1.18478 1.19578 1.20223 1.2214 1.22227 1.15085 1.18309 1.21831 1.22685 1.21664 1.20416 1.21928 1.19083 1.2609 1.22448 1.24459 1.19364 1.17608 1.22383 1.18724 1.19052 1.20451 1.16693 1.20764 1.18647 1.18606 1.18721 1.17689 1.2455 1.15892 1.19221 1.1927 1.19417 1.22169 1.18506 1.16873 1.19456 1.17738 1.17827 1.18519 1.17727 1.17067 1.144 1.19234 1.19333 1.20874 1.20381 1.19681 1.19993 1.20112 1.18792 1.17606 1.19178 1.18462 1.18276 1.18778 1.20479 1.23422 1.19134 1.17064 1.1949 1.20789 1.20989 1.20396 1.20575 1.20828 1.1789 1.16816 1.15196 1.18271 1.22473 1.22551 1.19307 1.16391 1.13655 1.24202 1.18794 1.17692 1.16178 1.16651 1.19147 1.20968 1.15717 1.16765 1.17687 1.18488 1.1819 1.19461 1.18802 1.19235 1.19385 1.21217 1.22963 1.22283 1.20237 1.20584 1.2005 1.20096 1.22577 1.20926 1.19363 1.1969 1.19593 1.18886 1.19776 1.23582 1.2287 1.16726 1.17614 1.18617 1.23168 1.18427 1.19861 1.17929 1.24257 1.19247 1.20915 1.20328 1.21411 1.19836 1.20187 1.19447 1.21921 1.22334 1.14174 1.20836 1.18892 1.22103 1.17734 1.19364 1.18421 1.19731 1.17757 1.19907 1.19699 1.17546 1.19408 1.19531 1.19294 1.22993 1.23764 1.19346 1.16545 1.19003 1.1755 1.17362 1.18315 1.17721 1.18486 1.15537 1.21224 1.24151 1.19897 1.18617 1.20583 1.1835 1.18336 1.17655 1.19178 1.19555 1.19398 1.21185 1.19598 1.16667 1.20275 1.12296 1.21085 1.20717 1.20461 1.18489 1.18578 1.16932 1.15217 1.18277 1.19575 1.22189 1.21404 1.19322 1.16042 1.12818 1.24039 1.19298 1.17599 1.17436 1.16925 1.16725 1.16076 1.22492 1.21165 1.14132 1.12466 1.17454 1.18322 1.19028 1.21279 1.22459 1.20931 1.18996 1.19936 1.18462 1.19551 1.23441 1.15204 1.20627 1.20732 1.19838 1.21003 1.17858 1.19235 1.20019 1.19549 1.22275 1.22195 1.218 1.21182 1.16919 1.18203 1.20714 1.23137 1.18932 1.21676 1.18203 1.22006 1.1939 1.20273 1.19368 1.13946 1.21232 1.18165 1.17913 1.19381 1.20766 1.16509 1.21576 1.17955 1.2034 1.17992 1.19637 1.18563 1.17339 1.23776 1.18968 1.167 1.18818 1.17359 1.16867 1.17159 1.18718 1.19176 1.18656 1.16237 1.17466 1.23507 1.20556 1.19948 1.13953 1.18577 1.19207 1.17566 1.19111 1.19477 1.19447 1.20313 1.19678 1.20848 1.1814 1.19178 1.19777 1.16689 1.21144 1.2024 1.18106 1.20104 1.18951 1.16421 1.14902 1.16013 1.18297 1.18539 1.19806 1.22355 1.20252 1.16985 1.13881 1.19144 1.1701 1.21675 1.22011 1.1679 1.11934 1.24307 1.13374 1.13711 1.17535 1.1837 1.17792 1.18965 1.21227 1.19679 1.24527 1.19127 1.24485 1.20966 1.22081 1.19178 1.21288 1.18279 1.19581 1.20442 1.16344 1.22227 1.20612 1.19939 1.19793 1.20854 1.21912 1.22594 1.19273 1.16124 1.14641 1.20311 1.18687 1.18732 1.19087 1.19301 1.19925 1.21082 1.21829 1.21824 1.17737 1.19022 1.20962 1.20563 1.18583 1.18815 1.18377 1.1725 1.1658 1.16537 1.18809 1.1756 1.15219 1.15578 1.19239 1.16736 1.17399 1.20001 1.16249 1.19364 1.2077 1.16428 1.1948 1.18856 1.16884 1.18546 1.17712 1.17829 1.17375 1.19185 1.17434 1.16443 1.20944 1.21584 1.2037 1.18572 1.17215 1.16454 1.20211 1.18846 1.18688 1.15766 1.15903 1.16507 1.17004 1.18577 1.21402 1.18698 1.15859 1.21683 1.18786 1.16828 1.16974 1.26267 1.26261 1.24029 1.13437 1.20777 1.21135 1.1749 1.1777 1.16709 1.18971 1.21113 1.20329 1.19471 1.20945 1.1729 1.24335 1.16881 1.25089 1.17544 1.24155 1.24543 1.20455 1.20368 1.20509 1.20468 1.20758 1.20681 1.15742 1.16436 1.21803 1.22519 1.20382 1.19003 1.19193 1.19848 1.20368 1.20753 1.17354 1.14485 1.20771 1.1947 1.21926 1.18922 1.19139 1.19461 1.20284 1.21527 1.21885 1.17735 1.21609 1.19409 1.17465 1.20763 1.19452 1.1895 1.19423 1.18518 1.17875 1.17908 1.17201 1.19178 1.17075 1.18679 1.1792 1.18468 1.17506 1.20197 1.20161 1.17491 1.17263 1.17015 1.1755 1.20361 1.19889 1.18445 1.18503 1.18246 1.19686 1.19941 1.20236 1.2026 1.09514 1.1765 1.17161 1.17679 1.18101 1.12978 1.17573 1.20409 1.19919 1.20353 1.19017 1.19599 1.18217 1.15625 1.19983 1.17432 1.19298 1.17177 1.16919 1.15558 1.19093 1.18205 1.17639 1.18641 1.18473 1.15897 1.19769 1.20792 1.17289 1.17651 1.16714 1.19712 1.17927 1.17548 1.21672 1.1713 1.18759 1.18106 1.15697 1.18961 1.21042 1.1983 1.19388 1.19178 1.21004 1.15218 1.22399 1.19987 1.23263 1.24091 1.2352 1.20321 1.20518 1.18049 1.20556 1.19741 1.20834 1.18471 1.18422 1.188 1.19533 1.14606 1.16565 1.21067 1.17584 1.21031 1.19031 1.21045 1.18812 1.18394 1.19477 1.17925 1.16884 1.21959 1.2166 1.17556 1.17346 1.17184 1.19209 1.19178 1.20103 1.19469 1.18651 1.17828 1.17633 1.1674 1.17614 1.18564 1.21509 1.17988 1.16916 1.19268 1.15702 1.20224 1.17567 1.17258 1.18689 1.16851 1.17736 1.19399 1.17427 1.19906 1.20324 1.19529 1.13971 1.16915 1.17632 1.19066 1.18107 1.19961 1.19129 1.1789 1.17888 1.18601 1.18448 1.17855 1.17527 1.16735 1.19294 1.19204 1.16181 1.19178 1.19589 1.18399 1.17384 1.16981 1.17132 1.16408 1.19178 1.19179 1.18656 1.17484 1.23134 1.15992 1.18569 1.18471 1.16906 1.17085 1.13601 1.17807 1.17106 1.15673 1.17681 1.19235 1.17159 1.16059 1.19036 1.14483 1.20833 1.19367 1.19587 1.19355 1.17028 1.22413 1.19178 1.2135 1.21142 1.20431 1.20516 1.15614 1.20462 1.19642 1.18364 1.18621 1.1763 1.158 1.16096 1.19435 1.1832 1.1673 1.18873 1.17802 1.19141 1.19724 1.20421 1.21713 1.17595 1.16497 1.17486 1.17738 1.17685 1.19135 1.16753 1.16692 1.20191 1.18327 1.18227 1.17577 1.17542 1.17583 1.17226 1.17305 1.16194 1.18343 1.19232 1.19921 1.17146 1.19922 1.16579 1.17623 1.17026 1.17603 1.18445 1.17286 1.17697 1.20494 1.17808 1.1887 1.18489 1.18867 1.16069 1.16436 1.16783 1.17638 1.1907 1.17519 1.18099 1.20392 1.21076 1.19604 1.18423 1.17952 1.15208 1.1781 1.18001 1.2111 1.18883 1.18995 1.20538 1.18097 1.19403 1.20011 1.21666 1.17987 1.18367 1.18494 1.18053 1.18124 1.17212 1.19643 1.15541 1.16002 1.19177 1.16719 1.16754 1.13562 1.22238 1.17063 1.17358 1.185 1.16661 1.16411 1.20491 1.19436 1.18477 1.17559 1.16787 1.21159 1.19839 1.19309 1.21424 1.2018 1.13448 1.15165 1.19799 1.18346 1.19904 1.19541 1.17723 1.20097 1.15632 1.19041 1.16684 1.18584 1.18834 1.16029 1.18886 1.19082 1.19808 1.17206 1.17113 1.16959 1.17699 1.17609 1.19189 1.17164 1.1874 1.17016 1.17391 1.19183 1.16091 1.16146 1.18414 1.19473 1.17049 1.18338 1.1765 1.15258 1.17693 1.16109 1.17682 1.18145 1.18418 1.17219 1.19033 1.18818 1.19178 1.1909 1.19285 1.16561 1.16399 1.16622 1.16628 1.17307 1.17785 1.19178 1.19953 1.1867 1.17493 1.17875 1.15134 1.17458 1.18678 1.21803 1.17815 1.18114 1.1884 1.20224 1.21866 1.18248 1.18573 1.17741 1.19174 1.2143 1.16671 1.1747 1.18587 1.18579 1.16805 1.18187 1.17522 1.13403 1.21888 1.18936 1.16142 1.18505 1.19698 1.20436 1.16207 1.16096 1.18324 1.18311 1.17114 1.18102 1.18015 1.17089 1.20988 1.19178 1.16516 1.18809 1.19999 1.19816 1.13105 1.15203 1.19178 1.20005 1.19462 1.19383 1.16885 1.19266 1.16769 1.16168 1.14588 1.1776 1.18275 1.19293 1.1705 1.15699 1.1602 1.18954 1.16857 1.19771 1.17677 1.17715 1.17622 1.19241 1.19497 1.18129 1.18143 1.15994 1.17442 1.18793 1.19749 1.19078 1.18074 1.19448 1.17142 1.17135 1.18383 1.17644 1.22536 1.18402 1.17579 1.17583 1.17748 1.17437 1.19123 1.17721 1.19356 1.19202 1.17317 1.19228 1.18922 1.16433 1.16462 1.1673 1.17727 1.17388 1.1757 1.19469 1.18753 1.17183 1.15895 1.17493 1.22598 1.17417 1.10975 1.1751 1.17817 1.19854 1.18298 1.21643 1.18472 1.18213 1.17999 1.17656 1.215 1.17226 1.2066 1.20517 1.18503 1.19337 1.18017 1.19085 1.19803 1.1778 1.19972 1.17792 1.15446 1.17958 1.16099 1.14054 1.16555 1.20134 1.1631 1.14367 1.17494 1.16245 1.15966 1.17874 1.20623 1.15135 1.16277 1.20866 1.18206 1.15206 1.13367 1.17699 1.20231 1.15028 1.16332 1.19049 1.19045 1.19012 1.16429 1.1834 1.17019 1.16711 1.17864 1.18081 1.17198 1.14739 1.15755 1.20086 1.17976 1.1778 1.19178 1.19193 1.17351 1.2067 1.18265 1.16624 1.18104 1.17478 1.18742 1.17187 1.19295 1.16968 1.19659 1.18132 1.19661 1.17984 1.19153 1.16998 1.18498 1.17459 1.16987 1.22513 1.18065 1.187 1.18583 1.18896 1.17553 1.19249 1.16915 1.17762 1.19084 1.19158 1.18922 1.18753 1.15927 1.2039 1.21001 1.16523 1.16148 1.16909 1.19214 1.17404 1.17333 1.17452 1.1872 1.17744 1.17942 1.19532 1.16847 1.22353 1.17576 1.18397 1.18283 1.14992 1.17183 1.19235 1.19395 1.20705 1.18657 1.19165 1.1846 1.17973 1.19132 1.19353 1.18411 1.19667 1.19921 1.17846 1.1722 1.19329 1.19638 1.18931 1.1782 1.16044 1.17932 1.1852 1.14924 1.19589 1.1989 1.13887 1.14973 1.18327 1.21222 1.20807 1.19213 1.20348 1.16344 1.13147 1.16468 1.17188 1.16478 1.13558 1.17244 1.22933 1.17929 1.17171 1.16631 1.16595 1.17708 1.16821 1.16228 1.16471 1.17748 1.1661 1.15239 1.15398 1.15671 1.16612 1.18653 1.19451 1.17491 1.18966 1.17241 1.1718 1.1963 1.1658 1.17219 1.18369 1.17488 1.16683 1.18931 1.17375 1.18837 1.17871 1.21619 1.19247 1.19406 1.17386 1.18395 1.18185 1.19591 1.19178 1.18375 1.19397 1.19697 1.18446 1.18629 1.15655 1.20791 1.15961 1.15903 1.15848 1.17113 1.18613 1.1863 1.18811 1.19116 1.18021 1.17247 1.18584 1.17498 1.19188 1.1809 1.1982 1.19269 1.1671 1.19129 1.20795 1.18147 1.18442 1.18671 1.19297 1.19793 1.19569 1.1978 1.17692 1.18348 1.17818 1.19242 1.18304 1.19526 1.1874 1.16426 1.16353 1.16988 1.13608 1.17345 1.1579 1.19788 1.19178 1.16092 1.1571 1.1798 1.20901 1.19359 1.21085 1.16894 1.03778 1.1781 1.17449 1.14272 1.17909 1.22849 1.16606 1.14003 1.1381 1.16847 1.16785 1.16388 1.16428 1.17746 1.16271 1.16547 1.15756 1.17354 1.17167 1.17374 1.21443 1.179 1.18742 1.15762 1.17466 1.18439 1.173 1.17684 1.17859 1.18333 1.18574 1.19178 1.19178 1.18852 1.1876 1.18437 1.18395 1.19617 1.19262 1.18176 1.19078 1.1933 1.17493 1.18616 1.20125 1.19208 1.17512 1.19145 1.1825 1.20125 1.18713 1.18704 1.17526 1.1646 1.18013 1.15885 1.20716 1.14803 1.18447 1.17144 1.1743 1.17496 1.18121 1.18798 1.1932 1.19132 1.17786 1.17318 1.17715 1.20614 1.17799 1.20764 1.18435 1.20437 1.18438 1.1876 1.19336 1.19403 1.17822 1.18406 1.1775 1.17047 1.18084 1.18693 1.19032 1.18827 1.18456 1.20007 1.18428 1.16423 1.1744 1.19178 1.18927 1.15748 1.16463 1.16256 1.1817 1.16487 1.14139 1.18917 1.1965 1.1666 1.16965 1.17124 1.09079 1.16033 1.12555 1.16391 1.17126 1.19842 1.24577 1.13887 1.13956 1.1596 1.16269 1.17275 1.16081 1.16909 1.16684 1.17843 1.15897 1.22721 1.16181 1.1736 1.18026 1.17595 1.1155 1.17996 1.15861 1.19809 1.1727 1.17326 1.18233 1.18609 1.18649 1.18013 1.18216 1.19154 1.17713 1.18538 1.19084 1.19178 1.19187 1.18857 1.19253 1.17442 1.20115 1.19178 1.17713 1.18237 1.19381 1.18818 1.1788 1.15658 1.18711 1.18127 1.18775 1.20756 1.14746 1.17504 1.17839 1.18157 1.17344 1.19369 1.18672 1.16577 1.17063 1.17404 1.19276 1.20396 1.17397 1.20384 1.16651 1.17006 1.19041 1.17802 1.1804 1.18441 1.19407 1.1942 1.19562 1.18904 1.19178 1.18667 1.1799 1.18147 1.18051 1.16997 1.1832 1.19178 1.18856 1.19588 1.19353 1.18243 1.19386 1.19178 1.18904 1.19064 1.15666 1.16593 1.13687 1.18957 1.16575 1.17279 1.18514 1.15769 1.15555 1.13744 1.18593 1.20104 1.16145 1.18947 1.13318 1.14712 1.13978 1.18311 1.15794 1.15808 1.16652 1.16998 1.15236 1.19178 1.15351 1.17609 1.18015 1.19396 1.17562 1.19643 1.17811 1.18738 1.17781 1.17742 1.18561 1.19106 1.18112 1.18771 1.18762 1.19178 1.18474 1.18988 1.19178 1.19178 1.19125 1.19178 1.18914 1.19262 1.17303 1.17234 1.19198 1.17738 1.17688 1.18158 1.19225 1.18501 1.1846 1.18814 1.19374 1.16914 1.18823 1.20726 1.18285 1.17475 1.16966 1.1755 1.17588 1.17667 1.16607 1.18421 1.16606 1.16621 1.17326 1.18999 1.17766 1.17561 1.16767 1.19118 1.17218 1.18308 1.18128 1.18346 1.18739 1.19334 1.1892 1.18229 1.18204 1.17878 1.18327 1.18009 1.18945 1.18893 1.19615 1.193 1.19178 1.19266 1.16719 1.16307 1.13281 1.19178 1.16487 1.17098 1.12984 1.15607 1.15418 1.13355 1.1989 1.19747 1.16988 1.1507 1.13868 1.12305 1.1347 1.15995 1.15351 1.16723 1.16343 1.1467 1.13236 1.17387 1.16725 1.15855 1.15281 1.17007 1.17005 1.16772 1.17909 1.19063 1.19623 1.17777 1.18746 1.17366 1.18599 1.19352 1.18014 1.189 1.19458 1.18819 1.19027 1.19178 1.19181 1.19108 1.19166 1.18994 1.19275 1.17178 1.19204 1.19178 1.19178 1.18733 1.18215 1.18996 1.18686 1.18849 1.18782 1.19268 1.16907 1.18187 1.17697 1.18188 1.20069 1.17331 1.16872 1.17707 1.17014 1.16787 1.15951 1.16169 1.17597 1.18697 1.17139 1.17974 1.18649 1.18769 1.19251 1.17931 1.19882 1.19178 1.18563 1.19209 1.17584 1.18829 1.1895 1.18236 1.18403 1.18378 1.1877 1.18616 1.19586 1.19028 1.18187 1.19212 1.1948 1.16446 1.19336 1.12789 1.15149 1.12717 1.11406 1.18535 1.19724 1.17036 1.17698 1.18086 1.14423 1.15403 1.19178 1.17393 1.16601 1.16899 1.19178 1.17986 1.15412 1.158 1.14503 1.17363 1.17954 1.19035 1.19178 1.17612 1.1922 1.17828 1.18885 1.19178 1.18563 1.19215 1.17896 1.19438 1.18845 1.18659 1.19108 1.19456 1.19507 1.19094 1.18763 1.19159 1.1899 1.19285 1.19596 1.19197 1.19595 1.1919 1.18865 1.16641 1.16996 1.18297 1.18716 1.18243 1.17807 1.17042 1.17085 1.16735 1.17735 1.16406 1.16513 1.16495 1.16116 1.17504 1.19178 1.17956 1.192 1.19207 1.18858 1.18047 1.17826 1.19187 1.19162 1.1808 1.19008 1.18491 1.19178 1.17435 1.18861 1.19032 1.19084 1.18303 1.17867 1.19204 1.18274 1.1895 1.19264 1.18912 1.18978 1.19178 1.18996 1.18991 1.18294 1.13119 1.19096 1.17248 1.12679 1.18764 1.17267 1.19178 1.17454 1.1505 1.16463 1.17575 1.18366 1.14355 1.18622 1.17373 1.18323 1.18613 1.18614 1.18575 1.17928 1.18204 1.17589 1.16754 1.17508 1.16085 1.16353 1.16428 1.16388 1.1725 1.18317 1.17972 1.19178 1.18005 1.18511 1.17385 1.1826 1.18532 1.17919 1.19192 1.18767 1.18758 1.18968 
SCALARS Stress float 1
LOOKUP_TABLE default
-12549900000.0 -26569900000.0 -63954400000.0 -29849000000.0 -40722700000.0 -33051300000.0 -12549700000.0 -12549700000.0 -12549700000.0 -12549700000.0 -12549700000.0 -12549700000.0 -17993100000.0 -12549700000.0 -12549700000.0 -12549700000.0 -12549700000.0 -12549700000.0 -12549700000.0 -12549700000.0 -12549700000.0 -12549700000.0 -12549700000.0 -12549700000.0 -12549700000.0 -12549700000.0 -12549700000.0 -12549700000.0 -12549700000.0 -12549700000.0 -12549700000.0 -12549700000.0 -12789400000.0 -12549700000.0 -13906900000.0 -12549700000.0 -12549700000.0 -51052800000.0 -12549700000.0 -12549700000.0 -12549700000.0 -12945800000.0 -13422400000.0 -50125400000.0 -12673700000.0 -12801800000.0 -12897500000.0 -13162300000.0 -13423500000.0 -13702300000.0 -14757800000.0 -14437200000.0 -13830800000.0 -15034900000.0 -21314400000.0 -17119700000.0 -14263600000.0 -13746900000.0 -16010900000.0 -15237400000.0 -21500600000.0 -13284600000.0 -14089500000.0 -14417600000.0 -14658200000.0 -15307700000.0 -15702200000.0 -16352900000.0 -28344400000.0 -28028800000.0 -35167000000.0 -44734700000.0 -22830800000.0 -60840600000.0 -33669100000.0 -48956500000.0 -51121100000.0 -48857700000.0 -51083300000.0 -29711700000.0 -19135800000.0 -12549700000.0 -12549700000.0 -26631700000.0 -14435500000.0 -21390100000.0 -12549700000.0 -17190800000.0 -16273100000.0 -22427600000.0 -23137300000.0 -48743600000.0 -52856600000.0 -54935900000.0 -28557900000.0 -37203000000.0 -12982000000.0 -27276900000.0 -15321700000.0 -116746000000.0 -143118000000.0 -429420000000.0 -167687000000.0 -112070000000.0 -82298000000.0 -12553500000.0 -12599500000.0 -12549700000.0 -12549700000.0 -12549700000.0 -12549700000.0 -25884600000.0 -12549700000.0 -12549700000.0 -12549700000.0 -12549700000.0 -12549700000.0 -12549700000.0 -12549700000.0 -12549700000.0 -12549700000.0 -18463700000.0 -12549700000.0 -12549700000.0 -12549700000.0 -15617800000.0 -12549700000.0 -12549700000.0 -13389600000.0 -12549700000.0 -12645500000.0 -13798100000.0 -14561100000.0 -20469400000.0 -12549700000.0 -12549700000.0 -50684600000.0 -23493700000.0 -22377600000.0 -16670700000.0 -16033800000.0 -163382000000.0 -12759200000.0 -12776100000.0 -13360100000.0 -28243700000.0 -13749200000.0 -13503200000.0 -13617600000.0 -12549700000.0 -14003600000.0 -12668500000.0 -17042300000.0 -27552500000.0 -13323700000.0 -17448000000.0 -13921300000.0 -13413000000.0 -12549700000.0 -19194100000.0 -18158700000.0 -36733900000.0 -12669300000.0 -13652100000.0 -12549700000.0 -12586200000.0 -16165800000.0 -12549700000.0 -12549700000.0 -17539400000.0 -27587700000.0 -15244300000.0 -16739300000.0 -19571700000.0 -27306900000.0 -25941700000.0 -90048100000.0 -58904900000.0 -18696900000.0 -30169300000.0 -21568500000.0 -16818300000.0 -105913000000.0 -52884800000.0 -48610100000.0 -45948200000.0 -71891800000.0 -21038200000.0 -41606400000.0 -12549700000.0 -28661600000.0 -18548400000.0 -45510900000.0 -117708000000.0 -63181300000.0 -64951800000.0 -66811700000.0 -107133000000.0 -110116000000.0 -104876000000.0 -106488000000.0 -41456600000.0 -12549700000.0 -43525500000.0 -80457300000.0 -148328000000.0 -26838100000.0 -215024000000.0 -12905800000.0 -13473400000.0 -16003000000.0 -12906500000.0 -33379700000.0 -30564100000.0 -17191400000.0 -12549700000.0 -12549700000.0 -12549700000.0 -12549700000.0 -12549700000.0 -12549700000.0 -12549700000.0 -199269000000.0 -12549700000.0 -20072500000.0 -12865800000.0 -17734100000.0 -24424100000.0 -25935500000.0 -21038700000.0 -16301900000.0 -14845000000.0 -14463800000.0 -13107200000.0 -27632200000.0 -27092400000.0 -12824800000.0 -18072300000.0 -160513000000.0 -265861000000.0 -63701500000.0 -531655000000.0 -12548300000.0 -13411100000.0 -338074000000.0 -12549700000.0 -13004800000.0 -12733100000.0 -73929900000.0 -18702000000.0 -12550100000.0 -24938700000.0 -44666900000.0 -30049100000.0 -17652600000.0 -13612100000.0 -13262800000.0 -36368800000.0 -31942500000.0 -83514000000.0 -49897500000.0 -52753700000.0 -45448400000.0 -39544700000.0 -37215100000.0 -38288700000.0 -49444200000.0 -43340700000.0 -43942300000.0 -37186300000.0 -31623100000.0 -70230800000.0 -74303900000.0 -138890000000.0 -205753000000.0 -56864900000.0 -35231000000.0 -41591400000.0 -35841400000.0 -227078000000.0 -169353000000.0 -167626000000.0 -123044000000.0 -173571000000.0 -175016000000.0 -89013100000.0 -50140900000.0 -72559200000.0 -67620200000.0 -110801000000.0 -12942700000.0 -20708200000.0 -12549700000.0 -92614800000.0 -15475200000.0 -89433400000.0 -95598900000.0 -93883900000.0 -12549700000.0 -199151000000.0 -92770900000.0 -44475300000.0 -68868700000.0 -20895500000.0 -214419000000.0 -152179000000.0 -175421000000.0 -14779200000.0 -12549700000.0 -171841000000.0 -74448500000.0 -13030500000.0 -96534100000.0 -50822300000.0 -119755000000.0 -183887000000.0 -12549700000.0 -186716000000.0 -12549700000.0 -244987000000.0 -50599200000.0 -88928500000.0 -12014600000.0 -12549700000.0 -15965700000.0 -84011800000.0 -186822000000.0 -56290700000.0 -13737800000.0 -14453100000.0 -20327000000.0 -15069800000.0 -23039000000.0 -160394000000.0 -26195700000.0 -23702300000.0 -20265700000.0 -20632200000.0 -81135200000.0 -403182000000.0 -13023600000.0 -397290000000.0 -15490400000.0 -39371700000.0 -391764000000.0 -132206000000.0 -12528500000.0 -12549300000.0 -133669000000.0 -14348700000.0 -32180000000.0 -34304900000.0 -64791400000.0 -63632900000.0 -60545700000.0 -65524200000.0 -53947700000.0 -41527600000.0 -104854000000.0 -13530100000.0 -12549700000.0 -25370400000.0 -24727900000.0 -18167900000.0 -26107500000.0 -27358900000.0 -45299700000.0 -75472800000.0 -132287000000.0 -126012000000.0 -61075200000.0 -64376600000.0 -72076300000.0 -127677000000.0 -313718000000.0 -283267000000.0 -231698000000.0 -316827000000.0 -47415000000.0 -45467500000.0 -173693000000.0 -141403000000.0 -141015000000.0 -143470000000.0 -366748000000.0 -46601600000.0 -91531400000.0 -68624900000.0 -122227000000.0 -99693100000.0 -91457200000.0 -147771000000.0 -221673000000.0 -196326000000.0 -98005400000.0 -92539200000.0 -12549700000.0 -12549700000.0 -47201600000.0 -15503400000.0 -54420400000.0 -20012100000.0 -53383000000.0 -38416600000.0 -25774000000.0 -31906500000.0 -31120600000.0 -40227900000.0 -25118700000.0 -17612200000.0 -16816100000.0 -27515300000.0 -19861400000.0 -21657300000.0 -22260200000.0 -16094400000.0 -18978100000.0 -12549700000.0 -23268800000.0 -13811100000.0 -23930900000.0 -17905000000.0 -27106800000.0 -31370600000.0 -24078300000.0 -33313200000.0 -18243800000.0 -30227000000.0 -20692000000.0 -36786600000.0 -45205700000.0 -41838200000.0 -31798300000.0 -64397600000.0 -78654900000.0 -41440700000.0 -62602300000.0 -40794200000.0 -38767600000.0 -50045100000.0 -46950800000.0 -50740700000.0 -64636600000.0 -99481700000.0 -108148000000.0 -24813100000.0 -28421400000.0 -46947900000.0 -25189100000.0 -52174300000.0 -84878400000.0 -17744600000.0 -56950600000.0 -18481400000.0 -57798300000.0 -42730300000.0 -21243900000.0 -124929000000.0 -12549700000.0 -12739300000.0 -30882800000.0 -34758300000.0 -36446700000.0 -16752600000.0 -22158700000.0 -127882000000.0 -73785600000.0 -31774400000.0 -17792400000.0 -95936900000.0 -171030000000.0 -188823000000.0 -119892000000.0 -159886000000.0 -194822000000.0 -31561800000.0 -124039000000.0 -94633600000.0 -156198000000.0 -173556000000.0 -20363600000.0 -13556900000.0 -22837800000.0 -13457300000.0 -73456400000.0 -447211000000.0 -414614000000.0 -345359000000.0 -275082000000.0 -202186000000.0 -209220000000.0 -159047000000.0 -130064000000.0 -124699000000.0 -205167000000.0 -214544000000.0 -203609000000.0 -67770000000.0 -12549700000.0 -87287800000.0 -152090000000.0 -143004000000.0 -33304000000.0 -86040000000.0 -76173000000.0 -94682400000.0 -56511500000.0 -43834100000.0 -59539000000.0 -23472800000.0 -21107400000.0 -37404500000.0 -31864200000.0 -17606800000.0 -30945700000.0 -20773700000.0 -13812700000.0 -38098100000.0 -48767700000.0 -31594100000.0 -40760700000.0 -74615900000.0 -72816300000.0 -59572000000.0 -59496500000.0 -48545100000.0 -46382800000.0 -24446800000.0 -49538600000.0 -35564200000.0 -21306000000.0 -126512000000.0 -115064000000.0 -40803600000.0 -17178800000.0 -27645700000.0 -34559400000.0 -17877000000.0 -15189800000.0 -28324200000.0 -14264000000.0 -24962300000.0 -27996800000.0 -52216600000.0 -142658000000.0 -185802000000.0 -189954000000.0 -193065000000.0 -277344000000.0 -168951000000.0 -129267000000.0 -157498000000.0 -117685000000.0 -99289400000.0 -149640000000.0 -143941000000.0 -54928600000.0 -73215300000.0 -71149700000.0 -134171000000.0 -126115000000.0 -150267000000.0 -137886000000.0 -118854000000.0 -132458000000.0 -111391000000.0 -68610400000.0 -64930500000.0 -239290000000.0 -147748000000.0 -98399600000.0 -108989000000.0 -35521400000.0 -154347000000.0 -39085000000.0 -91767800000.0 -163308000000.0 -109889000000.0 -270983000000.0 -79799700000.0 -49947700000.0 -89130800000.0 -66826400000.0 -34542000000.0 -195253000000.0 -235746000000.0 -98398900000.0 -110145000000.0 -17768800000.0 -12549700000.0 -31904600000.0 -174949000000.0 -161859000000.0 -176702000000.0 -147809000000.0 -129542000000.0 -118011000000.0 -151427000000.0 -289838000000.0 -164558000000.0 -268528000000.0 -212247000000.0 -112003000000.0 -139646000000.0 -25145200000.0 -19238700000.0 -55942200000.0 -24698400000.0 -18068900000.0 -103926000000.0 -79945200000.0 -51284200000.0 -55153100000.0 -60120300000.0 -71503000000.0 -85989700000.0 -43831500000.0 -69024900000.0 -124395000000.0 -13710800000.0 -12549700000.0 -109130000000.0 -108191000000.0 -133306000000.0 -129632000000.0 -165947000000.0 -178781000000.0 -57674000000.0 -70052400000.0 -140350000000.0 -70592100000.0 -54678600000.0 -67906800000.0 -53144500000.0 -49882700000.0 -48180800000.0 -49628900000.0 -79654300000.0 -83148300000.0 -62579100000.0 -73983200000.0 -104391000000.0 -18666400000.0 -100796000000.0 -17623600000.0 -87576700000.0 -177104000000.0 -104941000000.0 -152465000000.0 -123308000000.0 -104324000000.0 -102187000000.0 -83236400000.0 -82235400000.0 -106343000000.0 -122750000000.0 -12549700000.0 -17720200000.0 -75578000000.0 -26296300000.0 -75017400000.0 -42637200000.0 -86680800000.0 -179635000000.0 -145425000000.0 -227745000000.0 -192023000000.0 -160136000000.0 -117388000000.0 -81695600000.0 -318586000000.0 -317337000000.0 -211555000000.0 -264296000000.0 -138340000000.0 -312366000000.0 -84727000000.0 -42458600000.0 -70002600000.0 -93695000000.0 -117282000000.0 -313537000000.0 -203700000000.0 -188004000000.0 -187967000000.0 -114792000000.0 -98897100000.0 -174271000000.0 -12549700000.0 -130409000000.0 -23921100000.0 -17071300000.0 -13082100000.0 -120490000000.0 -74622100000.0 -12549700000.0 -385780000000.0 -103433000000.0 -161464000000.0 -130435000000.0 -97732400000.0 -32273600000.0 -64200500000.0 -112447000000.0 -111918000000.0 -184463000000.0 -169604000000.0 -208550000000.0 -136814000000.0 -134615000000.0 -104301000000.0 -103130000000.0 -124200000000.0 -122331000000.0 -91394500000.0 -42868400000.0 -45585900000.0 -74411400000.0 -45322800000.0 -145450000000.0 -108949000000.0 -105128000000.0 -107318000000.0 -19229100000.0 -60971100000.0 -28945700000.0 -53664600000.0 -32452400000.0 -204352000000.0 -124637000000.0 -195590000000.0 -43876900000.0 -57878000000.0 -30391700000.0 -57405000000.0 -49364900000.0 -19964000000.0 -26631700000.0 -57867100000.0 -15561500000.0 -53963600000.0 -22332800000.0 -29615300000.0 -39762300000.0 -40459800000.0 -45756100000.0 -65467300000.0 -101574000000.0 -175925000000.0 -244645000000.0 -145143000000.0 -194497000000.0 -192324000000.0 -82884000000.0 -25205100000.0 -17847400000.0 -45795500000.0 -12680600000.0 -12850800000.0 -89424100000.0 -58104000000.0 -154867000000.0 -73857500000.0 -120944000000.0 -113703000000.0 -13126500000.0 -57347100000.0 -114771000000.0 -17889500000.0 -204299000000.0 -138516000000.0 -176635000000.0 -104668000000.0 -166076000000.0 -108370000000.0 -47948800000.0 -215445000000.0 -30454300000.0 -225213000000.0 -120682000000.0 -189583000000.0 -142896000000.0 -139833000000.0 -386292000000.0 -460489000000.0 -199109000000.0 -156261000000.0 -148699000000.0 -131506000000.0 -118131000000.0 -88927600000.0 -133995000000.0 -33940800000.0 -39856900000.0 -37026300000.0 -102452000000.0 -114295000000.0 -308608000000.0 -238534000000.0 -200012000000.0 -103059000000.0 -75258200000.0 -73228400000.0 -97684400000.0 -64231400000.0 -100635000000.0 -46991900000.0 -60501400000.0 -49966700000.0 -65953400000.0 -85184400000.0 -12850600000.0 -12554800000.0 -78081500000.0 -93374200000.0 -85777900000.0 -38470900000.0 -176927000000.0 -57712600000.0 -32018300000.0 -51010000000.0 -91401100000.0 -135502000000.0 -109519000000.0 -100805000000.0 -99383400000.0 -182418000000.0 -73695800000.0 -218727000000.0 -148752000000.0 -41852300000.0 -185454000000.0 -100412000000.0 -99101900000.0 -155132000000.0 -146974000000.0 -150925000000.0 -134069000000.0 -119951000000.0 -128301000000.0 -160563000000.0 -178806000000.0 -121423000000.0 -163842000000.0 -264958000000.0 -12979800000.0 -163727000000.0 -65734900000.0 -109779000000.0 -177537000000.0 -103430000000.0 -13436700000.0 -112099000000.0 -76813900000.0 -68409100000.0 -104659000000.0 -94614600000.0 -90727800000.0 -49164700000.0 -107178000000.0 -72136400000.0 -13408300000.0 -45656400000.0 -92613100000.0 -183370000000.0 -107671000000.0 -62122200000.0 -139182000000.0 -105947000000.0 -13925000000.0 -121101000000.0 -132774000000.0 -28441500000.0 -140461000000.0 -117829000000.0 -204981000000.0 -27448500000.0 -74580300000.0 -132501000000.0 -264551000000.0 -18561500000.0 -392887000000.0 -360270000000.0 -29226300000.0 -51792100000.0 -30265100000.0 -139556000000.0 -107604000000.0 -125090000000.0 -78908100000.0 -45963600000.0 -91101300000.0 -61152000000.0 -91019400000.0 -131193000000.0 -121980000000.0 -12549700000.0 -134683000000.0 -100522000000.0 -27387000000.0 -94954100000.0 -103560000000.0 -178312000000.0 -117417000000.0 -142213000000.0 -141103000000.0 -15973900000.0 -12676500000.0 -105948000000.0 -14721700000.0 -73099900000.0 -14175900000.0 -12549700000.0 -45560200000.0 -89227800000.0 -77064700000.0 -99885400000.0 -92459100000.0 -72681500000.0 -63167400000.0 -148363000000.0 -90891900000.0 -32828800000.0 -16922900000.0 -22038300000.0 -12549700000.0 -189432000000.0 -226635000000.0 -12900300000.0 -147501000000.0 -19098800000.0 -123574000000.0 -53910300000.0 -20006000000.0 -18743500000.0 -18134200000.0 -20999200000.0 -38055500000.0 -12554100000.0 -12549700000.0 -19462700000.0 -104186000000.0 -60089100000.0 -123205000000.0 -221127000000.0 -13895500000.0 -46087900000.0 -45127500000.0 -29431900000.0 -117698000000.0 -120123000000.0 -21811800000.0 -149617000000.0 -21943100000.0 -12549700000.0 -27566000000.0 -36025500000.0 -64141800000.0 -15002500000.0 -101141000000.0 -41404100000.0 -172204000000.0 -153945000000.0 -200822000000.0 -357386000000.0 -255865000000.0 -340341000000.0 -244791000000.0 -338599000000.0 -66662000000.0 -320066000000.0 -284409000000.0 -323138000000.0 -426850000000.0 -319728000000.0 -331261000000.0 -510988000000.0 -634246000000.0 -353226000000.0 -310892000000.0 -226313000000.0 -569014000000.0 -134363000000.0 -406311000000.0 -196187000000.0 -167317000000.0 -82542000000.0 -111738000000.0 -157135000000.0 -68668300000.0 -42667300000.0 -14730900000.0 -55534000000.0 -39793700000.0 -50569700000.0 -69635400000.0 -106457000000.0 -42026900000.0 -77038200000.0 -174071000000.0 -126878000000.0 -12549700000.0 -103788000000.0 -70452800000.0 -133710000000.0 -12549700000.0 -154069000000.0 -43876100000.0 -81507700000.0 -55326400000.0 -48966600000.0 -21600000000.0 -45018600000.0 -51862700000.0 -31639500000.0 -65992300000.0 -72205800000.0 -103953000000.0 -108600000000.0 -118761000000.0 -79036200000.0 -94283500000.0 -73725300000.0 -61823000000.0 -26010200000.0 -47106600000.0 -19475500000.0 -12549700000.0 -15489500000.0 -12549700000.0 -218918000000.0 -12779700000.0 -164298000000.0 -112947000000.0 -183872000000.0 -131370000000.0 -90384700000.0 -78469000000.0 -84365400000.0 -81515200000.0 -93960800000.0 -82564300000.0 -83404900000.0 -97233400000.0 -126839000000.0 -100594000000.0 -105983000000.0 -89656600000.0 -280765000000.0 -230229000000.0 -170196000000.0 -157308000000.0 -36191900000.0 -189032000000.0 -200055000000.0 -106289000000.0 -152624000000.0 -67908000000.0 -52981300000.0 -81944100000.0 -66267300000.0 -67149600000.0 -162965000000.0 -192642000000.0 -249213000000.0 -87219300000.0 -110088000000.0 -131761000000.0 -32518000000.0 -34105300000.0 -79011200000.0 -176770000000.0 -189263000000.0 -132282000000.0 -45693200000.0 -60037200000.0 -166507000000.0 -41196500000.0 -104479000000.0 -124523000000.0 -88545100000.0 -202481000000.0 -94869100000.0 -478077000000.0 -179866000000.0 -13093700000.0 -91793600000.0 -342407000000.0 -13374300000.0 -153462000000.0 -21325200000.0 -71163600000.0 -105740000000.0 -49657600000.0 -42382000000.0 -12549700000.0 -30171700000.0 -45436300000.0 -99504400000.0 -70843000000.0 -131315000000.0 -109620000000.0 -51182300000.0 -80160300000.0 -207778000000.0 -99974400000.0 -161360000000.0 -189372000000.0 -101296000000.0 -109554000000.0 -177876000000.0 -103642000000.0 -128429000000.0 -106516000000.0 -131060000000.0 -111805000000.0 -117278000000.0 -155853000000.0 -27749700000.0 -152492000000.0 -85243000000.0 -158659000000.0 -124501000000.0 -137218000000.0 -148899000000.0 -112930000000.0 -49354200000.0 -13905600000.0 -27391800000.0 -30024300000.0 -12549700000.0 -251143000000.0 -31811500000.0 -90254300000.0 -62667900000.0 -124999000000.0 -84816800000.0 -82321600000.0 -37762700000.0 -55057800000.0 -19468300000.0 -61556000000.0 -12549700000.0 -17070100000.0 -42320800000.0 -64693100000.0 -64461600000.0 -35082800000.0 -183145000000.0 -12549700000.0 -219637000000.0 -89678600000.0 -199328000000.0 -192741000000.0 -138825000000.0 -77559100000.0 -116755000000.0 -50694400000.0 -121955000000.0 -123521000000.0 -135379000000.0 -154543000000.0 -40246900000.0 -14040200000.0 -20084000000.0 -194328000000.0 -134748000000.0 -130283000000.0 -249946000000.0 -233843000000.0 -242601000000.0 -225825000000.0 -175316000000.0 -250577000000.0 -126614000000.0 -269902000000.0 -85785600000.0 -103639000000.0 -115235000000.0 -176761000000.0 -164304000000.0 -173781000000.0 -91588500000.0 -239665000000.0 -132717000000.0 -181100000000.0 -273056000000.0 -80193200000.0 -140911000000.0 -98729800000.0 -159577000000.0 -151274000000.0 -75834500000.0 -70419700000.0 -38736700000.0 -76659400000.0 -28403500000.0 -89908300000.0 -132934000000.0 -195019000000.0 -193403000000.0 -222587000000.0 -305868000000.0 -91062200000.0 -12549700000.0 -209118000000.0 -67115800000.0 -59256100000.0 -104701000000.0 -52693400000.0 -66073100000.0 -63538000000.0 -165969000000.0 -51918800000.0 -59977600000.0 -95755500000.0 -138950000000.0 -133108000000.0 -111346000000.0 -152306000000.0 -222125000000.0 -348898000000.0 -157742000000.0 -334025000000.0 -254096000000.0 -233381000000.0 -247221000000.0 -244367000000.0 -164150000000.0 -165356000000.0 -141583000000.0 -155409000000.0 -226450000000.0 -131405000000.0 -102511000000.0 -137430000000.0 -94993900000.0 -182947000000.0 -32326400000.0 -41197500000.0 -67238500000.0 -59619900000.0 -76475100000.0 -87265200000.0 -112392000000.0 -110283000000.0 -103172000000.0 -188376000000.0 -57248900000.0 -96360900000.0 -109424000000.0 -12549700000.0 -12549700000.0 -318193000000.0 -131486000000.0 -370571000000.0 -19900200000.0 -145577000000.0 -99705700000.0 -120495000000.0 -53646100000.0 -46285400000.0 -87037300000.0 -110305000000.0 -52570800000.0 -24202700000.0 -156515000000.0 -54696900000.0 -20898600000.0 -100053000000.0 -22854800000.0 -89175900000.0 -32644300000.0 -112266000000.0 -70186200000.0 -172500000000.0 -111743000000.0 -260879000000.0 -132206000000.0 -71885200000.0 -72014500000.0 -154406000000.0 -138232000000.0 -57766200000.0 -56385100000.0 -255187000000.0 -234345000000.0 -330599000000.0 -294172000000.0 -86855700000.0 -158480000000.0 -42836600000.0 -134324000000.0 -117786000000.0 -46642200000.0 -71181700000.0 -43895900000.0 -122371000000.0 -105233000000.0 -108154000000.0 -61071500000.0 -55433400000.0 -34092800000.0 -44703800000.0 -15498400000.0 -200012000000.0 -149176000000.0 -79505200000.0 -69082800000.0 -78440700000.0 -96074700000.0 -41873100000.0 -103061000000.0 -37511800000.0 -54952600000.0 -39073100000.0 -32207800000.0 -32755500000.0 -16670000000.0 -88495800000.0 -103952000000.0 -12549700000.0 -154679000000.0 -286118000000.0 -87908300000.0 -94093800000.0 -90480400000.0 -90138700000.0 -301098000000.0 -172521000000.0 -169653000000.0 -93484800000.0 -190695000000.0 -145649000000.0 -24250200000.0 -106500000000.0 -35061100000.0 -134425000000.0 -50380300000.0 -21506800000.0 -20512800000.0 -18290800000.0 -18950700000.0 -57717600000.0 -29771300000.0 -59017500000.0 -17740500000.0 -143851000000.0 -26529200000.0 -50453400000.0 -14636400000.0 -121950000000.0 -157615000000.0 -186051000000.0 -71998300000.0 -246910000000.0 -158833000000.0 -284223000000.0 -74693500000.0 -74710300000.0 -14961400000.0 -18694600000.0 -37258600000.0 -19254000000.0 -98451600000.0 -168249000000.0 -83658600000.0 -55283100000.0 -55747300000.0 -160021000000.0 -72108200000.0 -121323000000.0 -12781100000.0 -149924000000.0 -52236400000.0 -154646000000.0 -82186400000.0 -157077000000.0 -38799700000.0 -161203000000.0 -69249000000.0 -129967000000.0 -13457500000.0 -107498000000.0 -15523100000.0 -244436000000.0 -150295000000.0 -106494000000.0 -530688000000.0 -338558000000.0 -290514000000.0 -303304000000.0 -262208000000.0 -302423000000.0 -50068000000.0 -73744500000.0 -66898300000.0 -131075000000.0 -15463800000.0 -235345000000.0 -44898000000.0 -36415700000.0 -17424600000.0 -52072300000.0 -41609400000.0 -44612200000.0 -269450000000.0 -189651000000.0 -17282100000.0 -58827300000.0 -17024200000.0 -145116000000.0 -120275000000.0 -12702800000.0 -35339600000.0 -57857300000.0 -20876000000.0 -29613200000.0 -15134000000.0 -90115400000.0 -110193000000.0 -106626000000.0 -304993000000.0 -40413800000.0 -24369200000.0 -21482500000.0 -25226900000.0 -39894600000.0 -21339600000.0 -194059000000.0 -115929000000.0 -160490000000.0 -376855000000.0 -261018000000.0 -199908000000.0 -52689600000.0 -44182300000.0 -145933000000.0 -82509300000.0 -79062400000.0 -51047100000.0 -49162400000.0 -62012000000.0 -117442000000.0 -87606100000.0 -109689000000.0 -14382300000.0 -188000000000.0 -173601000000.0 -175238000000.0 -152383000000.0 -230317000000.0 -137371000000.0 -143404000000.0 -64982500000.0 -201306000000.0 -373812000000.0 -81619000000.0 -36797300000.0 -21634100000.0 -55525200000.0 -31223200000.0 -39707000000.0 -22718300000.0 -124533000000.0 -103156000000.0 -102673000000.0 -56200300000.0 -69230700000.0 -97587100000.0 -24211000000.0 -41290900000.0 -144953000000.0 -60834000000.0 -23601700000.0 -146735000000.0 -13558200000.0 -141116000000.0 -17524200000.0 -154896000000.0 -169270000000.0 -225574000000.0 -265205000000.0 -205270000000.0 -293913000000.0 -109413000000.0 -190541000000.0 -330728000000.0 -178661000000.0 -145189000000.0 -37128100000.0 -76761700000.0 -145110000000.0 -177488000000.0 -265957000000.0 -313550000000.0 -202414000000.0 -261423000000.0 -254805000000.0 -300875000000.0 -38187100000.0 -33039500000.0 -32490000000.0 -23840900000.0 -16124700000.0 -14805500000.0 -152167000000.0 -141877000000.0 -194528000000.0 -117215000000.0 -96075100000.0 -151376000000.0 -167818000000.0 -116027000000.0 -132794000000.0 -147004000000.0 -138916000000.0 -155933000000.0 -209068000000.0 -187220000000.0 -137343000000.0 -88033900000.0 -289186000000.0 -21459800000.0 -13188700000.0 -15870200000.0 -27567900000.0 -33446300000.0 -19123300000.0 -108037000000.0 -161602000000.0 -134911000000.0 -43642700000.0 -201179000000.0 -13030600000.0 -112515000000.0 -117019000000.0 -123120000000.0 -16501500000.0 -12549700000.0 -43886600000.0 -25788700000.0 -12549700000.0 -89965300000.0 -51771600000.0 -57463500000.0 -215838000000.0 -44106100000.0 -35447100000.0 -26735200000.0 -12549700000.0 -87021300000.0 -158405000000.0 -293531000000.0 -141866000000.0 -195493000000.0 -212700000000.0 -236159000000.0 -85758900000.0 -32995400000.0 -111810000000.0 -59602700000.0 -49490800000.0 -143616000000.0 -59166300000.0 -143011000000.0 -194469000000.0 -12549700000.0 -19803000000.0 -53087100000.0 -106964000000.0 -12549700000.0 -78075400000.0 -156419000000.0 -82523600000.0 -72236300000.0 -127819000000.0 -59575800000.0 -135007000000.0 -93576600000.0 -102250000000.0 -95078200000.0 -143301000000.0 -160851000000.0 -57624400000.0 -163919000000.0 -82954900000.0 -105944000000.0 -248429000000.0 -192656000000.0 -119699000000.0 -12549700000.0 -26980400000.0 -81085100000.0 -120148000000.0 -54864400000.0 -204852000000.0 -20880700000.0 -133586000000.0 -87898300000.0 -296817000000.0 -26760200000.0 -18083000000.0 -16179700000.0 -20548000000.0 -13199900000.0 -13043200000.0 -78118800000.0 -152902000000.0 -45130800000.0 -45164100000.0 -145424000000.0 -76242500000.0 -39212800000.0 -72466400000.0 -27773700000.0 -60339300000.0 -27593700000.0 -75011900000.0 -69720200000.0 -33954000000.0 -13073300000.0 -184627000000.0 -111155000000.0 -187896000000.0 -186429000000.0 -193135000000.0 -205064000000.0 -243203000000.0 -111717000000.0 -52131100000.0 -40605700000.0 -38962800000.0 -177583000000.0 -42081200000.0 -64599800000.0 -48992200000.0 -121884000000.0 -53928000000.0 -52212400000.0 -18985000000.0 -52482800000.0 -82161800000.0 -132034000000.0 -30790000000.0 -69786500000.0 -180666000000.0 -103980000000.0 -72515100000.0 -65378800000.0 -72143700000.0 -112189000000.0 -387350000000.0 -425825000000.0 -350098000000.0 -395380000000.0 -389964000000.0 -180449000000.0 -61824700000.0 -137198000000.0 -192946000000.0 -129900000000.0 -263935000000.0 -202318000000.0 -206689000000.0 -171218000000.0 -138622000000.0 -228943000000.0 -178658000000.0 -106100000000.0 -116150000000.0 -199735000000.0 -57565800000.0 -44169100000.0 -145249000000.0 -145246000000.0 -12549700000.0 -19869400000.0 -18073300000.0 -114049000000.0 -235987000000.0 -112510000000.0 -53735900000.0 -135474000000.0 -33583900000.0 -12549700000.0 -306739000000.0 -143080000000.0 -112794000000.0 -121378000000.0 -179156000000.0 -228014000000.0 -204583000000.0 -87939200000.0 -152323000000.0 -177503000000.0 -281479000000.0 -12549700000.0 -244500000000.0 -19674600000.0 -14903200000.0 -15514900000.0 -18942400000.0 -14737900000.0 -21816400000.0 -63969900000.0 -59386900000.0 -92935900000.0 -98147100000.0 -46518800000.0 -89416100000.0 -31755600000.0 -24486500000.0 -52436600000.0 -25225100000.0 -33643300000.0 -69968100000.0 -151523000000.0 -100792000000.0 -100491000000.0 -125525000000.0 -132886000000.0 -18931400000.0 -17911900000.0 -15663900000.0 -12549700000.0 -15198900000.0 -14094500000.0 -221565000000.0 -134368000000.0 -118530000000.0 -110601000000.0 -265682000000.0 -13576300000.0 -56882000000.0 -101376000000.0 -101071000000.0 -22512400000.0 -13910800000.0 -80432700000.0 -75178700000.0 -12549700000.0 -60206300000.0 -119080000000.0 -21366700000.0 -161569000000.0 -112567000000.0 -185011000000.0 -13092100000.0 -247122000000.0 -255833000000.0 -246829000000.0 -399597000000.0 -53716600000.0 -306508000000.0 -140520000000.0 -138041000000.0 -586176000000.0 -328524000000.0 -239253000000.0 -201765000000.0 -238000000000.0 -217241000000.0 -59178200000.0 -308404000000.0 -36743200000.0 -74018800000.0 -15040900000.0 -201868000000.0 -77814500000.0 -188927000000.0 -104796000000.0 -106732000000.0 -150514000000.0 -155973000000.0 -32295900000.0 -102091000000.0 -12549700000.0 -13568700000.0 -15326500000.0 -86503600000.0 -175385000000.0 -115859000000.0 -72789000000.0 -180229000000.0 -138353000000.0 -215436000000.0 -81301800000.0 -88374200000.0 -12549700000.0 -30375800000.0 -13768900000.0 -108140000000.0 -12549700000.0 -239097000000.0 -192578000000.0 -209100000000.0 -326973000000.0 -208453000000.0 -296208000000.0 -13815800000.0 -13448700000.0 -19057800000.0 -20214600000.0 -17453200000.0 -19948600000.0 -49774500000.0 -65535100000.0 -21065500000.0 -84552600000.0 -16976800000.0 -64898700000.0 -60350300000.0 -53140800000.0 -36682200000.0 -53107600000.0 -35378100000.0 -57385700000.0 -131527000000.0 -33739200000.0 -21238800000.0 -28970600000.0 -31290000000.0 -30221300000.0 -76285800000.0 -17681100000.0 -18626700000.0 -19009600000.0 -12549700000.0 -12549700000.0 -168920000000.0 -64727800000.0 -40687300000.0 -16018400000.0 -183529000000.0 -133597000000.0 -248266000000.0 -138207000000.0 -93364000000.0 -68152700000.0 -91072700000.0 -62519600000.0 -95906400000.0 -42733000000.0 -32649800000.0 -142654000000.0 -62160800000.0 -138023000000.0 -74089200000.0 -109592000000.0 -80751600000.0 -134890000000.0 -150305000000.0 -148502000000.0 -294927000000.0 -142485000000.0 -85891400000.0 -258186000000.0 -299262000000.0 -157301000000.0 -186290000000.0 -404278000000.0 -419847000000.0 -245244000000.0 -15523200000.0 -251290000000.0 -198526000000.0 -245708000000.0 -68703700000.0 -74872500000.0 -114096000000.0 -62017100000.0 -61133500000.0 -79597000000.0 -64879000000.0 -14392200000.0 -125621000000.0 -60107000000.0 -64714300000.0 -132427000000.0 -97881900000.0 -15031000000.0 -185739000000.0 -33212900000.0 -138448000000.0 -84431600000.0 -173488000000.0 -166076000000.0 -179154000000.0 -130589000000.0 -141611000000.0 -212667000000.0 -171432000000.0 -159860000000.0 -172691000000.0 -244210000000.0 -262568000000.0 -265382000000.0 -186093000000.0 -216555000000.0 -14966900000.0 -12790300000.0 -26851000000.0 -17885100000.0 -16401400000.0 -39550200000.0 -31827900000.0 -27157600000.0 -95362300000.0 -13392300000.0 -19934000000.0 -48112400000.0 -40390200000.0 -18299000000.0 -22195600000.0 -13098000000.0 -33812700000.0 -105560000000.0 -26161600000.0 -16645900000.0 -13372900000.0 -23784800000.0 -19015600000.0 -38103500000.0 -13099100000.0 -20220000000.0 -18291500000.0 -25191800000.0 -50193200000.0 -98543500000.0 -112854000000.0 -201751000000.0 -168120000000.0 -248960000000.0 -97502300000.0 -67953200000.0 -12549700000.0 -187052000000.0 -150746000000.0 -128595000000.0 -150477000000.0 -132635000000.0 -74953200000.0 -86696500000.0 -134276000000.0 -70326700000.0 -125445000000.0 -153822000000.0 -13520800000.0 -177744000000.0 -18670900000.0 -115034000000.0 -149573000000.0 -133592000000.0 -289582000000.0 -84522700000.0 -318485000000.0 -261973000000.0 -244285000000.0 -255257000000.0 -325134000000.0 -38177200000.0 -280720000000.0 -35155100000.0 -18774200000.0 -139730000000.0 -241174000000.0 -59238900000.0 -77542200000.0 -44683100000.0 -104713000000.0 -115311000000.0 -106948000000.0 -132224000000.0 -109240000000.0 -12554600000.0 -133813000000.0 -106189000000.0 -43753100000.0 -76671600000.0 -32704300000.0 -43186400000.0 -50570900000.0 -59682100000.0 -98922700000.0 -47621200000.0 -109343000000.0 -25314000000.0 -169471000000.0 -77801600000.0 -58398600000.0 -17317400000.0 -26614400000.0 -70378100000.0 -75200000000.0 -52192400000.0 -349524000000.0 -23653100000.0 -33074900000.0 -121131000000.0 -629896000000.0 -303379000000.0 -57422300000.0 -123284000000.0 -133308000000.0 -129686000000.0 -123211000000.0 -92289800000.0 -80409700000.0 -53261800000.0 -18264100000.0 -81301000000.0 -59727500000.0 -73772900000.0 -48184900000.0 -65325600000.0 -72563500000.0 -62753200000.0 -76050700000.0 -60175700000.0 -23082800000.0 -46704000000.0 -12549700000.0 -14549600000.0 -28946300000.0 -17345500000.0 -19538400000.0 -16390500000.0 -27649300000.0 -29218200000.0 -61527800000.0 -39167200000.0 -29481800000.0 -59705800000.0 -263654000000.0 -14819700000.0 -32869000000.0 -80053800000.0 -261487000000.0 -71839100000.0 -159056000000.0 -178424000000.0 -49495600000.0 -166935000000.0 -34369200000.0 -148475000000.0 -133625000000.0 -298189000000.0 -145416000000.0 -172974000000.0 -156198000000.0 -267509000000.0 -159280000000.0 -196640000000.0 -22938600000.0 -103292000000.0 -97669200000.0 -265548000000.0 -417896000000.0 -316519000000.0 -183320000000.0 -301768000000.0 -217747000000.0 -557593000000.0 -107938000000.0 -193176000000.0 -65559000000.0 -188231000000.0 -172449000000.0 -102263000000.0 -195018000000.0 -224335000000.0 -43856400000.0 -24164500000.0 -59447800000.0 -91144600000.0 -79816700000.0 -127616000000.0 -15538100000.0 -13243400000.0 -123175000000.0 -72419500000.0 -12549700000.0 -77029000000.0 -13866300000.0 -30690300000.0 -66317800000.0 -12549700000.0 -102611000000.0 -130306000000.0 -15233400000.0 -87002600000.0 -62874600000.0 -44569900000.0 -35610700000.0 -90306700000.0 -62520000000.0 -45479400000.0 -312776000000.0 -173007000000.0 -109921000000.0 -550225000000.0 -168738000000.0 -186619000000.0 -41490700000.0 -35513000000.0 -33253600000.0 -96769800000.0 -77977500000.0 -56386000000.0 -67349200000.0 -57032000000.0 -49546500000.0 -60476300000.0 -53974600000.0 -76237500000.0 -56335200000.0 -64849400000.0 -80226500000.0 -76499100000.0 -95772200000.0 -103430000000.0 -29909700000.0 -25431700000.0 -58154500000.0 -40710100000.0 -39312000000.0 -40040100000.0 -53820400000.0 -15225700000.0 -32201400000.0 -34411100000.0 -330662000000.0 -51119000000.0 -106222000000.0 -72309800000.0 -205430000000.0 -130804000000.0 -37318500000.0 -221824000000.0 -204874000000.0 -122964000000.0 -205929000000.0 -240933000000.0 -111797000000.0 -115177000000.0 -130745000000.0 -271488000000.0 -13742200000.0 -154345000000.0 -136612000000.0 -48439800000.0 -195753000000.0 -12549700000.0 -294105000000.0 -278795000000.0 -81912200000.0 -326822000000.0 -12549700000.0 -422736000000.0 -224203000000.0 -243376000000.0 -152245000000.0 -243004000000.0 -104691000000.0 -241813000000.0 -357134000000.0 -294947000000.0 -70851800000.0 -53452000000.0 -86589200000.0 -134174000000.0 -136000000000.0 -136517000000.0 -34705900000.0 -101620000000.0 -18595100000.0 -198191000000.0 -79654600000.0 -40997000000.0 -86790300000.0 -21027400000.0 -36702400000.0 -24139900000.0 -37481100000.0 -49093300000.0 -86209100000.0 -206433000000.0 -37915400000.0 -39242200000.0 -209901000000.0 -74013200000.0 -33440700000.0 -120283000000.0 -75918700000.0 -12722200000.0 -94365900000.0 -201590000000.0 -12549700000.0 -117130000000.0 -495831000000.0 -105469000000.0 -194249000000.0 -56337300000.0 -64736600000.0 -93574200000.0 -28618300000.0 -26026900000.0 -21728700000.0 -47254600000.0 -22960100000.0 -16558200000.0 -12549700000.0 -12549700000.0 -36912700000.0 -15465300000.0 -15945700000.0 -29085900000.0 -15116300000.0 -13053300000.0 -33920200000.0 -119364000000.0 -83031800000.0 -71043700000.0 -99271500000.0 -12549700000.0 -12549700000.0 -22432200000.0 -93630400000.0 -126426000000.0 -207088000000.0 -201769000000.0 -301014000000.0 -209231000000.0 -80812900000.0 -131729000000.0 -91000100000.0 -311105000000.0 -236370000000.0 -238453000000.0 -317529000000.0 -22959900000.0 -57029800000.0 -52083000000.0 -21926300000.0 -126001000000.0 -12549700000.0 -199810000000.0 -26686800000.0 -117131000000.0 -275109000000.0 -122349000000.0 -260507000000.0 -333521000000.0 -343035000000.0 -99426500000.0 -90608000000.0 -207383000000.0 -159759000000.0 -102737000000.0 -376449000000.0 -136029000000.0 -398812000000.0 -119816000000.0 -89178300000.0 -16231300000.0 -201676000000.0 -21864800000.0 -12549700000.0 -260076000000.0 -284332000000.0 -93060300000.0 -99328900000.0 -147377000000.0 -352721000000.0 -265633000000.0 -269863000000.0 -180697000000.0 -59923500000.0 -12549700000.0 -88244300000.0 -12830900000.0 -23153300000.0 -14918400000.0 -26769100000.0 -39231200000.0 -70915000000.0 -193949000000.0 -23058600000.0 -39779700000.0 -229615000000.0 -122140000000.0 -113440000000.0 -177739000000.0 -82584500000.0 -216423000000.0 -18720100000.0 -461361000000.0 -277848000000.0 -173102000000.0 -268192000000.0 -31478700000.0 -22963000000.0 -54556100000.0 -21039100000.0 -19039100000.0 -15655000000.0 -59412700000.0 -25383800000.0 -17639200000.0 -15560800000.0 -13734100000.0 -31781200000.0 -12549700000.0 -23994800000.0 -38879200000.0 -14307400000.0 -22068800000.0 -42159000000.0 -73711800000.0 -18825400000.0 -15444200000.0 -52617200000.0 -121592000000.0 -97920000000.0 -138448000000.0 -67666100000.0 -96742700000.0 -16156700000.0 -86891500000.0 -12549700000.0 -374450000000.0 -258588000000.0 -228929000000.0 -309433000000.0 -320714000000.0 -422768000000.0 -159814000000.0 -159263000000.0 -272841000000.0 -273115000000.0 -13987000000.0 -284986000000.0 -436547000000.0 -327058000000.0 -152546000000.0 -252931000000.0 -296935000000.0 -320276000000.0 -320009000000.0 -483854000000.0 -437622000000.0 -199217000000.0 -276394000000.0 -232103000000.0 -197157000000.0 -255700000000.0 -251974000000.0 -356211000000.0 -244080000000.0 -180475000000.0 -214740000000.0 -357659000000.0 -79734600000.0 -102639000000.0 -273006000000.0 -93563400000.0 -125854000000.0 -174778000000.0 -77180900000.0 -226290000000.0 -147745000000.0 -191411000000.0 -245122000000.0 -150079000000.0 -141997000000.0 -205546000000.0 -223952000000.0 -165966000000.0 -245737000000.0 -230979000000.0 -108588000000.0 -147363000000.0 -122790000000.0 -90457800000.0 -65474100000.0 -55324400000.0 -51823000000.0 -98676100000.0 -252795000000.0 -44219000000.0 -59936800000.0 -260641000000.0 -12853700000.0 -150207000000.0 -113819000000.0 -383541000000.0 -232774000000.0 -576631000000.0 -427089000000.0 -288989000000.0 -452309000000.0 -474941000000.0 -12545800000.0 -27181500000.0 -13576200000.0 -44142400000.0 -19607900000.0 -15772600000.0 -29955900000.0 -71241600000.0 -15579800000.0 -12549700000.0 -12549700000.0 -12549700000.0 -33919900000.0 -14027500000.0 -44446000000.0 -35030800000.0 -14071200000.0 -32268500000.0 -55545900000.0 -54357700000.0 -130105000000.0 -58063500000.0 -62536900000.0 -32413300000.0 -62608500000.0 -64824900000.0 -38552600000.0 -36968800000.0 -42403500000.0 -138392000000.0 -361169000000.0 -187969000000.0 -205046000000.0 -94469000000.0 -146243000000.0 -320348000000.0 -214478000000.0 -145227000000.0 -186597000000.0 -149808000000.0 -209522000000.0 -253890000000.0 -402770000000.0 -279754000000.0 -234163000000.0 -299524000000.0 -12549700000.0 -509201000000.0 -207406000000.0 -184799000000.0 -77768700000.0 -252664000000.0 -271706000000.0 -181745000000.0 -377181000000.0 -191981000000.0 -231589000000.0 -171468000000.0 -304229000000.0 -266308000000.0 -150002000000.0 -16964800000.0 -93644000000.0 -249440000000.0 -13680600000.0 -144401000000.0 -187813000000.0 -189542000000.0 -28668300000.0 -194231000000.0 -41357300000.0 -122859000000.0 -112437000000.0 -69959500000.0 -92527000000.0 -69060700000.0 -154927000000.0 -53985800000.0 -264853000000.0 -126078000000.0 -196223000000.0 -187282000000.0 -210894000000.0 -124234000000.0 -138907000000.0 -195409000000.0 -181432000000.0 -380499000000.0 -256903000000.0 -285612000000.0 -165911000000.0 -223419000000.0 -95920200000.0 -105378000000.0 -320705000000.0 -126079000000.0 -384860000000.0 -99969400000.0 -247055000000.0 -158875000000.0 -137041000000.0 -220779000000.0 -29817900000.0 -16440100000.0 -47116100000.0 -30390600000.0 -45503000000.0 -75745100000.0 -52828700000.0 -15863500000.0 -13788000000.0 -12953400000.0 -12549700000.0 -41421300000.0 -23191600000.0 -56952900000.0 -17407300000.0 -12549700000.0 -32444100000.0 -102125000000.0 -12549700000.0 -12549700000.0 -13455500000.0 -60667900000.0 -44282100000.0 -33999100000.0 -16069700000.0 -38889500000.0 -54709000000.0 -233728000000.0 -150878000000.0 -93995600000.0 -90406100000.0 -201097000000.0 -309353000000.0 -503602000000.0 -298294000000.0 -20239000000.0 -38041100000.0 -243081000000.0 -15088500000.0 -247081000000.0 -106709000000.0 -126790000000.0 -55314900000.0 -259831000000.0 -173468000000.0 -200452000000.0 -129208000000.0 -315460000000.0 -258320000000.0 -329197000000.0 -160238000000.0 -238114000000.0 -267372000000.0 -536438000000.0 -90941000000.0 -217558000000.0 -85100900000.0 -176109000000.0 -73830900000.0 -78235100000.0 -225888000000.0 -26393900000.0 -130391000000.0 -15117100000.0 -322651000000.0 -46586400000.0 -119854000000.0 -152344000000.0 -85782000000.0 -85490900000.0 -125235000000.0 -124279000000.0 -303015000000.0 -204712000000.0 -109676000000.0 -157914000000.0 -72868500000.0 -155237000000.0 -156102000000.0 -188973000000.0 -191300000000.0 -19097200000.0 -18640000000.0 -243275000000.0 -80674300000.0 -101352000000.0 -154357000000.0 -107496000000.0 -110840000000.0 -175557000000.0 -191615000000.0 -126387000000.0 -255797000000.0 -124127000000.0 -210298000000.0 -381054000000.0 -77087900000.0 -118335000000.0 -188924000000.0 -31783100000.0 -12590200000.0 -37764900000.0 -25879100000.0 -48950400000.0 -90279900000.0 -53884500000.0 -32110000000.0 -32792000000.0 -35084500000.0 -39409400000.0 -64519200000.0 -40446900000.0 -76854600000.0 -13534000000.0 -78344300000.0 -14026300000.0 -134336000000.0 -35671100000.0 -128656000000.0 -80249100000.0 -17180900000.0 -27307400000.0 -12549700000.0 -67812000000.0 -76078200000.0 -62136500000.0 -36944400000.0 -182231000000.0 -186591000000.0 -313798000000.0 -267366000000.0 -189879000000.0 -200756000000.0 -21025800000.0 -17996300000.0 -272808000000.0 -118227000000.0 -267157000000.0 -375072000000.0 -362392000000.0 -232417000000.0 -246638000000.0 -159081000000.0 -59004000000.0 -284941000000.0 -102490000000.0 -310586000000.0 -160639000000.0 -200419000000.0 -196065000000.0 -306184000000.0 -213200000000.0 -172839000000.0 -12549700000.0 -306229000000.0 -269947000000.0 -116798000000.0 -16452400000.0 -151204000000.0 -202902000000.0 -160481000000.0 -101333000000.0 -120762000000.0 -224648000000.0 -163386000000.0 -77453000000.0 -227554000000.0 -166604000000.0 -171615000000.0 -209926000000.0 -131888000000.0 -197536000000.0 -246435000000.0 -257888000000.0 -65235500000.0 -36939300000.0 -46418500000.0 -39410700000.0 -191387000000.0 -62412500000.0 -62583600000.0 -73707300000.0 -194081000000.0 -210771000000.0 -155875000000.0 -116664000000.0 -292555000000.0 -310672000000.0 -162373000000.0 -214964000000.0 -369260000000.0 -273474000000.0 -298329000000.0 -155986000000.0 -628806000000.0 -320142000000.0 -223307000000.0 -581105000000.0 -61442200000.0 -102699000000.0 -100893000000.0 -72527300000.0 -77775900000.0 -94212100000.0 -203403000000.0 -97858300000.0 -51238800000.0 -51366600000.0 -59777800000.0 -47246600000.0 -68276600000.0 -72298200000.0 -48800600000.0 -158628000000.0 -161361000000.0 -142022000000.0 -59415100000.0 -97037900000.0 -79522300000.0 -86683300000.0 -101980000000.0 -129350000000.0 -244872000000.0 -151289000000.0 -165445000000.0 -12525400000.0 -30794700000.0 -339863000000.0 -50697600000.0 -103847000000.0 -155862000000.0 -59218600000.0 -89496200000.0 -144735000000.0 -14225600000.0 -86263600000.0 -106645000000.0 -262599000000.0 -251881000000.0 -169562000000.0 -327200000000.0 -230471000000.0 -301687000000.0 -104983000000.0 -215501000000.0 -301052000000.0 -434809000000.0 -289190000000.0 -304737000000.0 -223361000000.0 -91366200000.0 -363683000000.0 -263709000000.0 -110227000000.0 -14756300000.0 -215014000000.0 -34220000000.0 -62356400000.0 -50725600000.0 -65831800000.0 -167908000000.0 -159254000000.0 -212113000000.0 -121952000000.0 -201198000000.0 -25961500000.0 -12812300000.0 -116660000000.0 -55332400000.0 -24124400000.0 -80927500000.0 -226159000000.0 -248983000000.0 -308093000000.0 -80316900000.0 -93786200000.0 -225975000000.0 -52450300000.0 -39670000000.0 -209010000000.0 -199261000000.0 -198112000000.0 -195807000000.0 -235824000000.0 -296371000000.0 -287433000000.0 -377485000000.0 -270496000000.0 -102222000000.0 -190376000000.0 -65162700000.0 -164157000000.0 -118841000000.0 -85801800000.0 -42616500000.0 -17401300000.0 -278053000000.0 -241592000000.0 -170698000000.0 -272286000000.0 -18452100000.0 -73306600000.0 -20885800000.0 -28150500000.0 -13212800000.0 -188851000000.0 -80787600000.0 -42233400000.0 -34860800000.0 -46044500000.0 -12549700000.0 -12549700000.0 -74902400000.0 -103423000000.0 -40728800000.0 -108559000000.0 -227439000000.0 -268469000000.0 -129141000000.0 -224496000000.0 -206887000000.0 -52898900000.0 -88831700000.0 -184233000000.0 -188786000000.0 -144351000000.0 -23711500000.0 -81882200000.0 -31501300000.0 -43945000000.0 -327788000000.0 -125255000000.0 -40378500000.0 -14544000000.0 -128381000000.0 -53817400000.0 -75710200000.0 -150657000000.0 -36830800000.0 -20998400000.0 -208639000000.0 -455213000000.0 -224408000000.0 -281544000000.0 -310691000000.0 -123404000000.0 -272034000000.0 -129331000000.0 -12549900000.0 -263356000000.0 -288462000000.0 -185345000000.0 -51269000000.0 -390293000000.0 -265921000000.0 -177759000000.0 -128105000000.0 -378124000000.0 -18709200000.0 -199521000000.0 -105502000000.0 -213714000000.0 -315959000000.0 -39307300000.0 -63864900000.0 -52784900000.0 -49176600000.0 -44040800000.0 -156011000000.0 -38935500000.0 -94294200000.0 -123086000000.0 -28292100000.0 -51454600000.0 -118857000000.0 -31575100000.0 -14634300000.0 -65838000000.0 -561467000000.0 -414372000000.0 -210732000000.0 -242500000000.0 -209866000000.0 -293768000000.0 -184726000000.0 -313898000000.0 -146001000000.0 -69907900000.0 -88499400000.0 -53399500000.0 -79215700000.0 -43526200000.0 -91441000000.0 -202597000000.0 -82041200000.0 -25374300000.0 -29223000000.0 -177852000000.0 -137920000000.0 -134245000000.0 -62271700000.0 -82919800000.0 -70958400000.0 -226498000000.0 -326027000000.0 -15641500000.0 -137871000000.0 -136064000000.0 -25381600000.0 -84413700000.0 -66740400000.0 -55844700000.0 -43972000000.0 -87155800000.0 -146396000000.0 -51123500000.0 -15177600000.0 -18492400000.0 -23774500000.0 -60210500000.0 -74382700000.0 -59464300000.0 -219543000000.0 -191870000000.0 -171625000000.0 -12549700000.0 -12549700000.0 -393548000000.0 -76888600000.0 -137466000000.0 -132566000000.0 -12549700000.0 -129990000000.0 -138904000000.0 -122517000000.0 -88890200000.0 -101321000000.0 -362866000000.0 -128226000000.0 -154888000000.0 -200054000000.0 -73513900000.0 -125264000000.0 -146145000000.0 -91305100000.0 -93666200000.0 -126062000000.0 -266413000000.0 -16270500000.0 -122896000000.0 -277097000000.0 -349608000000.0 -481324000000.0 -501403000000.0 -427993000000.0 -334783000000.0 -258755000000.0 -202237000000.0 -547583000000.0 -592843000000.0 -485433000000.0 -235867000000.0 -427260000000.0 -317949000000.0 -156570000000.0 -103934000000.0 -296993000000.0 -42653200000.0 -60496000000.0 -163144000000.0 -12549700000.0 -226256000000.0 -303040000000.0 -93850300000.0 -72786000000.0 -303856000000.0 -286761000000.0 -22949600000.0 -27855800000.0 -268458000000.0 -61787900000.0 -162848000000.0 -133369000000.0 -19633900000.0 -151268000000.0 -268179000000.0 -64582600000.0 -17188600000.0 -215245000000.0 -160267000000.0 -31785300000.0 -101694000000.0 -16475400000.0 -29241900000.0 -246042000000.0 -162638000000.0 -174919000000.0 -130155000000.0 -154372000000.0 -300708000000.0 -151497000000.0 -84181400000.0 -20997500000.0 -14124300000.0 -46470400000.0 -120996000000.0 -33288000000.0 -273331000000.0 -393868000000.0 -59646300000.0 -70767400000.0 -36162700000.0 -261817000000.0 -236957000000.0 -40289000000.0 -71615300000.0 -17585200000.0 -13624400000.0 -15598600000.0 -241764000000.0 -154202000000.0 -133656000000.0 -106271000000.0 -100331000000.0 -93682100000.0 -155496000000.0 -115682000000.0 -29284700000.0 -95744400000.0 -187701000000.0 -198746000000.0 -316293000000.0 -441129000000.0 -30060700000.0 -19278300000.0 -276707000000.0 -437122000000.0 -209211000000.0 -179215000000.0 -44871400000.0 -112287000000.0 -63652900000.0 -142138000000.0 -167909000000.0 -325791000000.0 -106501000000.0 -12549700000.0 -12549700000.0 -44167300000.0 -145242000000.0 -39721300000.0 -34584900000.0 -88413400000.0 -252225000000.0 -268713000000.0 -134585000000.0 -215766000000.0 -198841000000.0 -93672600000.0 -95661000000.0 -19586200000.0 -306071000000.0 -188761000000.0 -434741000000.0 -126057000000.0 -334870000000.0 -142794000000.0 -273857000000.0 -39681700000.0 -183417000000.0 -126135000000.0 -209001000000.0 -390622000000.0 -328424000000.0 -316217000000.0 -192067000000.0 -132250000000.0 -153653000000.0 -161323000000.0 -151890000000.0 -23360700000.0 -268235000000.0 -572546000000.0 -24748800000.0 -203225000000.0 -122884000000.0 -13404300000.0 -12549700000.0 -352800000000.0 -147731000000.0 -201716000000.0 -325432000000.0 -430936000000.0 -87639600000.0 -169727000000.0 -93518200000.0 -270769000000.0 -116388000000.0 -270071000000.0 -102831000000.0 -231580000000.0 -128700000000.0 -12546800000.0 -39648200000.0 -24781100000.0 -13639500000.0 -15229400000.0 -369999000000.0 -76329700000.0 -112662000000.0 -109659000000.0 -80296500000.0 -56304900000.0 -262213000000.0 -368124000000.0 -123270000000.0 -54904900000.0 -53246200000.0 -262641000000.0 -30925500000.0 -54151500000.0 -13247900000.0 -298821000000.0 -299985000000.0 -167625000000.0 -156271000000.0 -118587000000.0 -143201000000.0 -88558000000.0 -93784800000.0 -111925000000.0 -143990000000.0 -271336000000.0 -83622100000.0 -16160100000.0 -12549700000.0 -104221000000.0 -82869600000.0 -71513500000.0 -338798000000.0 -465371000000.0 -150069000000.0 -22780300000.0 -283176000000.0 -294743000000.0 -269246000000.0 -189801000000.0 -21944200000.0 -416010000000.0 -373083000000.0 -189540000000.0 -178693000000.0 -127828000000.0 -119066000000.0 -275310000000.0 -196809000000.0 -210789000000.0 -329270000000.0 -112213000000.0 -128504000000.0 -144869000000.0 -141285000000.0 -180806000000.0 -66722200000.0 -134913000000.0 -195657000000.0 -273257000000.0 -221247000000.0 -91643300000.0 -498220000000.0 -258871000000.0 -120212000000.0 -270898000000.0 -319810000000.0 -244973000000.0 -106853000000.0 -88945800000.0 -123554000000.0 -133189000000.0 -64726500000.0 -236402000000.0 -163368000000.0 -240694000000.0 -43727100000.0 -117558000000.0 -39817500000.0 -223391000000.0 -32456000000.0 -358021000000.0 -23479500000.0 -30192700000.0 -721350000000.0 -440009000000.0 -242533000000.0 -91199900000.0 -308456000000.0 -349583000000.0 -331919000000.0 -395495000000.0 -220196000000.0 -176609000000.0 -291414000000.0 -298774000000.0 -92695400000.0 -248274000000.0 -82212100000.0 -290011000000.0 -217598000000.0 -329226000000.0 -283281000000.0 -305773000000.0 -31778400000.0 -38896900000.0 -357903000000.0 -110848000000.0 -167403000000.0 -322403000000.0 -199131000000.0 -427783000000.0 -484207000000.0 -458895000000.0 -125872000000.0 -252902000000.0 -268678000000.0 -209703000000.0 -29848500000.0 -18125500000.0 -29493700000.0 -76018900000.0 -77143200000.0 -34274200000.0 -43253600000.0 -91902400000.0 -74543400000.0 -184761000000.0 -155860000000.0 -119532000000.0 -152166000000.0 -157388000000.0 -498562000000.0 -324659000000.0 -55081400000.0 -228676000000.0 -95776900000.0 -178029000000.0 -236938000000.0 -202876000000.0 -136420000000.0 -141480000000.0 -171672000000.0 -266654000000.0 -191208000000.0 -161213000000.0 -18391800000.0 -139255000000.0 -81034500000.0 -149124000000.0 -68551100000.0 -79279700000.0 -20687800000.0 -33750600000.0 -48384800000.0 -187486000000.0 -48832600000.0 -12549700000.0 -220802000000.0 -12549700000.0 -167116000000.0 -107547000000.0 -138359000000.0 -44012300000.0 -108601000000.0 -299724000000.0 -311845000000.0 -226649000000.0 -285889000000.0 -185936000000.0 -158238000000.0 -195467000000.0 -176982000000.0 -310325000000.0 -111174000000.0 -60655200000.0 -116505000000.0 -12549700000.0 -211399000000.0 -131008000000.0 -63850800000.0 -271489000000.0 -233163000000.0 -110095000000.0 -259022000000.0 -95528400000.0 -243603000000.0 -54280100000.0 -174434000000.0 -218974000000.0 -275102000000.0 -152173000000.0 -371309000000.0 -92369700000.0 -254529000000.0 -86030800000.0 -182497000000.0 -225907000000.0 -106238000000.0 -324602000000.0 -200521000000.0 -94960800000.0 -105125000000.0 -242411000000.0 -362094000000.0 -206247000000.0 -296281000000.0 -445488000000.0 -216265000000.0 -152303000000.0 -113510000000.0 -449127000000.0 -57357200000.0 -12549700000.0 -44753300000.0 -76714500000.0 -37615500000.0 -277555000000.0 -228646000000.0 -33940600000.0 -52555600000.0 -144502000000.0 -16070600000.0 -13524400000.0 -73970900000.0 -47070400000.0 -216818000000.0 -132457000000.0 -137902000000.0 -143580000000.0 -72677800000.0 -124538000000.0 -72880700000.0 -526595000000.0 -471036000000.0 -390712000000.0 -160576000000.0 -479711000000.0 -316632000000.0 -247607000000.0 -37874400000.0 -32274700000.0 -112264000000.0 -40265600000.0 -92859200000.0 -350092000000.0 -231596000000.0 -91509300000.0 -100971000000.0 -22174000000.0 -202190000000.0 -99054000000.0 -88122100000.0 -105753000000.0 -156706000000.0 -198849000000.0 -263800000000.0 -89468200000.0 -153704000000.0 -136460000000.0 -247408000000.0 -91729100000.0 -150856000000.0 -277467000000.0 -228100000000.0 -161722000000.0 -181402000000.0 -259990000000.0 -81230400000.0 -219982000000.0 -231424000000.0 -168949000000.0 -157810000000.0 -194934000000.0 -143117000000.0 -303994000000.0 -280047000000.0 -12549700000.0 -93559300000.0 -199977000000.0 -296367000000.0 -401356000000.0 -299721000000.0 -105878000000.0 -363867000000.0 -463884000000.0 -333422000000.0 -201796000000.0 -39606200000.0 -249822000000.0 -330853000000.0 -148929000000.0 -766881000000.0 -110189000000.0 -83019700000.0 -170718000000.0 -306148000000.0 -119725000000.0 -260305000000.0 -172735000000.0 -330039000000.0 -353429000000.0 -618964000000.0 -30792800000.0 -417775000000.0 -37881000000.0 -134610000000.0 -62446500000.0 -271471000000.0 -17653500000.0 -148543000000.0 -210654000000.0 -338253000000.0 -677897000000.0 -371747000000.0 -14110000000.0 -55628300000.0 -120849000000.0 -105676000000.0 -279538000000.0 -424135000000.0 -59385400000.0 -243874000000.0 -133604000000.0 -105892000000.0 -103515000000.0 -69135200000.0 -27084200000.0 -70700500000.0 -270520000000.0 -118503000000.0 -187460000000.0 -54458100000.0 -204467000000.0 -201360000000.0 -63305100000.0 -388707000000.0 -401925000000.0 -92964500000.0 -425489000000.0 -175011000000.0 -55887900000.0 -112023000000.0 -21071700000.0 -100154000000.0 -92126800000.0 -267013000000.0 -242101000000.0 -163413000000.0 -68813900000.0 -80700200000.0 -69826900000.0 -250585000000.0 -54900400000.0 -127413000000.0 -103674000000.0 -111807000000.0 -56685600000.0 -17430000000.0 -16041100000.0 -86514900000.0 -202627000000.0 -205194000000.0 -183380000000.0 -94550900000.0 -98938800000.0 -66795400000.0 -257220000000.0 -179828000000.0 -296000000000.0 -328610000000.0 -191575000000.0 -142786000000.0 -170719000000.0 -366522000000.0 -128847000000.0 -40366900000.0 -152308000000.0 -265353000000.0 -201508000000.0 -128541000000.0 -289372000000.0 -411781000000.0 -12549700000.0 -254582000000.0 -117446000000.0 -434982000000.0 -582252000000.0 -483030000000.0 -549095000000.0 -293222000000.0 -336286000000.0 -362385000000.0 -358466000000.0 -445072000000.0 -619132000000.0 -317301000000.0 -241736000000.0 -290066000000.0 -16004800000.0 -178764000000.0 -78002800000.0 -181512000000.0 -317972000000.0 -106512000000.0 -105786000000.0 -146793000000.0 -277760000000.0 -336833000000.0 -299178000000.0 -91107200000.0 -258133000000.0 -346414000000.0 -121850000000.0 -392166000000.0 -291445000000.0 -286502000000.0 -300792000000.0 -80734200000.0 -72661500000.0 -300810000000.0 -137720000000.0 -150814000000.0 -274056000000.0 -462056000000.0 -15818300000.0 -291418000000.0 -31285600000.0 -83853500000.0 -63410900000.0 -71222100000.0 -74510700000.0 -17230500000.0 -118700000000.0 -171971000000.0 -322858000000.0 -53501300000.0 -489278000000.0 -119947000000.0 -373239000000.0 -224528000000.0 -377288000000.0 -164926000000.0 -267605000000.0 -163256000000.0 -50283900000.0 -167757000000.0 -194426000000.0 -217198000000.0 -206126000000.0 -213645000000.0 -40275500000.0 -216730000000.0 -15113500000.0 -182562000000.0 -272126000000.0 -195621000000.0 -75922700000.0 -158897000000.0 -43756000000.0 -223164000000.0 -159982000000.0 -126792000000.0 -220913000000.0 -59938900000.0 -199604000000.0 -33080900000.0 -194394000000.0 -83876800000.0 -121218000000.0 -217716000000.0 -22767800000.0 -165399000000.0 -12549400000.0 -124559000000.0 -105725000000.0 -202242000000.0 -188058000000.0 -89151800000.0 -118067000000.0 -37011600000.0 -314431000000.0 -31277800000.0 -249268000000.0 -87921100000.0 -112247000000.0 -282700000000.0 -180388000000.0 -329347000000.0 -177634000000.0 -441217000000.0 -12549700000.0 -314335000000.0 -257941000000.0 -242508000000.0 -18356700000.0 -434074000000.0 -73329500000.0 -79505900000.0 -317426000000.0 -127378000000.0 -124952000000.0 -117383000000.0 -111293000000.0 -94738200000.0 -172475000000.0 -30239200000.0 -172145000000.0 -26195700000.0 -13454500000.0 -103187000000.0 -44552900000.0 -78513600000.0 -144909000000.0 -48539500000.0 -112456000000.0 -101618000000.0 -145278000000.0 -16692100000.0 -63674500000.0 -489630000000.0 -49845700000.0 -268742000000.0 -262861000000.0 -44503700000.0 -12649700000.0 -291139000000.0 -15011500000.0 -220585000000.0 -12549700000.0 -285832000000.0 -204941000000.0 -199931000000.0 -137275000000.0 -153274000000.0 -231184000000.0 -277269000000.0 -184099000000.0 -109551000000.0 -496090000000.0 -80684100000.0 -260475000000.0 -571399000000.0 -227664000000.0 -102619000000.0 -401088000000.0 -13165500000.0 -291338000000.0 -324720000000.0 -501407000000.0 -512122000000.0 -536967000000.0 -180947000000.0 -303688000000.0 -123914000000.0 -310645000000.0 -186680000000.0 -108744000000.0 -281738000000.0 -169515000000.0 -305742000000.0 -178127000000.0 -217347000000.0 -187241000000.0 -250301000000.0 -301040000000.0 -131748000000.0 -203907000000.0 -122619000000.0 -142682000000.0 -223766000000.0 -20540600000.0 -197651000000.0 -88702400000.0 -169311000000.0 -304602000000.0 -163051000000.0 -200585000000.0 -165034000000.0 -175334000000.0 -297247000000.0 -100350000000.0 -82143900000.0 -24542600000.0 -182617000000.0 -378300000000.0 -157324000000.0 -160346000000.0 -197696000000.0 -301628000000.0 -18906500000.0 -357066000000.0 -303172000000.0 -97346200000.0 -271389000000.0 -355543000000.0 -204522000000.0 -248331000000.0 -181943000000.0 -295353000000.0 -198509000000.0 -172413000000.0 -175870000000.0 -156821000000.0 -384778000000.0 -177452000000.0 -57954200000.0 -38956600000.0 -100493000000.0 -153499000000.0 -66453200000.0 -113604000000.0 -136461000000.0 -79035700000.0 -62360700000.0 -477539000000.0 -61089200000.0 -92868100000.0 -310277000000.0 -13445000000.0 -127018000000.0 -578130000000.0 -118344000000.0 -157182000000.0 -360968000000.0 -239507000000.0 -32237200000.0 -301816000000.0 -17367800000.0 -106398000000.0 -76404400000.0 -148749000000.0 -161370000000.0 -67703500000.0 -137637000000.0 -52305600000.0 -151779000000.0 -35711900000.0 -361054000000.0 -81456600000.0 -145711000000.0 -408100000000.0 -314449000000.0 -624597000000.0 -253205000000.0 -366008000000.0 -180772000000.0 -127032000000.0 -354900000000.0 -62083200000.0 -505688000000.0 -137095000000.0 -109213000000.0 -270963000000.0 -191861000000.0 -268940000000.0 -21280300000.0 -15242600000.0 -327323000000.0 -282631000000.0 -252471000000.0 -235844000000.0 -214920000000.0 -77721500000.0 -179308000000.0 -180097000000.0 -14304500000.0 -12549700000.0 -63439000000.0 -82372900000.0 -36283900000.0 -144165000000.0 -63832200000.0 -113796000000.0 -34010900000.0 -205243000000.0 -102381000000.0 -115944000000.0 -276041000000.0 -66718300000.0 -75441400000.0 -58125400000.0 -79857400000.0 -88921000000.0 -184462000000.0 -139285000000.0 -94615200000.0 -120295000000.0 -42609400000.0 -261392000000.0 -384342000000.0 -246838000000.0 -338443000000.0 -20077000000.0 -346786000000.0 -126850000000.0 -131656000000.0 -113277000000.0 -146319000000.0 -209128000000.0 -144685000000.0 -97614000000.0 -425234000000.0 -58298200000.0 -129221000000.0 -97143000000.0 -17052000000.0 -150629000000.0 -126064000000.0 -119125000000.0 -127832000000.0 -173138000000.0 -109484000000.0 -208525000000.0 -152176000000.0 -35100500000.0 -393360000000.0 -382336000000.0 -177396000000.0 -134266000000.0 -197810000000.0 -87272100000.0 -304390000000.0 -48361600000.0 -382486000000.0 -52559600000.0 -720227000000.0 -221598000000.0 -162451000000.0 -227809000000.0 -136743000000.0 -12549700000.0 -377100000000.0 -436391000000.0 -600567000000.0 -137529000000.0 -149149000000.0 -216948000000.0 -321690000000.0 -279558000000.0 -251088000000.0 -129382000000.0 -191931000000.0 -24259700000.0 -35804200000.0 -193825000000.0 -382316000000.0 -436294000000.0 -583091000000.0 -168625000000.0 -396146000000.0 -210653000000.0 -146606000000.0 -102468000000.0 -24364100000.0 -238203000000.0 -474092000000.0 -509778000000.0 -19846900000.0 -46132300000.0 -196492000000.0 -337841000000.0 -186369000000.0 -63029300000.0 -180285000000.0 -75657900000.0 -210303000000.0 -12549700000.0 -49214700000.0 -97098300000.0 -79926800000.0 -128985000000.0 -102712000000.0 -101475000000.0 -55164500000.0 -105566000000.0 -108269000000.0 -126656000000.0 -66217200000.0 -58830200000.0 -140096000000.0 -69594300000.0 -104137000000.0 -57053500000.0 -15464900000.0 -187236000000.0 -219886000000.0 -171940000000.0 -159411000000.0 -226355000000.0 -198136000000.0 -74670600000.0 -71740400000.0 -279362000000.0 -30109900000.0 -25081700000.0 -420369000000.0 -208688000000.0 -256393000000.0 -264562000000.0 -159778000000.0 -151925000000.0 -335173000000.0 -242627000000.0 -161201000000.0 -384916000000.0 -21044200000.0 -14173200000.0 -19618200000.0 -12549700000.0 -19333600000.0 -136303000000.0 -80731000000.0 -23517400000.0 -80522500000.0 -146065000000.0 -12549700000.0 -127062000000.0 -143824000000.0 -176480000000.0 -49663000000.0 -132621000000.0 -39319600000.0 -12904900000.0 -78916400000.0 -239564000000.0 -178995000000.0 -51995100000.0 -216326000000.0 -121327000000.0 -358452000000.0 -12791500000.0 -547617000000.0 -168242000000.0 -35551600000.0 -26559800000.0 -350864000000.0 -343872000000.0 -275005000000.0 -145419000000.0 -478996000000.0 -239230000000.0 -12549700000.0 -295360000000.0 -144899000000.0 -224566000000.0 -423945000000.0 -17136500000.0 -345480000000.0 -441635000000.0 -305946000000.0 -270247000000.0 -381761000000.0 -249641000000.0 -127907000000.0 -405786000000.0 -412550000000.0 -374196000000.0 -79703800000.0 -257742000000.0 -303636000000.0 -244377000000.0 -204494000000.0 -213094000000.0 -223865000000.0 -245955000000.0 -172357000000.0 -85059100000.0 -132504000000.0 -84809400000.0 -104627000000.0 -40108200000.0 -99239300000.0 -173477000000.0 -13929700000.0 -181311000000.0 -83610500000.0 -142773000000.0 -103965000000.0 -62714700000.0 -77111000000.0 -78978200000.0 -16978200000.0 -47985800000.0 -97501700000.0 -116207000000.0 -141657000000.0 -137953000000.0 -189902000000.0 -167782000000.0 -95773400000.0 -33652000000.0 -301759000000.0 -117357000000.0 -132198000000.0 -96673300000.0 -283902000000.0 -123948000000.0 -74477200000.0 -135563000000.0 -308724000000.0 -14648200000.0 -12695500000.0 -373842000000.0 -270330000000.0 -168529000000.0 -151124000000.0 -252697000000.0 -127640000000.0 -104278000000.0 -140703000000.0 -179784000000.0 -314182000000.0 -81222100000.0 -19518200000.0 -47878900000.0 -46107700000.0 -107958000000.0 -160689000000.0 -13506800000.0 -40805900000.0 -126089000000.0 -15697500000.0 -122749000000.0 -89010200000.0 -80120400000.0 -73559200000.0 -44403900000.0 -119117000000.0 -131473000000.0 -12588500000.0 -55711600000.0 -240519000000.0 -86979000000.0 -29551500000.0 -128447000000.0 -85843600000.0 -43421100000.0 -283678000000.0 -113446000000.0 -455244000000.0 -68848000000.0 -593815000000.0 -82501100000.0 -402016000000.0 -697740000000.0 -476558000000.0 -333222000000.0 -260395000000.0 -270379000000.0 -257425000000.0 -225956000000.0 -307903000000.0 -96796400000.0 -579567000000.0 -227808000000.0 -411459000000.0 -428395000000.0 -622025000000.0 -166110000000.0 -542578000000.0 -521168000000.0 -317374000000.0 -181007000000.0 -134274000000.0 -224794000000.0 -108664000000.0 -14463500000.0 -338174000000.0 -48400600000.0 -89471100000.0 -113830000000.0 -144494000000.0 -170967000000.0 -44550700000.0 -60605000000.0 -110297000000.0 -12769400000.0 -63646900000.0 -18780700000.0 -28146200000.0 -13343300000.0 -86661000000.0 -16581300000.0 -150252000000.0 -86501800000.0 -132441000000.0 -54098900000.0 -72851600000.0 -80432500000.0 -193028000000.0 -25265900000.0 -24670300000.0 -28742800000.0 -12549700000.0 -77194100000.0 -68354200000.0 -23328500000.0 -42603200000.0 -124554000000.0 -252910000000.0 -250440000000.0 -217911000000.0 -12549700000.0 -239152000000.0 -184528000000.0 -162015000000.0 -173451000000.0 -57799200000.0 -198224000000.0 -169910000000.0 -149441000000.0 -106709000000.0 -259017000000.0 -133564000000.0 -46144500000.0 -96693300000.0 -118486000000.0 -82537900000.0 -116250000000.0 -12733000000.0 -14837600000.0 -51629600000.0 -18202900000.0 -110913000000.0 -23945100000.0 -127393000000.0 -45135100000.0 -211444000000.0 -36897800000.0 -74285500000.0 -126020000000.0 -51688100000.0 -13733300000.0 -66715100000.0 -50842100000.0 -270115000000.0 -95131200000.0 -21690000000.0 -13807500000.0 -699636000000.0 -409332000000.0 -161777000000.0 -275253000000.0 -225416000000.0 -12549700000.0 -572899000000.0 -132896000000.0 -254683000000.0 -139875000000.0 -251746000000.0 -220609000000.0 -12549700000.0 -304778000000.0 -74345500000.0 -342033000000.0 -343518000000.0 -508322000000.0 -458033000000.0 -34415600000.0 -226511000000.0 -15811100000.0 -261187000000.0 -426158000000.0 -214985000000.0 -108226000000.0 -77976100000.0 -13948900000.0 -219632000000.0 -14411600000.0 -114052000000.0 -93311800000.0 -135881000000.0 -126632000000.0 -16217900000.0 -41544100000.0 -17956300000.0 -45921900000.0 -72018900000.0 -58808900000.0 -26694200000.0 -21460900000.0 -25094600000.0 -28911800000.0 -53776700000.0 -37185800000.0 -27989500000.0 -116462000000.0 -23806200000.0 -67160300000.0 -94684600000.0 -73499900000.0 -73531300000.0 -137946000000.0 -82725000000.0 -73687000000.0 -122698000000.0 -31071900000.0 -230944000000.0 -91504000000.0 -19165200000.0 -293143000000.0 -238610000000.0 -46118300000.0 -141238000000.0 -101653000000.0 -107163000000.0 -296682000000.0 -182932000000.0 -268953000000.0 -162455000000.0 -240578000000.0 -85352800000.0 -140471000000.0 -131558000000.0 -61276000000.0 -121164000000.0 -111006000000.0 -118525000000.0 -179898000000.0 -65366900000.0 -44598400000.0 -47620700000.0 -86416400000.0 -42102200000.0 -41204900000.0 -15596800000.0 -51262200000.0 -46740200000.0 -80725600000.0 -164910000000.0 -118310000000.0 -19017200000.0 -105036000000.0 -112780000000.0 -129948000000.0 -111874000000.0 -88355000000.0 -156400000000.0 -66233500000.0 -121873000000.0 -21241600000.0 -353794000000.0 -209937000000.0 -226577000000.0 -355976000000.0 -96689300000.0 -297721000000.0 -376342000000.0 -418350000000.0 -223213000000.0 -78519400000.0 -183801000000.0 -266534000000.0 -151430000000.0 -117841000000.0 -230320000000.0 -39063400000.0 -91886400000.0 -213885000000.0 -434940000000.0 -423766000000.0 -353398000000.0 -489848000000.0 -152365000000.0 -305880000000.0 -90315600000.0 -384895000000.0 -305220000000.0 -241032000000.0 -352501000000.0 -251676000000.0 -371053000000.0 -115175000000.0 -84657700000.0 -117180000000.0 -149570000000.0 -86523000000.0 -21053000000.0 -188644000000.0 -60599400000.0 -85768200000.0 -128273000000.0 -102385000000.0 -13749800000.0 -23138300000.0 -76639400000.0 -32510800000.0 -35759500000.0 -40971100000.0 -49058300000.0 -48226000000.0 -38206300000.0 -77577800000.0 -98749700000.0 -67907200000.0 -33769700000.0 -34769700000.0 -113485000000.0 -123218000000.0 -25076200000.0 -87050200000.0 -150343000000.0 -153083000000.0 -12837800000.0 -16352000000.0 -101917000000.0 -91006200000.0 -185741000000.0 -106323000000.0 -39644400000.0 -115878000000.0 -178401000000.0 -20446400000.0 -12752000000.0 -218548000000.0 -112309000000.0 -102464000000.0 -368048000000.0 -242394000000.0 -231433000000.0 -75061000000.0 -245027000000.0 -62089900000.0 -48871900000.0 -53807900000.0 -52560600000.0 -28583300000.0 -117444000000.0 -58686100000.0 -131246000000.0 -30713100000.0 -152644000000.0 -12600700000.0 -126609000000.0 -81970300000.0 -69785800000.0 -90206300000.0 -70859500000.0 -65741500000.0 -69897600000.0 -61699500000.0 -31033500000.0 -106082000000.0 -74613200000.0 -130255000000.0 -14464000000.0 -177486000000.0 -26189900000.0 -94870100000.0 -257573000000.0 -16057600000.0 -112829000000.0 -294611000000.0 -192400000000.0 -199587000000.0 -30380200000.0 -51949400000.0 -123090000000.0 -17489600000.0 -380143000000.0 -346456000000.0 -268759000000.0 -102435000000.0 -235183000000.0 -173900000000.0 -120160000000.0 -130390000000.0 -197202000000.0 -135289000000.0 -181869000000.0 -279200000000.0 -409110000000.0 -32697200000.0 -195853000000.0 -221163000000.0 -206830000000.0 -85668600000.0 -143436000000.0 -262084000000.0 -125521000000.0 -491263000000.0 -40872500000.0 -12985800000.0 -49935800000.0 -63782700000.0 -95149000000.0 -101501000000.0 -128470000000.0 -172772000000.0 -228093000000.0 -13987900000.0 -32306100000.0 -103891000000.0 -93848200000.0 -15112700000.0 -78087000000.0 -95529400000.0 -22081700000.0 -25927100000.0 -44510200000.0 -117339000000.0 -105800000000.0 -37045900000.0 -37029400000.0 -12549700000.0 -116617000000.0 -18188400000.0 -19680800000.0 -111089000000.0 -62219400000.0 -87931400000.0 -79189700000.0 -52384500000.0 -32600300000.0 -239943000000.0 -184385000000.0 -250421000000.0 -13572500000.0 -276009000000.0 -13754800000.0 -329467000000.0 -109622000000.0 -109081000000.0 -48650300000.0 -80911400000.0 -39163400000.0 -29406900000.0 -28345300000.0 -80463500000.0 -114776000000.0 -15776800000.0 -28524000000.0 -103379000000.0 -68833900000.0 -88078400000.0 -87655500000.0 -74965800000.0 -55082400000.0 -62449300000.0 -94870000000.0 -185259000000.0 -23347800000.0 -66231800000.0 -54440500000.0 -37317900000.0 -42850200000.0 -14069600000.0 -21518900000.0 -136928000000.0 -45434500000.0 -39981900000.0 -16038100000.0 -12549700000.0 -209800000000.0 -187965000000.0 -162970000000.0 -76061900000.0 -80241100000.0 -56852900000.0 -147915000000.0 -267655000000.0 -339363000000.0 -140496000000.0 -228832000000.0 -181180000000.0 -244249000000.0 -282685000000.0 -406621000000.0 -88464800000.0 -249905000000.0 -298320000000.0 -19985600000.0 -73294200000.0 -292057000000.0 -145879000000.0 -330084000000.0 -365794000000.0 -54421300000.0 -14071600000.0 -69396400000.0 -23059400000.0 -99545900000.0 -70937000000.0 -70574400000.0 -32750400000.0 -21325200000.0 -23961200000.0 -115455000000.0 -86510200000.0 -80713500000.0 -64428900000.0 -12549700000.0 -12549700000.0 -66228800000.0 -41773300000.0 -26578900000.0 -30724200000.0 -23769000000.0 -23924200000.0 -33386800000.0 -24063200000.0 -20678700000.0 -43624200000.0 -23271100000.0 -59344600000.0 -12977200000.0 -64562400000.0 -12708400000.0 -60780700000.0 -55590100000.0 -92309500000.0 -86973000000.0 -141144000000.0 -73350600000.0 -120178000000.0 -25846000000.0 -158698000000.0 -171879000000.0 -176145000000.0 -120624000000.0 -159325000000.0 -46628200000.0 -168519000000.0 -83080900000.0 -30895200000.0 -13515000000.0 -309123000000.0 -164287000000.0 -122391000000.0 -103047000000.0 -118020000000.0 -97282900000.0 -125698000000.0 -52110600000.0 -90991800000.0 -44223600000.0 -41767500000.0 -34025800000.0 -41384400000.0 -72885600000.0 -96152200000.0 -48718100000.0 -48999100000.0 -85157400000.0 -35657300000.0 -34174400000.0 -27081800000.0 -25153500000.0 -35956700000.0 -29619700000.0 -17095300000.0 -12549700000.0 -67932700000.0 -178892000000.0 -16625300000.0 -132276000000.0 -136000000000.0 -139726000000.0 -109948000000.0 -78983500000.0 -22013400000.0 -119623000000.0 -166593000000.0 -40863400000.0 -63191200000.0 -81517600000.0 -174940000000.0 -185460000000.0 -94538200000.0 -108381000000.0 -69215400000.0 -393234000000.0 -203498000000.0 -41871400000.0 -365675000000.0 -272279000000.0 -418256000000.0 -242646000000.0 -95379600000.0 -155591000000.0 -227924000000.0 -174417000000.0 -180094000000.0 -203568000000.0 -128824000000.0 -31856700000.0 -91038100000.0 -132162000000.0 -60324700000.0 -42640600000.0 -34009200000.0 -37981900000.0 -16988600000.0 -46093800000.0 -50938200000.0 -29547000000.0 -77306500000.0 -14738400000.0 -49041000000.0 -20302200000.0 -13440500000.0 -12549700000.0 -12848600000.0 -16863000000.0 -13427300000.0 -62952000000.0 -28337900000.0 -12549700000.0 -51628300000.0 -27265700000.0 -23866300000.0 -37007200000.0 -88191500000.0 -29784700000.0 -142415000000.0 -104618000000.0 -52634400000.0 -48709300000.0 -55183600000.0 -62264500000.0 -67116800000.0 -104440000000.0 -18928200000.0 -26908000000.0 -64452700000.0 -193205000000.0 -346596000000.0 -56932900000.0 -13264800000.0 -32233800000.0 -48127900000.0 -27185100000.0 -157432000000.0 -57755400000.0 -15161800000.0 -44868000000.0 -76463400000.0 -44419300000.0 -17818300000.0 -13833600000.0 -61006600000.0 -68392300000.0 -12549700000.0 -62197000000.0 -87947500000.0 -70974900000.0 -73059200000.0 -41208100000.0 -68703100000.0 -12549700000.0 -18701500000.0 -14277000000.0 -13717800000.0 -23481700000.0 -12791100000.0 -12549700000.0 -32224100000.0 -94782200000.0 -174358000000.0 -217296000000.0 -252044000000.0 -209783000000.0 -203073000000.0 -231031000000.0 -201999000000.0 -210056000000.0 -285116000000.0 -138528000000.0 -173956000000.0 -194024000000.0 -181941000000.0 -138707000000.0 -187616000000.0 -267406000000.0 -310805000000.0 -94389700000.0 -80546700000.0 -56321300000.0 -52906500000.0 -63761800000.0 -121260000000.0 -12549700000.0 -121729000000.0 -13227900000.0 -60228300000.0 -16901800000.0 -71074900000.0 -51375500000.0 -47792200000.0 -53790600000.0 -59632200000.0 -15625700000.0 -24971800000.0 -15983000000.0 -48596700000.0 -17117600000.0 -14377500000.0 -12549700000.0 -19599600000.0 -15280400000.0 -12549700000.0 -12549700000.0 -14237700000.0 -12549700000.0 -14763500000.0 -12765500000.0 -40333400000.0 -31856100000.0 -12915000000.0 -22380000000.0 -15831300000.0 -16212300000.0 -14901700000.0 -57737300000.0 -30762600000.0 -40121400000.0 -41400200000.0 -91369300000.0 -88079100000.0 -66815500000.0 -68398000000.0 -51411000000.0 -52617600000.0 -110541000000.0 -148334000000.0 -195895000000.0 -196612000000.0 -162054000000.0 -73328800000.0 -126105000000.0 -94096100000.0 -37210100000.0 -36651700000.0 -78553300000.0 -36209400000.0 -14324100000.0 -40725300000.0 -16995100000.0 -41590500000.0 -47333900000.0 -31061300000.0 -45491100000.0 -46603400000.0 -53412200000.0 -43464300000.0 -83238500000.0 -58357000000.0 -39493400000.0 -24097700000.0 -16750000000.0 -16074200000.0 -15705900000.0 -12549700000.0 -13019100000.0 -21629300000.0 -67136200000.0 -112136000000.0 -12549700000.0 -19944600000.0 -35025700000.0 -137663000000.0 -27007100000.0 -46692600000.0 -245928000000.0 -18946500000.0 -16926100000.0 -116442000000.0 -32922000000.0 -158134000000.0 -103905000000.0 -44215900000.0 -176449000000.0 -88785500000.0 -133257000000.0 -93471100000.0 -88327700000.0 -70078800000.0 -83038500000.0 -77816200000.0 -174050000000.0 -46485400000.0 -48980400000.0 -68364900000.0 -17002000000.0 -63019100000.0 -41803400000.0 -34393400000.0 -34884300000.0 -32267800000.0 -21246100000.0 -25687000000.0 -19112300000.0 -43983200000.0 -13594200000.0 -13598600000.0 -15146700000.0 -12991700000.0 -12549700000.0 -12563200000.0 -13818600000.0 -13429000000.0 -13960700000.0 -13383500000.0 -21009400000.0 -12711300000.0 -12549700000.0 -12549700000.0 -16726000000.0 -28140000000.0 -16956600000.0 -14149700000.0 -30308700000.0 -19619300000.0 -13328600000.0 -82025300000.0 -98612200000.0 -17132200000.0 -44770300000.0 -30541900000.0 -108858000000.0 -111248000000.0 -69992700000.0 -37309900000.0 -48835100000.0 -37361400000.0 -86313300000.0 -44107200000.0 -29760900000.0 -32757700000.0 -49450400000.0 -31079700000.0 -19326800000.0 -16047000000.0 -42972100000.0 -13970800000.0 -12549700000.0 -35553200000.0 -12818900000.0 -51767500000.0 -17868800000.0 -31384300000.0 -18722000000.0 -41533100000.0 -28580700000.0 -37167900000.0 -27734500000.0 -16489500000.0 -18058900000.0 -15469200000.0 -18453500000.0 -13703700000.0 -31338400000.0 -13806800000.0 -60232000000.0 -53361500000.0 -115859000000.0 -48442500000.0 -19658400000.0 -41088800000.0 -41459100000.0 -38655900000.0 -32122400000.0 -39219500000.0 -81152000000.0 -12549700000.0 -35310800000.0 -55354100000.0 -18785900000.0 -12549700000.0 -15351800000.0 -56464400000.0 -48388200000.0 -88042500000.0 -17491800000.0 -17467400000.0 -46602000000.0 -12549700000.0 -56706600000.0 -13002700000.0 -15380800000.0 -13739400000.0 -12549700000.0 -14046500000.0 -12731600000.0 -25094600000.0 -21152800000.0 -13318500000.0 -19889900000.0 -20118600000.0 -19561700000.0 -18811000000.0 -12762900000.0 -19437900000.0 -21187000000.0 -21661900000.0 -21602300000.0 -18858100000.0 -19400400000.0 -20359600000.0 -23197700000.0 -28989700000.0 -31737500000.0 -40503800000.0 -38122100000.0 -31428700000.0 -45518300000.0 -41923600000.0 -60059200000.0 -73033200000.0 -34716700000.0 -38813200000.0 -112795000000.0 -39817200000.0 -63251200000.0 -41627800000.0 -28706000000.0 -12549700000.0 -29379900000.0 -28543000000.0 -12685200000.0 -13873800000.0 -33287100000.0 -18767400000.0 -15056600000.0 -14040700000.0 -23581000000.0 -14461500000.0 -19709700000.0 -12549700000.0 -29447700000.0 -14538500000.0 -14191200000.0 -15018500000.0 -25267600000.0 -32463600000.0 -12622200000.0 -20504500000.0 -16882800000.0 -15181700000.0 -14973600000.0 -18043900000.0 -12549700000.0 -14753800000.0 -12759000000.0 -15108800000.0 -46109500000.0 -17104900000.0 -27541600000.0 -38488300000.0 -25596900000.0 -36481100000.0 -12549700000.0 -17659500000.0 -27918000000.0 -15984500000.0 -14710900000.0 -13795600000.0 -40503300000.0 -14706400000.0 -18033800000.0 -15949000000.0 -19554100000.0 -22401700000.0 -22646300000.0 -19019000000.0 -15828300000.0 -40963900000.0 -40550600000.0 -26538100000.0 -40279300000.0 -21951200000.0 -19570000000.0 -25646800000.0 -17708200000.0 -15854000000.0 -13918100000.0 -12549600000.0 -15311300000.0 -15990900000.0 -17169200000.0 -16509400000.0 -14514200000.0 -18549500000.0 -15781200000.0 -16688400000.0 -17946000000.0 -12904100000.0 