# vtk DataFile Version 2.0
Time step 32
ASCII
DATASET UNSTRUCTURED_GRID
POINTS 5000 float
2398.27 139751.0 0
8530.13 139126.0 0
12438.9 138959.0 0
16747.6 138277.0 0
22243.6 139923.0 0
27670.1 136661.0 0
33201.9 139348.0 0
38183.2 139932.0 0
42701.8 140082.0 0
47473.1 139991.0 0
52137.1 140088.0 0
57005.1 138928.0 0
62763.5 140004.0 0
67994.7 140137.0 0
72702.3 139271.0 0
77500.0 140017.0 0
82500.0 140006.0 0
87407.8 139304.0 0
92500.0 140044.0 0
97193.1 140066.0 0
101293.0 139983.0 0
105946.0 139373.0 0
111936.0 139852.0 0
117850.0 140036.0 0
123330.0 140113.0 0
128345.0 140234.0 0
133427.0 139483.0 0
138124.0 140166.0 0
142500.0 140087.0 0
147500.0 140021.0 0
152501.0 139991.0 0
157589.0 139619.0 0
162561.0 139774.0 0
167011.0 139317.0 0
171830.0 138200.0 0
177734.0 138238.0 0
182938.0 137424.0 0
187394.0 139278.0 0
192499.0 140439.0 0
196080.0 139602.0 0
201748.0 138962.0 0
207651.0 139726.0 0
212985.0 139063.0 0
218128.0 140148.0 0
222480.0 140160.0 0
225795.0 139392.0 0
230434.0 139263.0 0
235810.0 140259.0 0
241170.0 138964.0 0
246502.0 140966.0 0
252679.0 138949.0 0
259052.0 139425.0 0
263773.0 140512.0 0
268740.0 139423.0 0
273935.0 139718.0 0
278881.0 138368.0 0
286326.0 140008.0 0
291718.0 140464.0 0
297319.0 138333.0 0
303664.0 139119.0 0
312126.0 139541.0 0
317928.0 140163.0 0
323244.0 140065.0 0
327580.0 140334.0 0
332206.0 139933.0 0
337223.0 139642.0 0
341019.0 140853.0 0
345896.0 139189.0 0
355260.0 140098.0 0
361816.0 138735.0 0
372012.0 136756.0 0
367954.0 140072.0 0
377030.0 138728.0 0
382609.0 139601.0 0
388131.0 138900.0 0
394019.0 138216.0 0
399199.0 139887.0 0
403649.0 137145.0 0
408586.0 138356.0 0
412474.0 140006.0 0
417500.0 140050.0 0
422737.0 138162.0 0
427272.0 139872.0 0
432479.0 137676.0 0
437537.0 140027.0 0
442089.0 138969.0 0
446252.0 138549.0 0
450666.0 139317.0 0
455209.0 139259.0 0
460242.0 139105.0 0
465794.0 139491.0 0
471629.0 138748.0 0
477063.0 137551.0 0
481305.0 140414.0 0
485844.0 137481.0 0
491674.0 139021.0 0
497601.0 137514.0 0
2284.3 144771.0 0
6060.44 142447.0 0
11085.7 143476.0 0
17330.8 144179.0 0
23003.4 145436.0 0
28517.2 143013.0 0
34967.2 144622.0 0
40339.7 144941.0 0
44462.5 145283.0 0
48277.6 143986.0 0
52500.0 145049.0 0
57994.7 144370.0 0
62849.6 145103.0 0
67505.2 144775.0 0
72117.1 144390.0 0
77500.0 145175.0 0
82116.1 144821.0 0
87907.7 144062.0 0
92500.0 145184.0 0
97183.8 144815.0 0
102467.0 144717.0 0
108243.0 143965.0 0
112500.0 145120.0 0
117500.0 145201.0 0
122500.0 145124.0 0
127727.0 144668.0 0
132494.0 145018.0 0
137520.0 145033.0 0
142774.0 144510.0 0
146928.0 144858.0 0
151939.0 144736.0 0
156862.0 143668.0 0
161298.0 144489.0 0
166510.0 143989.0 0
172971.0 143769.0 0
178375.0 143650.0 0
183532.0 142492.0 0
188603.0 143724.0 0
193570.0 144584.0 0
198250.0 143948.0 0
203920.0 144582.0 0
213693.0 143613.0 0
209356.0 144797.0 0
217602.0 145218.0 0
222033.0 144986.0 0
226802.0 143627.0 0
232206.0 144687.0 0
237687.0 145510.0 0
243285.0 145338.0 0
248460.0 145040.0 0
252677.0 145510.0 0
257262.0 144063.0 0
262325.0 144688.0 0
267065.0 144267.0 0
271614.0 143573.0 0
277070.0 143977.0 0
282030.0 141700.0 0
282828.0 145387.0 0
287500.0 145098.0 0
292910.0 144956.0 0
298248.0 143843.0 0
303117.0 144790.0 0
307731.0 141689.0 0
307443.0 144982.0 0
312501.0 145293.0 0
317480.0 145038.0 0
322434.0 144533.0 0
327500.0 145078.0 0
332500.0 145151.0 0
337712.0 144485.0 0
343307.0 143879.0 0
350687.0 141110.0 0
347750.0 144279.0 0
352668.0 145001.0 0
361442.0 144048.0 0
357757.0 144518.0 0
365116.0 143745.0 0
372930.0 143557.0 0
378820.0 143279.0 0
382005.0 144417.0 0
388374.0 143988.0 0
393553.0 144363.0 0
402997.0 143345.0 0
398135.0 144797.0 0
408386.0 142637.0 0
412862.0 143948.0 0
417518.0 144565.0 0
422127.0 142799.0 0
428325.0 144815.0 0
433427.0 142909.0 0
437510.0 145094.0 0
443214.0 143251.0 0
447601.0 142558.0 0
451944.0 143796.0 0
457175.0 143987.0 0
462428.0 145473.0 0
466599.0 144060.0 0
470193.0 145240.0 0
475182.0 144040.0 0
480798.0 145689.0 0
486590.0 143672.0 0
492077.0 145922.0 0
496837.0 143023.0 0
2238.62 150688.0 0
6739.99 147492.0 0
11844.0 149309.0 0
16323.9 149387.0 0
20503.2 149399.0 0
27041.4 149846.0 0
32614.8 149680.0 0
38261.2 149454.0 0
42968.2 149838.0 0
47587.0 148707.0 0
51799.3 150470.0 0
56553.2 149990.0 0
62113.7 149963.0 0
67696.0 149619.0 0
73696.1 149933.0 0
78211.2 150372.0 0
81954.7 149547.0 0
86960.5 149578.0 0
92531.5 149935.0 0
97548.3 149334.0 0
102630.0 150479.0 0
107924.0 148745.0 0
116732.0 149805.0 0
112494.0 150019.0 0
120857.0 149655.0 0
125865.0 149036.0 0
131159.0 150734.0 0
136446.0 150686.0 0
140993.0 148631.0 0
146307.0 149749.0 0
156245.0 148229.0 0
161704.0 150180.0 0
169997.0 148556.0 0
176294.0 149408.0 0
182187.0 147631.0 0
188049.0 149885.0 0
194262.0 149610.0 0
199972.0 149052.0 0
208111.0 149705.0 0
204288.0 150048.0 0
213300.0 148424.0 0
217709.0 150152.0 0
222564.0 149261.0 0
226872.0 148632.0 0
232445.0 150151.0 0
237422.0 149936.0 0
241793.0 150590.0 0
246843.0 149109.0 0
251786.0 150402.0 0
257736.0 148815.0 0
262718.0 149466.0 0
267487.0 148722.0 0
273045.0 148815.0 0
279879.0 148036.0 0
283556.0 150320.0 0
287218.0 150390.0 0
291019.0 149265.0 0
296736.0 148888.0 0
302235.0 150025.0 0
307701.0 149412.0 0
313208.0 150536.0 0
318190.0 149529.0 0
322510.0 148539.0 0
326813.0 150422.0 0
336511.0 149150.0 0
331856.0 150141.0 0
341413.0 148084.0 0
346844.0 148665.0 0
351893.0 149837.0 0
356026.0 148391.0 0
361260.0 148750.0 0
366513.0 147827.0 0
371102.0 149698.0 0
377674.0 149213.0 0
384355.0 147754.0 0
392423.0 149186.0 0
388338.0 150943.0 0
397216.0 149145.0 0
402857.0 149586.0 0
409242.0 148282.0 0
414411.0 150837.0 0
419141.0 149255.0 0
424118.0 147617.0 0
427683.0 150653.0 0
432247.0 148533.0 0
437339.0 149275.0 0
442354.0 148488.0 0
448271.0 147630.0 0
454174.0 149200.0 0
458988.0 150247.0 0
463182.0 150011.0 0
467518.0 150124.0 0
472372.0 148563.0 0
477748.0 149514.0 0
482621.0 150384.0 0
491507.0 149983.0 0
496592.0 149593.0 0
2182.12 155102.0 0
8050.27 153333.0 0
13471.5 153935.0 0
17751.9 153232.0 0
22416.5 153773.0 0
26986.6 155771.0 0
32069.9 153967.0 0
37586.6 154658.0 0
43203.0 154902.0 0
49063.4 153498.0 0
53807.2 155170.0 0
59222.2 154668.0 0
63616.4 154295.0 0
68064.9 155292.0 0
72603.0 154809.0 0
77068.9 154293.0 0
82136.2 154568.0 0
87334.1 154752.0 0
92269.3 155265.0 0
97732.5 154686.0 0
102767.0 155937.0 0
107686.0 154243.0 0
113112.0 154348.0 0
118138.0 154282.0 0
123419.0 153642.0 0
127500.0 155199.0 0
137738.0 154600.0 0
132690.0 155562.0 0
142523.0 154751.0 0
151835.0 151348.0 0
148001.0 154358.0 0
156827.0 153626.0 0
153417.0 156002.0 0
160406.0 154993.0 0
166528.0 151998.0 0
164429.0 155702.0 0
170842.0 154585.0 0
177032.0 155976.0 0
182233.0 153109.0 0
186625.0 155520.0 0
191646.0 155008.0 0
197223.0 154337.0 0
203055.0 154192.0 0
208747.0 156051.0 0
214360.0 154095.0 0
218718.0 155398.0 0
222024.0 153519.0 0
227509.0 154182.0 0
234329.0 154533.0 0
237870.0 153261.0 0
241751.0 155193.0 0
246213.0 154295.0 0
251519.0 155660.0 0
255874.0 153531.0 0
260338.0 153202.0 0
266353.0 153405.0 0
271758.0 155084.0 0
278362.0 153539.0 0
284358.0 155059.0 0
288759.0 153544.0 0
292983.0 155259.0 0
298941.0 155188.0 0
303985.0 155418.0 0
307500.0 155242.0 0
316253.0 154244.0 0
312166.0 155061.0 0
321075.0 153771.0 0
325849.0 155354.0 0
329892.0 153966.0 0
334357.0 155959.0 0
339780.0 153476.0 0
346088.0 154920.0 0
352843.0 155412.0 0
357350.0 152348.0 0
361675.0 154739.0 0
366553.0 152519.0 0
371934.0 155331.0 0
382814.0 153270.0 0
387369.0 155128.0 0
393045.0 155855.0 0
399508.0 154756.0 0
408060.0 153631.0 0
404320.0 154780.0 0
412349.0 155303.0 0
416950.0 154637.0 0
421364.0 155892.0 0
425655.0 154279.0 0
431062.0 154724.0 0
437116.0 153470.0 0
441814.0 154074.0 0
446527.0 152630.0 0
450851.0 153133.0 0
455412.0 154971.0 0
461205.0 154665.0 0
466981.0 154451.0 0
472598.0 153522.0 0
478849.0 155013.0 0
487506.0 151484.0 0
484707.0 155524.0 0
489148.0 156249.0 0
492123.0 153840.0 0
496754.0 156235.0 0
1482.5 159782.0 0
7151.98 159640.0 0
11901.6 157673.0 0
17159.6 158411.0 0
23050.8 159157.0 0
30222.7 158507.0 0
34873.6 159300.0 0
39762.7 158721.0 0
43679.9 160559.0 0
48578.1 158721.0 0
53132.5 161168.0 0
57212.2 159060.0 0
63066.8 159070.0 0
68313.2 160467.0 0
73399.1 158867.0 0
78300.0 159442.0 0
83591.4 159509.0 0
88395.7 159570.0 0
92506.5 160107.0 0
97237.2 160101.0 0
101195.0 160165.0 0
105586.0 159759.0 0
111305.0 158932.0 0
116639.0 159540.0 0
122097.0 158832.0 0
126930.0 159245.0 0
131217.0 159943.0 0
136576.0 159150.0 0
142212.0 160444.0 0
147011.0 158635.0 0
151800.0 160569.0 0
157941.0 159560.0 0
167048.0 158575.0 0
163659.0 160187.0 0
171004.0 160593.0 0
182933.0 160029.0 0
193693.0 159094.0 0
189204.0 159927.0 0
198249.0 160225.0 0
203175.0 159293.0 0
207322.0 161431.0 0
212116.0 160302.0 0
216321.0 158711.0 0
221177.0 159047.0 0
226331.0 160818.0 0
231984.0 159033.0 0
237943.0 157997.0 0
242844.0 159845.0 0
248030.0 159373.0 0
252899.0 159688.0 0
257728.0 158713.0 0
262638.0 156776.0 0
267590.0 159356.0 0
272699.0 160969.0 0
278480.0 160193.0 0
283574.0 159646.0 0
288835.0 158864.0 0
293487.0 159856.0 0
297507.0 161234.0 0
302639.0 159724.0 0
307118.0 160084.0 0
311944.0 159802.0 0
316969.0 158679.0 0
322299.0 159365.0 0
330942.0 159481.0 0
327154.0 160223.0 0
341517.0 158968.0 0
337119.0 159858.0 0
346666.0 160883.0 0
351585.0 161064.0 0
357892.0 158924.0 0
367106.0 157427.0 0
362981.0 159713.0 0
370170.0 160871.0 0
374546.0 160890.0 0
377880.0 156664.0 0
383270.0 159285.0 0
388206.0 159309.0 0
397894.0 160692.0 0
403056.0 158757.0 0
408163.0 158481.0 0
414682.0 158949.0 0
417927.0 160197.0 0
422496.0 160753.0 0
427476.0 158733.0 0
431255.0 160153.0 0
436121.0 158452.0 0
441990.0 159734.0 0
448325.0 158143.0 0
454024.0 160129.0 0
459441.0 160274.0 0
464977.0 159554.0 0
473884.0 158739.0 0
469642.0 160404.0 0
481987.0 159968.0 0
486774.0 159860.0 0
492177.0 160417.0 0
2749.34 163820.0 0
7839.1 166158.0 0
12668.7 162178.0 0
18087.5 164180.0 0
23744.2 164915.0 0
28647.2 162553.0 0
33630.0 164856.0 0
39131.5 163562.0 0
43741.1 164769.0 0
48689.6 164691.0 0
54178.0 165871.0 0
59717.7 164072.0 0
64869.2 165172.0 0
68288.0 164661.0 0
72214.0 162747.0 0
76320.4 164339.0 0
81941.7 164930.0 0
87886.8 164639.0 0
96906.7 164674.0 0
92637.4 165036.0 0
101491.0 164803.0 0
106437.0 165095.0 0
111043.0 163781.0 0
115385.0 164256.0 0
120870.0 164856.0 0
127440.0 164510.0 0
133300.0 164396.0 0
138725.0 164883.0 0
143743.0 165051.0 0
148388.0 164654.0 0
152799.0 165157.0 0
157000.0 165258.0 0
161441.0 164035.0 0
166774.0 163927.0 0
172236.0 166377.0 0
176728.0 162267.0 0
186881.0 164926.0 0
192410.0 164434.0 0
197842.0 165933.0 0
202628.0 163868.0 0
206633.0 166042.0 0
210631.0 164831.0 0
216383.0 164606.0 0
222685.0 164693.0 0
228326.0 166363.0 0
236020.0 162981.0 0
240941.0 165415.0 0
246426.0 165966.0 0
250907.0 163839.0 0
256767.0 164921.0 0
262832.0 162355.0 0
268274.0 164715.0 0
272895.0 165865.0 0
277851.0 166201.0 0
282085.0 163577.0 0
287110.0 164950.0 0
293046.0 164275.0 0
301872.0 163650.0 0
306178.0 165564.0 0
311438.0 165528.0 0
316866.0 163804.0 0
322342.0 165285.0 0
328008.0 164835.0 0
333889.0 163712.0 0
342209.0 164947.0 0
347986.0 165639.0 0
355556.0 163191.0 0
352297.0 165342.0 0
360521.0 164457.0 0
366518.0 164563.0 0
372528.0 165830.0 0
378550.0 164241.0 0
383425.0 163423.0 0
387244.0 163782.0 0
392171.0 162101.0 0
396045.0 166515.0 0
400403.0 164990.0 0
405313.0 163997.0 0
411970.0 163067.0 0
417775.0 164941.0 0
422966.0 165622.0 0
427289.0 162986.0 0
432237.0 164739.0 0
437083.0 163783.0 0
441852.0 165341.0 0
447111.0 164309.0 0
452641.0 165319.0 0
458109.0 165637.0 0
462539.0 165231.0 0
466553.0 164234.0 0
471812.0 164969.0 0
477661.0 161809.0 0
476953.0 166529.0 0
482254.0 165325.0 0
487738.0 164709.0 0
492470.0 166268.0 0
497457.0 161971.0 0
3056.96 169619.0 0
13608.2 168025.0 0
23878.7 170616.0 0
28780.6 167896.0 0
33718.3 170560.0 0
38539.5 168747.0 0
43268.7 169026.0 0
49669.8 169584.0 0
53685.7 170616.0 0
58565.6 169941.0 0
63415.8 169119.0 0
67006.6 169580.0 0
71706.0 168083.0 0
77976.1 169666.0 0
83400.4 171011.0 0
88019.5 169672.0 0
93070.0 169655.0 0
97999.3 169144.0 0
105784.0 169532.0 0
102078.0 170794.0 0
110767.0 169134.0 0
116643.0 169035.0 0
126501.0 169767.0 0
122655.0 170328.0 0
131195.0 169092.0 0
135221.0 170917.0 0
139749.0 170434.0 0
145106.0 169644.0 0
150852.0 169703.0 0
156885.0 170615.0 0
162037.0 168697.0 0
167181.0 169024.0 0
177078.0 166592.0 0
176186.0 170317.0 0
181362.0 166640.0 0
185796.0 170211.0 0
191578.0 170314.0 0
197330.0 171463.0 0
202644.0 169306.0 0
207608.0 170064.0 0
212134.0 169212.0 0
217212.0 170993.0 0
223347.0 170663.0 0
233994.0 167518.0 0
238459.0 171177.0 0
243835.0 170460.0 0
248986.0 170073.0 0
252373.0 168119.0 0
255540.0 171021.0 0
262542.0 169520.0 0
268734.0 169684.0 0
273493.0 170412.0 0
278386.0 171591.0 0
282795.0 168955.0 0
287973.0 170941.0 0
293222.0 169608.0 0
297884.0 166588.0 0
302611.0 169497.0 0
308390.0 170478.0 0
313173.0 170073.0 0
317437.0 169556.0 0
325882.0 168834.0 0
322197.0 170860.0 0
329973.0 169995.0 0
335037.0 170541.0 0
337530.0 167132.0 0
340304.0 170949.0 0
351088.0 169810.0 0
356015.0 167787.0 0
360817.0 170333.0 0
366439.0 170307.0 0
371146.0 170766.0 0
377228.0 171493.0 0
383500.0 167870.0 0
390740.0 166737.0 0
387810.0 171047.0 0
392750.0 171069.0 0
403886.0 170034.0 0
409493.0 168665.0 0
414468.0 168922.0 0
417765.0 169076.0 0
420954.0 169433.0 0
427629.0 169495.0 0
433306.0 169104.0 0
437891.0 168762.0 0
442654.0 170233.0 0
448517.0 170193.0 0
453997.0 170185.0 0
458539.0 170606.0 0
462991.0 170386.0 0
467794.0 169214.0 0
472983.0 170714.0 0
479977.0 170436.0 0
484305.0 170286.0 0
488544.0 169835.0 0
492631.0 170422.0 0
497459.0 167054.0 0
2142.5 175518.0 0
8751.36 172043.0 0
13671.2 175667.0 0
18378.2 171761.0 0
18602.2 176703.0 0
22342.2 175101.0 0
27489.5 175542.0 0
32327.4 174811.0 0
37268.6 175361.0 0
42437.7 176679.0 0
46372.9 173386.0 0
51406.8 175775.0 0
57398.2 176070.0 0
63642.7 174289.0 0
68686.2 172863.0 0
73555.1 175931.0 0
79818.4 175145.0 0
85122.0 175934.0 0
90125.3 174154.0 0
95035.5 176012.0 0
98600.1 173320.0 0
101292.0 176675.0 0
105635.0 174041.0 0
111335.0 175471.0 0
118206.0 174605.0 0
123814.0 174856.0 0
128388.0 173184.0 0
133269.0 175260.0 0
137791.0 174373.0 0
141902.0 175227.0 0
147422.0 174955.0 0
152992.0 174911.0 0
157247.0 176527.0 0
161788.0 174266.0 0
167145.0 173995.0 0
171462.0 171701.0 0
170763.0 175732.0 0
176883.0 175311.0 0
180974.0 172242.0 0
186889.0 175237.0 0
191539.0 175618.0 0
201630.0 174780.0 0
207157.0 175033.0 0
212992.0 174727.0 0
219802.0 176080.0 0
228978.0 172358.0 0
224912.0 175983.0 0
228654.0 176452.0 0
233410.0 171985.0 0
232788.0 175764.0 0
236991.0 176418.0 0
242098.0 174708.0 0
246555.0 174438.0 0
251472.0 174033.0 0
257766.0 176289.0 0
262741.0 175593.0 0
268253.0 175301.0 0
274070.0 175372.0 0
284553.0 174995.0 0
289714.0 175874.0 0
293308.0 173980.0 0
297717.0 171864.0 0
302310.0 175192.0 0
307427.0 175745.0 0
312021.0 174243.0 0
316759.0 174150.0 0
321329.0 175993.0 0
326425.0 174443.0 0
331732.0 174949.0 0
337285.0 176245.0 0
345924.0 171679.0 0
342892.0 176281.0 0
346834.0 176246.0 0
351167.0 174986.0 0
356394.0 173351.0 0
361681.0 176437.0 0
366977.0 175178.0 0
371659.0 175248.0 0
382204.0 175417.0 0
386896.0 175770.0 0
391453.0 175576.0 0
395530.0 176330.0 0
398357.0 172031.0 0
405866.0 175806.0 0
411608.0 174187.0 0
416995.0 172802.0 0
422632.0 174429.0 0
428259.0 175578.0 0
432998.0 173748.0 0
438723.0 174408.0 0
444697.0 175116.0 0
455668.0 174579.0 0
461370.0 175476.0 0
468719.0 174439.0 0
473165.0 176284.0 0
477806.0 174949.0 0
482449.0 175115.0 0
486596.0 173994.0 0
490652.0 174440.0 0
497771.0 171814.0 0
495006.0 175796.0 0
2239.97 180091.0 0
7229.67 178119.0 0
12439.0 181729.0 0
18047.5 181158.0 0
23273.5 179954.0 0
29078.3 181516.0 0
32589.9 178285.0 0
35954.9 181173.0 0
40994.7 180898.0 0
47003.8 179867.0 0
52812.1 180515.0 0
62193.9 179682.0 0
67961.8 179748.0 0
78090.2 179742.0 0
82804.6 180652.0 0
88773.0 180471.0 0
93971.1 180856.0 0
97843.5 179377.0 0
101250.0 180960.0 0
105727.0 179533.0 0
110243.0 180908.0 0
115522.0 180484.0 0
121623.0 179687.0 0
128113.0 179223.0 0
137501.0 178316.0 0
133715.0 180095.0 0
142031.0 180495.0 0
148122.0 181536.0 0
153547.0 179731.0 0
157985.0 180705.0 0
163104.0 180104.0 0
173357.0 178979.0 0
168440.0 179265.0 0
177762.0 179753.0 0
182323.0 177062.0 0
181597.0 181634.0 0
186463.0 180504.0 0
191579.0 180130.0 0
196351.0 176910.0 0
201125.0 180372.0 0
207149.0 181096.0 0
212100.0 179659.0 0
216815.0 180868.0 0
221592.0 181688.0 0
226069.0 180512.0 0
231021.0 179800.0 0
235877.0 181056.0 0
241284.0 179618.0 0
246730.0 179374.0 0
252429.0 179544.0 0
257588.0 181534.0 0
263724.0 181096.0 0
269617.0 180963.0 0
274595.0 180353.0 0
279359.0 177114.0 0
284008.0 179455.0 0
288597.0 180890.0 0
292655.0 179299.0 0
296536.0 176787.0 0
298736.0 181499.0 0
303655.0 180148.0 0
307805.0 180069.0 0
312325.0 179472.0 0
317602.0 179181.0 0
323362.0 180980.0 0
328007.0 179107.0 0
332711.0 180061.0 0
337427.0 181558.0 0
345484.0 179961.0 0
341921.0 180210.0 0
349524.0 179179.0 0
355334.0 179553.0 0
360670.0 181625.0 0
366492.0 179898.0 0
373425.0 180398.0 0
378339.0 178098.0 0
383175.0 181061.0 0
392585.0 179947.0 0
388076.0 180174.0 0
397117.0 180186.0 0
400532.0 177139.0 0
408061.0 180563.0 0
403357.0 181286.0 0
412517.0 179432.0 0
417172.0 177929.0 0
421024.0 179978.0 0
425374.0 179613.0 0
431956.0 179394.0 0
437686.0 180648.0 0
443671.0 180697.0 0
450507.0 176870.0 0
454496.0 179827.0 0
458794.0 180768.0 0
463932.0 180591.0 0
465831.0 177118.0 0
469294.0 179919.0 0
474373.0 180823.0 0
479087.0 179837.0 0
483696.0 181516.0 0
486595.0 178198.0 0
491393.0 180266.0 0
497411.0 180413.0 0
2126.8 184458.0 0
6958.66 184001.0 0
16007.5 185164.0 0
20036.3 185442.0 0
24883.8 185205.0 0
32219.9 185879.0 0
37670.5 186776.0 0
43315.9 185323.0 0
48684.4 185863.0 0
53577.3 185042.0 0
57601.5 182231.0 0
62542.2 184916.0 0
67219.2 185001.0 0
73649.8 182637.0 0
79094.9 185262.0 0
84538.7 185252.0 0
88602.8 185507.0 0
92508.1 184958.0 0
97466.9 183769.0 0
102446.0 185386.0 0
107193.0 184285.0 0
111837.0 185071.0 0
117995.0 185991.0 0
123248.0 184919.0 0
127767.0 184611.0 0
132820.0 185165.0 0
138523.0 184421.0 0
143145.0 185323.0 0
151877.0 185322.0 0
156564.0 185538.0 0
161568.0 185037.0 0
166876.0 184140.0 0
173249.0 185199.0 0
178607.0 185348.0 0
183536.0 186284.0 0
189459.0 185353.0 0
195893.0 182661.0 0
193909.0 186484.0 0
199741.0 185385.0 0
203874.0 185967.0 0
208362.0 186234.0 0
212779.0 184314.0 0
219057.0 185617.0 0
223358.0 185184.0 0
227641.0 185214.0 0
232480.0 184516.0 0
237736.0 185513.0 0
242297.0 185944.0 0
246702.0 184211.0 0
251876.0 185795.0 0
257453.0 185831.0 0
267693.0 185151.0 0
271761.0 184720.0 0
279912.0 182458.0 0
276113.0 185183.0 0
284279.0 183868.0 0
288573.0 186128.0 0
293595.0 183841.0 0
298812.0 186259.0 0
302637.0 185083.0 0
306699.0 183941.0 0
311690.0 185164.0 0
316842.0 184014.0 0
321343.0 185907.0 0
324884.0 184872.0 0
328697.0 183818.0 0
334155.0 185685.0 0
339612.0 185461.0 0
344147.0 184176.0 0
350104.0 184835.0 0
356717.0 186397.0 0
363256.0 186290.0 0
369399.0 184688.0 0
374926.0 185717.0 0
378300.0 182595.0 0
379746.0 186565.0 0
384039.0 186678.0 0
388075.0 184674.0 0
393151.0 185018.0 0
397926.0 184366.0 0
401991.0 185612.0 0
406598.0 185187.0 0
412749.0 185328.0 0
418443.0 183358.0 0
423548.0 184771.0 0
428720.0 183417.0 0
433883.0 185882.0 0
440196.0 186812.0 0
445499.0 185417.0 0
450715.0 183302.0 0
456145.0 184913.0 0
463205.0 184635.0 0
460061.0 185368.0 0
467453.0 185185.0 0
472542.0 185122.0 0
477866.0 185166.0 0
482744.0 185764.0 0
487590.0 184759.0 0
492465.0 185456.0 0
497811.0 185175.0 0
3067.42 189567.0 0
8549.99 188501.0 0
12576.6 187138.0 0
12198.4 191685.0 0
16417.1 189334.0 0
21308.1 190345.0 0
27461.5 190561.0 0
32651.1 189697.0 0
42297.4 190474.0 0
47949.2 191372.0 0
53255.7 189999.0 0
57455.6 187141.0 0
58927.7 191031.0 0
62499.2 189338.0 0
71131.9 187405.0 0
66930.1 189438.0 0
71361.7 191585.0 0
76177.9 190451.0 0
82348.4 188857.0 0
86390.1 189192.0 0
91251.4 190039.0 0
96599.9 188890.0 0
101326.0 190048.0 0
106449.0 189454.0 0
112396.0 190583.0 0
118079.0 191417.0 0
123221.0 190170.0 0
128381.0 189113.0 0
133236.0 190649.0 0
138696.0 190152.0 0
143898.0 189365.0 0
146818.0 191749.0 0
147994.0 187511.0 0
152639.0 189756.0 0
158017.0 190017.0 0
162828.0 189171.0 0
168108.0 189592.0 0
172596.0 190878.0 0
177248.0 190633.0 0
182428.0 191240.0 0
187088.0 190239.0 0
192267.0 190508.0 0
197935.0 190106.0 0
202909.0 189950.0 0
207316.0 190936.0 0
212053.0 189258.0 0
217206.0 190687.0 0
222465.0 189408.0 0
227445.0 190756.0 0
232444.0 189222.0 0
237071.0 189825.0 0
241376.0 190414.0 0
246110.0 189227.0 0
254527.0 190269.0 0
250350.0 190806.0 0
258827.0 190902.0 0
262303.0 187322.0 0
267462.0 190486.0 0
272513.0 188608.0 0
277249.0 190465.0 0
283191.0 189259.0 0
288209.0 190683.0 0
292760.0 189445.0 0
297370.0 190208.0 0
302092.0 190213.0 0
306883.0 188669.0 0
316042.0 188908.0 0
311366.0 190672.0 0
320407.0 190324.0 0
326141.0 189659.0 0
332574.0 191737.0 0
338274.0 190729.0 0
343319.0 189121.0 0
348153.0 190315.0 0
353183.0 190867.0 0
358609.0 191915.0 0
363216.0 191781.0 0
372381.0 189858.0 0
367630.0 190253.0 0
377383.0 191217.0 0
382012.0 189741.0 0
387367.0 189296.0 0
391828.0 189730.0 0
396408.0 188952.0 0
401423.0 190513.0 0
406572.0 190050.0 0
411925.0 191688.0 0
417743.0 189282.0 0
428006.0 189625.0 0
435857.0 191152.0 0
440095.0 191759.0 0
448658.0 187961.0 0
444889.0 190565.0 0
448961.0 191076.0 0
453284.0 189689.0 0
458567.0 188790.0 0
463266.0 188827.0 0
468255.0 190242.0 0
473568.0 190304.0 0
478469.0 190078.0 0
481962.0 190589.0 0
485382.0 189226.0 0
490343.0 189344.0 0
495336.0 189431.0 0
2830.0 195472.0 0
7504.43 192921.0 0
9653.31 196777.0 0
12519.5 195325.0 0
17159.7 194875.0 0
23583.6 195779.0 0
28511.4 195649.0 0
32910.2 193805.0 0
37788.0 192143.0 0
44153.4 195832.0 0
51664.1 194487.0 0
56220.4 194577.0 0
61493.0 195011.0 0
67359.6 194939.0 0
73111.8 195955.0 0
80897.6 193119.0 0
78021.7 196959.0 0
86724.9 194816.0 0
92878.3 196024.0 0
98369.8 194261.0 0
103678.0 194205.0 0
108523.0 194849.0 0
113659.0 195965.0 0
118713.0 196719.0 0
123560.0 195204.0 0
128428.0 194288.0 0
133083.0 195169.0 0
137598.0 195530.0 0
143073.0 193490.0 0
146707.0 195796.0 0
150635.0 193693.0 0
155608.0 193774.0 0
161150.0 194054.0 0
167133.0 195670.0 0
172930.0 195166.0 0
178055.0 196143.0 0
183649.0 196008.0 0
189254.0 194980.0 0
194196.0 195029.0 0
203778.0 194166.0 0
199080.0 195755.0 0
208281.0 195977.0 0
213126.0 194516.0 0
217850.0 195992.0 0
222500.0 195159.0 0
227501.0 195333.0 0
231383.0 193361.0 0
235355.0 193875.0 0
241015.0 194805.0 0
246231.0 195075.0 0
252672.0 195553.0 0
257745.0 194684.0 0
262638.0 193824.0 0
268640.0 195205.0 0
272480.0 193260.0 0
276641.0 195514.0 0
282619.0 195040.0 0
287949.0 195095.0 0
293355.0 194923.0 0
298039.0 194074.0 0
302176.0 196134.0 0
306757.0 193543.0 0
311381.0 195894.0 0
317148.0 194600.0 0
322864.0 194864.0 0
326685.0 194607.0 0
331450.0 196148.0 0
335628.0 196635.0 0
340790.0 195428.0 0
345204.0 193521.0 0
349873.0 194933.0 0
355444.0 197104.0 0
361539.0 196493.0 0
367142.0 195645.0 0
372559.0 194772.0 0
377578.0 196953.0 0
382873.0 194398.0 0
389042.0 194266.0 0
397269.0 194125.0 0
393436.0 196420.0 0
402360.0 196150.0 0
407526.0 194759.0 0
411984.0 196994.0 0
417008.0 194981.0 0
422243.0 192209.0 0
421586.0 196828.0 0
426097.0 195731.0 0
432022.0 195011.0 0
437808.0 196105.0 0
443160.0 195587.0 0
447795.0 194753.0 0
452664.0 195592.0 0
457759.0 193641.0 0
463138.0 194000.0 0
468202.0 195379.0 0
473090.0 195456.0 0
478104.0 194916.0 0
482746.0 195226.0 0
487712.0 194136.0 0
493262.0 194162.0 0
497792.0 193721.0 0
2516.89 200815.0 0
7267.74 200221.0 0
12113.5 200553.0 0
17588.6 201149.0 0
23411.5 201837.0 0
28804.9 200157.0 0
32717.8 198499.0 0
37936.1 197807.0 0
43271.9 201263.0 0
48946.0 197522.0 0
47706.9 201341.0 0
52881.1 200184.0 0
58207.0 199354.0 0
64166.1 200614.0 0
71365.2 199502.0 0
69255.1 201558.0 0
75111.4 201330.0 0
81048.3 201122.0 0
87053.1 201477.0 0
96750.5 200081.0 0
92019.7 200606.0 0
101922.0 198557.0 0
107424.0 200943.0 0
113364.0 200960.0 0
118426.0 201979.0 0
123399.0 200270.0 0
128618.0 199452.0 0
133599.0 199699.0 0
141643.0 198060.0 0
137996.0 201335.0 0
145476.0 200658.0 0
150728.0 199404.0 0
156816.0 199000.0 0
162658.0 200122.0 0
170993.0 200032.0 0
175346.0 201758.0 0
183157.0 199960.0 0
179615.0 200831.0 0
187237.0 200060.0 0
192614.0 199635.0 0
197963.0 201395.0 0
202933.0 199178.0 0
206815.0 201529.0 0
210965.0 200082.0 0
215633.0 200309.0 0
221233.0 200386.0 0
227178.0 200693.0 0
231617.0 197548.0 0
237594.0 199572.0 0
243855.0 200280.0 0
248908.0 200046.0 0
254151.0 201681.0 0
257368.0 198023.0 0
260306.0 200061.0 0
265514.0 198994.0 0
272404.0 199564.0 0
279499.0 200280.0 0
285573.0 199173.0 0
290276.0 199032.0 0
297347.0 199274.0 0
302303.0 201244.0 0
306874.0 199016.0 0
312363.0 201947.0 0
318330.0 200420.0 0
323489.0 199811.0 0
328121.0 198110.0 0
332372.0 200606.0 0
340953.0 200007.0 0
337059.0 201217.0 0
345700.0 198810.0 0
350923.0 200926.0 0
359289.0 201300.0 0
364350.0 200989.0 0
368943.0 200307.0 0
373329.0 199641.0 0
377201.0 202037.0 0
381327.0 200222.0 0
386959.0 200408.0 0
393348.0 201274.0 0
398522.0 199703.0 0
402908.0 201090.0 0
407769.0 200158.0 0
415875.0 200791.0 0
421175.0 202089.0 0
424600.0 199768.0 0
428965.0 200302.0 0
434133.0 199990.0 0
438735.0 201289.0 0
442785.0 199948.0 0
447716.0 200017.0 0
453043.0 200614.0 0
458329.0 199447.0 0
463620.0 198818.0 0
468163.0 200705.0 0
473600.0 199868.0 0
478151.0 200074.0 0
482810.0 199425.0 0
487498.0 199715.0 0
492502.0 199113.0 0
497556.0 198369.0 0
2475.46 205808.0 0
7678.04 205241.0 0
12005.5 204754.0 0
15773.5 206185.0 0
20838.9 206884.0 0
26807.6 206219.0 0
34063.0 203885.0 0
39400.4 202775.0 0
40050.5 207019.0 0
44701.5 205729.0 0
48755.6 205052.0 0
53061.1 205357.0 0
59510.8 204446.0 0
63884.5 205752.0 0
67605.0 205009.0 0
71690.6 204950.0 0
78268.8 204835.0 0
82473.6 206112.0 0
87142.1 207067.0 0
92000.7 205246.0 0
97001.4 205196.0 0
102129.0 204448.0 0
106970.0 206822.0 0
111123.0 205255.0 0
115819.0 206623.0 0
121101.0 206624.0 0
126570.0 204975.0 0
132454.0 204673.0 0
137140.0 205806.0 0
142292.0 204938.0 0
147729.0 204408.0 0
152626.0 205060.0 0
157520.0 204083.0 0
162024.0 205691.0 0
167210.0 204123.0 0
172467.0 205180.0 0
178177.0 206090.0 0
183466.0 203882.0 0
190427.0 204652.0 0
195413.0 206096.0 0
203349.0 204534.0 0
199782.0 206714.0 0
208211.0 205515.0 0
212596.0 204587.0 0
217692.0 204997.0 0
223418.0 205232.0 0
227712.0 205686.0 0
232750.0 204922.0 0
237936.0 205588.0 0
242257.0 204472.0 0
246585.0 204363.0 0
251469.0 206148.0 0
257654.0 205960.0 0
262651.0 204189.0 0
268086.0 204251.0 0
273560.0 206265.0 0
279481.0 206473.0 0
284053.0 203428.0 0
289112.0 204130.0 0
293629.0 202407.0 0
293852.0 206628.0 0
298805.0 205026.0 0
302789.0 204720.0 0
307478.0 204576.0 0
316381.0 205329.0 0
321288.0 205443.0 0
327595.0 203983.0 0
333601.0 205589.0 0
340751.0 204139.0 0
337886.0 207087.0 0
346462.0 205364.0 0
352478.0 205747.0 0
358047.0 206882.0 0
362683.0 204854.0 0
367602.0 205578.0 0
373234.0 204764.0 0
377756.0 206769.0 0
383126.0 205638.0 0
388876.0 206288.0 0
397596.0 204121.0 0
393912.0 206552.0 0
401993.0 205708.0 0
407551.0 205960.0 0
417741.0 204950.0 0
413353.0 205986.0 0
420745.0 206231.0 0
426075.0 205674.0 0
432061.0 204777.0 0
436729.0 205131.0 0
442764.0 204970.0 0
448811.0 207116.0 0
453407.0 204785.0 0
458506.0 205979.0 0
463594.0 203360.0 0
467771.0 206021.0 0
471814.0 203566.0 0
476447.0 205105.0 0
481097.0 203413.0 0
485654.0 204378.0 0
490706.0 205413.0 0
495997.0 203647.0 0
3209.26 210937.0 0
8256.15 210341.0 0
12761.5 209977.0 0
17405.0 210945.0 0
22004.9 211480.0 0
26227.1 211003.0 0
30948.6 209507.0 0
35928.2 209624.0 0
43627.5 209714.0 0
47752.6 209085.0 0
51806.1 209416.0 0
56826.7 209635.0 0
62576.2 209765.0 0
67167.6 210188.0 0
72517.5 210137.0 0
77988.9 208932.0 0
82528.9 210537.0 0
86296.2 211134.0 0
90160.4 210381.0 0
95222.7 210219.0 0
101125.0 210117.0 0
106556.0 211844.0 0
111796.0 210117.0 0
118331.0 211294.0 0
123279.0 211051.0 0
127623.0 210095.0 0
132213.0 209989.0 0
137230.0 210405.0 0
141706.0 211679.0 0
146466.0 209403.0 0
151572.0 211865.0 0
156133.0 209026.0 0
161835.0 211992.0 0
169287.0 210505.0 0
175977.0 211866.0 0
181608.0 210902.0 0
186111.0 208283.0 0
190989.0 209956.0 0
195750.0 210771.0 0
200534.0 211899.0 0
204956.0 209055.0 0
208469.0 211288.0 0
211631.0 209158.0 0
216517.0 210320.0 0
221717.0 209639.0 0
226708.0 210177.0 0
231966.0 209191.0 0
236077.0 210470.0 0
241449.0 208967.0 0
246776.0 209475.0 0
251429.0 210399.0 0
256152.0 211070.0 0
261545.0 209531.0 0
266311.0 208687.0 0
270634.0 211143.0 0
276600.0 211218.0 0
284960.0 208565.0 0
290176.0 208996.0 0
293747.0 211242.0 0
297267.0 209450.0 0
302697.0 207879.0 0
307439.0 208510.0 0
310139.0 211075.0 0
312811.0 207764.0 0
316962.0 209487.0 0
326194.0 209367.0 0
321557.0 211418.0 0
331846.0 210570.0 0
336689.0 211093.0 0
341778.0 210015.0 0
346621.0 211233.0 0
350386.0 209678.0 0
354413.0 210949.0 0
363424.0 210193.0 0
368531.0 210800.0 0
372657.0 209455.0 0
376991.0 211918.0 0
381265.0 210148.0 0
385752.0 210755.0 0
391601.0 211304.0 0
397807.0 210204.0 0
403438.0 210682.0 0
408195.0 211076.0 0
412656.0 211148.0 0
417329.0 209646.0 0
422295.0 209980.0 0
427069.0 212368.0 0
433143.0 210710.0 0
438897.0 209189.0 0
443936.0 210560.0 0
453762.0 209745.0 0
457906.0 211890.0 0
463034.0 210438.0 0
468109.0 210797.0 0
472246.0 208619.0 0
476528.0 210137.0 0
481588.0 208682.0 0
487402.0 209289.0 0
492245.0 211818.0 0
497268.0 209297.0 0
2743.22 216366.0 0
8043.33 215364.0 0
14923.8 215180.0 0
19911.8 215757.0 0
25331.4 215846.0 0
32698.1 216301.0 0
40004.6 212747.0 0
47200.4 214359.0 0
52668.2 213611.0 0
57752.9 215876.0 0
63750.6 215123.0 0
69578.3 215481.0 0
74693.8 216016.0 0
78841.3 213686.0 0
82761.3 215309.0 0
87411.6 215567.0 0
93077.3 215641.0 0
98831.9 215477.0 0
103893.0 216028.0 0
107221.0 215851.0 0
111637.0 215989.0 0
120394.0 216021.0 0
124181.0 215322.0 0
128407.0 214719.0 0
132873.0 214324.0 0
136855.0 215095.0 0
141100.0 215863.0 0
146521.0 215370.0 0
151900.0 217256.0 0
156635.0 215463.0 0
160663.0 217534.0 0
166705.0 216773.0 0
172254.0 215491.0 0
179233.0 215480.0 0
184126.0 216106.0 0
189312.0 214471.0 0
193666.0 215369.0 0
197502.0 214965.0 0
202961.0 215746.0 0
206285.0 213615.0 0
212269.0 214989.0 0
216820.0 214851.0 0
220987.0 214473.0 0
225752.0 215153.0 0
230992.0 213581.0 0
235667.0 215393.0 0
240553.0 214212.0 0
248384.0 214256.0 0
252568.0 214043.0 0
259981.0 214126.0 0
256066.0 216069.0 0
265486.0 213935.0 0
272926.0 214610.0 0
275663.0 215197.0 0
281964.0 214077.0 0
288340.0 213756.0 0
293481.0 215916.0 0
298770.0 213846.0 0
304642.0 212579.0 0
309158.0 214739.0 0
313930.0 212543.0 0
312953.0 217285.0 0
317701.0 214455.0 0
323363.0 216607.0 0
327802.0 213878.0 0
332500.0 215223.0 0
336869.0 215703.0 0
342205.0 215589.0 0
351676.0 214488.0 0
347213.0 215604.0 0
357649.0 214490.0 0
363234.0 216547.0 0
368505.0 215062.0 0
373400.0 216279.0 0
382578.0 214177.0 0
379103.0 216324.0 0
387080.0 216354.0 0
392324.0 217489.0 0
395893.0 214933.0 0
400749.0 215396.0 0
405935.0 215020.0 0
411228.0 216322.0 0
416962.0 215481.0 0
422188.0 214880.0 0
431392.0 216407.0 0
437982.0 214614.0 0
443846.0 216439.0 0
448492.0 212962.0 0
453588.0 214973.0 0
449069.0 217312.0 0
458355.0 216087.0 0
462243.0 215429.0 0
467270.0 215803.0 0
472251.0 213765.0 0
478245.0 214899.0 0
483447.0 213804.0 0
487731.0 213961.0 0
492455.0 216806.0 0
497112.0 214898.0 0
2122.05 221191.0 0
6630.25 220298.0 0
11766.0 217844.0 0
10875.4 221497.0 0
16445.8 220423.0 0
22135.8 220556.0 0
26807.9 220422.0 0
38042.6 221746.0 0
42534.2 217716.0 0
44042.0 222233.0 0
47182.2 219490.0 0
52162.2 219037.0 0
57345.9 221973.0 0
62695.9 220503.0 0
67631.1 220824.0 0
72733.8 220562.0 0
77869.6 219938.0 0
83358.2 220023.0 0
88732.8 220527.0 0
93487.2 220500.0 0
97430.2 220112.0 0
102461.0 221238.0 0
107419.0 219102.0 0
111802.0 222354.0 0
116411.0 218680.0 0
120438.0 221882.0 0
125859.0 219646.0 0
131747.0 219047.0 0
137380.0 219975.0 0
143320.0 220762.0 0
148471.0 220320.0 0
152882.0 221786.0 0
157304.0 220462.0 0
163246.0 219893.0 0
168106.0 222187.0 0
170863.0 218926.0 0
175911.0 219498.0 0
181670.0 221315.0 0
189131.0 219718.0 0
194262.0 220119.0 0
199453.0 219315.0 0
203612.0 221329.0 0
207408.0 218403.0 0
210864.0 222078.0 0
216145.0 220373.0 0
221748.0 218720.0 0
226487.0 220426.0 0
232440.0 219570.0 0
238428.0 219326.0 0
244743.0 218539.0 0
251364.0 219033.0 0
256826.0 220596.0 0
261845.0 218710.0 0
270071.0 217959.0 0
266233.0 222053.0 0
274195.0 220697.0 0
278046.0 218233.0 0
283479.0 220396.0 0
289026.0 219081.0 0
293262.0 221427.0 0
297211.0 218728.0 0
303000.0 219054.0 0
308801.0 219955.0 0
318355.0 219733.0 0
324039.0 222056.0 0
328787.0 219100.0 0
334062.0 220846.0 0
339588.0 220253.0 0
344928.0 220054.0 0
349984.0 219590.0 0
354425.0 218106.0 0
358647.0 221210.0 0
363895.0 222140.0 0
368160.0 219780.0 0
372316.0 221005.0 0
376965.0 220858.0 0
382473.0 219819.0 0
387497.0 220836.0 0
392129.0 221596.0 0
396150.0 220309.0 0
401229.0 220864.0 0
406694.0 220182.0 0
411220.0 221194.0 0
415492.0 220520.0 0
421159.0 220466.0 0
426356.0 217923.0 0
428515.0 221434.0 0
430953.0 220838.0 0
435837.0 220635.0 0
442047.0 222378.0 0
446666.0 220802.0 0
451289.0 222027.0 0
456080.0 219755.0 0
461500.0 220479.0 0
466932.0 221210.0 0
472915.0 218964.0 0
478057.0 220369.0 0
482526.0 218267.0 0
487864.0 219090.0 0
493647.0 220706.0 0
498089.0 219579.0 0
2813.93 225983.0 0
8166.55 225241.0 0
12896.7 224605.0 0
16334.2 225254.0 0
20386.6 225133.0 0
25271.3 226362.0 0
31182.3 224102.0 0
37229.6 227088.0 0
41791.8 226096.0 0
47443.1 226215.0 0
53098.7 225526.0 0
58687.2 227264.0 0
63564.7 225656.0 0
68267.2 225221.0 0
72452.8 225411.0 0
77184.8 225052.0 0
86321.3 224147.0 0
82034.1 225131.0 0
91303.3 225065.0 0
96817.1 224512.0 0
101397.0 227130.0 0
107501.0 227328.0 0
116465.0 225087.0 0
113003.0 227181.0 0
121275.0 226618.0 0
126005.0 225805.0 0
132124.0 225431.0 0
137822.0 225615.0 0
142842.0 226150.0 0
147534.0 224872.0 0
152631.0 226428.0 0
157564.0 225450.0 0
162715.0 224395.0 0
167297.0 227217.0 0
172608.0 224687.0 0
177859.0 224791.0 0
182311.0 226410.0 0
186380.0 224056.0 0
192091.0 224594.0 0
196631.0 225278.0 0
201121.0 224791.0 0
206778.0 224603.0 0
212749.0 225199.0 0
217646.0 226287.0 0
221802.0 223383.0 0
226807.0 225531.0 0
231555.0 225198.0 0
236400.0 224241.0 0
241216.0 223791.0 0
240059.0 227163.0 0
245781.0 223887.0 0
250439.0 224925.0 0
255187.0 224775.0 0
260757.0 224886.0 0
266792.0 227573.0 0
271146.0 224361.0 0
278156.0 223960.0 0
283284.0 227226.0 0
288456.0 224375.0 0
293476.0 226326.0 0
298385.0 223937.0 0
303452.0 224606.0 0
308184.0 224963.0 0
314346.0 225071.0 0
319262.0 224676.0 0
328966.0 224668.0 0
333145.0 225057.0 0
336742.0 225008.0 0
342586.0 225416.0 0
347877.0 224570.0 0
353207.0 224272.0 0
357768.0 226893.0 0
362509.0 226952.0 0
367788.0 225429.0 0
373561.0 225642.0 0
382647.0 225071.0 0
378331.0 225366.0 0
387500.0 225372.0 0
390843.0 225174.0 0
394212.0 224766.0 0
397992.0 224767.0 0
405860.0 226213.0 0
412258.0 225827.0 0
417887.0 225334.0 0
423013.0 225731.0 0
427879.0 225326.0 0
432792.0 225792.0 0
437678.0 226279.0 0
441770.0 227046.0 0
447089.0 225060.0 0
452127.0 227189.0 0
456327.0 224703.0 0
461269.0 226134.0 0
466169.0 225793.0 0
470975.0 223954.0 0
476161.0 225395.0 0
482655.0 224268.0 0
488906.0 224655.0 0
492847.0 227503.0 0
497008.0 224361.0 0
2320.13 230425.0 0
7488.63 230088.0 0
11900.8 228572.0 0
17722.4 229497.0 0
22193.1 230091.0 0
25715.0 230887.0 0
29626.5 232675.0 0
33500.8 229686.0 0
36830.5 232107.0 0
41262.3 231325.0 0
46268.5 231445.0 0
51632.7 230871.0 0
56869.3 231524.0 0
62241.5 231112.0 0
67516.4 229937.0 0
72507.1 230022.0 0
81267.6 230252.0 0
76625.6 231086.0 0
87015.4 229168.0 0
92309.6 230333.0 0
97256.2 230355.0 0
102435.0 232279.0 0
106772.0 232472.0 0
111799.0 231156.0 0
117641.0 230628.0 0
123434.0 230355.0 0
128783.0 230859.0 0
134059.0 230472.0 0
137961.0 230203.0 0
142163.0 230151.0 0
147508.0 230672.0 0
152874.0 231361.0 0
158961.0 229838.0 0
162909.0 229769.0 0
167203.0 231855.0 0
171996.0 229123.0 0
177734.0 230327.0 0
183258.0 231091.0 0
188248.0 229031.0 0
193904.0 229888.0 0
199061.0 229608.0 0
204164.0 230041.0 0
214031.0 228561.0 0
209498.0 229673.0 0
213605.0 232830.0 0
217444.0 230669.0 0
222153.0 228875.0 0
226339.0 229395.0 0
230558.0 230723.0 0
235736.0 228983.0 0
243726.0 228081.0 0
240024.0 231134.0 0
250370.0 230318.0 0
256481.0 230200.0 0
262638.0 230513.0 0
272519.0 230002.0 0
278323.0 229773.0 0
282856.0 232766.0 0
289980.0 229871.0 0
294948.0 230773.0 0
299376.0 229292.0 0
303657.0 228604.0 0
307817.0 230121.0 0
313029.0 231261.0 0
317914.0 229478.0 0
322905.0 227803.0 0
324607.0 232373.0 0
327977.0 229703.0 0
333185.0 229342.0 0
338987.0 230704.0 0
344312.0 230699.0 0
346987.0 228125.0 0
351178.0 230374.0 0
358166.0 231274.0 0
362963.0 231857.0 0
367645.0 230793.0 0
372883.0 231272.0 0
377591.0 230044.0 0
387666.0 229833.0 0
383032.0 230236.0 0
390580.0 230716.0 0
394662.0 229385.0 0
400641.0 229153.0 0
404215.0 232454.0 0
409728.0 231674.0 0
416362.0 231117.0 0
422814.0 231388.0 0
428624.0 230156.0 0
433383.0 230611.0 0
438576.0 231532.0 0
448819.0 229922.0 0
444220.0 230844.0 0
452095.0 231179.0 0
457221.0 230965.0 0
462828.0 230611.0 0
466794.0 231880.0 0
470795.0 229143.0 0
476401.0 231774.0 0
482886.0 231010.0 0
488671.0 230170.0 0
492896.0 231224.0 0
497140.0 230223.0 0
2876.88 234258.0 0
7660.86 234549.0 0
13294.5 232971.0 0
17517.9 234389.0 0
21985.7 234377.0 0
25928.8 234782.0 0
33841.1 235545.0 0
38550.8 235575.0 0
43314.2 236386.0 0
47500.0 235185.0 0
51973.6 236517.0 0
58906.7 236077.0 0
64493.8 236305.0 0
69003.9 235033.0 0
73874.7 234493.0 0
77214.8 234911.0 0
80690.5 235355.0 0
86320.5 235475.0 0
92811.9 235340.0 0
98243.3 235616.0 0
103093.0 236244.0 0
109025.0 235653.0 0
113207.0 235269.0 0
122442.0 235140.0 0
117544.0 236338.0 0
126563.0 235751.0 0
131864.0 235209.0 0
136845.0 234751.0 0
140202.0 237062.0 0
144009.0 235439.0 0
150417.0 235233.0 0
157087.0 235059.0 0
162993.0 234156.0 0
167637.0 236519.0 0
173052.0 234756.0 0
183034.0 235703.0 0
178841.0 236393.0 0
186684.0 234409.0 0
191845.0 234766.0 0
196807.0 233957.0 0
201799.0 235054.0 0
207325.0 234775.0 0
216950.0 235858.0 0
220488.0 233711.0 0
225389.0 233244.0 0
229379.0 235758.0 0
235826.0 234461.0 0
240229.0 236152.0 0
245173.0 234160.0 0
252502.0 235330.0 0
257223.0 235657.0 0
262350.0 235291.0 0
267375.0 233086.0 0
272616.0 236110.0 0
277797.0 234792.0 0
289754.0 234643.0 0
285973.0 236271.0 0
293412.0 234349.0 0
297868.0 235276.0 0
303741.0 233755.0 0
309258.0 235686.0 0
315418.0 236681.0 0
320291.0 233805.0 0
323684.0 237322.0 0
328760.0 235344.0 0
334652.0 234652.0 0
338213.0 236904.0 0
342799.0 235848.0 0
348330.0 235174.0 0
354572.0 235095.0 0
358832.0 235235.0 0
362307.0 235911.0 0
366734.0 235834.0 0
371991.0 236658.0 0
376885.0 233866.0 0
380639.0 234518.0 0
386649.0 235015.0 0
391382.0 234100.0 0
396440.0 235093.0 0
400518.0 233530.0 0
407477.0 237138.0 0
413219.0 236969.0 0
418109.0 236162.0 0
422108.0 236543.0 0
426880.0 234996.0 0
431422.0 234899.0 0
436290.0 236878.0 0
442101.0 236186.0 0
447551.0 235100.0 0
452805.0 235366.0 0
457500.0 237033.0 0
461587.0 234829.0 0
465844.0 235936.0 0
470829.0 234938.0 0
476633.0 237697.0 0
480520.0 235428.0 0
485119.0 236054.0 0
491128.0 236017.0 0
497365.0 235714.0 0
2104.58 238415.0 0
6793.13 240045.0 0
12523.0 238332.0 0
18520.5 239426.0 0
24345.7 239153.0 0
30115.1 239524.0 0
35415.9 240960.0 0
39871.7 239631.0 0
43531.1 241672.0 0
47479.0 239358.0 0
51743.5 241356.0 0
56704.4 241108.0 0
61963.3 241120.0 0
66637.0 240798.0 0
71689.8 239380.0 0
77190.4 238529.0 0
82290.3 240342.0 0
88450.6 241792.0 0
93312.9 239447.0 0
97500.0 240219.0 0
102236.0 240019.0 0
107094.0 239793.0 0
112293.0 239521.0 0
117489.0 240952.0 0
122473.0 239211.0 0
132592.0 239971.0 0
127671.0 240716.0 0
137655.0 239693.0 0
142127.0 240126.0 0
147639.0 239912.0 0
153048.0 239245.0 0
157498.0 240939.0 0
161581.0 239087.0 0
165670.0 240772.0 0
171236.0 240625.0 0
176241.0 240619.0 0
180333.0 241064.0 0
184967.0 239489.0 0
190264.0 239055.0 0
195407.0 239543.0 0
201314.0 240508.0 0
206586.0 240832.0 0
212326.0 238657.0 0
218109.0 240193.0 0
222874.0 238171.0 0
227521.0 240788.0 0
232624.0 239329.0 0
238162.0 240132.0 0
243788.0 240492.0 0
248620.0 239072.0 0
255010.0 239387.0 0
251713.0 242389.0 0
259924.0 239557.0 0
266657.0 240126.0 0
272631.0 241047.0 0
276490.0 239655.0 0
281555.0 238516.0 0
287001.0 240861.0 0
292797.0 239168.0 0
298712.0 241143.0 0
303432.0 239049.0 0
307680.0 240341.0 0
312779.0 241955.0 0
319104.0 241041.0 0
323798.0 241546.0 0
328210.0 240987.0 0
332677.0 239290.0 0
337207.0 240684.0 0
341738.0 241085.0 0
346949.0 240578.0 0
352953.0 240371.0 0
358288.0 239053.0 0
363850.0 240306.0 0
368582.0 239943.0 0
377265.0 238168.0 0
372514.0 240535.0 0
383137.0 239487.0 0
392797.0 238837.0 0
388492.0 240718.0 0
396700.0 240612.0 0
401635.0 238604.0 0
408627.0 241731.0 0
412942.0 241932.0 0
417500.0 240118.0 0
423653.0 240445.0 0
429096.0 239194.0 0
432842.0 240378.0 0
439595.0 240533.0 0
445090.0 240180.0 0
449569.0 239835.0 0
453927.0 240181.0 0
458048.0 241596.0 0
461735.0 239389.0 0
466237.0 240645.0 0
472010.0 240964.0 0
477068.0 242320.0 0
481395.0 240049.0 0
487084.0 241267.0 0
492809.0 241913.0 0
497596.0 240748.0 0
3506.56 245496.0 0
8912.79 245310.0 0
12819.2 243758.0 0
18045.9 245637.0 0
23734.9 244519.0 0
29008.9 245319.0 0
33721.3 245122.0 0
38524.5 245443.0 0
43678.3 246395.0 0
47740.4 244121.0 0
52004.9 245913.0 0
56980.0 246515.0 0
61797.0 245828.0 0
66400.6 245391.0 0
71634.8 245265.0 0
78211.9 245746.0 0
84123.5 245086.0 0
87688.8 246867.0 0
94100.6 243661.0 0
99300.7 244916.0 0
103853.0 246352.0 0
108320.0 244758.0 0
113638.0 244363.0 0
122395.0 243603.0 0
118190.0 245399.0 0
126892.0 245662.0 0
131338.0 244811.0 0
135404.0 243450.0 0
139966.0 244399.0 0
145199.0 245046.0 0
151686.0 245354.0 0
157465.0 246103.0 0
162229.0 244517.0 0
167843.0 245088.0 0
173466.0 246262.0 0
178661.0 245036.0 0
183502.0 245036.0 0
188831.0 243160.0 0
193406.0 245788.0 0
198167.0 244254.0 0
202231.0 245830.0 0
207017.0 246001.0 0
212382.0 245056.0 0
217317.0 244657.0 0
221943.0 243508.0 0
226299.0 245577.0 0
231239.0 244725.0 0
236066.0 245315.0 0
240758.0 245157.0 0
247336.0 244521.0 0
251815.0 246397.0 0
256825.0 244539.0 0
262029.0 244691.0 0
266322.0 247452.0 0
272436.0 245791.0 0
277767.0 244086.0 0
282669.0 244012.0 0
287562.0 246346.0 0
294271.0 245784.0 0
299733.0 245957.0 0
304165.0 244060.0 0
308987.0 245329.0 0
315361.0 246853.0 0
320383.0 246052.0 0
326094.0 246285.0 0
333153.0 245452.0 0
339139.0 245978.0 0
343432.0 245104.0 0
347366.0 245377.0 0
351803.0 245916.0 0
357555.0 244403.0 0
363007.0 245341.0 0
368201.0 244782.0 0
373380.0 244200.0 0
378055.0 243269.0 0
382804.0 245637.0 0
392116.0 243792.0 0
387997.0 246435.0 0
397058.0 244962.0 0
402873.0 245276.0 0
407560.0 245280.0 0
411391.0 246229.0 0
416297.0 245080.0 0
421523.0 244877.0 0
427085.0 244259.0 0
431835.0 246525.0 0
436284.0 244044.0 0
442628.0 245446.0 0
449565.0 245462.0 0
454947.0 244851.0 0
459035.0 245881.0 0
462490.0 243619.0 0
462382.0 248089.0 0
466450.0 245507.0 0
470797.0 246131.0 0
475073.0 245875.0 0
479815.0 246366.0 0
485461.0 246928.0 0
491395.0 246122.0 0
496535.0 246224.0 0
3164.76 252159.0 0
7861.16 249374.0 0
13199.0 249668.0 0
18016.5 251611.0 0
22913.6 250151.0 0
28302.8 250463.0 0
33684.7 250032.0 0
38744.2 250381.0 0
42462.5 250226.0 0
47500.0 249994.0 0
52556.5 250309.0 0
57796.6 251829.0 0
62773.9 250294.0 0
67039.8 250193.0 0
72935.3 251316.0 0
78321.3 251545.0 0
82589.4 250139.0 0
87056.8 250782.0 0
92062.6 248977.0 0
97669.8 250205.0 0
102295.0 250023.0 0
107409.0 250591.0 0
113346.0 249780.0 0
121263.0 248890.0 0
117556.0 251131.0 0
125795.0 251580.0 0
129833.0 249078.0 0
135554.0 249249.0 0
141810.0 249266.0 0
147627.0 251395.0 0
152819.0 250704.0 0
156962.0 250580.0 0
162565.0 250630.0 0
168615.0 250607.0 0
178548.0 250122.0 0
173684.0 251634.0 0
183148.0 251754.0 0
188011.0 249046.0 0
193376.0 250593.0 0
197871.0 249279.0 0
202710.0 250025.0 0
206541.0 250390.0 0
210419.0 249636.0 0
215940.0 249179.0 0
222035.0 249645.0 0
227895.0 250040.0 0
232873.0 249190.0 0
237580.0 249791.0 0
243283.0 249639.0 0
248662.0 249996.0 0
254444.0 250065.0 0
259268.0 249391.0 0
262873.0 251162.0 0
267425.0 253151.0 0
270746.0 250074.0 0
276853.0 248653.0 0
282816.0 250167.0 0
288056.0 251664.0 0
292380.0 251334.0 0
298263.0 250253.0 0
306024.0 249650.0 0
310182.0 251195.0 0
311333.0 248378.0 0
314049.0 251874.0 0
318476.0 250108.0 0
322500.0 250280.0 0
328895.0 250949.0 0
333247.0 251833.0 0
337012.0 249840.0 0
341118.0 249765.0 0
346179.0 249903.0 0
357134.0 249722.0 0
352136.0 252024.0 0
361937.0 250255.0 0
372171.0 248815.0 0
367471.0 251555.0 0
377869.0 249263.0 0
383976.0 251681.0 0
389039.0 251201.0 0
392971.0 249007.0 0
398548.0 250386.0 0
404604.0 250436.0 0
408304.0 250442.0 0
411600.0 250522.0 0
415648.0 249876.0 0
420774.0 250365.0 0
427258.0 250812.0 0
432708.0 250594.0 0
437828.0 250646.0 0
443857.0 251695.0 0
448899.0 251583.0 0
453714.0 249685.0 0
458586.0 249972.0 0
466456.0 250387.0 0
471667.0 250788.0 0
476744.0 250454.0 0
482117.0 251236.0 0
489725.0 250248.0 0
493000.0 252238.0 0
497149.0 252218.0 0
2175.07 257406.0 0
6289.92 256358.0 0
11599.4 255784.0 0
17536.7 256074.0 0
22463.9 255822.0 0
27690.3 255523.0 0
32846.5 255412.0 0
37849.2 254914.0 0
42860.5 255016.0 0
47500.0 255077.0 0
52500.0 254997.0 0
57471.6 256290.0 0
62273.8 255351.0 0
67614.2 254579.0 0
72220.4 257036.0 0
77001.6 255433.0 0
81627.9 255044.0 0
86239.3 254903.0 0
91741.2 255390.0 0
97809.7 255593.0 0
102672.0 254572.0 0
106904.0 256736.0 0
111197.0 254664.0 0
115541.0 255461.0 0
120820.0 254780.0 0
126022.0 256412.0 0
131560.0 255065.0 0
137591.0 255436.0 0
143034.0 255872.0 0
152338.0 254689.0 0
148514.0 257202.0 0
156778.0 255260.0 0
161254.0 256473.0 0
165871.0 255140.0 0
170820.0 255563.0 0
176305.0 256205.0 0
181154.0 255272.0 0
186194.0 257268.0 0
190733.0 253977.0 0
195915.0 254917.0 0
202303.0 253711.0 0
207029.0 255404.0 0
212697.0 253850.0 0
217369.0 253602.0 0
217598.0 258318.0 0
221329.0 255146.0 0
226114.0 254872.0 0
231891.0 254243.0 0
236937.0 256354.0 0
240965.0 253887.0 0
246409.0 255965.0 0
252566.0 255333.0 0
257947.0 253430.0 0
257171.0 257899.0 0
262497.0 256205.0 0
272726.0 254159.0 0
277827.0 253352.0 0
276214.0 257572.0 0
283405.0 257204.0 0
290008.0 256182.0 0
296053.0 255431.0 0
302080.0 254307.0 0
308492.0 255160.0 0
313702.0 257005.0 0
318492.0 254675.0 0
325755.0 254640.0 0
322153.0 257391.0 0
331010.0 256395.0 0
336305.0 255517.0 0
342218.0 255163.0 0
347987.0 256097.0 0
352469.0 257680.0 0
357711.0 255582.0 0
363368.0 255178.0 0
372126.0 254935.0 0
367621.0 257662.0 0
377593.0 255226.0 0
382667.0 257953.0 0
388200.0 256072.0 0
393856.0 254683.0 0
403548.0 256234.0 0
409206.0 256981.0 0
413407.0 254708.0 0
418014.0 255319.0 0
422330.0 255407.0 0
427432.0 257565.0 0
432985.0 254851.0 0
437053.0 255572.0 0
442559.0 257183.0 0
447415.0 254958.0 0
451703.0 255538.0 0
455864.0 253954.0 0
461827.0 255265.0 0
468602.0 255967.0 0
474668.0 255874.0 0
480001.0 255339.0 0
486590.0 255464.0 0
493166.0 256614.0 0
498364.0 256538.0 0
2648.17 261687.0 0
6704.61 260228.0 0
11883.6 262570.0 0
17237.5 260571.0 0
21689.6 260696.0 0
26625.8 260726.0 0
32269.7 260866.0 0
37800.7 259985.0 0
42911.0 260131.0 0
48373.5 259951.0 0
53049.3 260179.0 0
57491.6 260575.0 0
62500.0 260164.0 0
67351.0 260187.0 0
72974.1 261373.0 0
77090.3 260361.0 0
80945.6 260348.0 0
86598.6 260075.0 0
92663.0 261984.0 0
98143.0 260638.0 0
102893.0 259589.0 0
107106.0 262091.0 0
112144.0 259965.0 0
117790.0 259831.0 0
127517.0 260128.0 0
123040.0 261498.0 0
131674.0 261870.0 0
135064.0 258941.0 0
139795.0 261565.0 0
146646.0 262435.0 0
153458.0 260487.0 0
159442.0 261017.0 0
165970.0 260353.0 0
171467.0 260790.0 0
177281.0 262424.0 0
183206.0 262546.0 0
191889.0 258717.0 0
188839.0 262860.0 0
195949.0 262560.0 0
201250.0 258667.0 0
206418.0 262133.0 0
211873.0 259619.0 0
222978.0 259804.0 0
228688.0 259834.0 0
233720.0 259210.0 0
236990.0 260890.0 0
241142.0 259230.0 0
246176.0 262391.0 0
251695.0 260775.0 0
258372.0 262885.0 0
263470.0 261794.0 0
268880.0 259130.0 0
274498.0 261814.0 0
279013.0 260625.0 0
288584.0 260931.0 0
293677.0 261128.0 0
300178.0 260472.0 0
305261.0 258810.0 0
304991.0 262803.0 0
308862.0 261061.0 0
313452.0 262006.0 0
316770.0 259839.0 0
320569.0 261526.0 0
326678.0 261075.0 0
333860.0 261349.0 0
338665.0 259893.0 0
342798.0 260630.0 0
347414.0 261068.0 0
352857.0 262505.0 0
357815.0 261367.0 0
362633.0 260000.0 0
367023.0 262008.0 0
371860.0 260402.0 0
377436.0 261150.0 0
382625.0 262312.0 0
386622.0 261600.0 0
391984.0 260864.0 0
397810.0 258542.0 0
396543.0 262659.0 0
401644.0 262956.0 0
406987.0 261182.0 0
411809.0 260683.0 0
417020.0 259859.0 0
422568.0 261143.0 0
427263.0 263273.0 0
432184.0 261444.0 0
437978.0 260792.0 0
442950.0 262737.0 0
448192.0 260012.0 0
452071.0 263181.0 0
455968.0 259865.0 0
461567.0 261823.0 0
466227.0 260477.0 0
471901.0 262192.0 0
477525.0 260675.0 0
481988.0 259316.0 0
481331.0 263158.0 0
486495.0 262779.0 0
491854.0 261721.0 0
497015.0 261304.0 0
162837.0 264008.0 0
201235.0 264102.0 0
204485.0 266662.0 0
210803.0 265283.0 0
216429.0 264063.0 0
222482.0 265535.0 0
227970.0 265240.0 0
233936.0 264033.0 0
231479.0 268574.0 0
236566.0 267361.0 0
240344.0 265009.0 0
244598.0 268074.0 0
248988.0 266949.0 0
253463.0 265544.0 0
257895.0 268439.0 0
261355.0 265951.0 0
265869.0 266689.0 0
270690.0 264652.0 0
278592.0 266104.0 0
284471.0 263583.0 0
283449.0 268226.0 0
289814.0 265475.0 0
297126.0 265845.0 0
302375.0 266396.0 0
199590.0 269027.0 0
204468.0 270794.0 0
209475.0 270275.0 0
215741.0 270167.0 0
221148.0 270915.0 0
226659.0 270944.0 0
235336.0 270532.0 0
240451.0 271115.0 0
245802.0 273221.0 0
252379.0 270481.0 0
262166.0 269037.0 0
262919.0 273106.0 0
271458.0 269787.0 0
276406.0 271471.0 0
280924.0 271361.0 0
284555.0 272645.0 0
287246.0 269781.0 0
293214.0 270359.0 0
299472.0 271214.0 0
200585.0 275314.0 0
206843.0 275286.0 0
212361.0 274493.0 0
218223.0 275844.0 0
223366.0 274834.0 0
227352.0 276899.0 0
231827.0 273880.0 0
236734.0 274198.0 0
236100.0 278259.0 0
240966.0 276842.0 0
250601.0 274785.0 0
256853.0 274837.0 0
261596.0 278234.0 0
268028.0 273935.0 0
273339.0 276155.0 0
278878.0 275374.0 0
283257.0 276245.0 0
288808.0 275072.0 0
294291.0 275961.0 0
298347.0 275921.0 0
202182.0 281691.0 0
208350.0 280787.0 0
213603.0 279575.0 0
218692.0 281218.0 0
223720.0 280831.0 0
228241.0 281470.0 0
231685.0 279251.0 0
231225.0 283857.0 0
237012.0 283692.0 0
240605.0 280921.0 0
243170.0 283694.0 0
246387.0 279087.0 0
252220.0 279518.0 0
257463.0 280733.0 0
261849.0 283549.0 0
266658.0 279165.0 0
271774.0 280921.0 0
276896.0 280145.0 0
279537.0 282999.0 0
281073.0 279292.0 0
285890.0 280272.0 0
291456.0 280011.0 0
297262.0 280521.0 0
341742.0 282785.0 0
10310.7 285120.0 0
201829.0 288817.0 0
206136.0 286190.0 0
210348.0 284786.0 0
215212.0 285111.0 0
220826.0 285442.0 0
226504.0 286414.0 0
232146.0 288927.0 0
248822.0 284463.0 0
254692.0 284667.0 0
258646.0 288330.0 0
268402.0 285636.0 0
274596.0 284191.0 0
278614.0 287081.0 0
283534.0 285205.0 0
289161.0 284799.0 0
293909.0 284118.0 0
297955.0 286685.0 0
309756.0 286650.0 0
48261.5 292545.0 0
174681.0 291569.0 0
201375.0 293592.0 0
206261.0 291500.0 0
211451.0 289635.0 0
216926.0 290650.0 0
222275.0 290307.0 0
228055.0 290923.0 0
237067.0 289075.0 0
237519.0 293989.0 0
241918.0 289131.0 0
247673.0 290358.0 0
253243.0 289819.0 0
258820.0 293523.0 0
262733.0 290893.0 0
267377.0 291913.0 0
273125.0 290508.0 0
279206.0 292803.0 0
282851.0 289457.0 0
287161.0 291048.0 0
292997.0 289330.0 0
297868.0 293190.0 0
362467.0 292794.0 0
368610.0 292576.0 0
389098.0 291641.0 0
404603.0 289907.0 0
421499.0 291178.0 0
443009.0 290825.0 0
455114.0 291207.0 0
472319.0 291950.0 0
492537.0 292927.0 0
497243.0 290775.0 0
6878.9 294931.0 0
56374.4 296458.0 0
63868.7 296468.0 0
68827.6 297487.0 0
79658.9 298221.0 0
85031.3 298919.0 0
96187.4 296734.0 0
100416.0 296182.0 0
107589.0 297919.0 0
115161.0 298221.0 0
121008.0 298114.0 0
126005.0 295902.0 0
154054.0 298524.0 0
158565.0 297918.0 0
167796.0 294793.0 0
177286.0 295623.0 0
178735.0 298989.0 0
191569.0 296775.0 0
196244.0 297703.0 0
200893.0 297950.0 0
205154.0 296393.0 0
210437.0 295306.0 0
215527.0 295343.0 0
217856.0 299015.0 0
220095.0 294761.0 0
222331.0 298930.0 0
225530.0 294409.0 0
231429.0 295057.0 0
242312.0 297017.0 0
248060.0 296419.0 0
253779.0 295166.0 0
259045.0 297932.0 0
263577.0 296079.0 0
269203.0 297031.0 0
274268.0 295764.0 0
284321.0 296029.0 0
288840.0 295642.0 0
292801.0 294612.0 0
297447.0 298192.0 0
309917.0 298156.0 0
317421.0 294870.0 0
322450.0 296261.0 0
357807.0 294377.0 0
374583.0 295218.0 0
391311.0 298319.0 0
423600.0 299129.0 0
437044.0 294467.0 0
461586.0 295068.0 0
471850.0 298926.0 0
476569.0 295193.0 0
481239.0 296286.0 0
14254.8 299484.0 0
17655.2 302800.0 0
22442.4 300799.0 0
30433.9 300704.0 0
36537.1 301237.0 0
48339.7 303448.0 0
53010.0 303446.0 0
75161.9 299523.0 0
93065.2 302836.0 0
111005.0 299763.0 0
124379.0 303009.0 0
131855.0 300225.0 0
137504.0 299238.0 0
142262.0 301490.0 0
150902.0 302813.0 0
173221.0 300646.0 0
178042.0 302490.0 0
208014.0 299387.0 0
204091.0 301037.0 0
213366.0 300209.0 0
209328.0 303761.0 0
220080.0 303003.0 0
227466.0 299707.0 0
233028.0 300789.0 0
238137.0 299956.0 0
241714.0 301795.0 0
245370.0 300932.0 0
251050.0 301296.0 0
255497.0 299706.0 0
257879.0 303585.0 0
261784.0 300375.0 0
267219.0 302075.0 0
273095.0 300057.0 0
277795.0 299483.0 0
282142.0 299807.0 0
284672.0 302294.0 0
280751.0 304040.0 0
287752.0 299795.0 0
292956.0 299616.0 0
296819.0 302693.0 0
322451.0 300973.0 0
326630.0 301731.0 0
330913.0 302006.0 0
339605.0 301350.0 0
345114.0 303542.0 0
388726.0 302834.0 0
396056.0 299758.0 0
407296.0 303911.0 0
417127.0 300824.0 0
426612.0 302698.0 0
431907.0 303401.0 0
439714.0 301689.0 0
444222.0 303947.0 0
449230.0 300840.0 0
458451.0 303706.0 0
462790.0 301517.0 0
466760.0 300330.0 0
479717.0 301570.0 0
484429.0 301650.0 0
497839.0 300226.0 0
2631.23 308090.0 0
8033.11 305120.0 0
14588.8 306308.0 0
18911.2 308635.0 0
30589.4 306905.0 0
37311.7 309237.0 0
40985.6 305641.0 0
45936.2 307117.0 0
88220.9 304910.0 0
92904.6 307844.0 0
96476.5 309282.0 0
97919.2 304960.0 0
102310.0 307068.0 0
113050.0 307126.0 0
119140.0 305111.0 0
126262.0 307216.0 0
137141.0 308676.0 0
146000.0 304942.0 0
155278.0 306179.0 0
169989.0 305897.0 0
177572.0 306659.0 0
183089.0 308313.0 0
188926.0 306966.0 0
194751.0 308231.0 0
199546.0 305573.0 0
204420.0 306175.0 0
208783.0 308980.0 0
215080.0 305736.0 0
222103.0 307268.0 0
225959.0 304687.0 0
230710.0 305544.0 0
236395.0 305282.0 0
241432.0 305569.0 0
247375.0 306361.0 0
253463.0 305798.0 0
257608.0 309346.0 0
262773.0 304602.0 0
262736.0 309301.0 0
267276.0 307409.0 0
271749.0 304506.0 0
276227.0 305962.0 0
284091.0 308946.0 0
287924.0 304750.0 0
292544.0 304527.0 0
300482.0 305124.0 0
296361.0 307445.0 0
304841.0 305604.0 0
308743.0 304793.0 0
309713.0 308952.0 0
314014.0 307695.0 0
318278.0 304994.0 0
335045.0 304665.0 0
342101.0 306943.0 0
348027.0 307097.0 0
364943.0 306099.0 0
368691.0 308733.0 0
377600.0 306961.0 0
383597.0 305752.0 0
390690.0 306764.0 0
393964.0 304641.0 0
394399.0 309431.0 0
398809.0 306792.0 0
403236.0 307664.0 0
412976.0 306232.0 0
422388.0 304595.0 0
431773.0 308923.0 0
436080.0 305238.0 0
473827.0 308354.0 0
478880.0 306789.0 0
489239.0 304575.0 0
492521.0 308573.0 0
497266.0 308329.0 0
4198.95 313193.0 0
10165.2 311343.0 0
27252.5 310958.0 0
31965.1 313443.0 0
44551.6 312598.0 0
49617.5 313534.0 0
54909.3 310106.0 0
60744.6 311155.0 0
65233.2 314299.0 0
73247.1 313192.0 0
79797.4 313691.0 0
85759.2 310125.0 0
91010.0 310258.0 0
100409.0 311451.0 0
105708.0 310158.0 0
118044.0 312415.0 0
122206.0 314414.0 0
127597.0 311944.0 0
132697.0 310594.0 0
140009.0 312903.0 0
145853.0 312920.0 0
166524.0 309953.0 0
169946.0 313658.0 0
175196.0 311994.0 0
182125.0 313555.0 0
204255.0 311689.0 0
208503.0 314447.0 0
213013.0 312135.0 0
218428.0 310825.0 0
222796.0 311165.0 0
226659.0 309518.0 0
226392.0 314470.0 0
231898.0 310735.0 0
237321.0 310701.0 0
242505.0 310204.0 0
247184.0 312733.0 0
252148.0 310720.0 0
265983.0 313164.0 0
272525.0 310206.0 0
278409.0 310102.0 0
281542.0 313546.0 0
286604.0 314506.0 0
290951.0 309879.0 0
296224.0 313570.0 0
305456.0 309534.0 0
301897.0 312578.0 0
308861.0 313568.0 0
312811.0 312947.0 0
335177.0 312172.0 0
341691.0 311837.0 0
360423.0 309901.0 0
368277.0 314236.0 0
373639.0 311152.0 0
380959.0 311742.0 0
385630.0 310484.0 0
388242.0 313722.0 0
398411.0 310810.0 0
402468.0 312566.0 0
411664.0 313673.0 0
415149.0 310676.0 0
440796.0 314177.0 0
462565.0 311337.0 0
468005.0 312996.0 0
472750.0 314030.0 0
483291.0 310388.0 0
488293.0 311836.0 0
494690.0 313280.0 0
1396.57 316184.0 0
8211.08 315150.0 0
11918.4 316625.0 0
16619.4 316094.0 0
21754.5 314790.0 0
31750.6 318185.0 0
36111.9 317435.0 0
40529.6 317064.0 0
53511.7 315076.0 0
55082.9 319178.0 0
71070.6 319527.0 0
75981.4 318080.0 0
97591.4 314886.0 0
101262.0 316001.0 0
115988.0 319243.0 0
125707.0 315637.0 0
127453.0 319083.0 0
132217.0 316678.0 0
137709.0 318158.0 0
150246.0 316336.0 0
157949.0 315089.0 0
162385.0 315868.0 0
166757.0 318445.0 0
178322.0 315507.0 0
173828.0 316813.0 0
182578.0 318332.0 0
203611.0 317271.0 0
208343.0 319502.0 0
212188.0 317029.0 0
217005.0 317695.0 0
221540.0 315099.0 0
231042.0 316076.0 0
236958.0 316649.0 0
242603.0 315266.0 0
247344.0 317186.0 0
251025.0 315855.0 0
255662.0 314577.0 0
259251.0 319234.0 0
261566.0 314705.0 0
265047.0 317961.0 0
270016.0 317000.0 0
276284.0 315949.0 0
282357.0 318476.0 0
291655.0 317046.0 0
296078.0 319209.0 0
305260.0 316341.0 0
315851.0 316773.0 0
321608.0 316540.0 0
329672.0 315263.0 0
345721.0 316997.0 0
350533.0 314590.0 0
355714.0 316084.0 0
365233.0 318795.0 0
371514.0 318704.0 0
376826.0 316195.0 0
382983.0 319035.0 0
392773.0 318188.0 0
397327.0 316025.0 0
402414.0 317325.0 0
406830.0 315179.0 0
417627.0 315487.0 0
430432.0 318236.0 0
435876.0 316571.0 0
443743.0 318466.0 0
448497.0 316536.0 0
472922.0 318353.0 0
477904.0 318475.0 0
490331.0 316420.0 0
498185.0 316372.0 0
9024.03 320029.0 0
22141.1 320277.0 0
27556.0 321301.0 0
42506.5 320706.0 0
47221.1 321420.0 0
57767.4 322917.0 0
62118.7 324424.0 0
66580.1 322566.0 0
78232.9 323453.0 0
87177.6 321023.0 0
92596.4 323472.0 0
101304.0 321224.0 0
105416.0 321632.0 0
110427.0 323514.0 0
121376.0 320051.0 0
119859.0 323706.0 0
125026.0 322483.0 0
134374.0 321035.0 0
136926.0 321332.0 0
142940.0 320791.0 0
149278.0 322923.0 0
154955.0 321725.0 0
159503.0 320448.0 0
162950.0 322764.0 0
170964.0 320252.0 0
178098.0 319769.0 0
175791.0 324519.0 0
179935.0 323170.0 0
188425.0 320263.0 0
193809.0 323084.0 0
198217.0 319938.0 0
202913.0 322876.0 0
213343.0 321689.0 0
218065.0 324181.0 0
221910.0 320346.0 0
227484.0 320212.0 0
232927.0 321098.0 0
238304.0 322876.0 0
244018.0 320704.0 0
249420.0 320559.0 0
253932.0 320791.0 0
252008.0 324174.0 0
263814.0 321985.0 0
267991.0 321394.0 0
272670.0 321466.0 0
278011.0 322275.0 0
283170.0 323819.0 0
287547.0 320658.0 0
292485.0 322485.0 0
296839.0 323217.0 0
305798.0 323828.0 0
301383.0 324374.0 0
310186.0 319951.0 0
315912.0 322640.0 0
326129.0 319739.0 0
329885.0 321682.0 0
332766.0 319656.0 0
332502.0 324580.0 0
337497.0 324473.0 0
354804.0 323466.0 0
359390.0 319752.0 0
363529.0 323405.0 0
368250.0 323860.0 0
375763.0 322097.0 0
379842.0 324666.0 0
383935.0 324735.0 0
388117.0 322569.0 0
405524.0 320288.0 0
418256.0 320653.0 0
420703.0 324379.0 0
423877.0 320704.0 0
428710.0 324214.0 0
448865.0 321410.0 0
453540.0 322731.0 0
457751.0 319976.0 0
463509.0 320087.0 0
469551.0 321471.0 0
473869.0 322469.0 0
480010.0 323948.0 0
485101.0 322551.0 0
492549.0 320275.0 0
497345.0 321270.0 0
12432.9 325664.0 0
18261.9 325625.0 0
31572.7 327799.0 0
35807.4 324800.0 0
40409.5 325508.0 0
42563.5 329426.0 0
73236.5 329539.0 0
83627.7 325719.0 0
88025.0 326531.0 0
98112.3 327172.0 0
115498.0 325345.0 0
119756.0 327594.0 0
124322.0 326513.0 0
137186.0 328590.0 0
145130.0 324796.0 0
152637.0 326162.0 0
157044.0 326272.0 0
203858.0 327968.0 0
208409.0 324965.0 0
213662.0 327264.0 0
223586.0 325291.0 0
220691.0 327598.0 0
229058.0 325195.0 0
226299.0 328274.0 0
233899.0 326254.0 0
238199.0 327894.0 0
242527.0 326414.0 0
247738.0 325316.0 0
251490.0 329323.0 0
255722.0 326103.0 0
260655.0 325203.0 0
265221.0 325979.0 0
269722.0 325533.0 0
274709.0 326969.0 0
281330.0 328159.0 0
288121.0 326476.0 0
293555.0 327280.0 0
297745.0 326862.0 0
309203.0 324948.0 0
320548.0 326730.0 0
327915.0 329238.0 0
332244.0 328514.0 0
344487.0 325390.0 0
350089.0 324929.0 0
359342.0 325281.0 0
373783.0 329835.0 0
396224.0 326737.0 0
401114.0 328694.0 0
443848.0 326902.0 0
460614.0 327915.0 0
468386.0 329668.0 0
475351.0 327672.0 0
486287.0 328101.0 0
491602.0 329689.0 0
2385.26 330717.0 0
6006.39 334413.0 0
11457.4 331801.0 0
19755.7 330149.0 0
23726.9 331376.0 0
28043.2 332132.0 0
37894.0 331657.0 0
44669.6 334079.0 0
48901.4 332255.0 0
53337.5 334349.0 0
59411.4 330784.0 0
57735.5 334257.0 0
78992.8 331368.0 0
84814.0 331584.0 0
103476.0 330600.0 0
108327.0 332028.0 0
127047.0 330816.0 0
133529.0 331299.0 0
141682.0 331344.0 0
147366.0 333250.0 0
166764.0 334263.0 0
172721.0 334425.0 0
178009.0 331587.0 0
182816.0 331260.0 0
188845.0 331187.0 0
195076.0 333450.0 0
203990.0 333518.0 0
208092.0 330454.0 0
212485.0 332020.0 0
217770.0 330996.0 0
223047.0 330871.0 0
226899.0 334402.0 0
230333.0 330110.0 0
232153.0 334934.0 0
235423.0 331181.0 0
240585.0 331347.0 0
245812.0 330872.0 0
251770.0 333900.0 0
256390.0 331160.0 0
259934.0 334188.0 0
262263.0 330034.0 0
264647.0 334876.0 0
267758.0 330336.0 0
272917.0 332122.0 0
278143.0 331650.0 0
284655.0 331170.0 0
290864.0 331876.0 0
296491.0 331694.0 0
320417.0 332323.0 0
324961.0 332247.0 0
339112.0 334438.0 0
349617.0 331648.0 0
356286.0 332566.0 0
366109.0 332816.0 0
370489.0 333109.0 0
391305.0 330178.0 0
405441.0 330812.0 0
410203.0 332733.0 0
415232.0 331215.0 0
420447.0 331865.0 0
424465.0 334711.0 0
429055.0 334261.0 0
436061.0 332675.0 0
441300.0 331167.0 0
447423.0 330754.0 0
452098.0 332534.0 0
463371.0 332235.0 0
472620.0 332565.0 0
478625.0 332832.0 0
482264.0 330463.0 0
488314.0 331972.0 0
497634.0 333506.0 0
10345.6 337227.0 0
14356.5 338161.0 0
17628.4 335846.0 0
21198.9 338031.0 0
31549.5 335105.0 0
81396.5 335686.0 0
88732.2 336923.0 0
94616.0 337627.0 0
115852.0 338132.0 0
124424.0 339454.0 0
131487.0 335349.0 0
129417.0 339767.0 0
151889.0 337013.0 0
157006.0 335606.0 0
162148.0 335304.0 0
209013.0 335696.0 0
204557.0 339290.0 0
215411.0 336648.0 0
220821.0 335264.0 0
223916.0 338314.0 0
233651.0 339309.0 0
237585.0 335926.0 0
242714.0 335072.0 0
241577.0 339344.0 0
247676.0 336790.0 0
255608.0 336343.0 0
260840.0 339919.0 0
269294.0 334959.0 0
267627.0 339796.0 0
275633.0 336909.0 0
282052.0 336484.0 0
288342.0 337026.0 0
294131.0 336954.0 0
307859.0 335938.0 0
313339.0 337498.0 0
318165.0 336580.0 0
333604.0 338017.0 0
344315.0 336581.0 0
348224.0 338548.0 0
361855.0 335379.0 0
373349.0 336112.0 0
375332.0 339479.0 0
382120.0 336177.0 0
377846.0 336714.0 0
386421.0 336405.0 0
412280.0 339219.0 0
425508.0 338654.0 0
434661.0 337676.0 0
439140.0 339480.0 0
444448.0 337187.0 0
456662.0 337635.0 0
461427.0 339083.0 0
475464.0 335851.0 0
478873.0 338516.0 0
484076.0 336919.0 0
2520.43 342907.0 0
23712.7 341379.0 0
27712.7 342293.0 0
35470.8 344984.0 0
38957.8 343363.0 0
64003.3 343492.0 0
69034.9 343404.0 0
73587.4 340801.0 0
78890.1 342628.0 0
83595.1 345079.0 0
99836.4 340662.0 0
106851.0 343777.0 0
111993.0 343244.0 0
115838.0 343894.0 0
132091.0 343179.0 0
137331.0 341346.0 0
141484.0 342983.0 0
173534.0 343004.0 0
178121.0 341619.0 0
182877.0 340166.0 0
190151.0 340384.0 0
198863.0 341815.0 0
194183.0 343622.0 0
206177.0 343773.0 0
209849.0 340663.0 0
214302.0 342373.0 0
219388.0 340546.0 0
223642.0 342872.0 0
228572.0 340203.0 0
232415.0 343797.0 0
237523.0 341826.0 0
241317.0 345122.0 0
249642.0 341559.0 0
245273.0 342185.0 0
254558.0 341803.0 0
268059.0 345004.0 0
273065.0 341929.0 0
278602.0 341796.0 0
282913.0 341453.0 0
286557.0 341610.0 0
290984.0 341463.0 0
295763.0 342269.0 0
304833.0 340366.0 0
320801.0 343826.0 0
326082.0 342811.0 0
339966.0 343818.0 0
345237.0 341098.0 0
344226.0 345044.0 0
348323.0 342878.0 0
353398.0 344050.0 0
387759.0 343109.0 0
391971.0 344307.0 0
396070.0 341364.0 0
405148.0 341384.0 0
416387.0 340874.0 0
422843.0 343539.0 0
431748.0 341671.0 0
448734.0 344768.0 0
452878.0 341093.0 0
457920.0 342590.0 0
465643.0 341135.0 0
488519.0 344857.0 0
493893.0 343543.0 0
31330.3 345398.0 0
58276.5 348129.0 0
62760.5 348280.0 0
79117.6 347447.0 0
85357.4 349750.0 0
102136.0 345391.0 0
118035.0 347409.0 0
122579.0 345528.0 0
182265.0 349436.0 0
187621.0 345820.0 0
186511.0 349521.0 0
204365.0 346868.0 0
210219.0 345267.0 0
219003.0 345428.0 0
214477.0 347184.0 0
219178.0 350117.0 0
223352.0 347641.0 0
227929.0 345839.0 0
236334.0 346882.0 0
241642.0 350199.0 0
246229.0 347382.0 0
251087.0 345655.0 0
251274.0 350214.0 0
256311.0 347777.0 0
262867.0 346621.0 0
272162.0 347046.0 0
276991.0 346719.0 0
282225.0 346217.0 0
286557.0 345286.0 0
288252.0 348874.0 0
292294.0 346017.0 0
296340.0 345771.0 0
296132.0 348996.0 0
334097.0 348063.0 0
338749.0 347025.0 0
367860.0 349961.0 0
377578.0 345583.0 0
383309.0 347718.0 0
388742.0 350176.0 0
417562.0 345267.0 0
429251.0 346313.0 0
440415.0 347263.0 0
444373.0 346340.0 0
449043.0 349818.0 0
472532.0 349946.0 0
476982.0 349396.0 0
483950.0 346987.0 0
23860.2 352045.0 0
57656.8 354811.0 0
89677.3 350918.0 0
114635.0 351114.0 0
119205.0 351569.0 0
148593.0 350688.0 0
154063.0 351765.0 0
160451.0 352479.0 0
172783.0 353015.0 0
177642.0 351248.0 0
175845.0 354887.0 0
204019.0 351324.0 0
209798.0 350718.0 0
215122.0 351573.0 0
216932.0 355098.0 0
222797.0 352099.0 0
226797.0 350616.0 0
232155.0 350990.0 0
237505.0 351169.0 0
247333.0 352336.0 0
251622.0 354761.0 0
257637.0 352534.0 0
261115.0 351636.0 0
267893.0 350493.0 0
273122.0 351473.0 0
270767.0 355063.0 0
279226.0 351024.0 0
276127.0 355278.0 0
284057.0 351162.0 0
287809.0 353178.0 0
292256.0 351490.0 0
295712.0 354470.0 0
343860.0 352371.0 0
347413.0 354857.0 0
354633.0 352384.0 0
362728.0 351553.0 0
374256.0 350296.0 0
378320.0 354072.0 0
441465.0 353455.0 0
447200.0 353850.0 0
487877.0 352551.0 0
496741.0 355065.0 0
18980.9 355960.0 0
24601.3 357171.0 0
29372.6 358345.0 0
34198.8 360305.0 0
41944.7 358523.0 0
46285.1 356479.0 0
59419.7 358713.0 0
125705.0 359416.0 0
131308.0 358070.0 0
136308.0 357939.0 0
164978.0 356208.0 0
169679.0 357411.0 0
203274.0 357096.0 0
207137.0 355503.0 0
212568.0 355663.0 0
216051.0 358834.0 0
221054.0 356307.0 0
226491.0 355786.0 0
231423.0 356075.0 0
236727.0 356125.0 0
243000.0 355563.0 0
247804.0 356499.0 0
256137.0 356335.0 0
260902.0 355926.0 0
263548.0 359731.0 0
265900.0 355851.0 0
269620.0 360186.0 0
273804.0 358763.0 0
281418.0 355510.0 0
282425.0 359991.0 0
285807.0 356565.0 0
286249.0 360295.0 0
291046.0 356414.0 0
295544.0 359383.0 0
300720.0 356319.0 0
351113.0 355879.0 0
354750.0 359171.0 0
359569.0 355557.0 0
374379.0 360112.0 0
378180.0 358455.0 0
388980.0 359760.0 0
441425.0 359863.0 0
3000.82 361610.0 0
38189.5 363358.0 0
44756.1 361979.0 0
49720.9 360806.0 0
78998.1 361506.0 0
78850.0 364960.0 0
109528.0 362980.0 0
199037.0 363219.0 0
203607.0 360676.0 0
204536.0 365506.0 0
209625.0 361351.0 0
215020.0 362453.0 0
217613.0 365114.0 0
219965.0 361236.0 0
225151.0 361340.0 0
230502.0 360714.0 0
235416.0 361529.0 0
240020.0 360785.0 0
245807.0 361424.0 0
252781.0 361352.0 0
259149.0 360763.0 0
264994.0 363828.0 0
277544.0 360677.0 0
275509.0 364958.0 0
290606.0 361899.0 0
286380.0 364783.0 0
295350.0 365186.0 0
303317.0 361704.0 0
318205.0 362733.0 0
321222.0 365004.0 0
324319.0 363927.0 0
344872.0 362500.0 0
382647.0 361000.0 0
399809.0 364293.0 0
425901.0 364756.0 0
430527.0 362842.0 0
435600.0 362194.0 0
463934.0 360954.0 0
5576.43 366011.0 0
1502.37 375235.0 0
4320.31 375183.0 0
8277.9 375150.0 0
5152.42 378064.0 0
13477.6 375003.0 0
18501.5 375121.0 0
22708.0 375148.0 0
26453.6 375415.0 0
29895.3 375836.0 0
30674.9 369253.0 0
33326.4 375221.0 0
40981.0 366102.0 0
36200.2 375728.0 0
44411.1 375439.0 0
47584.7 375281.0 0
51277.4 375997.0 0
55307.4 375268.0 0
59298.9 375023.0 0
62996.9 375443.0 0
66016.2 375345.0 0
69742.1 375138.0 0
67124.4 377489.0 0
74896.1 375102.0 0
77837.8 377897.0 0
78979.1 375513.0 0
82234.9 375175.0 0
86809.1 375546.0 0
90907.7 375106.0 0
95784.6 375033.0 0
100421.0 375306.0 0
104619.0 366541.0 0
110817.0 375692.0 0
112205.0 366899.0 0
115614.0 369247.0 0
119343.0 372149.0 0
122914.0 375151.0 0
131405.0 375606.0 0
126950.0 375704.0 0
135651.0 375618.0 0
139585.0 375175.0 0
144027.0 375281.0 0
148270.0 375093.0 0
151733.0 375712.0 0
154877.0 375329.0 0
159233.0 375161.0 0
164137.0 375240.0 0
167870.0 375193.0 0
171282.0 375493.0 0
174552.0 375556.0 0
178682.0 375370.0 0
182090.0 375488.0 0
190517.0 375004.0 0
185878.0 375135.0 0
193529.0 370545.0 0
198749.0 368945.0 0
198799.0 375520.0 0
203757.0 370391.0 0
213877.0 365727.0 0
209744.0 368659.0 0
215568.0 369934.0 0
222179.0 365911.0 0
219953.0 370640.0 0
222857.0 369708.0 0
227340.0 366111.0 0
232824.0 366039.0 0
238450.0 365640.0 0
242878.0 365661.0 0
241946.0 369873.0 0
247474.0 367167.0 0
251320.0 366117.0 0
252170.0 370320.0 0
255277.0 367012.0 0
260300.0 365975.0 0
265641.0 370531.0 0
270332.0 366437.0 0
275373.0 369584.0 0
280895.0 365747.0 0
285529.0 369877.0 0
290379.0 367456.0 0
300437.0 375813.0 0
303651.0 375856.0 0
306624.0 367990.0 0
310866.0 375344.0 0
315029.0 375503.0 0
319320.0 375386.0 0
323474.0 375338.0 0
327614.0 375301.0 0
332011.0 375437.0 0
337261.0 375050.0 0
342484.0 375620.0 0
346794.0 376109.0 0
350189.0 370550.0 0
355522.0 372318.0 0
359032.0 375264.0 0
363666.0 375134.0 0
368512.0 375179.0 0
373250.0 375292.0 0
376324.0 375212.0 0
378995.0 375352.0 0
382464.0 375373.0 0
386815.0 375260.0 0
389404.0 369951.0 0
394819.0 367784.0 0
398619.0 375123.0 0
401867.0 375328.0 0
406576.0 366578.0 0
412274.0 366257.0 0
409633.0 375289.0 0
417791.0 373658.0 0
420030.0 366210.0 0
423292.0 375050.0 0
427308.0 376203.0 0
431248.0 375118.0 0
436913.0 375099.0 0
434320.0 376945.0 0
441507.0 375352.0 0
444953.0 375884.0 0
448118.0 375231.0 0
452924.0 375493.0 0
458014.0 375126.0 0
462975.0 375822.0 0
466754.0 367410.0 0
467188.0 375277.0 0
470906.0 368767.0 0
474894.0 375247.0 0
479951.0 375090.0 0
484383.0 375816.0 0
488005.0 375201.0 0
492809.0 375156.0 0
497812.0 375425.0 0
1572.06 377951.0 0
4139.84 381326.0 0
1335.92 380912.0 0
8164.33 380066.0 0
10937.0 377747.0 0
13165.8 380169.0 0
16024.2 377668.0 0
17505.8 381438.0 0
25677.1 378456.0 0
21370.1 378953.0 0
25694.4 381478.0 0
28943.3 378991.0 0
33002.3 378271.0 0
31840.0 381508.0 0
36554.1 379052.0 0
40144.3 375722.0 0
39989.8 380513.0 0
43738.0 378621.0 0
43171.6 381899.0 0
47380.1 378205.0 0
50686.7 379852.0 0
47109.5 381728.0 0
54706.9 379222.0 0
58966.7 378329.0 0
58514.2 382337.0 0
63632.9 379916.0 0
68750.3 380016.0 0
70847.8 377930.0 0
71570.8 381945.0 0
73612.3 379052.0 0
76500.0 380511.0 0
81061.1 378874.0 0
85072.0 379062.0 0
83847.3 382456.0 0
89400.2 379731.0 0
93228.2 377711.0 0
94534.5 381627.0 0
98025.4 378646.0 0
101727.0 379298.0 0
103996.0 375872.0 0
105472.0 379246.0 0
107394.0 375601.0 0
109607.0 379255.0 0
114508.0 375523.0 0
117519.0 376205.0 0
113572.0 379237.0 0
117123.0 380591.0 0
120619.0 377653.0 0
125132.0 380163.0 0
129578.0 379270.0 0
134808.0 378897.0 0
132659.0 379011.0 0
132413.0 381994.0 0
136395.0 381971.0 0
141728.0 378082.0 0
137995.0 378487.0 0
140354.0 381490.0 0
144526.0 379662.0 0
147219.0 378193.0 0
147937.0 381886.0 0
151737.0 379452.0 0
155719.0 378059.0 0
155485.0 381980.0 0
162324.0 378422.0 0
158771.0 379958.0 0
161597.0 381911.0 0
166178.0 378363.0 0
164626.0 381443.0 0
168367.0 381453.0 0
169510.0 378063.0 0
172945.0 379710.0 0
176624.0 377608.0 0
177150.0 379898.0 0
179709.0 382232.0 0
183868.0 378628.0 0
180267.0 378752.0 0
186243.0 381548.0 0
188460.0 378003.0 0
193015.0 377425.0 0
194364.0 380492.0 0
196519.0 377572.0 0
195578.0 375019.0 0
197048.0 380517.0 0
199760.0 378727.0 0
207043.0 374249.0 0
213617.0 375226.0 0
218140.0 375227.0 0
222500.0 375091.0 0
226722.0 371769.0 0
231993.0 371083.0 0
233091.0 375665.0 0
236825.0 370691.0 0
237965.0 375495.0 0
242687.0 374439.0 0
246413.0 371954.0 0
251728.0 374472.0 0
255186.0 371743.0 0
259996.0 371201.0 0
270899.0 372395.0 0
280256.0 371617.0 0
284115.0 375737.0 0
289387.0 373582.0 0
294629.0 371338.0 0
301327.0 379409.0 0
305234.0 381280.0 0
305598.0 378155.0 0
306953.0 375213.0 0
309304.0 380435.0 0
312459.0 378645.0 0
308356.0 377751.0 0
317001.0 379490.0 0
320765.0 381950.0 0
321932.0 378631.0 0
325382.0 378179.0 0
326451.0 380564.0 0
323987.0 381323.0 0
329803.0 378736.0 0
334592.0 378381.0 0
336936.0 380767.0 0
332840.0 381714.0 0
342946.0 378865.0 0
339452.0 378572.0 0
340357.0 381846.0 0
349949.0 378694.0 0
352433.0 375732.0 0
355812.0 376940.0 0
354029.0 381410.0 0
361675.0 377995.0 0
358770.0 380083.0 0
366320.0 379583.0 0
371515.0 378226.0 0
370289.0 381763.0 0
375814.0 377952.0 0
374344.0 381095.0 0
379468.0 378764.0 0
382254.0 381643.0 0
384549.0 378174.0 0
386239.0 381109.0 0
389525.0 378594.0 0
391023.0 375211.0 0
395140.0 376315.0 0
397682.0 381187.0 0
399503.0 378374.0 0
405630.0 375578.0 0
407684.0 378453.0 0
403684.0 378547.0 0
411524.0 378334.0 0
413816.0 375666.0 0
416302.0 378238.0 0
419871.0 376876.0 0
419925.0 380609.0 0
426978.0 380293.0 0
423712.0 379054.0 0
430504.0 378915.0 0
433048.0 379334.0 0
433314.0 381163.0 0
435964.0 379663.0 0
438607.0 377940.0 0
440169.0 381023.0 0
442496.0 378856.0 0
445974.0 379328.0 0
450179.0 378393.0 0
453271.0 380370.0 0
455815.0 378629.0 0
459818.0 379038.0 0
464011.0 379753.0 0
461263.0 382185.0 0
467832.0 379290.0 0
471249.0 376428.0 0
471470.0 381467.0 0
474012.0 378897.0 0
477436.0 378304.0 0
475910.0 382443.0 0
482109.0 378575.0 0
479706.0 380879.0 0
486199.0 378665.0 0
484451.0 382234.0 0
488764.0 382387.0 0
489941.0 378653.0 0
494641.0 379014.0 0
498623.0 379041.0 0
1406.46 383662.0 0
1972.12 386840.0 0
6003.71 384339.0 0
10286.6 385807.0 0
10473.8 382254.0 0
14140.6 383930.0 0
18635.7 385253.0 0
22561.7 383360.0 0
28366.7 382556.0 0
26369.7 385256.0 0
30697.3 386024.0 0
35498.8 383311.0 0
39025.0 383169.0 0
44669.5 384285.0 0
41234.2 384517.0 0
50473.8 382862.0 0
48188.8 385628.0 0
53851.9 382757.0 0
51836.2 385414.0 0
54993.8 387299.0 0
56233.9 384530.0 0
59157.2 386329.0 0
62816.7 384505.0 0
67264.9 383294.0 0
70566.7 385663.0 0
66331.1 387097.0 0
75079.1 384354.0 0
79914.7 382932.0 0
78962.1 387198.0 0
83561.2 386320.0 0
87033.8 383120.0 0
90986.8 384150.0 0
87504.2 386455.0 0
95618.1 385836.0 0
98914.8 382439.0 0
100036.0 386083.0 0
102662.0 382800.0 0
107154.0 383135.0 0
111467.0 383096.0 0
114828.0 383382.0 0
120948.0 382629.0 0
118175.0 385546.0 0
126914.0 385409.0 0
123735.0 384268.0 0
129148.0 382428.0 0
130750.0 384687.0 0
134420.0 386175.0 0
139768.0 386121.0 0
144085.0 383132.0 0
144630.0 386910.0 0
151641.0 384022.0 0
148094.0 385642.0 0
155847.0 386411.0 0
159174.0 383474.0 0
162667.0 384482.0 0
160497.0 386807.0 0
166146.0 384997.0 0
170798.0 384244.0 0
175598.0 384202.0 0
182446.0 382154.0 0
184067.0 384825.0 0
180395.0 386285.0 0
187815.0 385363.0 0
190590.0 381451.0 0
193650.0 383355.0 0
191372.0 385347.0 0
196502.0 383722.0 0
199547.0 382598.0 0
203399.0 376597.0 0
204239.0 380194.0 0
209703.0 378423.0 0
218293.0 379890.0 0
222713.0 380004.0 0
228118.0 377028.0 0
231459.0 380339.0 0
236418.0 380278.0 0
241626.0 379083.0 0
247751.0 376150.0 0
253249.0 380457.0 0
255867.0 375920.0 0
258470.0 380537.0 0
260300.0 376246.0 0
265069.0 375916.0 0
262426.0 379888.0 0
270021.0 377755.0 0
275914.0 375790.0 0
280249.0 378600.0 0
288830.0 379094.0 0
294885.0 377974.0 0
300850.0 383790.0 0
304516.0 384999.0 0
309095.0 384961.0 0
313316.0 382753.0 0
313298.0 386072.0 0
317684.0 385076.0 0
325486.0 383299.0 0
323018.0 384433.0 0
328721.0 383071.0 0
331608.0 385518.0 0
336098.0 384915.0 0
341199.0 385290.0 0
345382.0 381894.0 0
349818.0 383649.0 0
347781.0 386278.0 0
352418.0 385891.0 0
355703.0 386090.0 0
358139.0 383600.0 0
362696.0 382953.0 0
367633.0 384661.0 0
372585.0 384483.0 0
377468.0 383006.0 0
380710.0 385731.0 0
384910.0 384691.0 0
389427.0 383568.0 0
393944.0 381046.0 0
398194.0 385156.0 0
401869.0 382304.0 0
402101.0 386341.0 0
405596.0 381170.0 0
409656.0 382174.0 0
413753.0 380882.0 0
417396.0 383435.0 0
413396.0 384953.0 0
423004.0 383094.0 0
426479.0 384010.0 0
430147.0 382625.0 0
433423.0 384501.0 0
436817.0 382743.0 0
437550.0 386523.0 0
440405.0 384580.0 0
443924.0 383325.0 0
449192.0 382970.0 0
453756.0 383686.0 0
451780.0 386912.0 0
457343.0 382250.0 0
456677.0 386944.0 0
463941.0 383545.0 0
460431.0 384883.0 0
463226.0 386374.0 0
467115.0 383073.0 0
470217.0 384810.0 0
473478.0 385931.0 0
477589.0 385692.0 0
480455.0 384258.0 0
484072.0 386134.0 0
488646.0 386605.0 0
492798.0 382453.0 0
493990.0 386283.0 0
497854.0 382563.0 0
498343.0 386396.0 0
1904.31 390770.0 0
6248.09 389097.0 0
14523.8 388071.0 0
10340.1 389370.0 0
19346.4 389064.0 0
23123.3 387424.0 0
22743.6 391961.0 0
27015.2 389225.0 0
34482.2 387636.0 0
31814.5 391321.0 0
38224.5 386955.0 0
36935.6 390974.0 0
41014.7 387615.0 0
43936.0 387808.0 0
40763.6 390367.0 0
47463.8 389805.0 0
51154.1 388858.0 0
54162.2 391172.0 0
58400.3 390309.0 0
62628.9 388955.0 0
69767.2 389014.0 0
66395.0 391741.0 0
71250.5 392209.0 0
74267.7 388819.0 0
78325.3 390626.0 0
82177.6 389975.0 0
86333.9 389563.0 0
91236.1 388883.0 0
96775.6 390080.0 0
101679.0 390026.0 0
104566.0 386387.0 0
106681.0 390139.0 0
109211.0 386723.0 0
110657.0 390438.0 0
113912.0 387674.0 0
116321.0 391281.0 0
119118.0 389428.0 0
122508.0 387341.0 0
126124.0 390007.0 0
122611.0 391646.0 0
130207.0 388252.0 0
137079.0 390131.0 0
133280.0 390380.0 0
142651.0 390728.0 0
147740.0 389398.0 0
151402.0 387966.0 0
151270.0 391584.0 0
154363.0 390193.0 0
158997.0 390681.0 0
162638.0 392118.0 0
163754.0 388621.0 0
166529.0 391736.0 0
168681.0 388053.0 0
172633.0 387604.0 0
171881.0 391709.0 0
176088.0 388905.0 0
176333.0 392452.0 0
180144.0 390689.0 0
184885.0 389027.0 0
189705.0 388588.0 0
192672.0 391331.0 0
194423.0 387431.0 0
198014.0 391601.0 0
199124.0 386679.0 0
204682.0 385897.0 0
208598.0 382696.0 0
213374.0 380914.0 0
218196.0 384669.0 0
222198.0 384758.0 0
226670.0 381555.0 0
225798.0 386069.0 0
230769.0 385823.0 0
236537.0 385496.0 0
242386.0 385401.0 0
247101.0 381260.0 0
252045.0 385319.0 0
256537.0 385119.0 0
261410.0 384813.0 0
266454.0 381756.0 0
273852.0 381112.0 0
271393.0 385143.0 0
278209.0 381988.0 0
282215.0 381542.0 0
282151.0 386101.0 0
285827.0 383085.0 0
289921.0 383744.0 0
294900.0 384674.0 0
305482.0 387683.0 0
301586.0 388257.0 0
305498.0 391107.0 0
308248.0 388934.0 0
309850.0 391665.0 0
315009.0 388381.0 0
311678.0 388568.0 0
318489.0 390256.0 0
321729.0 387786.0 0
326879.0 387602.0 0
332277.0 389227.0 0
336423.0 390165.0 0
338776.0 387410.0 0
340894.0 390050.0 0
344419.0 386965.0 0
347146.0 389305.0 0
344822.0 390647.0 0
350366.0 388983.0 0
354029.0 388741.0 0
357173.0 390298.0 0
359812.0 387031.0 0
362207.0 391580.0 0
364045.0 387123.0 0
367022.0 389086.0 0
370555.0 387157.0 0
371107.0 391375.0 0
375752.0 388004.0 0
380436.0 389959.0 0
383550.0 388233.0 0
387759.0 388541.0 0
383966.0 391643.0 0
393483.0 386665.0 0
397515.0 388938.0 0
395510.0 390699.0 0
400772.0 389294.0 0
405803.0 385397.0 0
404476.0 389418.0 0
408306.0 389456.0 0
409798.0 386187.0 0
412605.0 389073.0 0
416648.0 387685.0 0
420689.0 386034.0 0
420047.0 389951.0 0
424709.0 387665.0 0
427622.0 390791.0 0
429344.0 386931.0 0
430700.0 390520.0 0
433778.0 388404.0 0
437840.0 390453.0 0
442237.0 388289.0 0
446715.0 387168.0 0
449686.0 390177.0 0
453826.0 390692.0 0
457843.0 391087.0 0
460649.0 388331.0 0
461142.0 391529.0 0
467027.0 386824.0 0
464541.0 389885.0 0
468650.0 391299.0 0
470527.0 388058.0 0
473066.0 390246.0 0
476196.0 388384.0 0
477561.0 392294.0 0
480611.0 388298.0 0
481938.0 391764.0 0
484964.0 389288.0 0
488482.0 390498.0 0
485610.0 392917.0 0
492545.0 390326.0 0
497777.0 390251.0 0
1448.27 394401.0 0
8867.75 392114.0 0
5561.47 393769.0 0
9753.23 395039.0 0
12130.7 392096.0 0
13033.8 395711.0 0
16628.5 392540.0 0
20037.9 394910.0 0
22619.4 397024.0 0
26823.2 394062.0 0
31448.1 396830.0 0
40047.6 394072.0 0
35881.5 394874.0 0
37924.7 396560.0 0
44203.6 392335.0 0
44208.0 396117.0 0
50011.1 394254.0 0
56799.8 394470.0 0
61083.5 396817.0 0
61769.0 393086.0 0
65195.1 395760.0 0
69186.7 395569.0 0
75648.6 392923.0 0
73053.6 395006.0 0
76606.0 396730.0 0
80450.7 394332.0 0
84737.6 392657.0 0
85140.7 396855.0 0
88423.5 392772.0 0
89619.4 396262.0 0
93287.1 393508.0 0
95952.8 396082.0 0
99069.6 394459.0 0
104194.0 394568.0 0
109203.0 393923.0 0
113157.0 392621.0 0
116909.0 394759.0 0
119467.0 392563.0 0
121832.0 396106.0 0
126226.0 394292.0 0
129756.0 392419.0 0
129735.0 396092.0 0
133986.0 394507.0 0
138915.0 393739.0 0
147238.0 393305.0 0
143224.0 396196.0 0
147581.0 396877.0 0
151251.0 395312.0 0
155367.0 393516.0 0
159937.0 395400.0 0
164213.0 394968.0 0
168641.0 395646.0 0
178831.0 394231.0 0
174343.0 396716.0 0
183261.0 393831.0 0
179875.0 397222.0 0
187964.0 392377.0 0
187182.0 396572.0 0
191335.0 395486.0 0
194847.0 394673.0 0
196844.0 396228.0 0
199383.0 395664.0 0
208987.0 388237.0 0
213565.0 386129.0 0
247902.0 386813.0 0
266226.0 387585.0 0
276567.0 387073.0 0
287373.0 387969.0 0
292218.0 389057.0 0
296217.0 390379.0 0
301218.0 392349.0 0
304704.0 394770.0 0
301352.0 397196.0 0
307929.0 394333.0 0
311236.0 395339.0 0
314303.0 392254.0 0
315434.0 396347.0 0
318775.0 394137.0 0
323391.0 392152.0 0
322112.0 396072.0 0
325938.0 396376.0 0
328918.0 392949.0 0
333904.0 393813.0 0
338302.0 394012.0 0
342801.0 393958.0 0
347857.0 393146.0 0
353111.0 392951.0 0
357869.0 394110.0 0
361410.0 395657.0 0
366471.0 392699.0 0
364794.0 395969.0 0
368997.0 395750.0 0
375245.0 392693.0 0
373254.0 395612.0 0
376502.0 395267.0 0
378257.0 392736.0 0
381155.0 393358.0 0
379518.0 396048.0 0
386972.0 393077.0 0
383858.0 396174.0 0
391424.0 391966.0 0
388841.0 396035.0 0
393041.0 396407.0 0
395357.0 393723.0 0
397039.0 396462.0 0
398728.0 392749.0 0
406714.0 392033.0 0
403167.0 393387.0 0
406862.0 395396.0 0
410739.0 393565.0 0
415970.0 392320.0 0
420086.0 395210.0 0
423820.0 392063.0 0
426925.0 394052.0 0
424503.0 396008.0 0
429964.0 393832.0 0
433909.0 392644.0 0
437714.0 395047.0 0
441355.0 392414.0 0
443067.0 396045.0 0
445907.0 392245.0 0
447734.0 396670.0 0
450738.0 393903.0 0
455567.0 394384.0 0
459614.0 394719.0 0
461973.0 397113.0 0
464350.0 394085.0 0
468110.0 395245.0 0
472510.0 394409.0 0
477459.0 397119.0 0
481925.0 395699.0 0
486400.0 396477.0 0
490295.0 394509.0 0
498868.0 393694.0 0
495322.0 393881.0 0
498300.0 396865.0 0
2792.55 398590.0 0
7548.48 397629.0 0
7859.48 401705.0 0
11265.3 398902.0 0
16891.4 398926.0 0
21913.2 401402.0 0
26433.0 398876.0 0
30681.1 402172.0 0
35858.3 399578.0 0
40568.9 398382.0 0
44722.1 401438.0 0
47051.5 398100.0 0
50229.0 400801.0 0
53826.0 397824.0 0
55298.9 402239.0 0
57814.3 398637.0 0
64288.4 399367.0 0
60926.7 402060.0 0
68474.1 400154.0 0
72890.6 398168.0 0
76265.7 399899.0 0
73238.9 402347.0 0
80320.1 399366.0 0
84457.6 401653.0 0
88858.9 400502.0 0
93473.6 398933.0 0
97688.9 398582.0 0
101727.0 399501.0 0
107237.0 398186.0 0
112725.0 397101.0 0
114955.0 401035.0 0
117706.0 398694.0 0
121623.0 401215.0 0
126810.0 399383.0 0
132723.0 399695.0 0
138036.0 398176.0 0
142301.0 401035.0 0
146089.0 399742.0 0
150488.0 399951.0 0
155137.0 397499.0 0
154532.0 401355.0 0
159059.0 400154.0 0
164357.0 399286.0 0
169420.0 400246.0 0
173344.0 401327.0 0
177452.0 400722.0 0
183861.0 397840.0 0
182072.0 400874.0 0
186396.0 400597.0 0
190601.0 399576.0 0
194515.0 398061.0 0
198336.0 399246.0 0
302416.0 401665.0 0
307274.0 398992.0 0
312382.0 398706.0 0
315974.0 400255.0 0
319142.0 398115.0 0
320040.0 401811.0 0
323066.0 399300.0 0
331053.0 397921.0 0
326854.0 399799.0 0
336010.0 397544.0 0
340463.0 397342.0 0
338401.0 400521.0 0
345129.0 397270.0 0
342386.0 400948.0 0
350171.0 397255.0 0
347392.0 401350.0 0
354843.0 397402.0 0
352340.0 401575.0 0
359117.0 397388.0 0
357705.0 401602.0 0
362701.0 399348.0 0
366974.0 399390.0 0
371473.0 399145.0 0
369554.0 402205.0 0
376212.0 399065.0 0
380520.0 399740.0 0
383771.0 400693.0 0
386868.0 399480.0 0
391010.0 400426.0 0
395165.0 399056.0 0
400690.0 396357.0 0
399111.0 400247.0 0
404310.0 398729.0 0
409842.0 399304.0 0
414451.0 396924.0 0
414464.0 401408.0 0
418089.0 399361.0 0
423069.0 399776.0 0
428098.0 397572.0 0
432804.0 396727.0 0
431405.0 400285.0 0
436530.0 400262.0 0
439863.0 397711.0 0
441257.0 399702.0 0
444844.0 400145.0 0
452841.0 397786.0 0
449546.0 401002.0 0
457757.0 398788.0 0
454574.0 402161.0 0
462068.0 400834.0 0
465402.0 398002.0 0
466677.0 402014.0 0
469393.0 398593.0 0
473310.0 398751.0 0
476227.0 401486.0 0
484421.0 399257.0 0
480408.0 401009.0 0
489342.0 399139.0 0
490002.0 402467.0 0
494001.0 397888.0 0
493184.0 401686.0 0
497678.0 400593.0 0
2907.56 404307.0 0
8387.58 406712.0 0
12505.0 403225.0 0
17670.2 404471.0 0
22505.6 406185.0 0
25787.7 403197.0 0
27492.5 406711.0 0
31447.4 406721.0 0
35376.6 404578.0 0
39989.7 403259.0 0
43887.1 406987.0 0
47710.9 404871.0 0
51536.4 405465.0 0
55318.6 406278.0 0
58679.2 405414.0 0
65143.3 403391.0 0
69084.6 405746.0 0
74790.7 406613.0 0
77687.6 402933.0 0
81134.3 403332.0 0
79536.5 406454.0 0
83912.3 405996.0 0
88136.9 404758.0 0
91331.7 406991.0 0
92773.7 403467.0 0
96141.1 406983.0 0
97384.3 402495.0 0
101324.0 405145.0 0
105105.0 402362.0 0
106426.0 406352.0 0
110423.0 402537.0 0
115178.0 404915.0 0
117880.0 402381.0 0
119599.0 405458.0 0
124920.0 405358.0 0
129479.0 403402.0 0
133558.0 404569.0 0
137725.0 402544.0 0
142013.0 405217.0 0
138005.0 406904.0 0
146808.0 403761.0 0
151763.0 404768.0 0
156870.0 404765.0 0
162359.0 404422.0 0
166403.0 403165.0 0
166261.0 406229.0 0
170214.0 405080.0 0
175064.0 404603.0 0
177348.0 407560.0 0
179812.0 404310.0 0
184647.0 404348.0 0
189439.0 403962.0 0
194673.0 402653.0 0
198119.0 406382.0 0
199102.0 402898.0 0
301590.0 406179.0 0
307009.0 404851.0 0
311610.0 402658.0 0
316175.0 404675.0 0
320891.0 406206.0 0
324640.0 403329.0 0
329612.0 402453.0 0
327945.0 406384.0 0
334474.0 402135.0 0
332009.0 405193.0 0
335539.0 406890.0 0
338980.0 404365.0 0
343994.0 405652.0 0
349525.0 406093.0 0
354718.0 406069.0 0
361844.0 402620.0 0
360638.0 407009.0 0
365512.0 403664.0 0
370208.0 406304.0 0
373647.0 403117.0 0
375853.0 407031.0 0
378066.0 403256.0 0
382075.0 403651.0 0
379821.0 406823.0 0
386582.0 403844.0 0
391071.0 404948.0 0
395181.0 402622.0 0
394917.0 406191.0 0
402872.0 403018.0 0
398946.0 405426.0 0
407327.0 404046.0 0
411671.0 403436.0 0
414560.0 404761.0 0
418706.0 403713.0 0
427481.0 401736.0 0
423981.0 404616.0 0
430433.0 403142.0 0
428728.0 406070.0 0
433275.0 403622.0 0
436984.0 405157.0 0
441227.0 403237.0 0
445945.0 404468.0 0
443632.0 407398.0 0
451284.0 405916.0 0
458625.0 403327.0 0
455908.0 405595.0 0
463182.0 405025.0 0
459561.0 407395.0 0
467701.0 406566.0 0
471872.0 403302.0 0
477312.0 405725.0 0
482199.0 404676.0 0
486270.0 402985.0 0
485483.0 406985.0 0
491003.0 407067.0 0
495384.0 404140.0 0
498577.0 404064.0 0
3518.55 409862.0 0
8797.61 411330.0 0
13564.4 408511.0 0
18579.9 408354.0 0
21353.1 409891.0 0
25186.7 410122.0 0
30274.3 411291.0 0
34493.4 408861.0 0
38978.6 408389.0 0
44750.3 411288.0 0
48577.7 409289.0 0
53301.0 409533.0 0
57918.3 408985.0 0
60317.8 411661.0 0
63057.5 407536.0 0
67235.5 410286.0 0
71488.3 410228.0 0
74667.7 410146.0 0
78099.5 410301.0 0
82383.2 410149.0 0
87437.2 409528.0 0
92421.8 410494.0 0
99962.7 409045.0 0
97094.6 411559.0 0
103747.0 409439.0 0
111281.0 407796.0 0
107714.0 409981.0 0
116479.0 409443.0 0
121425.0 409070.0 0
125345.0 410848.0 0
129774.0 408162.0 0
134422.0 408398.0 0
133361.0 411385.0 0
141545.0 409780.0 0
137347.0 411081.0 0
145470.0 407907.0 0
146913.0 412033.0 0
149770.0 408513.0 0
154482.0 409004.0 0
159128.0 408430.0 0
160061.0 412356.0 0
163506.0 409149.0 0
173270.0 408913.0 0
168533.0 410305.0 0
177086.0 411395.0 0
181836.0 408529.0 0
187502.0 408401.0 0
184744.0 411988.0 0
193076.0 408201.0 0
198110.0 410902.0 0
304951.0 408839.0 0
301545.0 411082.0 0
308039.0 409478.0 0
311873.0 407980.0 0
313771.0 412033.0 0
317169.0 409415.0 0
324541.0 407631.0 0
322008.0 410634.0 0
331377.0 409256.0 0
326626.0 410840.0 0
335443.0 411800.0 0
339947.0 409591.0 0
344434.0 409873.0 0
352149.0 409767.0 0
348047.0 411121.0 0
356676.0 411094.0 0
365769.0 409012.0 0
369721.0 410918.0 0
372973.0 409207.0 0
378769.0 410864.0 0
383468.0 407409.0 0
387958.0 408707.0 0
383813.0 411592.0 0
392436.0 408349.0 0
391633.0 411292.0 0
396614.0 410071.0 0
400247.0 408442.0 0
401590.0 411165.0 0
403402.0 407291.0 0
407755.0 407270.0 0
406947.0 411100.0 0
411253.0 407523.0 0
416271.0 408675.0 0
420902.0 407405.0 0
420544.0 411093.0 0
425240.0 409797.0 0
433088.0 407593.0 0
429769.0 410121.0 0
437236.0 409512.0 0
440416.0 407090.0 0
442317.0 411553.0 0
446871.0 408915.0 0
450696.0 410577.0 0
455231.0 409624.0 0
460693.0 411375.0 0
464115.0 408968.0 0
469046.0 411559.0 0
472228.0 407935.0 0
475110.0 409300.0 0
478069.0 410716.0 0
481674.0 408755.0 0
486126.0 411295.0 0
494244.0 411453.0 0
497413.0 407958.0 0
498020.0 412592.0 0
1646.34 413802.0 0
5632.86 414518.0 0
9235.09 415431.0 0
12898.1 413746.0 0
17794.0 412489.0 0
19792.0 416019.0 0
16438.5 417070.0 0
22304.0 413168.0 0
22987.1 416944.0 0
26106.5 414128.0 0
29018.4 415029.0 0
32118.0 416239.0 0
36053.1 413111.0 0
39847.8 416734.0 0
41153.4 412552.0 0
44408.8 415636.0 0
47559.8 413190.0 0
48726.6 416462.0 0
51450.7 413498.0 0
56197.7 412993.0 0
59767.0 415833.0 0
63936.3 413212.0 0
69521.8 415524.0 0
74931.2 413580.0 0
79952.1 415007.0 0
84661.1 413289.0 0
84651.1 417012.0 0
88998.6 414600.0 0
94007.1 414191.0 0
101311.0 412973.0 0
97992.9 416280.0 0
105985.0 413406.0 0
111334.0 412848.0 0
116595.0 414653.0 0
112910.0 417311.0 0
121284.0 412966.0 0
125131.0 415851.0 0
129600.0 413516.0 0
135294.0 416210.0 0
140378.0 414133.0 0
143458.0 412495.0 0
144312.0 415862.0 0
151607.0 412570.0 0
148730.0 416196.0 0
155821.0 412895.0 0
153554.0 416973.0 0
161769.0 416078.0 0
158061.0 416035.0 0
164620.0 413304.0 0
165187.0 417173.0 0
172632.0 413831.0 0
168289.0 415094.0 0
177702.0 416588.0 0
180994.0 413021.0 0
183962.0 416520.0 0
188292.0 417850.0 0
188962.0 413407.0 0
191500.0 416794.0 0
193875.0 413635.0 0
198062.0 416081.0 0
194380.0 417743.0 0
305609.0 412460.0 0
301952.0 415201.0 0
309749.0 412590.0 0
306835.0 417145.0 0
312543.0 416188.0 0
318375.0 414911.0 0
324238.0 414661.0 0
330426.0 414353.0 0
335014.0 415982.0 0
339199.0 414740.0 0
343670.0 413568.0 0
347770.0 415895.0 0
352226.0 413904.0 0
362009.0 412802.0 0
357438.0 416593.0 0
366527.0 413234.0 0
362475.0 417418.0 0
367057.0 417398.0 0
369968.0 414464.0 0
373931.0 412834.0 0
377194.0 415787.0 0
380977.0 414516.0 0
384573.0 416268.0 0
388297.0 413590.0 0
393683.0 415326.0 0
398760.0 414108.0 0
403271.0 416069.0 0
412527.0 412600.0 0
409071.0 416483.0 0
417393.0 414025.0 0
423096.0 415496.0 0
428277.0 413948.0 0
433256.0 412683.0 0
437823.0 413078.0 0
436203.0 416443.0 0
439992.0 415453.0 0
447344.0 413451.0 0
443814.0 416767.0 0
452580.0 414699.0 0
457297.0 413690.0 0
461365.0 416400.0 0
464337.0 412830.0 0
466778.0 416501.0 0
474242.0 412709.0 0
471632.0 416422.0 0
477952.0 413925.0 0
476149.0 416649.0 0
481640.0 413349.0 0
481536.0 417639.0 0
485475.0 415666.0 0
490429.0 413035.0 0
494123.0 415384.0 0
489755.0 417297.0 0
497965.0 416370.0 0
2425.35 417832.0 0
7257.05 419447.0 0
12068.8 418404.0 0
19943.2 420116.0 0
15378.9 421429.0 0
23816.0 420499.0 0
27732.7 418793.0 0
32733.7 420809.0 0
35866.4 417937.0 0
38419.7 421933.0 0
42574.5 419524.0 0
46502.6 419700.0 0
50399.3 419420.0 0
54605.7 417830.0 0
59620.0 420624.0 0
64055.1 418121.0 0
67740.3 420579.0 0
74994.9 417890.0 0
71788.7 420768.0 0
78665.8 420694.0 0
81830.0 418422.0 0
83541.8 421324.0 0
87971.2 419990.0 0
93089.1 418806.0 0
98055.3 422070.0 0
103108.0 418168.0 0
108744.0 417494.0 0
111889.0 421485.0 0
107118.0 422197.0 0
116153.0 419604.0 0
120698.0 417795.0 0
119950.0 422591.0 0
124529.0 421153.0 0
129736.0 419450.0 0
135270.0 422587.0 0
140655.0 419254.0 0
145769.0 419937.0 0
149853.0 419853.0 0
157546.0 419853.0 0
153423.0 422222.0 0
161947.0 420033.0 0
167125.0 420939.0 0
170847.0 418158.0 0
174139.0 419241.0 0
176973.0 421558.0 0
181082.0 420143.0 0
185790.0 421774.0 0
191418.0 421054.0 0
197228.0 421470.0 0
301899.0 419173.0 0
311062.0 420472.0 0
306924.0 422344.0 0
315949.0 420340.0 0
322076.0 418838.0 0
324525.0 422218.0 0
327135.0 418435.0 0
332239.0 419355.0 0
337955.0 419887.0 0
343235.0 418059.0 0
352080.0 418608.0 0
347514.0 420608.0 0
355946.0 421426.0 0
360239.0 421134.0 0
364379.0 420842.0 0
372482.0 418180.0 0
368718.0 422113.0 0
376866.0 419768.0 0
380679.0 418483.0 0
384446.0 421162.0 0
389072.0 418803.0 0
394084.0 421549.0 0
398162.0 418388.0 0
401344.0 421273.0 0
406079.0 420744.0 0
410753.0 421136.0 0
414170.0 417819.0 0
418793.0 418129.0 0
422049.0 420864.0 0
426485.0 419491.0 0
431303.0 417938.0 0
435369.0 420329.0 0
439715.0 419818.0 0
444400.0 421781.0 0
448648.0 418471.0 0
452852.0 419049.0 0
456391.0 418046.0 0
459622.0 421174.0 0
464356.0 420919.0 0
469345.0 420729.0 0
473944.0 420573.0 0
478148.0 420030.0 0
481680.0 422391.0 0
485785.0 420099.0 0
493691.0 419137.0 0
490388.0 422546.0 0
494622.0 422702.0 0
497755.0 420367.0 0
2750.94 422816.0 0
1134.91 426474.0 0
7287.12 423888.0 0
9879.76 427223.0 0
11071.6 422725.0 0
14618.8 426136.0 0
18632.9 424025.0 0
23086.7 424209.0 0
28567.1 424269.0 0
33999.7 425499.0 0
38588.3 427124.0 0
43844.7 423807.0 0
49350.4 423493.0 0
54895.4 423613.0 0
60055.8 425750.0 0
64239.5 422952.0 0
69300.2 425034.0 0
74836.9 424270.0 0
80959.4 425311.0 0
86833.0 425736.0 0
92465.8 424093.0 0
96055.4 427427.0 0
100664.0 426683.0 0
102929.0 423271.0 0
105569.0 427093.0 0
110094.0 425594.0 0
115685.0 423585.0 0
114091.0 427398.0 0
118120.0 426287.0 0
122242.0 426583.0 0
128375.0 426176.0 0
134021.0 427254.0 0
139559.0 422985.0 0
139047.0 425952.0 0
143163.0 424030.0 0
145655.0 427408.0 0
148420.0 424170.0 0
158453.0 424995.0 0
163592.0 424144.0 0
167735.0 426201.0 0
172191.0 423065.0 0
176427.0 425845.0 0
180946.0 424418.0 0
185191.0 427056.0 0
189204.0 425148.0 0
193528.0 425847.0 0
198069.0 426738.0 0
302415.0 423603.0 0
310988.0 425058.0 0
306278.0 426476.0 0
315807.0 424961.0 0
320121.0 423283.0 0
324977.0 427094.0 0
328986.0 423125.0 0
333885.0 424086.0 0
338315.0 425199.0 0
342871.0 423326.0 0
351833.0 423547.0 0
347507.0 425457.0 0
356800.0 426471.0 0
363257.0 425775.0 0
374179.0 423843.0 0
379757.0 422912.0 0
383705.0 425774.0 0
388936.0 424625.0 0
393634.0 426277.0 0
398345.0 425102.0 0
403613.0 425361.0 0
408137.0 424732.0 0
412753.0 425606.0 0
417108.0 422415.0 0
421169.0 425452.0 0
425599.0 424199.0 0
429561.0 422433.0 0
429340.0 426327.0 0
434029.0 424737.0 0
439989.0 425228.0 0
445326.0 427041.0 0
449143.0 423551.0 0
454777.0 423495.0 0
461884.0 426206.0 0
466929.0 424581.0 0
471800.0 425470.0 0
477055.0 424263.0 0
481335.0 427127.0 0
485608.0 424769.0 0
489311.0 427390.0 0
493781.0 426312.0 0
497877.0 424698.0 0
4855.51 427754.0 0
1181.39 428996.0 0
2498.03 432219.0 0
7955.84 431920.0 0
13069.2 431047.0 0
19791.1 428881.0 0
25495.7 428715.0 0
30411.5 429114.0 0
35089.4 430551.0 0
39622.2 431499.0 0
42777.4 428594.0 0
43405.9 432705.0 0
47046.7 427751.0 0
51803.4 428206.0 0
54421.9 432607.0 0
56347.2 428524.0 0
60407.8 431145.0 0
64723.1 427993.0 0
68753.3 429903.0 0
72864.5 428870.0 0
75616.2 432684.0 0
77467.4 428418.0 0
82568.7 430970.0 0
91517.9 428540.0 0
88116.4 431046.0 0
94254.5 432169.0 0
99429.8 431312.0 0
104745.0 432511.0 0
109955.0 430480.0 0
114538.0 431671.0 0
118993.0 430507.0 0
124069.0 430831.0 0
132420.0 431226.0 0
128134.0 432141.0 0
137407.0 430001.0 0
142080.0 428730.0 0
146193.0 431835.0 0
148549.0 428278.0 0
151080.0 432313.0 0
152863.0 427738.0 0
157693.0 431035.0 0
162867.0 428914.0 0
167256.0 431040.0 0
172471.0 429349.0 0
176969.0 429301.0 0
176975.0 432920.0 0
180645.0 429625.0 0
184629.0 431532.0 0
189881.0 430469.0 0
195353.0 430157.0 0
198307.0 432901.0 0
302022.0 428201.0 0
305675.0 430960.0 0
301637.0 432231.0 0
309421.0 429178.0 0
313921.0 429309.0 0
319255.0 428528.0 0
322952.0 432087.0 0
330502.0 427827.0 0
327717.0 431993.0 0
335750.0 428718.0 0
332563.0 432164.0 0
341549.0 429658.0 0
346874.0 429482.0 0
351337.0 428652.0 0
355244.0 432109.0 0
360414.0 431168.0 0
365390.0 431586.0 0
369421.0 427835.0 0
373455.0 431991.0 0
378708.0 428874.0 0
386425.0 429405.0 0
391161.0 429872.0 0
396369.0 430090.0 0
401292.0 429437.0 0
404806.0 428985.0 0
408683.0 429431.0 0
417225.0 427571.0 0
413664.0 430665.0 0
421053.0 429988.0 0
426035.0 429404.0 0
431887.0 430275.0 0
436740.0 429160.0 0
441298.0 430835.0 0
446449.0 431799.0 0
451079.0 428929.0 0
456800.0 428830.0 0
462663.0 431592.0 0
467387.0 429338.0 0
476119.0 429944.0 0
481618.0 432043.0 0
485397.0 428787.0 0
492853.0 431565.0 0
497646.0 428981.0 0
5041.39 435093.0 0
11355.4 436735.0 0
17446.8 434650.0 0
22748.8 433511.0 0
27788.7 433544.0 0
33000.7 435434.0 0
38347.3 436025.0 0
48558.4 433194.0 0
58272.7 436009.0 0
65509.2 433269.0 0
71189.1 433066.0 0
79196.7 435512.0 0
86343.6 434205.0 0
90196.6 434820.0 0
95654.2 437026.0 0
100955.0 436540.0 0
107953.0 435833.0 0
112208.0 435285.0 0
116977.0 435100.0 0
121584.0 434331.0 0
125410.0 435023.0 0
135965.0 435585.0 0
141119.0 433391.0 0
154441.0 435610.0 0
159605.0 436065.0 0
163641.0 433719.0 0
167739.0 435469.0 0
172524.0 435208.0 0
181529.0 434434.0 0
186558.0 435510.0 0
194033.0 435358.0 0
304328.0 435952.0 0
310584.0 434597.0 0
316944.0 433271.0 0
320764.0 436469.0 0
325213.0 435515.0 0
337251.0 434423.0 0
345943.0 433198.0 0
342339.0 435560.0 0
350435.0 433911.0 0
358384.0 435790.0 0
369206.0 432859.0 0
371155.0 435811.0 0
376215.0 435513.0 0
379282.0 434043.0 0
383165.0 433003.0 0
388185.0 434100.0 0
393374.0 434450.0 0
399988.0 434101.0 0
404734.0 432479.0 0
410306.0 434573.0 0
417719.0 434099.0 0
423373.0 434320.0 0
428373.0 434049.0 0
436782.0 433945.0 0
443641.0 435514.0 0
449446.0 434753.0 0
454046.0 433855.0 0
458556.0 432926.0 0
461708.0 436548.0 0
466209.0 434434.0 0
471299.0 433754.0 0
478016.0 435596.0 0
482708.0 436245.0 0
486911.0 433367.0 0
491051.0 436625.0 0
497946.0 433329.0 0
495151.0 436102.0 0
POINT_DATA 5000
SCALARS Radius float 1
LOOKUP_TABLE default
4796.58 3979.26 3471.03 5253.55 5820.48 5782.6 4862.21 5113.21 3929.19 4107.03 4478.15 5379.87 5925.6 4501.51 4792.73 4736.58 4931.38 3485.26 4329.05 4151.94 4049.23 5337.48 6124.89 5708.81 5252.48 4780.03 5495.39 3996.0 3856.1 4665.12 3383.4 4133.88 4834.9 3850.77 6044.04 5415.48 5120.0 3863.18 2356.98 4998.37 6182.6 5492.18 5258.36 5061.3 3642.12 3163.97 5812.43 5122.66 5906.14 5484.19 7513.1 5254.28 4436.4 5733.48 4672.91 5580.89 5645.7 5176.86 6810.52 5840.26 6110.27 5561.06 5073.35 3615.22 5670.04 4380.59 3589.27 6716.79 5759.91 7613.27 5529.52 4951.03 5255.32 6037.08 5096.78 6756.95 4129.43 6324.23 3843.58 3320.52 4194.5 4270.53 5344.25 5191.63 4593.7 4150.99 4216.92 4742.68 4344.58 5634.83 5495.84 6268.1 4861.06 5374.51 5320.28 6739.08 4797.52 4569.12 4298.67 5960.66 6608.73 5011.84 7034.11 6261.42 4502.5 3771.48 4043.57 4271.69 5681.38 4138.42 3708.04 5513.6 3240.09 4556.36 6082.81 3191.99 4685.34 5601.05 4929.8 3586.91 3103.0 3554.9 4015.92 5542.21 4487.31 3936.02 4044.71 5980.74 4094.62 4927.02 5546.39 5325.36 5484.83 5085.53 5351.6 4730.36 4715.55 5867.73 3951.75 5013.56 4499.64 4375.68 5542.27 5054.98 6030.06 5170.02 3557.27 4927.31 4688.68 4402.52 4517.56 4182.53 5903.42 3588.44 3955.56 3761.32 4118.05 4366.19 5553.16 3672.51 2938.66 4940.78 4231.61 4008.92 3942.53 3379.84 4827.82 3997.1 3607.45 3260.67 5123.52 3038.33 4392.68 4333.2 7199.21 4523.7 2240.39 5091.39 5293.9 6142.94 3912.37 4727.24 4602.25 4790.08 5082.47 4763.45 5445.87 3815.26 4704.72 4177.94 4571.7 5896.46 5022.8 3784.5 3780.23 6481.79 5224.12 7042.12 4819.73 6326.39 4471.58 5873.69 4962.09 3999.48 4359.62 6946.21 2586.12 5433.8 4011.77 5499.11 3633.87 5922.5 5198.77 5987.17 6013.14 2765.2 4901.41 5110.37 5664.98 4382.74 5927.43 4651.28 3693.63 4384.42 4516.43 5481.78 5637.59 4937.14 5043.05 5816.2 5109.54 6483.19 5945.65 6759.9 5538.89 7021.47 5416.38 6059.59 4955.55 2720.68 5701.86 3563.63 4238.81 4468.59 5885.03 2837.58 5325.02 5200.76 5017.13 4862.64 5185.34 4432.58 6684.56 3968.64 4688.67 2635.86 5292.64 6166.5 5065.13 5936.02 5305.17 4861.08 4003.05 5390.22 4805.87 4712.33 5227.21 5697.78 4667.36 4091.31 6372.62 4295.38 5615.42 7565.34 5923.5 4612.68 4281.49 4973.83 6342.25 6691.39 4840.84 5135.69 5344.0 4020.32 6045.46 4245.72 5908.1 6048.7 6133.92 3719.84 4178.4 3095.48 4166.08 4123.6 4850.14 3382.7 6817.32 4319.79 6098.14 4472.17 4203.26 5188.81 4730.41 6057.22 5062.71 6125.34 4527.08 5347.48 4850.01 3970.25 5147.67 3979.82 5011.31 5138.31 5264.06 4659.59 6327.9 4048.37 6355.42 4362.19 5690.56 4948.92 3115.91 3307.12 4493.48 5924.89 5693.81 4002.16 4174.52 4138.16 3486.22 3829.13 4684.5 6230.49 6458.82 5418.62 4601.27 5493.32 5740.68 5926.61 6051.14 5836.15 3261.21 4345.55 6704.06 3653.41 3871.88 3856.01 5246.2 4390.66 5279.39 3673.74 5205.43 6116.18 7447.37 4924.6 4385.06 4733.32 7184.19 2899.43 2924.37 4290.3 3867.67 5399.73 4660.72 3888.21 5891.05 6038.78 6902.81 6644.76 4254.17 5629.19 5090.24 5740.84 5530.87 4310.18 7134.64 5978.9 4187.56 3629.62 4997.27 4301.06 4877.67 4290.14 6562.18 4156.38 5316.75 4541.21 4164.68 5669.65 5934.22 5624.49 5762.59 7092.87 5163.55 4666.81 3703.1 3954.91 6471.55 2965.01 6643.85 3637.61 6222.42 5654.31 3745.84 5690.26 4156.2 4497.59 5965.78 4374.35 4810.12 5643.58 5215.05 4292.06 5577.04 5006.58 4602.86 3688.8 4548.16 3369.23 5449.18 5492.26 5244.78 5762.84 3937.74 4749.8 6084.86 5478.92 4778.34 5551.36 6894.71 3091.3 4414.54 5789.98 7054.71 3641.64 5489.43 5747.75 4277.89 5054.25 4796.33 4195.44 5539.32 5360.19 6496.85 5600.93 4874.39 5541.59 4124.71 5728.85 4827.23 4911.47 5803.39 5863.59 4381.97 6257.19 3255.82 5242.73 2812.98 4065.69 5603.15 4695.45 6052.7 3921.18 3798.62 5308.1 3666.57 4907.89 4937.02 5655.21 4786.6 4645.41 4433.59 4320.28 6445.94 5542.14 4218.06 6308.71 4716.19 5514.76 3456.98 3498.2 5105.16 3066.13 4302.5 6006.16 6009.88 7055.53 5013.67 5826.04 5339.78 4970.88 4143.78 4636.5 4940.42 5923.4 5499.39 5644.82 5501.93 5463.38 5945.21 4938.74 5696.88 5607.14 3923.03 5975.63 5252.34 6396.74 4138.46 2775.04 3821.72 4986.77 6318.18 5586.81 4621.75 3948.17 4551.24 5358.59 4220.88 4515.71 6519.71 6640.13 5082.6 5810.84 4230.54 5094.44 3748.24 4655.49 4467.94 4850.81 6038.14 6138.47 5527.54 5573.7 5697.4 4727.62 4270.95 4055.8 7325.81 5280.17 6425.26 4794.96 6186.19 4839.34 5083.08 6834.49 6337.56 5525.39 3998.5 5938.34 4024.3 6394.38 5555.28 4737.14 4686.65 5834.74 5556.96 5788.23 5581.75 6392.01 6730.19 4907.06 4073.93 3735.44 6043.3 5952.75 6332.36 6122.55 2739.94 4931.53 5480.13 5911.67 3323.28 6695.82 6405.76 5794.24 4678.38 5448.61 5050.65 4827.33 5206.48 5513.57 5729.23 5226.0 3365.82 4538.95 5965.15 4763.66 4780.2 6090.91 4946.42 5019.93 5085.71 6116.33 6343.14 5462.21 5750.71 5470.77 4831.47 4643.85 4004.04 4289.17 5564.02 4274.61 2965.79 6898.19 6035.6 5137.34 4481.53 5330.45 4581.13 3610.4 4219.07 6387.01 5367.52 3092.35 4322.15 5210.03 3629.96 5478.47 5351.39 6142.37 6061.47 4933.21 5375.47 2540.31 5120.49 6029.66 5262.61 6302.8 5409.61 6038.2 4005.44 5206.78 5555.88 6732.43 5143.58 6362.12 4484.76 4840.01 2980.99 5611.2 7933.0 4455.12 5173.87 4894.16 5380.13 5711.87 5118.27 5169.36 5932.23 5791.61 3369.13 4479.66 3043.85 5367.2 5461.13 4726.76 3599.45 5839.13 5489.34 5163.9 5708.14 5537.72 3920.42 8332.24 6155.31 4223.33 4553.56 5329.64 5709.62 5835.78 4127.74 2476.04 3942.07 7443.72 3937.08 5260.34 4709.35 6586.45 4373.3 4750.78 4163.5 5724.64 5078.86 5100.1 3561.29 4963.34 3295.83 5081.78 4260.92 6263.44 5960.56 5774.97 4118.84 4020.95 6313.06 3474.39 6470.3 4200.03 6062.05 5082.74 6915.83 6072.45 4410.55 7099.43 5526.14 5198.29 5423.0 5077.33 3856.59 4746.52 5413.79 6338.89 6202.55 5025.39 4714.54 5893.5 3320.11 5030.91 6022.17 5119.37 3982.23 6163.38 4566.18 4723.12 3459.9 4964.09 5201.36 5024.9 4306.53 5094.81 5972.06 5713.22 5861.71 5028.96 4359.04 3183.98 3866.16 3794.63 4524.28 3778.1 5152.36 4511.82 5826.64 4220.65 6820.42 4816.2 4896.52 4751.02 3372.79 4941.22 5282.64 4715.72 4669.66 4808.52 5046.33 5607.24 5053.92 6352.26 5495.68 3847.38 3818.59 4863.72 5002.48 6623.85 4262.82 5102.36 4342.9 5069.84 4051.44 4241.89 6049.55 5941.72 5991.09 5133.97 6600.94 4788.58 5371.02 6155.1 5876.71 5029.78 6515.84 4888.6 4739.14 4918.77 4371.99 4219.78 3885.86 4459.28 5235.29 4479.94 6250.23 6413.02 4863.27 5862.86 6049.79 3493.7 5374.98 4719.7 6939.12 4735.33 5092.37 6444.77 4287.63 5315.4 6449.45 3975.31 3689.45 3824.16 5572.95 3868.18 6723.16 5584.06 7111.16 4547.19 3817.13 5507.24 6851.54 4583.31 4503.89 5806.08 4853.39 4997.27 4093.08 4809.42 4449.22 5543.27 4717.05 5659.17 6135.57 5998.38 4312.67 5423.8 4270.24 4989.15 5017.78 5015.69 6175.81 4727.24 6677.09 4305.57 6959.81 4829.35 5201.67 6321.41 4089.76 5526.55 3192.41 5184.56 5215.15 4987.87 3315.57 5804.71 4764.96 5727.3 4242.52 5356.51 4277.88 4087.15 3057.03 4143.08 7500.97 3948.23 5228.18 5787.31 5065.11 5868.82 4978.31 4050.9 4099.77 5054.74 4537.32 4981.9 4656.78 5126.91 3600.43 5131.24 5196.67 6496.67 5474.8 6262.72 3664.11 5117.47 4925.63 2990.77 5882.65 4434.19 5187.7 4623.61 4188.3 6261.75 5177.64 4255.31 5453.3 3492.19 4584.5 5122.63 4703.08 6345.13 5274.19 5516.95 4406.4 5411.85 4844.57 4027.46 6314.07 5776.37 4516.28 3627.82 4044.45 5125.78 5344.43 4373.47 5045.38 5350.88 5372.61 3686.21 6480.17 5023.15 4377.07 3813.22 5570.3 4336.42 5243.29 7589.94 3130.65 5628.24 5856.11 5287.2 3327.49 4109.88 4234.94 4562.29 5013.13 5080.66 3417.33 4926.42 4164.13 4642.34 4520.1 4947.52 5874.89 4293.03 4389.21 3791.79 4424.7 4925.44 4754.05 4951.47 6084.93 4307.28 3697.96 4739.42 5538.93 5020.12 4745.45 2631.9 5281.28 6255.18 4668.71 4758.21 7228.46 6362.14 6719.88 5978.82 5266.5 3927.99 4523.88 4066.38 4948.98 5227.52 4414.48 4092.24 5163.02 7144.24 4906.82 5687.83 5004.23 6442.69 6320.71 4648.04 6607.87 4721.32 3293.56 3163.78 5274.14 4903.82 5746.28 4082.47 5511.6 4338.08 4378.3 6134.99 4094.73 4407.9 4718.54 4440.57 5548.29 6766.43 2315.64 5226.56 5599.49 5313.22 4413.85 3905.51 3999.94 4470.98 4864.22 3901.8 5759.46 3921.08 4190.31 5678.96 5262.19 4244.9 6070.58 6034.41 5452.83 5130.91 5402.24 4519.22 6445.22 3844.9 3695.36 5101.59 3963.86 3848.93 4306.11 5935.47 3402.32 5903.66 4528.49 5004.67 5365.89 5992.26 3960.8 5070.39 4980.85 5714.58 5110.45 5208.32 5248.77 4083.97 4607.02 5153.74 4528.09 3895.51 4165.81 5813.4 6291.51 4128.98 5882.89 6246.22 4188.32 5246.61 4100.38 5344.77 4723.48 4899.11 5097.87 4278.07 7267.18 6256.02 5320.92 5269.18 4406.1 5034.59 4942.77 4263.33 4454.63 5080.18 5912.61 3279.1 4403.98 4560.84 4729.43 5776.57 4562.74 5683.26 5598.74 7493.3 4814.55 3527.05 3464.83 5698.77 2477.07 6413.11 4305.16 5092.28 4965.89 5659.95 4152.85 2908.7 4453.64 4517.73 5469.47 5660.16 4989.56 3838.47 2588.37 6736.03 6235.57 3623.87 5916.16 4390.41 6113.95 4097.57 5017.5 5563.79 6171.13 5511.88 5083.41 4512.11 7055.42 5486.68 6048.86 4285.32 5490.43 5022.28 5197.52 4959.34 4948.5 4527.02 4531.14 4564.34 3838.56 4871.44 5076.35 6020.48 6375.99 5200.05 5234.29 5313.66 5419.37 4466.03 4511.54 5409.33 5196.0 4923.9 4973.78 3329.99 3947.47 3296.27 4713.25 4204.84 6243.0 6673.96 3556.85 5441.96 3435.9 5174.89 4288.3 5370.52 4652.29 5774.81 3746.31 5498.32 5027.98 5346.27 6475.1 4969.21 2691.29 2845.98 5289.52 5314.85 4305.43 5450.44 6510.17 5742.65 5592.32 5381.16 5565.13 6193.35 6086.96 5233.78 3701.27 5653.9 5046.21 4929.14 5894.61 5139.5 3979.54 5304.13 5944.09 5833.06 4923.41 4497.31 5384.76 5529.42 5257.12 5243.43 4537.14 5551.9 3757.34 6415.61 4687.64 4419.71 5037.06 4541.8 5175.29 5842.56 5887.15 5412.31 3087.09 6934.37 4890.5 4050.08 3981.07 5452.42 5328.22 6853.85 2395.5 3497.9 5941.61 5782.48 6248.6 5683.61 3836.45 5100.25 6894.26 4986.51 5339.38 5178.99 5383.07 4591.87 5013.42 4790.78 4247.15 6552.22 5651.07 6248.81 5273.35 4091.8 2651.49 4645.58 5512.23 5275.32 5985.29 4898.94 4178.15 4613.31 4733.04 6119.09 5788.66 5091.68 7531.29 5069.25 5048.89 5935.03 3161.47 3991.03 6390.78 7435.25 6826.57 4788.87 4495.87 6022.72 4643.31 5527.33 6917.52 5402.21 4989.09 4880.14 4982.31 3848.54 4307.48 5941.4 5331.02 4871.96 4863.23 4402.67 4470.61 4631.83 4384.88 6887.27 6008.49 4806.34 4287.53 5612.21 5945.08 4968.03 3306.14 5490.58 4863.79 4702.06 3830.46 6031.67 4689.15 6138.12 4428.78 5409.66 4345.67 4765.72 4642.66 4752.14 5329.59 4888.12 4950.97 5512.16 3197.63 4863.96 5191.08 5203.08 7480.41 3423.15 5163.77 4488.85 3731.84 4901.07 5186.3 3436.15 4151.76 4020.4 3493.47 4596.75 4933.65 5443.58 4558.46 5805.86 4049.02 4470.4 5311.03 5255.12 6169.11 5615.35 4027.09 6422.84 4502.18 5379.09 4602.85 4962.77 5872.05 4853.02 6259.23 5181.4 5670.2 4711.62 4247.23 4114.24 4268.65 4694.83 5509.42 4354.08 4256.43 5936.36 4520.62 3903.75 4755.47 4485.99 5127.16 5475.8 5314.69 6050.81 5543.46 4249.46 5965.81 3702.37 4750.17 5660.85 2330.66 4177.19 3587.05 6229.37 6718.19 5282.91 4425.84 3797.33 7256.35 4800.69 6566.1 3555.86 6386.78 4996.99 4896.39 6081.14 5480.83 4220.46 4607.85 5128.57 6000.7 3169.67 5604.21 3361.92 6710.88 5395.14 3967.48 6213.04 6622.11 3685.13 6790.73 4655.16 5251.4 3867.19 5857.79 4039.91 5276.7 5036.58 6119.63 5411.02 4752.9 4287.16 5199.44 4062.5 4435.51 5374.07 4588.7 3766.55 4579.69 3554.48 6496.52 5005.85 4216.17 6484.17 4721.02 4254.37 3374.08 4031.78 6098.1 5708.99 5687.85 5346.68 5296.29 4611.53 4285.66 4896.11 5172.53 4135.62 5801.99 5534.94 5210.48 7644.38 7552.94 6101.92 5323.3 5088.44 4998.21 4662.56 5166.79 5349.31 2976.22 4649.22 5394.55 5094.52 4946.74 2682.24 5928.32 5229.48 5475.7 4016.18 5526.75 5435.74 4244.99 5327.45 5560.26 6185.89 3997.96 4439.35 3460.94 3990.25 3691.0 3758.07 4752.51 4236.14 4407.87 5733.62 5282.51 4460.92 5945.89 4042.28 4105.55 4340.76 6065.22 4221.28 4456.39 5514.84 3633.79 5421.53 5937.08 6070.3 5233.29 4312.56 4612.06 5204.04 4750.58 5926.11 6667.68 5235.11 5211.38 4590.55 4741.26 5920.32 4255.85 5097.69 3988.3 6543.13 5149.72 5776.96 5464.25 5486.48 5301.47 4617.55 5424.88 5415.85 8659.64 5683.95 6027.62 5010.2 6123.03 5966.61 5711.11 4575.94 4938.72 3546.71 5768.57 5564.23 5950.04 4231.83 2435.33 6401.43 5020.71 2681.29 5094.48 3872.61 4238.4 4318.48 6132.95 5266.22 4860.33 3685.13 6004.68 4051.34 3627.55 6239.84 4635.6 4256.67 3457.48 3931.07 3405.98 5417.15 3688.16 4681.72 4945.39 5996.33 3950.63 5415.19 4612.62 3619.07 4275.57 4467.04 6385.23 2983.99 2614.4 6363.92 6205.93 4923.24 5830.72 6184.4 3828.81 4373.45 5309.98 4082.57 5255.18 5169.9 3004.16 4767.78 5235.17 4421.12 4779.5 5254.49 6649.96 4303.19 5784.3 3914.2 4256.57 6088.68 4643.56 4135.08 5620.74 4778.82 6124.08 5467.84 5053.95 5253.37 5767.9 6515.8 5089.62 5869.4 3685.65 3701.16 4186.6 5895.77 4732.09 6136.49 4356.25 4216.95 4209.49 5742.74 4244.21 4947.24 3645.12 3875.05 6200.54 5148.58 4199.45 6599.66 5469.13 4055.54 4233.8 5765.42 6098.95 4997.83 4893.49 5325.44 5021.88 5956.65 4498.25 4188.87 3735.24 6574.95 4074.48 6333.29 4558.47 5731.57 5997.88 5839.71 5576.92 6408.83 3930.79 4004.35 5226.97 3312.06 5180.76 3361.26 6799.4 5278.36 5865.39 4427.28 6079.11 3082.32 6430.39 3658.37 7440.72 3949.6 5703.6 6326.18 5661.62 6631.19 6648.68 4713.74 5626.61 5817.25 5407.78 4084.49 5061.98 6632.99 4537.6 5147.36 4419.61 7177.44 4563.46 6553.94 5726.66 5460.65 5652.0 5463.41 5225.33 4929.75 4435.36 6045.22 4614.3 5134.39 3532.3 5769.98 5442.32 2221.99 3580.58 4863.01 5356.79 5657.36 3619.79 5029.47 6306.21 5266.01 2978.76 2040.66 7016.27 5884.9 3876.21 5689.26 4916.22 6022.7 4940.84 5750.07 4809.67 4757.74 6045.67 3946.28 3821.94 5439.9 5367.73 3540.11 3456.47 4652.01 5421.64 7234.66 4207.54 4886.12 6419.12 4976.12 4817.16 5453.98 3991.42 4388.63 5102.75 4200.09 4597.29 5931.77 5151.21 5398.64 6817.57 4477.04 3614.96 3886.68 5703.74 5662.55 5737.92 4360.23 5365.24 5293.51 4763.96 5754.18 5008.63 3418.99 4480.95 4993.35 4409.63 5521.25 3661.9 5370.85 5949.46 3178.54 4765.02 5376.71 4448.13 5070.29 4807.28 4867.08 2261.36 4266.03 5280.69 4220.03 6923.84 5227.59 5449.46 6179.96 5703.07 6113.54 4662.43 6260.79 3963.76 5528.53 6799.88 3062.43 5426.78 2967.38 4159.35 6477.91 4237.98 6439.37 4081.97 5401.99 5580.92 5973.33 5067.46 3583.21 2511.46 4011.37 2775.69 4785.25 6519.43 5876.64 5424.46 4857.84 4908.49 4962.21 4858.44 3468.42 4673.35 4771.13 4992.42 5297.19 4351.38 4833.46 5933.7 7248.4 5280.12 4444.97 5984.81 3498.16 4409.27 4640.06 5471.74 3548.39 3673.28 4928.27 4858.51 3375.28 5625.65 4301.61 6107.89 4446.84 5660.55 5148.08 4834.87 5760.22 3672.21 5938.17 4795.43 5097.95 5108.06 3573.73 4693.52 6853.04 4745.43 5831.96 4747.55 3056.7 3755.95 6234.32 4586.19 4446.06 3450.93 4270.74 5132.68 6595.03 4558.15 6218.95 5222.16 5107.23 5136.08 3776.94 5558.68 4802.32 4010.57 5629.39 2684.03 6157.04 4768.61 5075.55 4522.21 5506.19 6719.94 4950.67 6166.29 5453.6 5409.63 5294.77 4709.05 4630.82 4043.66 4813.08 5860.67 4540.86 5990.52 3764.1 4835.83 5604.35 6316.56 4332.87 3091.67 6420.81 4715.58 4450.7 5151.52 5369.08 4347.74 4009.62 5291.9 2081.58 6505.78 5461.55 4270.15 6865.76 6449.64 6464.8 4684.44 4749.59 5799.69 3809.69 5571.72 3208.96 7051.9 4184.23 4144.57 5550.75 6834.41 6226.14 5466.33 3000.29 5721.05 4247.69 4514.39 4588.99 4321.21 4344.34 3583.49 5052.84 4366.74 5297.16 3184.64 5206.33 5530.49 5653.03 3718.69 4514.79 2216.82 4509.89 6752.75 5269.38 5607.3 2928.82 4222.4 4000.43 3420.08 4568.41 4912.04 4539.07 5464.68 2685.81 5591.76 4585.31 6625.18 5323.91 5097.45 6293.89 2761.07 5737.75 4983.39 5366.52 4690.55 5533.72 5533.42 3678.08 4599.38 5246.47 4187.31 6191.29 3240.51 7422.36 5161.01 4298.15 4628.4 5832.37 6051.83 4642.93 4263.16 3973.12 3077.84 6024.75 6109.49 5567.93 5987.42 5332.65 4442.22 6451.33 5413.31 3012.99 6400.08 4743.59 5208.14 3317.83 3763.05 5092.24 5549.49 3101.75 4518.04 4766.06 4874.18 5435.19 3298.2 4953.1 5818.95 4093.99 3940.49 4406.05 4680.94 5828.35 5876.72 5236.43 5285.07 4680.14 4608.41 4187.94 5980.59 5021.77 3796.15 4801.8 7216.98 5271.02 4209.31 5718.28 6242.79 5950.45 5713.03 5849.65 5134.67 4165.21 4215.0 4936.96 4481.76 5452.78 5065.26 4304.41 6192.0 4940.28 5885.28 6579.31 3004.34 3022.6 4811.76 4914.45 4698.87 4661.03 3624.7 4691.91 5262.35 4475.83 4510.8 5889.35 5010.04 4394.56 4570.98 4275.07 5825.38 4185.61 4047.87 5742.47 3778.02 6552.21 5417.8 5146.37 7132.12 4836.16 5518.57 5151.11 5463.48 5730.33 5545.46 4527.99 4376.7 4543.1 5190.61 8325.01 3764.06 4440.81 5941.9 5434.47 6642.76 5829.22 4497.78 4243.79 5811.18 5433.65 4008.15 4887.76 4669.06 4811.32 4286.49 6184.88 5829.32 4396.25 5551.95 3918.87 5423.42 2275.45 6605.86 5012.5 4383.56 3562.79 7093.13 4516.53 4122.92 3604.14 4452.54 5089.1 2711.19 4028.32 4099.92 4884.59 3858.06 4511.7 4083.79 5263.27 6300.92 4173.54 5599.29 6038.68 5046.12 4807.4 7013.17 3805.67 4601.74 6506.86 5088.57 5580.34 3852.6 5775.31 4706.5 4603.5 4647.67 5375.12 4356.36 4892.44 5578.94 7610.49 4286.17 3684.56 5323.55 5375.1 4172.6 5313.12 5351.56 5160.59 3984.88 4732.09 4320.42 4255.34 5064.79 5480.3 7509.24 4146.81 5896.26 5388.78 6101.13 4573.72 5099.21 4917.99 5636.4 4367.78 4350.12 5227.02 5670.0 4232.16 5300.96 4344.51 5680.94 3781.77 5581.55 5193.01 3474.5 6550.44 3860.83 6348.03 5732.27 4523.39 5278.56 5146.37 6917.62 4013.38 5631.14 4343.78 5263.3 4909.65 6523.86 7693.4 4326.48 4437.07 3449.37 5491.9 6405.0 4659.16 5789.55 4633.05 4901.2 5711.62 4990.79 4798.17 5166.79 6479.39 2895.63 4997.91 5079.22 5381.54 5810.77 4714.83 5474.15 7519.2 6355.68 4478.6 3953.55 4304.63 4063.9 4469.54 4314.56 3928.53 5606.51 5740.65 3834.47 6349.67 6329.53 4590.01 6101.86 4227.41 5993.0 4803.57 5966.42 4110.59 3332.49 5354.66 4214.44 5378.23 4787.97 3746.36 6789.23 3989.7 4777.03 4246.61 6028.09 5452.36 3804.5 6486.37 5498.42 5318.53 3344.57 5220.76 4281.98 7165.9 5344.83 7046.11 3427.63 4863.97 6342.48 5756.75 5599.7 4587.67 4163.74 6969.28 3665.95 5698.96 4095.75 3603.51 4298.45 5222.51 6609.84 5135.96 3834.43 5658.37 4707.06 6074.94 5491.37 4250.88 3783.54 5268.38 3475.67 4792.39 7038.89 3863.67 4814.12 5067.56 6137.8 2735.53 3352.35 5116.6 3747.03 2783.85 4356.49 4526.81 3994.07 4219.94 5907.46 4264.91 6740.71 5399.29 4909.31 5971.22 6522.59 6602.43 3568.28 5425.98 5996.66 4405.42 2995.67 3598.08 4599.81 5698.23 7300.58 3608.06 6633.61 5217.95 4867.7 5484.36 4277.24 5291.05 5161.1 4619.2 5166.41 5067.56 2596.96 5701.75 4350.15 4139.3 6541.45 4750.49 5078.31 5391.48 4923.43 5131.15 4847.14 3950.27 5116.66 3566.79 5374.67 4981.43 4741.28 4215.2 5069.89 4157.29 6813.72 5327.75 4609.02 4896.65 4638.18 4196.37 6448.66 4453.97 6945.98 5138.2 5783.48 4449.98 4701.5 4504.35 4771.65 4840.44 5093.82 5951.81 3924.14 6918.35 4296.69 6238.32 3319.67 6471.42 5283.8 4076.59 5369.5 4428.14 5164.1 6464.15 4479.11 4972.17 6685.4 5699.53 4222.77 4850.06 6332.01 5527.23 4805.33 4234.18 7085.01 5980.95 6193.08 6069.3 5887.01 5168.35 5388.39 5335.47 3728.18 5633.61 5048.19 6799.23 4888.27 4592.15 6487.56 4854.11 5533.19 4998.22 5417.21 6104.26 5583.61 6063.64 7382.3 4022.56 5522.21 3772.3 4855.01 6208.9 4923.57 3340.09 6061.63 2279.05 4829.35 4075.28 8137.11 5484.32 6650.77 4067.96 7104.73 6162.3 3272.75 4264.54 3516.27 7043.44 4263.78 4643.9 5228.75 6047.14 5009.83 5210.38 5717.8 3629.44 5003.78 3299.24 6246.56 4061.6 2603.64 5107.0 6212.15 6502.97 4783.07 4946.23 4852.58 6083.28 5211.6 3556.79 5806.31 5456.71 3503.41 7317.04 6412.67 7001.83 5012.97 5589.37 5439.49 6639.64 5212.43 4834.3 5454.12 6348.54 6804.79 5642.35 6372.13 5404.01 6016.19 4124.49 3230.13 5714.25 6176.67 5325.96 5412.24 5016.02 7044.29 4920.21 4049.16 3936.95 6153.94 6836.82 3862.77 3858.17 4631.99 4740.98 3185.39 5128.77 7122.87 5797.36 4243.26 4153.84 5119.86 5089.26 5084.17 4901.44 3776.8 5096.43 6156.21 2460.79 4653.83 6171.71 4986.71 3628.89 6589.82 4668.88 5027.43 5522.75 5867.64 4438.58 6059.93 5602.53 5073.02 6545.43 3472.91 6760.92 4989.2 4711.04 7144.05 4506.18 4824.12 2970.9 6542.5 4383.47 5971.21 4036.91 4066.57 4206.98 5156.76 6357.47 6101.57 4891.38 5535.91 4793.65 2949.12 5955.86 4532.89 4533.37 4848.46 5742.09 2779.99 5887.38 4581.37 6942.34 5851.61 3658.05 5478.11 5526.31 5030.15 6318.23 4058.87 5174.75 5932.07 4984.46 5948.71 3856.53 5460.89 6040.74 5260.85 2884.65 5393.65 5807.46 4648.21 4393.16 3311.29 4549.69 6423.81 6192.77 6413.15 6103.11 5048.55 6459.51 4024.31 4955.16 5844.72 3992.97 4147.31 5989.05 4054.22 7228.94 4441.22 4961.99 6551.93 4595.12 3110.13 6484.43 4625.67 3485.54 6735.97 5305.59 5416.45 4330.58 5754.6 3288.01 4904.51 4355.83 6870.97 2202.77 5351.86 5751.15 5950.88 4149.55 6201.86 5853.89 3380.69 4140.4 3639.44 4386.8 5446.4 4725.01 5966.75 4729.42 3104.96 4844.83 5244.78 3636.15 6114.89 5135.63 6384.7 5952.38 6056.87 5474.01 5307.35 7554.58 5166.89 4731.21 5491.63 5725.37 3868.62 5138.33 3477.1 4811.22 5216.26 4749.96 5377.37 5652.87 5483.7 5018.69 3152.86 3896.27 5973.89 5807.52 5963.36 5230.02 5087.14 4342.18 5169.48 6016.08 6776.22 3124.7 6064.71 6102.98 6060.17 4385.81 6592.93 5096.24 5769.14 3381.82 4831.93 4023.93 5494.28 4834.39 5493.89 5261.19 4918.76 4208.41 5826.78 6214.73 4553.68 3758.22 4268.19 4532.7 5561.74 6100.73 4788.08 4593.7 4349.13 6379.14 3687.65 3634.5 5478.95 3851.85 4019.34 4658.24 5869.67 4311.48 4387.39 4899.73 4564.1 5457.66 6394.19 5366.22 6193.73 5518.11 3742.11 5712.35 5701.52 4743.9 5321.17 3719.11 4467.13 3877.8 6418.11 5934.82 4501.78 5415.45 6350.71 5039.12 5135.5 7107.63 5868.89 5545.59 4099.26 5206.47 3831.52 4263.65 6106.43 6761.81 5467.63 4127.53 5210.75 2856.55 5361.87 3205.68 4473.29 4908.75 6556.26 3971.08 4482.9 6818.91 3503.65 3623.19 4869.48 4906.11 5510.96 4745.16 5825.55 5509.51 4848.14 3199.4 4316.5 5254.24 4192.21 4914.03 3597.43 5144.56 4158.91 5311.55 3360.86 3034.16 5551.43 4869.25 5545.21 4333.87 4922.49 3572.94 5001.58 6456.58 5244.98 5366.11 4824.81 5944.3 7307.21 3619.72 4565.93 5615.84 4464.73 5788.97 6440.38 3274.85 5007.21 4580.06 4835.97 4057.17 5262.47 7066.96 4587.7 5196.92 5644.81 4568.64 5666.95 4642.2 5175.89 3894.64 3703.49 5232.85 4374.74 5975.23 6816.66 4745.79 4211.82 6204.65 6550.4 5513.8 4887.52 6631.28 5350.88 6571.31 4392.65 5429.3 4944.51 6653.07 4697.91 4584.81 5071.98 5719.79 4371.08 7261.51 4968.14 5949.73 5086.29 4312.48 5527.13 5139.18 4278.57 6318.25 5049.99 4201.03 4458.64 5001.87 4312.15 3657.69 4883.63 4078.93 6015.02 4820.17 3814.65 3886.72 4034.05 5127.82 5798.38 6436.74 3419.87 4384.28 4456.26 3908.98 5113.6 6328.42 5640.72 5851.63 4504.52 4954.81 5610.53 6419.64 3926.11 5464.83 5414.58 4991.35 4807.35 5334.36 5750.35 4489.99 6555.44 5293.75 5658.14 5473.72 7124.45 6358.93 2205.51 5144.44 4757.2 5034.69 4198.94 5079.64 5470.04 6003.78 5684.25 4891.67 5188.53 4882.66 4027.63 5603.68 4526.34 5610.95 5532.72 3220.8 5179.17 4598.92 5579.39 5270.51 5148.1 5490.75 5224.64 5783.94 6370.33 5081.08 4202.77 5836.14 6864.06 6008.81 3644.78 5510.9 4505.28 3492.83 7039.98 6006.89 7778.01 5910.86 5690.96 5805.1 3862.91 4456.11 4027.33 4810.98 5091.22 3563.14 5212.92 5556.0 5748.9 3742.31 5755.15 4608.34 5695.79 2781.96 3512.94 4467.0 4994.65 5601.55 3903.91 4929.6 3919.62 3683.86 4548.45 5730.61 4508.18 2617.39 4062.56 5969.37 3217.67 4509.46 6163.54 5212.37 5438.92 3766.69 5110.11 5036.98 4521.75 4813.33 5569.2 5635.32 4827.61 4316.45 5409.08 5042.75 5241.22 6647.08 4979.52 3422.29 4407.79 5214.63 6548.29 3495.68 3990.96 5352.24 7362.42 5793.12 5473.05 4373.2 4583.52 6280.13 5244.22 5585.14 4960.64 5792.98 4983.3 5053.15 5124.17 6239.68 7320.78 4234.88 5782.43 4708.31 5026.76 6282.38 5657.55 5727.79 5188.82 5043.14 3663.0 6304.49 4420.6 3622.8 4431.23 4258.98 6545.99 4368.28 4945.0 4658.11 4551.26 5114.07 7142.95 5064.67 6618.21 3717.47 4504.86 6200.63 4928.35 1937.5 3844.54 3538.53 996.652 6500.49 5965.58 5058.51 4244.49 4050.03 4120.07 3840.21 4952.52 3429.57 6746.66 5410.33 5420.67 5661.6 5285.75 5385.03 5481.64 5673.75 5360.67 5968.54 6263.3 4501.05 4537.03 3247.97 4114.2 4326.06 5034.46 5757.29 5016.46 5469.17 5061.75 3769.24 3743.76 5153.18 6711.21 4971.29 5832.29 2606.51 4438.76 3864.92 6119.99 5372.82 5401.4 4775.49 4681.29 5749.6 3845.9 4174.44 4834.44 3873.92 4092.07 4213.05 5347.9 4224.3 4717.73 4928.85 5072.5 4749.18 4546.96 4316.0 5424.55 5134.72 4475.38 5287.25 5917.34 5740.98 5630.9 4728.55 4554.68 4140.92 6570.35 4559.74 4383.68 6666.67 4583.94 5046.31 4337.32 4680.69 2628.22 3352.34 4901.29 3242.31 6099.28 5372.25 4169.15 3234.26 4778.37 3494.16 5134.17 4074.16 4904.35 5592.54 5390.33 5124.34 4904.37 4358.81 4651.64 5729.92 4179.87 6224.13 4761.84 3661.67 3425.69 5510.45 4730.14 3994.39 4159.81 4446.58 4402.17 5499.59 6331.74 4198.9 5235.87 3904.07 5553.94 6502.99 4921.1 4191.01 4770.51 5577.41 6511.37 3787.08 4462.87 4218.16 6139.64 4692.32 4474.83 5236.24 4585.04 3127.83 4242.63 7407.91 6063.44 4051.18 5849.53 4420.11 5863.0 6127.39 4124.76 7200.89 4802.98 4833.55 7224.99 3908.56 5265.63 4898.29 4431.06 5730.2 4830.13 5620.88 5370.9 4941.52 4529.77 4325.13 6172.27 3783.79 5078.73 4248.14 5278.54 5279.19 5729.0 5192.92 5275.57 4786.66 5891.25 5370.1 5393.76 3684.15 7123.04 5906.57 7541.76 4990.23 3784.94 5667.51 5431.29 4833.67 5325.91 5157.38 4646.51 4546.44 6203.03 4700.07 5273.37 4732.37 5713.36 4704.92 4287.25 4392.75 3814.16 4589.06 4216.44 3999.5 4012.92 4346.07 4933.49 3269.54 5836.26 6015.22 6449.06 5241.75 4651.99 4731.53 5640.12 4972.18 5329.76 5684.88 5764.52 6523.78 4645.86 4045.67 4308.49 5900.0 4262.74 4581.1 6241.77 5317.19 7360.12 4016.6 6223.98 5821.49 7050.08 5580.44 5998.13 5902.67 5454.11 4236.86 6010.59 4128.1 4618.73 4932.29 4506.66 3220.29 4439.71 4141.21 4064.58 5023.41 952.938 4184.21 5473.89 6089.45 4985.3 4966.07 3987.69 4666.12 6219.34 4920.88 4013.86 4177.47 2918.64 4770.63 5678.58 4385.49 6102.49 5114.23 5495.0 6061.85 5512.44 4826.52 2904.46 3763.9 4577.73 4288.45 5419.57 4147.49 5760.98 4954.76 4642.74 5384.86 3770.22 4390.64 5150.84 4608.01 5087.97 6005.95 4519.03 4930.17 5110.27 4085.96 4745.44 5762.82 4232.33 5462.6 5617.29 3035.06 4262.19 4597.88 5095.52 4763.4 4941.02 5806.61 3682.35 2955.36 5182.13 3965.3 6110.48 4125.9 4564.41 5426.4 5951.86 3791.41 5853.12 5702.4 5810.17 5265.21 4657.24 4400.14 5674.63 5340.05 5345.73 4639.8 4212.15 4263.18 4489.29 4454.74 5120.92 4685.4 4636.53 4081.34 3646.95 3402.44 4848.98 5184.98 4491.96 4199.44 4467.51 5339.82 5460.57 5065.78 5703.34 4612.68 4521.42 6668.98 6649.52 4939.56 4747.68 5770.92 3093.38 4845.91 4878.93 2002.78 4461.67 5784.37 3142.09 6793.1 5515.73 6715.73 5209.55 5247.01 4841.7 4678.7 3450.07 3306.84 3484.81 5308.33 4271.07 5759.79 4462.35 4301.93 4924.07 3200.6 4918.64 6206.98 6638.25 4775.04 5162.67 2403.72 5537.61 6084.88 4397.06 3543.98 4053.12 4479.5 6261.67 3435.13 4431.46 4610.55 3207.84 3977.98 6043.34 4128.93 4462.5 4959.72 5573.31 4712.17 3808.04 4723.71 4405.61 5003.3 3668.93 3756.96 3954.77 6016.87 5077.29 6740.35 4550.92 6023.07 6506.63 6710.14 4598.54 5218.42 5188.22 4512.07 4896.43 3986.41 6240.42 5146.0 4788.7 5078.59 4607.18 3228.27 4721.98 5252.82 4142.1 5056.26 5878.55 4014.44 6604.72 6002.77 3794.47 4967.02 4614.49 3361.11 5400.69 6038.56 2807.46 5004.68 4179.8 4023.88 3488.34 5348.11 5428.24 6273.6 4009.24 5800.81 6245.52 5166.05 3125.13 5866.91 6075.99 5995.4 4841.23 4196.62 5984.8 3469.18 3372.95 6347.72 6334.53 3956.24 5580.95 7558.99 3393.59 4032.06 5043.14 5333.04 5445.91 4521.99 4812.59 6842.54 7115.67 5675.45 5329.84 5599.16 3879.83 5658.35 4577.98 5886.81 5684.05 4708.17 2741.2 3779.45 5167.53 7035.54 5763.05 5797.21 4208.37 6019.35 5191.26 4184.47 4140.04 3495.3 5890.25 5322.11 5700.79 4726.2 5034.05 4816.51 4711.15 3825.48 4658.59 2804.54 3810.68 3990.94 4756.8 5477.8 5463.06 4176.32 5260.52 3185.09 5532.75 4241.68 6949.65 4095.83 2945.34 5676.61 5846.95 5064.23 5268.15 5701.63 5819.0 4870.94 3460.93 5124.86 4629.02 4927.73 6006.16 5914.5 5721.14 4608.62 5407.96 5084.5 4987.28 4071.75 6562.03 4815.47 4759.99 3899.7 5134.33 5214.4 3629.49 4705.68 5766.05 5469.35 5117.64 3916.42 4313.38 3549.92 6598.99 5250.56 5246.81 3633.58 2468.16 5089.1 5888.95 5394.78 3463.34 5169.09 5122.38 2853.68 2459.88 5262.85 4998.37 5901.71 6559.82 5342.9 6565.95 5733.12 5043.34 4493.79 4932.56 5136.87 5638.7 5024.32 5813.79 4644.88 5790.42 4983.1 7350.26 5591.77 6224.85 7145.73 4168.52 4795.08 5106.46 6562.92 4068.31 3671.06 3612.44 4983.43 4850.5 5233.76 6405.69 2820.07 5129.68 5357.39 4252.18 5076.84 4659.88 6296.54 5811.26 5062.77 5685.74 5069.9 4884.93 6028.63 3673.6 5146.1 6215.87 6485.77 6060.06 3669.32 5866.42 4762.1 5393.43 6896.55 4685.65 5377.01 6470.23 5939.22 4668.8 4271.93 4215.05 5125.17 4697.49 4859.01 5735.08 5524.45 4426.02 7133.44 3953.26 4750.81 4474.39 5467.51 5459.92 6478.35 4625.53 5453.77 4096.47 4357.11 5005.6 5114.67 5486.89 6069.78 5589.53 7208.19 4549.51 3587.93 5196.08 4975.85 4517.29 5695.25 5323.95 4495.75 6171.01 5716.42 6229.83 5796.26 4468.26 4603.04 5578.18 4620.95 5293.37 5368.93 4488.39 5271.88 5933.54 6121.56 7168.2 4602.57 3565.32 3419.07 4571.74 5740.78 5710.33 4096.86 4796.12 3622.48 5344.44 5001.51 6432.8 4626.72 5115.42 5549.71 5131.77 3186.07 4410.82 4369.86 4967.51 4368.12 6443.99 2646.13 4365.58 3889.98 5399.43 5193.58 5490.64 5034.34 5695.44 3769.2 3422.21 3835.81 4507.46 5036.14 5827.3 6036.99 3010.1 3825.98 6294.14 4339.97 5087.03 5203.75 4667.84 3906.41 4691.15 4512.6 4210.24 5470.67 5225.11 5252.22 6060.19 4962.35 6436.29 5537.34 5884.99 3667.93 4279.44 5192.49 4899.19 3487.31 6643.4 4674.9 5058.34 4028.22 3918.94 3392.26 5575.11 5293.13 3852.82 5487.63 3768.46 4507.36 5138.93 6406.8 4556.19 5403.97 7086.69 5648.78 5368.66 6875.73 5501.73 4436.48 4697.24 5226.42 6081.3 5615.35 5117.52 3967.76 6311.89 4683.28 6549.8 4217.36 5679.74 4825.73 4851.18 4150.76 4165.36 5288.33 5368.52 4871.77 5155.28 5205.38 5388.73 4764.83 1969.87 3132.34 4600.71 3957.38 5262.79 4494.15 5927.2 5035.71 4710.88 4419.79 5407.69 5152.78 3869.39 5960.5 5544.27 5534.23 4117.9 4753.76 6025.77 4638.09 4781.9 4441.91 6815.96 5339.6 5330.26 5828.25 4725.11 3626.86 5418.12 6371.96 5322.07 4604.1 5076.11 5990.75 5600.21 4282.11 4656.01 5781.62 6589.13 2347.41 3543.37 4542.16 2809.19 5628.97 4916.7 4104.04 5353.66 2638.82 5030.33 5593.79 5025.42 4965.24 5234.2 6379.38 6257.79 5327.05 5438.55 4849.5 5353.23 4434.65 5977.66 4523.81 5209.5 5106.33 5791.25 5198.94 4028.35 5559.79 5464.05 5879.24 2980.31 3763.85 3148.79 6348.93 6824.53 5997.91 4332.64 5385.86 4742.82 6791.86 4082.4 4209.0 4820.68 5482.76 5173.82 7212.97 3720.7 4211.36 6297.99 5378.24 5698.53 3604.31 3856.73 4450.49 3468.45 2832.83 4474.96 4084.87 5259.29 3584.05 4589.22 4818.53 5097.85 5584.64 4123.08 6224.64 4260.38 4221.03 4636.45 4932.27 3799.55 5638.51 6793.49 3563.33 5536.0 6786.37 6022.78 4087.32 6647.85 5726.42 2569.12 7025.09 2549.95 4433.12 5461.72 4361.24 6599.28 5099.9 6945.69 5118.86 4298.7 3902.48 4183.4 4304.64 6170.9 5833.78 4823.06 5758.98 5254.49 5288.64 6213.24 6734.39 5987.88 5942.45 3579.59 4228.53 6123.46 5005.72 6142.88 5057.59 5111.26 4574.54 4949.55 5490.54 4841.28 5203.54 4047.95 5507.38 6889.5 4416.87 5001.69 5300.17 6581.56 4057.4 4052.43 3980.46 4896.67 3934.11 5158.44 3886.56 4466.22 4496.51 6153.71 5917.08 6561.94 5483.37 5259.21 5092.93 5934.05 5770.07 4714.66 5101.6 4984.17 6182.19 5327.39 4037.86 7415.84 5602.62 4981.81 2030.03 5714.51 4138.59 4938.33 4484.78 4621.33 5527.27 5104.39 4612.13 5847.91 4934.66 5846.6 4109.44 4903.84 4290.49 6688.53 5927.1 6175.27 5065.74 5876.51 4873.23 4103.76 6731.89 4286.61 4733.41 5410.6 5264.83 4603.66 5453.2 5136.51 3901.53 6815.51 5232.16 4422.23 4457.05 3989.26 6031.22 3618.64 4930.72 5485.84 5728.58 3745.02 6424.77 4887.73 4335.79 5453.69 5918.95 4538.89 5689.56 5817.74 6556.86 5887.71 5367.05 4758.76 4790.63 4088.72 3945.62 4916.75 3743.85 6236.46 5342.17 6379.3 6189.04 3795.63 5189.4 4576.71 5082.66 4550.77 4894.15 4337.93 3550.88 5201.3 4345.51 4048.73 6223.33 4009.68 5517.65 5114.51 3303.49 4655.37 4161.32 4622.73 5256.75 5161.74 7336.37 5932.28 5560.23 2960.5 5783.38 4975.32 3043.77 4139.39 5237.55 3909.94 5088.64 6030.39 6589.8 4733.79 4905.53 3799.01 6920.92 7392.65 5319.1 3757.23 6828.8 4181.93 6883.86 3350.99 3820.19 4979.5 6161.94 4586.82 4745.37 4065.28 5939.29 4461.14 5285.6 5418.98 5575.11 4034.41 5615.06 4052.49 5061.74 5326.03 6189.67 6142.94 4948.96 5256.82 4013.86 4061.87 4645.93 5383.9 5165.31 5448.64 3798.09 4585.37 4288.5 6417.61 5715.51 3721.69 4511.05 3456.3 5783.69 6074.39 5317.83 4256.08 2803.01 5881.93 4399.52 4444.0 4554.24 6771.18 3939.96 4867.12 5910.66 6520.19 5141.03 4637.3 1458.87 4970.55 4840.44 8123.59 5765.14 4767.54 5157.73 4541.22 4946.08 4984.01 3539.68 4696.03 6217.33 4557.1 6177.68 4605.39 4698.7 6270.59 2848.44 6045.26 6500.45 4907.55 4094.63 5084.76 2932.52 6605.11 4757.87 4969.68 3557.46 6636.43 5431.14 5313.86 6298.8 3689.24 5178.07 5189.91 5777.26 4171.02 5703.84 3530.82 7012.36 5797.32 5028.06 5432.04 4886.99 5159.67 3921.27 3161.1 3702.45 4449.73 5647.11 5015.67 6538.04 6157.59 5848.41 4090.28 4246.83 5129.4 4746.15 6275.25 3720.38 4758.84 5585.25 4731.37 5023.61 6351.89 3976.0 4672.86 6530.78 5059.37 4742.35 5394.79 5645.54 6264.03 4526.87 3562.8 4151.74 4691.01 5192.82 3729.16 4174.22 3573.84 3783.36 3038.91 4067.89 3922.28 6294.09 6570.43 4571.57 5131.07 3445.92 4121.07 5236.69 3133.28 5524.28 5105.54 6026.04 6200.05 6353.81 5859.17 3518.14 3414.67 4150.44 5522.34 5771.98 4420.35 5899.78 5717.45 5000.74 5117.83 5268.27 4813.81 3882.37 5244.95 4634.25 5901.8 6351.48 5395.12 3830.7 6210.0 3483.61 5350.9 4262.52 6738.9 4460.89 5992.06 4157.1 8052.53 4970.12 6044.01 6369.66 5973.57 5734.07 6241.48 3997.68 6033.28 4819.83 5957.82 4801.16 5071.38 6286.27 6327.54 5121.08 2927.84 5616.66 5688.77 5368.28 5466.13 6229.64 4220.43 6263.87 5743.8 6666.34 3826.01 4645.91 5581.01 6834.92 6379.33 5971.95 5652.73 3979.46 6321.97 5151.19 3985.93 6412.84 6509.54 6119.0 3792.06 5128.59 4002.99 4993.49 4293.3 5587.3 3572.73 4864.38 5631.32 6892.33 4505.3 4491.26 4452.36 4609.65 4511.34 6463.71 4068.41 5009.21 4574.03 4379.91 5290.37 4942.63 5850.38 6139.74 5264.08 4975.57 4227.66 7066.26 4730.97 4594.89 5245.95 3677.85 5821.42 4515.02 3463.53 4924.52 6126.03 2970.24 4197.87 6044.69 5658.05 6593.1 5731.43 4000.51 5462.1 6032.45 5444.36 5044.68 4026.03 6908.32 2649.69 3467.11 4817.75 5772.57 6153.26 5637.53 4848.15 5523.81 4095.4 5648.59 4718.61 5188.57 3873.79 5357.33 5717.67 5252.37 3224.81 5432.4 4499.54 5037.58 7430.48 5640.67 5545.68 6080.69 5555.89 4967.93 4766.47 4871.1 5678.08 5922.62 5872.45 4414.09 5125.45 3784.68 4188.16 3717.22 6649.21 5507.07 4802.36 2943.17 4654.92 5327.71 4880.78 4322.56 5257.38 5509.09 5075.23 5625.02 4975.56 5212.05 7282.36 4829.77 3928.99 4444.92 6959.88 4125.75 5749.53 5130.57 5090.48 5247.73 5402.45 5582.28 5945.25 6071.59 2589.19 3856.4 6079.55 5485.61 4137.16 4937.36 5308.4 5310.33 6583.37 4569.32 3688.83 6126.5 6322.0 5793.14 6345.2 5488.96 5704.61 4832.21 5128.03 5410.73 3720.92 4793.06 5087.3 6637.38 6188.33 6111.23 3057.3 6916.18 6150.31 5873.62 5214.71 4996.91 4677.84 4811.11 3920.44 5379.52 4866.8 5314.67 3851.47 5563.47 4966.74 5651.46 4066.36 3162.27 6033.93 5011.37 5516.37 2827.92 5092.44 4441.44 4232.44 5336.61 5563.09 3312.3 6381.58 4439.09 3282.57 4798.13 5212.2 5108.42 6697.45 6296.36 4432.32 5515.59 4451.76 7885.41 3775.38 4046.22 6457.89 4844.2 6572.17 3751.73 3374.62 4926.62 6332.64 3917.09 6009.93 4083.1 5270.1 5191.29 4947.64 4063.26 6305.9 4997.89 4542.62 3470.69 4859.95 5286.55 5522.18 5223.1 3873.72 4850.49 4592.49 5479.86 3625.98 6474.5 4702.32 4763.04 5971.9 3746.62 4413.56 4876.37 4532.67 5034.02 5316.05 4769.62 5260.13 4649.5 5019.84 5181.31 4696.06 5985.75 5475.83 6189.29 5984.55 4329.8 6581.13 5803.3 4034.88 5108.84 3511.5 6007.1 4520.14 5067.92 3188.21 5357.14 5919.27 4850.95 5374.09 6271.22 3421.81 3920.64 5378.75 6186.24 5786.06 4137.41 3868.69 5447.74 4450.51 6033.72 5007.41 3768.62 3692.99 6213.74 2329.93 4369.87 4959.94 1635.31 6938.87 5639.4 6185.73 4083.24 4806.99 6520.96 5432.2 3771.91 5217.62 4612.4 6178.19 4746.19 4616.81 5715.25 4362.94 4611.21 6545.78 4630.5 3354.94 4404.87 5237.27 5767.65 4750.76 5782.25 4907.03 4104.97 4575.72 4081.77 5114.61 6118.13 2181.29 4987.01 4420.3 4706.31 4202.12 2694.25 4735.99 6492.44 4739.56 4613.32 5145.39 3482.73 3996.93 5130.56 4957.99 5195.09 5345.05 7679.2 5093.28 6131.52 4132.08 4311.92 6009.88 4699.77 4981.55 5093.41 5144.23 6188.62 6153.07 3621.63 4414.06 5908.57 5944.52 7296.47 5050.2 2513.38 4821.41 4908.32 4924.53 3995.08 5616.11 3874.12 4499.52 4810.74 4028.13 5784.38 3900.93 6476.35 4149.17 6260.58 4067.24 5728.27 3053.19 5672.46 5202.33 3074.49 4582.12 4487.51 4295.25 6805.02 5354.48 7394.47 4729.45 6261.13 4167.55 4720.34 5244.47 4731.16 5510.89 5822.7 6470.87 3780.07 4495.33 5282.67 4159.89 5466.49 5178.55 4038.17 5146.69 4907.48 6818.23 4488.41 6679.12 5412.07 5652.19 5512.57 6578.62 4813.55 5856.43 3465.03 4796.04 3839.0 5349.85 5229.56 5799.86 5172.1 6052.22 4469.82 5376.41 4870.14 5003.63 2932.2 4695.7 5105.72 4944.08 4082.01 5003.49 3964.03 5269.39 4216.33 5497.27 5617.91 4948.21 5161.02 4721.2 3124.49 6265.48 5003.81 4203.68 6262.18 3818.37 4701.03 3352.46 6351.95 5434.04 5200.1 3997.52 4881.51 4444.54 5779.9 2626.41 4909.74 5310.33 6729.99 6664.54 6842.35 5464.34 5259.48 5161.73 4777.96 5801.89 5254.93 4803.4 6833.5 6608.94 5742.39 4780.16 3834.01 4433.23 5738.37 4813.24 5759.19 4457.73 3113.64 4490.2 4304.75 5480.86 6139.9 6571.26 4246.24 4919.13 4600.81 5640.63 4900.26 4358.06 5783.88 5002.38 6705.93 4865.11 5502.14 5449.09 4605.61 4465.56 4131.08 5747.9 5386.95 3864.19 4287.93 5315.71 6203.24 6158.93 5081.65 4823.14 5438.5 4621.32 5806.74 3878.8 5237.76 4698.94 6284.12 3948.21 5669.15 5296.05 6011.4 3330.85 4672.34 5056.32 5533.52 5410.33 4747.24 4380.86 4909.13 5576.16 4305.35 5648.02 3308.75 5210.22 5832.72 2451.27 3903.9 4929.35 4444.95 5606.22 3943.77 5242.38 6081.35 5459.52 4609.98 5566.5 5663.36 6225.05 5579.04 5125.53 5994.21 5403.81 5082.25 6964.78 5299.03 5036.84 4565.36 3922.98 5813.68 4025.08 4008.67 5040.9 3618.53 4770.21 8013.28 3846.55 2613.78 3796.73 5417.07 3082.16 5656.84 6789.66 4739.41 5312.2 5847.27 4706.59 5734.84 5551.79 3982.31 4950.07 4720.22 5402.81 5561.63 4328.76 4124.33 5168.97 6568.45 5093.51 5647.93 4280.92 6201.49 5154.74 4696.92 6437.99 6898.8 6540.57 5332.11 4893.72 6004.72 4072.4 5373.78 5345.65 4489.18 5863.36 5699.4 4752.94 4994.98 4286.84 3950.53 6423.96 6058.13 5894.69 5263.86 6988.4 6635.51 4060.17 6051.35 5302.53 5543.67 4287.61 4867.13 4604.34 4439.17 5677.42 2701.42 4502.12 5442.79 5051.39 6673.92 5151.68 4884.94 5362.15 4455.61 4738.72 3695.72 4752.31 5240.97 5106.9 4276.59 5569.85 5405.6 3929.35 4884.93 4733.37 4759.38 6960.97 4374.05 4287.15 5282.51 5504.65 5669.41 5732.11 3919.47 5596.68 4868.66 5159.9 4004.39 5283.65 4644.68 5943.61 2892.36 4248.58 5981.54 5911.29 5416.41 4694.27 6760.64 2515.5 4849.21 5177.88 3793.83 6981.47 4582.24 3916.15 4333.23 5145.13 3860.8 3747.96 5611.29 5940.5 4521.88 5004.22 5103.3 4601.54 4963.88 7263.57 3832.09 5705.96 5267.65 5739.69 4790.16 6632.04 5360.88 7360.62 4985.45 4983.56 5699.51 4714.52 2489.44 5499.37 4632.75 4883.13 4836.76 5551.09 5755.98 4501.1 5581.47 4384.91 6550.61 4987.01 4713.56 6094.34 6779.82 4739.5 3999.81 6377.45 4863.27 3255.93 6853.07 6327.61 4633.59 5733.59 5575.8 5268.93 6874.6 5306.31 5523.96 4223.53 4535.94 3037.72 4523.9 5126.08 5604.0 3760.4 4951.02 4602.7 3783.35 4037.16 6395.63 4987.48 5479.17 5020.37 4542.25 4414.23 5233.88 4785.55 5245.4 6189.81 5438.6 7370.52 4726.5 5467.05 3724.23 5888.94 4122.2 4727.98 5175.88 4516.26 3509.34 3647.26 3731.58 3166.37 4977.64 5369.42 5207.08 5205.53 4587.19 5543.05 6028.89 5333.16 4888.17 5392.85 5077.2 4274.05 5275.27 4277.54 5529.09 4531.46 5925.82 5448.68 4072.95 6210.48 4491.62 4182.05 3865.5 
SCALARS Velocity float 1
LOOKUP_TABLE default
1.19184 1.19191 1.19187 1.19189 1.19178 1.19194 1.19191 1.19189 1.19177 1.19188 1.19178 1.1918 1.19178 1.19178 1.19183 1.19178 1.19178 1.19179 1.19178 1.19178 1.19177 1.19185 1.19183 1.19178 1.19178 1.19177 1.19178 1.19177 1.19178 1.19178 1.19178 1.19181 1.19183 1.19187 1.19187 1.19186 1.19183 1.19181 1.19177 1.19182 1.1918 1.19178 1.19185 1.19178 1.19177 1.19193 1.19187 1.1918 1.19181 1.19182 1.19178 1.19184 1.19177 1.19188 1.19186 1.19178 1.19178 1.19179 1.19179 1.19192 1.19178 1.192 1.19185 1.19177 1.19178 1.19179 1.19178 1.19184 1.19195 1.1918 1.19196 1.19196 1.19197 1.19189 1.19182 1.19183 1.19194 1.19197 1.19191 1.19187 1.19178 1.19185 1.19191 1.19191 1.19178 1.19182 1.19178 1.19184 1.19194 1.19204 1.19186 1.19188 1.19186 1.19185 1.19178 1.19182 1.19181 1.19211 1.19197 1.19185 1.1919 1.19196 1.19196 1.19189 1.1919 1.19193 1.19191 1.19178 1.19181 1.19177 1.19178 1.19183 1.19178 1.19178 1.19179 1.19178 1.19189 1.19178 1.19186 1.19178 1.19178 1.19178 1.1918 1.19178 1.19178 1.19179 1.19179 1.19179 1.19183 1.19186 1.19187 1.19187 1.19186 1.19184 1.19182 1.19179 1.19184 1.19181 1.19185 1.19185 1.19176 1.19188 1.19193 1.19181 1.19178 1.19193 1.19185 1.19182 1.19182 1.1918 1.19193 1.19209 1.19207 1.19177 1.19177 1.19178 1.19181 1.1918 1.19191 1.19189 1.19189 1.19178 1.19202 1.19186 1.19178 1.19178 1.19185 1.19181 1.19173 1.19198 1.19176 1.1918 1.19193 1.19204 1.19196 1.19194 1.19194 1.19182 1.1918 1.19197 1.19177 1.19191 1.19188 1.19175 1.19185 1.19195 1.19195 1.19176 1.19184 1.19177 1.19187 1.19199 1.19176 1.19186 1.19184 1.19187 1.19184 1.19184 1.19183 1.19181 1.19178 1.19199 1.19203 1.19192 1.19203 1.19196 1.19201 1.19189 1.1918 1.19191 1.19184 1.1918 1.19199 1.19178 1.19184 1.19178 1.19178 1.19179 1.19178 1.19189 1.19178 1.19186 1.1918 1.19187 1.19178 1.19181 1.19178 1.19176 1.19181 1.19178 1.19183 1.19186 1.1919 1.19187 1.19184 1.19182 1.19179 1.19183 1.19178 1.19186 1.19185 1.19178 1.19188 1.19192 1.19181 1.19178 1.19177 1.19191 1.19185 1.19183 1.19181 1.19196 1.19217 1.19183 1.19178 1.19181 1.19189 1.19185 1.19194 1.19189 1.19187 1.19205 1.19186 1.19194 1.19185 1.1921 1.19181 1.19199 1.1918 1.19188 1.1918 1.19208 1.19198 1.19193 1.19193 1.19181 1.19195 1.19178 1.19196 1.1919 1.19195 1.19178 1.19188 1.19188 1.19195 1.19217 1.19181 1.19173 1.19189 1.19175 1.19181 1.19208 1.19185 1.19203 1.19187 1.19183 1.19184 1.19178 1.19199 1.19195 1.19193 1.19204 1.19205 1.192 1.19188 1.1918 1.19188 1.19178 1.19178 1.19197 1.19183 1.19183 1.19186 1.19177 1.19179 1.19174 1.19188 1.19185 1.19185 1.19188 1.19182 1.19177 1.19178 1.19178 1.1918 1.19183 1.19182 1.19182 1.19197 1.19187 1.19185 1.19188 1.19186 1.19189 1.19187 1.19184 1.19181 1.1919 1.1918 1.19185 1.19179 1.19184 1.19163 1.1919 1.1919 1.19191 1.19182 1.19175 1.19193 1.19185 1.19189 1.19192 1.19203 1.19221 1.19181 1.1918 1.19185 1.19186 1.19188 1.19178 1.19178 1.1921 1.19178 1.19225 1.19191 1.19206 1.19186 1.19182 1.19199 1.1918 1.19187 1.19184 1.19207 1.19192 1.19192 1.19194 1.19166 1.19199 1.19196 1.19189 1.19204 1.19183 1.19219 1.19184 1.19193 1.19218 1.19184 1.19185 1.19215 1.19179 1.19204 1.19212 1.19184 1.19202 1.19172 1.19183 1.19187 1.19188 1.19184 1.19207 1.19195 1.19187 1.19191 1.19203 1.19201 1.19198 1.19185 1.19204 1.19185 1.19162 1.19176 1.19198 1.19182 1.19185 1.19189 1.19178 1.19182 1.19177 1.19188 1.19177 1.19185 1.19188 1.19183 1.19177 1.19203 1.19181 1.19178 1.19182 1.19181 1.19188 1.19179 1.1918 1.19186 1.19188 1.19179 1.19188 1.19189 1.19183 1.19185 1.19177 1.19175 1.19182 1.19161 1.19184 1.19204 1.19182 1.19166 1.19199 1.19185 1.19189 1.19192 1.1919 1.19219 1.19181 1.19179 1.19186 1.19187 1.19187 1.19178 1.19177 1.19175 1.19202 1.19215 1.19206 1.19185 1.19174 1.19199 1.19178 1.19189 1.19178 1.19206 1.19183 1.19186 1.19208 1.1919 1.19207 1.19196 1.19193 1.19193 1.19196 1.19198 1.19176 1.19221 1.19204 1.19193 1.19209 1.19185 1.19195 1.19167 1.19189 1.19194 1.19188 1.19189 1.19207 1.19189 1.19188 1.19207 1.19178 1.19186 1.19189 1.192 1.19201 1.19196 1.19183 1.19203 1.19185 1.19155 1.1918 1.19178 1.19204 1.19192 1.19197 1.1918 1.19184 1.19188 1.19191 1.19182 1.19185 1.19188 1.19182 1.19172 1.19202 1.19182 1.19181 1.19183 1.19188 1.19178 1.19181 1.19177 1.19183 1.19187 1.19186 1.19182 1.19191 1.19183 1.19179 1.19173 1.19181 1.19181 1.1918 1.19183 1.19187 1.19184 1.1918 1.19191 1.1919 1.19191 1.19212 1.19217 1.19183 1.1918 1.19191 1.19183 1.19175 1.19175 1.19166 1.19201 1.19213 1.19188 1.19218 1.19167 1.19198 1.19197 1.19189 1.19196 1.19178 1.19197 1.19212 1.19206 1.19202 1.19166 1.19194 1.19183 1.19191 1.19204 1.19216 1.19219 1.19203 1.19175 1.19205 1.19184 1.19199 1.19172 1.19193 1.19178 1.19189 1.19181 1.19173 1.19179 1.19206 1.19189 1.19163 1.19183 1.19206 1.19184 1.19198 1.19201 1.19193 1.19183 1.19203 1.19182 1.19157 1.19182 1.19182 1.1917 1.19191 1.19179 1.19177 1.19183 1.19192 1.19189 1.19185 1.19172 1.19181 1.1918 1.19182 1.19192 1.19189 1.19184 1.19178 1.19178 1.1918 1.19181 1.19175 1.19183 1.19186 1.19188 1.19183 1.19183 1.19191 1.19183 1.19188 1.19169 1.19183 1.1918 1.19179 1.19179 1.19173 1.19201 1.19205 1.19221 1.19188 1.19207 1.19212 1.19214 1.19184 1.19186 1.19198 1.19183 1.19173 1.19174 1.19167 1.19178 1.19186 1.19285 1.19208 1.19171 1.19177 1.19178 1.19174 1.19199 1.19196 1.19192 1.19177 1.19196 1.19187 1.19205 1.19177 1.19213 1.1919 1.19187 1.19203 1.19239 1.19215 1.19215 1.19188 1.19168 1.19201 1.1918 1.19197 1.19172 1.19193 1.19173 1.19186 1.19178 1.19192 1.19177 1.1919 1.19164 1.19182 1.19178 1.19188 1.19175 1.19185 1.19184 1.19192 1.19162 1.1919 1.192 1.19175 1.19191 1.19201 1.1918 1.1918 1.19177 1.19171 1.19185 1.19168 1.19188 1.19198 1.19191 1.19183 1.19183 1.19182 1.19179 1.19192 1.19183 1.19179 1.19174 1.19185 1.19178 1.19185 1.19166 1.19178 1.19182 1.19184 1.19183 1.19187 1.19184 1.19182 1.19191 1.19193 1.19171 1.19209 1.19176 1.19184 1.19176 1.19184 1.19178 1.1917 1.19176 1.19184 1.1921 1.19181 1.19192 1.19206 1.19211 1.19211 1.19224 1.19213 1.19252 1.19161 1.19221 1.19178 1.19169 1.19186 1.19207 1.19202 1.1919 1.19148 1.19208 1.19178 1.19208 1.19198 1.19174 1.1919 1.19176 1.19195 1.19181 1.1921 1.1919 1.19199 1.19198 1.19185 1.19195 1.1922 1.19199 1.19188 1.19167 1.19202 1.19189 1.19177 1.192 1.19187 1.19161 1.19203 1.19177 1.19205 1.19179 1.19182 1.19185 1.19178 1.19178 1.19171 1.19179 1.1919 1.19164 1.19189 1.19167 1.19184 1.19184 1.19178 1.19177 1.19174 1.19187 1.19176 1.19161 1.19205 1.19189 1.19182 1.19182 1.19174 1.19174 1.19188 1.19183 1.19183 1.19179 1.19184 1.19173 1.19183 1.19165 1.19177 1.19181 1.19182 1.19187 1.19182 1.1918 1.19181 1.1919 1.19185 1.19191 1.19182 1.19205 1.1918 1.19201 1.19178 1.19189 1.19174 1.19187 1.19208 1.19182 1.19178 1.192 1.19204 1.19206 1.19183 1.19219 1.19217 1.19225 1.19173 1.19213 1.19237 1.19211 1.19172 1.19151 1.19197 1.19196 1.19186 1.19148 1.19208 1.19177 1.19203 1.19183 1.1919 1.19177 1.19192 1.19185 1.19178 1.19188 1.19204 1.19193 1.19191 1.19185 1.19191 1.19194 1.1922 1.19209 1.19196 1.19178 1.19203 1.1919 1.19188 1.19182 1.19198 1.19192 1.19189 1.19155 1.19176 1.19202 1.19176 1.19205 1.19209 1.19189 1.19176 1.19157 1.19168 1.19171 1.19187 1.19154 1.19176 1.19198 1.19178 1.19169 1.19179 1.19185 1.19183 1.1917 1.19194 1.19185 1.19161 1.19178 1.1919 1.1918 1.19181 1.19172 1.19174 1.19186 1.19182 1.1918 1.19187 1.19179 1.19174 1.19163 1.19178 1.1918 1.19179 1.19178 1.19173 1.19177 1.19184 1.19183 1.19178 1.19178 1.19179 1.19182 1.19189 1.19178 1.19177 1.19221 1.19143 1.19211 1.19208 1.19185 1.19178 1.19201 1.19234 1.19185 1.1921 1.19219 1.19217 1.19227 1.19212 1.19183 1.19218 1.19166 1.19156 1.19161 1.19196 1.19197 1.19187 1.19123 1.19203 1.19203 1.19174 1.1919 1.19184 1.19196 1.19184 1.1918 1.19119 1.19201 1.19186 1.19188 1.19193 1.19187 1.19192 1.19197 1.19161 1.19184 1.19198 1.19193 1.19191 1.19187 1.19207 1.1919 1.1916 1.19159 1.19179 1.192 1.19174 1.19179 1.19216 1.19189 1.19175 1.19163 1.19171 1.19172 1.19159 1.19171 1.19193 1.19211 1.1919 1.19175 1.19178 1.19178 1.19172 1.19184 1.19172 1.19183 1.19171 1.1918 1.19188 1.19183 1.19165 1.19187 1.19179 1.19181 1.19171 1.1917 1.19186 1.19182 1.19179 1.19186 1.19178 1.19175 1.19173 1.19188 1.19174 1.19178 1.19179 1.19187 1.1917 1.19171 1.19177 1.19181 1.19178 1.1918 1.19177 1.19184 1.19192 1.19185 1.19171 1.19221 1.19137 1.19202 1.19203 1.192 1.19186 1.19221 1.19192 1.19197 1.19242 1.19217 1.19211 1.19212 1.19216 1.19189 1.19126 1.19218 1.19156 1.19127 1.19145 1.19192 1.19185 1.19169 1.19199 1.19172 1.19166 1.19178 1.19186 1.19186 1.19212 1.19175 1.1915 1.19186 1.1916 1.19211 1.19183 1.19186 1.1919 1.19187 1.19179 1.19187 1.19178 1.19166 1.19168 1.19178 1.1921 1.19156 1.19188 1.19159 1.19178 1.19198 1.19097 1.19204 1.1922 1.19199 1.19163 1.19169 1.19183 1.19175 1.1916 1.19175 1.19196 1.19213 1.19177 1.19175 1.19172 1.19167 1.19176 1.19183 1.19183 1.19193 1.19178 1.19176 1.19175 1.1918 1.19192 1.19176 1.19169 1.19167 1.19184 1.19181 1.19179 1.19187 1.19175 1.19178 1.19193 1.19196 1.19178 1.19177 1.19187 1.1917 1.19179 1.19178 1.19182 1.19169 1.19173 1.19179 1.19184 1.19191 1.19178 1.19172 1.19241 1.19172 1.192 1.19201 1.19191 1.19178 1.1923 1.19204 1.19241 1.19217 1.19226 1.19206 1.19207 1.19177 1.19193 1.19219 1.19126 1.19177 1.1917 1.19185 1.19178 1.19194 1.19182 1.19209 1.1915 1.19185 1.19176 1.19181 1.19186 1.19174 1.19164 1.19174 1.19172 1.19186 1.19176 1.19182 1.1919 1.19183 1.19189 1.19141 1.19179 1.19135 1.19174 1.19176 1.19155 1.19148 1.19164 1.19186 1.19121 1.1913 1.19198 1.19197 1.1922 1.19171 1.19201 1.19166 1.19189 1.1918 1.19159 1.19172 1.19192 1.19185 1.19169 1.19173 1.19174 1.19171 1.19188 1.19171 1.1918 1.192 1.19162 1.19198 1.19165 1.19172 1.19179 1.19173 1.19187 1.19173 1.19169 1.19166 1.19183 1.19178 1.1918 1.19176 1.19166 1.19179 1.19193 1.19193 1.19184 1.19183 1.19178 1.1918 1.19174 1.19169 1.19175 1.19173 1.19185 1.19138 1.19159 1.19203 1.19214 1.19165 1.19245 1.19205 1.19222 1.19197 1.19186 1.19178 1.19178 1.19235 1.19239 1.192 1.19247 1.19181 1.19201 1.19226 1.19209 1.19131 1.19184 1.19161 1.19195 1.19203 1.19179 1.19172 1.19194 1.19231 1.19179 1.19168 1.19173 1.19178 1.19175 1.19156 1.19174 1.19185 1.19163 1.19175 1.19172 1.19184 1.19155 1.19181 1.19167 1.19137 1.19179 1.19171 1.19154 1.19149 1.19167 1.1919 1.1912 1.19131 1.19196 1.19195 1.19216 1.19168 1.19199 1.19165 1.19179 1.19182 1.19171 1.19178 1.19141 1.19162 1.19169 1.1917 1.19176 1.19173 1.19188 1.19173 1.1918 1.19167 1.19172 1.19188 1.19161 1.19171 1.19173 1.19178 1.19184 1.19178 1.19173 1.19164 1.19155 1.19184 1.1918 1.19165 1.1917 1.19184 1.19196 1.19188 1.19182 1.1919 1.19184 1.19176 1.19176 1.19171 1.19169 1.19185 1.19171 1.19167 1.19189 1.19221 1.19178 1.19147 1.192 1.19197 1.1923 1.19208 1.1921 1.19218 1.19215 1.19232 1.19191 1.19186 1.19228 1.19177 1.19197 1.19198 1.1922 1.19289 1.19226 1.19134 1.19206 1.19177 1.19206 1.19176 1.19156 1.19199 1.19241 1.19181 1.19174 1.19151 1.19167 1.1917 1.1918 1.19166 1.19167 1.19182 1.19174 1.19172 1.19169 1.19182 1.19158 1.19149 1.19179 1.19173 1.19171 1.19153 1.19147 1.19189 1.19189 1.1912 1.19125 1.19186 1.19181 1.19203 1.19199 1.19188 1.19166 1.19181 1.19179 1.19177 1.19176 1.19138 1.19155 1.19164 1.19177 1.19175 1.19189 1.19178 1.19175 1.19171 1.19174 1.19183 1.19161 1.19172 1.19176 1.19176 1.19183 1.19176 1.1917 1.19168 1.19158 1.19185 1.1918 1.19164 1.19177 1.1918 1.19169 1.19189 1.19182 1.19186 1.1918 1.19196 1.19172 1.19168 1.19169 1.19203 1.19194 1.19115 1.19219 1.19239 1.19205 1.19138 1.19187 1.19174 1.19235 1.19206 1.19209 1.19238 1.19211 1.19216 1.19181 1.19175 1.19212 1.19178 1.19166 1.19253 1.19287 1.19224 1.19134 1.19127 1.19209 1.19177 1.19206 1.19198 1.19115 1.19167 1.19172 1.19239 1.19184 1.19158 1.19148 1.19169 1.19172 1.19179 1.1917 1.19172 1.19172 1.19163 1.19169 1.19158 1.19156 1.19166 1.19173 1.19174 1.19166 1.19171 1.19172 1.19175 1.19183 1.19156 1.19177 1.19173 1.1918 1.192 1.19165 1.19179 1.19166 1.19181 1.19188 1.1918 1.19142 1.19148 1.1916 1.19175 1.19188 1.19176 1.19172 1.1918 1.19166 1.19179 1.19179 1.19175 1.19173 1.1918 1.19171 1.19177 1.19168 1.19171 1.19179 1.19182 1.19178 1.19165 1.19178 1.19179 1.19168 1.19169 1.19188 1.19184 1.1919 1.19186 1.19202 1.19167 1.19143 1.19226 1.19201 1.19161 1.19177 1.19234 1.19204 1.1918 1.19158 1.1917 1.19228 1.19225 1.19211 1.19227 1.19218 1.19207 1.19165 1.19172 1.19206 1.192 1.1917 1.19253 1.1925 1.19135 1.1922 1.19215 1.19214 1.19212 1.19187 1.19178 1.19113 1.19164 1.1918 1.19168 1.19199 1.19154 1.19148 1.19154 1.19164 1.19172 1.19169 1.19172 1.19167 1.19157 1.19164 1.19156 1.19191 1.19165 1.19174 1.19166 1.19155 1.19152 1.19174 1.19152 1.19172 1.19188 1.1916 1.19178 1.1916 1.1917 1.19196 1.19165 1.19177 1.19166 1.19184 1.19179 1.19179 1.19175 1.19182 1.1914 1.19157 1.19154 1.1915 1.19175 1.19178 1.19175 1.19172 1.19177 1.19166 1.1918 1.19179 1.19177 1.19173 1.19179 1.19171 1.19178 1.19167 1.1918 1.19159 1.19185 1.19179 1.19164 1.19185 1.19175 1.19163 1.19166 1.19206 1.19185 1.19191 1.19185 1.19199 1.19166 1.19178 1.19224 1.19178 1.1918 1.19168 1.1922 1.19217 1.1919 1.19175 1.19193 1.19245 1.19207 1.19219 1.19226 1.19174 1.19201 1.19183 1.1915 1.19223 1.19204 1.19176 1.1924 1.19239 1.19177 1.19216 1.19209 1.19183 1.19163 1.19159 1.19166 1.1917 1.19192 1.19185 1.19153 1.19162 1.19101 1.19168 1.19169 1.19178 1.19172 1.1917 1.19154 1.1916 1.19155 1.19192 1.19164 1.19159 1.19181 1.19182 1.19166 1.19154 1.1915 1.19138 1.19156 1.19186 1.19157 1.19178 1.19159 1.19169 1.19195 1.19153 1.19172 1.19165 1.19178 1.19174 1.19175 1.1918 1.19167 1.19149 1.1916 1.19151 1.19145 1.19152 1.19175 1.19173 1.19178 1.19166 1.1918 1.1918 1.19178 1.19173 1.19179 1.19171 1.19163 1.19161 1.19165 1.19159 1.19178 1.19178 1.19164 1.19171 1.19176 1.19162 1.19166 1.19204 1.19188 1.19178 1.19166 1.19192 1.19192 1.19206 1.19148 1.19203 1.19268 1.19178 1.19213 1.19216 1.19176 1.19182 1.19261 1.19149 1.19141 1.19242 1.19205 1.19201 1.1921 1.19192 1.19205 1.19235 1.19181 1.19199 1.19173 1.19238 1.19238 1.19175 1.19182 1.19179 1.19229 1.19164 1.19178 1.19161 1.19221 1.19168 1.192 1.19141 1.19165 1.19139 1.19169 1.19178 1.19178 1.19177 1.19183 1.19164 1.19157 1.19153 1.19167 1.19161 1.19188 1.19165 1.19165 1.19154 1.19167 1.19142 1.19157 1.19184 1.19157 1.19164 1.19156 1.19169 1.19194 1.19166 1.1917 1.19167 1.19178 1.19173 1.19177 1.19179 1.19168 1.19161 1.1915 1.19141 1.19152 1.19151 1.19149 1.19165 1.19171 1.19179 1.19165 1.19179 1.19171 1.19179 1.19172 1.19174 1.19171 1.19162 1.19162 1.19165 1.19168 1.19178 1.1918 1.19178 1.1917 1.19175 1.1916 1.19172 1.19221 1.19185 1.19157 1.19164 1.1919 1.19193 1.19195 1.19187 1.1916 1.19225 1.19276 1.19228 1.19209 1.19215 1.19189 1.19172 1.19255 1.19197 1.19229 1.19202 1.19184 1.19214 1.19206 1.19229 1.19186 1.1919 1.19171 1.19242 1.19237 1.19173 1.19175 1.19185 1.19198 1.19205 1.19218 1.19164 1.19133 1.19173 1.19221 1.19177 1.19194 1.19139 1.19164 1.19138 1.19178 1.19205 1.19167 1.19182 1.19184 1.19169 1.19167 1.1915 1.1918 1.19159 1.19178 1.19164 1.19167 1.19168 1.19163 1.19142 1.19177 1.19171 1.19168 1.19163 1.19154 1.19176 1.19159 1.19163 1.19163 1.19172 1.19178 1.19178 1.19177 1.19179 1.19182 1.19181 1.19143 1.19154 1.19178 1.19148 1.19163 1.19178 1.19181 1.19172 1.19178 1.19177 1.19177 1.19172 1.19174 1.19171 1.19173 1.19171 1.19178 1.19165 1.19178 1.19178 1.19178 1.19161 1.19169 1.19167 1.19175 1.1922 1.19179 1.19153 1.192 1.19166 1.19188 1.19189 1.19173 1.19179 1.19257 1.19176 1.19223 1.19198 1.19179 1.19253 1.19201 1.19179 1.19218 1.19176 1.19199 1.1918 1.19203 1.1922 1.19186 1.19202 1.19184 1.19128 1.19231 1.19178 1.19179 1.19196 1.1916 1.19149 1.19155 1.19134 1.19187 1.19164 1.19176 1.19195 1.19145 1.1917 1.19144 1.19178 1.19171 1.19177 1.19181 1.19182 1.19168 1.19152 1.19154 1.19194 1.19158 1.19154 1.19167 1.19171 1.1916 1.19155 1.19141 1.19151 1.19172 1.19169 1.19163 1.19153 1.19174 1.19178 1.19159 1.19162 1.19174 1.19174 1.19179 1.19175 1.19174 1.1918 1.19176 1.19146 1.19164 1.19171 1.19148 1.19171 1.19176 1.1917 1.19178 1.19177 1.19177 1.19173 1.19173 1.19178 1.19178 1.19181 1.19179 1.19164 1.19194 1.19198 1.19176 1.19178 1.19164 1.19181 1.19179 1.19176 1.19183 1.19168 1.19169 1.19176 1.19153 1.19191 1.19183 1.19188 1.19179 1.19182 1.19213 1.1922 1.19225 1.19264 1.19224 1.19173 1.19162 1.19231 1.19199 1.19173 1.192 1.19173 1.1917 1.19187 1.19197 1.19201 1.19177 1.19125 1.19231 1.19178 1.19171 1.19148 1.19155 1.19148 1.19151 1.19131 1.19181 1.19201 1.19161 1.19193 1.19153 1.1916 1.19172 1.19147 1.19172 1.19181 1.19168 1.19165 1.19164 1.1915 1.19155 1.19178 1.19164 1.19159 1.19178 1.19192 1.19168 1.19178 1.19177 1.19154 1.19196 1.19168 1.19163 1.19184 1.19165 1.1915 1.19158 1.19162 1.19174 1.19178 1.19178 1.19175 1.19174 1.19177 1.19176 1.19176 1.19174 1.1917 1.19146 1.1917 1.19176 1.1917 1.19178 1.19176 1.19173 1.19173 1.19176 1.19179 1.1917 1.19179 1.19181 1.19195 1.19174 1.19177 1.19169 1.19188 1.19176 1.19185 1.1918 1.19156 1.19182 1.19159 1.19167 1.19147 1.19189 1.19192 1.19195 1.19183 1.1916 1.1918 1.19204 1.1922 1.19206 1.19224 1.19227 1.19178 1.19165 1.19109 1.19174 1.19211 1.19297 1.1916 1.19172 1.19203 1.19187 1.19209 1.19174 1.19128 1.19238 1.19225 1.19143 1.19143 1.19151 1.19149 1.19171 1.1918 1.19201 1.19156 1.19188 1.19148 1.19155 1.19175 1.19177 1.1917 1.19179 1.19136 1.19166 1.19165 1.19147 1.19169 1.19172 1.19169 1.19156 1.19167 1.19194 1.19176 1.19179 1.19183 1.19167 1.19172 1.19178 1.19168 1.19164 1.19178 1.19178 1.19154 1.19159 1.19161 1.19174 1.19179 1.19177 1.19178 1.19178 1.19177 1.19175 1.19176 1.19174 1.19178 1.19148 1.19171 1.19177 1.19178 1.19178 1.19177 1.19178 1.19172 1.19176 1.19175 1.19168 1.19178 1.1918 1.1918 1.19178 1.1916 1.19178 1.19183 1.19179 1.19174 1.19181 1.19154 1.19182 1.19159 1.19145 1.19155 1.1915 1.19187 1.19173 1.19182 1.1916 1.19178 1.19194 1.19211 1.19179 1.1922 1.19211 1.19178 1.19171 1.19117 1.19163 1.19281 1.19109 1.19177 1.19166 1.19204 1.19177 1.19083 1.1915 1.19139 1.19209 1.19192 1.19208 1.19144 1.19166 1.19178 1.19128 1.19177 1.19141 1.19165 1.19203 1.1919 1.19154 1.19153 1.19181 1.19176 1.19181 1.19164 1.19178 1.19182 1.19178 1.19166 1.1918 1.19169 1.19172 1.19168 1.19155 1.19165 1.19167 1.19176 1.19173 1.19177 1.19166 1.19168 1.19165 1.19174 1.19167 1.1916 1.19168 1.1916 1.19174 1.19174 1.19176 1.19178 1.19178 1.19177 1.19176 1.19176 1.19178 1.19178 1.19178 1.19172 1.19177 1.19178 1.19178 1.19178 1.19178 1.19172 1.19176 1.19175 1.19178 1.19177 1.19176 1.19173 1.19176 1.1916 1.19174 1.19184 1.19161 1.19159 1.19171 1.19154 1.19143 1.19169 1.19149 1.19144 1.19164 1.19122 1.19159 1.19188 1.19157 1.1917 1.19161 1.19185 1.1918 1.19163 1.19232 1.19201 1.19208 1.19183 1.19127 1.19153 1.1921 1.19212 1.19094 1.1914 1.19217 1.19189 1.19169 1.19113 1.19115 1.19176 1.19178 1.19142 1.19166 1.19151 1.19122 1.19172 1.19169 1.19158 1.19172 1.19152 1.19154 1.19158 1.1918 1.19158 1.1918 1.1918 1.19178 1.19184 1.19166 1.19178 1.1917 1.19179 1.19169 1.19154 1.19165 1.19167 1.19173 1.19178 1.19177 1.19181 1.19168 1.19174 1.19167 1.19149 1.19165 1.19167 1.1916 1.19174 1.19178 1.19176 1.19178 1.19178 1.19177 1.19176 1.19176 1.19178 1.19178 1.19178 1.19172 1.19178 1.19178 1.19178 1.19178 1.19178 1.19172 1.19176 1.19175 1.19176 1.19176 1.19178 1.19179 1.19163 1.19176 1.1917 1.1918 1.19163 1.19161 1.19178 1.19137 1.19169 1.19152 1.19147 1.191 1.19162 1.19141 1.19133 1.19153 1.19138 1.19159 1.19188 1.19243 1.19199 1.19146 1.19158 1.19129 1.19159 1.19196 1.19086 1.19159 1.19182 1.1914 1.19131 1.19115 1.1915 1.19077 1.19149 1.19075 1.19104 1.19206 1.19102 1.19147 1.19166 1.1918 1.19177 1.19172 1.19152 1.19154 1.19162 1.19162 1.19149 1.19164 1.19178 1.19168 1.1918 1.19167 1.19167 1.19166 1.19165 1.19176 1.19182 1.19163 1.19177 1.19162 1.1917 1.19174 1.19174 1.19166 1.19174 1.19168 1.19175 1.19169 1.19176 1.19148 1.19149 1.19151 1.19165 1.19174 1.19159 1.1915 1.19124 1.19155 1.19169 1.19194 1.19244 1.19186 1.19185 1.19199 1.19146 1.19207 1.19186 1.19192 1.19183 1.1919 1.19111 1.1917 1.19138 1.1917 1.19162 1.19118 1.19151 1.1917 1.19184 1.19121 1.19176 1.19159 1.19191 1.19154 1.19202 1.19183 1.19189 1.1919 1.19222 1.19212 1.19151 1.1913 1.19154 1.19093 1.19105 1.19138 1.1915 1.19187 1.19145 1.19198 1.19165 1.19198 1.19137 1.19175 1.19206 1.192 1.19204 1.19213 1.19168 1.19118 1.19171 1.19157 1.19137 1.19178 1.19109 1.19164 1.19147 1.19184 1.19161 1.19205 1.19158 1.19121 1.192 1.19166 1.1916 1.19203 1.19201 1.192 1.19181 1.19201 1.19185 1.19117 1.19166 1.19178 1.19177 1.1914 1.19123 1.19096 1.19104 1.19163 1.19178 1.19178 1.19183 1.19165 1.19124 1.19188 1.19138 1.19181 1.1915 1.19176 1.19205 1.1917 1.19165 1.19186 1.1914 1.1911 1.19081 1.19134 1.19226 1.19178 1.19178 1.19178 1.19178 1.19163 1.19154 1.19195 1.19134 1.19176 1.19201 1.19201 1.19211 1.1916 1.19223 1.19169 1.19205 1.19167 1.19212 1.1914 1.19081 1.19216 1.19192 1.19199 1.19178 1.19178 1.19178 1.19178 1.19178 1.19178 1.19178 1.19178 1.19178 1.19178 1.19178 1.19178 1.19178 1.19178 1.19178 1.19178 1.19178 1.19178 1.19178 1.19178 1.19178 1.19178 1.19178 1.19178 1.19178 1.19178 1.19178 1.19178 1.19178 1.19172 1.19166 1.19163 1.19211 1.19247 1.19147 1.19168 1.19142 1.19141 1.19265 1.19139 1.19226 1.19173 1.19149 1.19163 1.19189 1.1925 1.19196 1.19194 1.19192 1.19178 1.19178 1.19178 1.19178 1.19178 1.19178 1.19178 1.19178 1.19178 1.19178 1.19178 1.19178 1.19178 1.19178 1.19178 1.19178 1.19178 1.19178 1.19178 1.19178 1.19178 1.19178 1.19178 1.19178 1.19178 1.19178 1.19178 1.19178 1.19178 1.19154 1.19154 1.19171 1.19153 1.19203 1.19136 1.19142 1.19312 1.19241 1.19168 1.19169 1.19248 1.19217 1.19126 1.19151 1.19178 1.19225 1.1921 1.19181 1.19218 1.19206 1.19192 1.19152 1.19178 1.19178 1.19178 1.19178 1.19178 1.19178 1.19178 1.19178 1.19178 1.19178 1.19178 1.19178 1.19178 1.19178 1.19178 1.19178 1.19178 1.19178 1.19178 1.19178 1.19178 1.19178 1.19178 1.19178 1.19178 1.19178 1.19178 1.19178 1.19178 1.19178 1.19178 1.19178 1.19178 1.19178 1.19178 1.19178 1.19178 1.19178 1.19178 1.19178 1.19181 1.19181 1.19196 1.19142 1.19263 1.19149 1.19215 1.19146 1.19198 1.19133 1.19148 1.19119 1.19234 1.19201 1.19131 1.19065 1.19115 1.1911 1.19143 1.19169 1.19188 1.19283 1.19201 1.19182 1.19297 1.19207 1.19172 1.1921 1.19178 1.19177 1.19178 1.19178 1.19178 1.19178 1.19178 1.19178 1.19178 1.19178 1.19178 1.19178 1.19178 1.19178 1.19178 1.19178 1.19178 1.19178 1.19178 1.19178 1.19178 1.19178 1.19178 1.19178 1.19178 1.19178 1.19178 1.19178 1.19178 1.19178 1.19178 1.19178 1.19178 1.19178 1.19178 1.19178 1.19178 1.19178 1.19178 1.19178 1.19178 1.19178 1.19178 1.19178 1.19178 1.19178 1.19178 1.19178 1.19178 1.19145 1.19104 1.19165 1.19152 1.19204 1.19139 1.19184 1.19158 1.19157 1.19244 1.19199 1.19133 1.19105 1.19163 1.19256 1.19207 1.19259 1.19204 1.19158 1.1915 1.19227 1.19176 1.19184 1.19178 1.19178 1.19178 1.19178 1.19178 1.19178 1.19178 1.19178 1.19178 1.19178 1.19178 1.19178 1.19178 1.19178 1.19178 1.19178 1.19178 1.19178 1.19178 1.19178 1.19178 1.19178 1.19178 1.19178 1.19178 1.19178 1.19178 1.19178 1.19178 1.19178 1.19178 1.19178 1.19178 1.19178 1.19178 1.19178 1.19178 1.19178 1.19178 1.19178 1.19178 1.19178 1.19175 1.19178 1.19175 1.19149 1.19225 1.19147 1.19136 1.19188 1.19156 1.19158 1.19236 1.19192 1.19144 1.19077 1.1912 1.19178 1.19117 1.19252 1.19234 1.19196 1.19223 1.19156 1.19124 1.19176 1.19178 1.19178 1.19178 1.19178 1.19178 1.19178 1.19178 1.19178 1.19178 1.19178 1.19178 1.19178 1.19178 1.19178 1.19178 1.19178 1.19178 1.19178 1.19178 1.19178 1.19178 1.19178 1.19178 1.19178 1.19178 1.19178 1.19178 1.19178 1.19178 1.19178 1.19178 1.19178 1.19178 1.19178 1.19178 1.19178 1.19178 1.19178 1.19178 1.19178 1.19178 1.19178 1.19178 1.19178 1.19178 1.19178 1.19178 1.19172 1.19178 1.19178 1.19189 1.19086 1.19392 1.19189 1.19152 1.18966 1.1916 1.19272 1.19278 1.19282 1.19207 1.19247 1.19222 1.19234 1.1925 1.19271 1.19177 1.19202 1.19191 1.19149 1.19136 1.19163 1.19197 1.19232 1.19178 1.19178 1.19177 1.19178 1.19178 1.19178 1.19178 1.19178 1.19178 1.19178 1.19178 1.19178 1.19178 1.19178 1.19178 1.19178 1.19178 1.19178 1.19178 1.19178 1.19178 1.19178 1.19178 1.19178 1.19178 1.19178 1.19178 1.19178 1.19178 1.19178 1.19178 1.19178 1.19178 1.19178 1.19178 1.19178 1.19178 1.19178 1.19178 1.19178 1.19178 1.19178 1.19178 1.19178 1.19178 1.19178 1.19178 1.19178 1.1922 1.19324 1.19348 1.19337 1.19272 1.192 1.19278 1.19273 1.19381 1.19257 1.1928 1.19257 1.19384 1.19169 1.19175 1.19305 1.19178 1.19137 1.19266 1.19092 1.19165 1.19178 1.19178 1.19178 1.19178 1.19178 1.19178 1.19178 1.19178 1.19178 1.19178 1.19178 1.19178 1.19178 1.19178 1.19178 1.19178 1.19178 1.19178 1.19178 1.19178 1.19178 1.19178 1.19178 1.19178 1.19178 1.19178 1.19178 1.19178 1.19178 1.19178 1.19178 1.19178 1.19178 1.19178 1.19178 1.19178 1.19178 1.19178 1.19178 1.19178 1.19178 1.1924 1.19218 1.19302 1.19688 1.19012 1.19064 1.19212 1.19287 1.19164 1.1914 1.19352 1.19269 1.19256 1.19271 1.19363 1.19143 1.19161 1.19253 1.19178 1.19405 1.19205 1.19184 1.19178 1.19178 1.19178 1.19178 1.19178 1.19178 1.19178 1.19178 1.19178 1.19178 1.19178 1.19178 1.19178 1.19178 1.19178 1.19178 1.19178 1.19178 1.19178 1.19178 1.19178 1.19178 1.19178 1.19178 1.19178 1.19178 1.19178 1.19178 1.19178 1.19178 1.19178 1.19178 1.19178 1.19178 1.19178 1.19178 1.19178 1.19178 1.19178 1.19226 1.19218 1.19587 1.19639 1.19156 1.19168 1.19177 1.19181 1.191 1.19403 1.1921 1.19223 1.19138 1.19055 1.19463 1.19289 1.19189 1.19181 1.19178 1.19178 1.19178 1.19178 1.19178 1.19178 1.19178 1.19178 1.19178 1.19178 1.19178 1.19178 1.19178 1.19175 1.19178 1.19178 1.19178 1.19178 1.19178 1.19178 1.19178 1.19178 1.19178 1.19178 1.19178 1.19178 1.19178 1.19178 1.19178 1.19178 1.19178 1.19178 1.19178 1.19178 1.19178 1.19178 1.19178 1.19178 1.19178 1.19178 1.19178 1.19178 1.19178 1.19178 1.19178 1.19195 1.19125 1.19624 1.19204 1.19142 1.19296 1.19437 1.19316 1.19231 1.19394 1.19037 1.1924 1.18995 1.19483 1.19373 1.19262 1.1925 1.19246 1.1918 1.19178 1.19178 1.19178 1.19178 1.19178 1.19178 1.19178 1.19178 1.19178 1.19178 1.19178 1.19178 1.19178 1.19178 1.19178 1.19178 1.19178 1.19178 1.19178 1.19178 1.19178 1.19178 1.19178 1.19178 1.19178 1.19178 1.19178 1.19178 1.19178 1.19178 1.19178 1.19178 1.19134 1.19143 1.19192 1.19497 1.19179 1.19134 1.19257 1.19315 1.19234 1.19245 1.19314 1.19273 1.19114 1.19168 1.19395 1.19303 1.19159 1.19237 1.1924 1.19157 1.19142 1.19147 1.19178 1.19178 1.19178 1.19178 1.19178 1.19178 1.19178 1.19178 1.19178 1.19178 1.19178 1.19178 1.19178 1.19178 1.19178 1.19178 1.19178 1.19178 1.19178 1.19178 1.19178 1.19178 1.19178 1.19178 1.19178 1.19114 1.19113 1.19227 1.19184 1.19121 1.19253 1.19165 1.19303 1.19128 1.19255 1.19186 1.19027 1.19494 1.19266 1.18986 1.19292 1.19296 1.19092 1.19224 1.19173 1.19102 1.19178 1.19178 1.19178 1.19178 1.19178 1.19178 1.19178 1.19178 1.19178 1.19178 1.19178 1.19178 1.19178 1.19178 1.19178 1.19178 1.19178 1.19178 1.19178 1.19178 1.19178 1.19178 1.19178 1.19178 1.18943 1.19035 1.19153 1.19247 1.19148 1.19251 1.19271 1.19178 1.19147 1.19002 1.19809 1.1932 1.19007 1.19403 1.19178 1.19178 1.19178 1.19178 1.19234 1.19093 1.1919 1.19178 1.19178 1.19178 1.19178 1.19178 1.19178 1.19178 1.19178 1.19178 1.19178 1.19178 1.19178 1.19178 1.56839 1.19354 1.19178 1.19624 1.18901 1.18691 1.1898 1.19082 1.19077 1.19151 1.19256 1.19159 1.19148 1.19118 1.19074 1.19777 1.19134 1.1915 1.19236 1.19072 1.19129 1.1905 1.19178 1.19178 1.19178 1.19178 1.19178 1.19178 1.19178 1.19178 1.19178 1.19178 1.19178 0.00970336 0.0746656 0.0592751 0.0281478 0.0674104 0.066668 0.0998923 0.0889479 0.0470162 1.19178 0.229801 1.19178 0.216872 0.161845 0.113309 0.215436 0.226117 0.0482364 0.0960363 0.0822729 0.0976482 0.136102 0.0707486 0.117536 0.126701 0.106895 0.0231121 0.11969 0.223686 0.270127 1.15488 0.208311 1.19279 1.24058 1.69917 0.295213 0.14908 0.205543 0.212093 0.074265 0.0235986 0.0500537 0.107879 0.0681982 0.0202561 0.144493 0.190418 0.182203 0.183253 0.209431 0.315749 0.809962 0.50004 1.19187 1.19177 0.203263 1.19955 1.18832 1.18718 1.2078 1.19257 1.18808 1.19239 1.19134 1.18865 1.18949 1.18675 1.189 1.1918 1.19091 1.19346 1.19089 1.19018 1.1903 1.18784 1.18859 1.19271 1.19178 1.18955 0.347557 0.836753 1.19178 0.166059 0.0781332 0.0865326 0.112171 0.196106 0.293277 0.361734 0.5335 0.936854 1.82549 2.06966 0.0729671 0.204797 0.313501 0.271109 0.460126 0.354054 0.22291 0.26999 1.19177 1.19178 0.363232 0.223409 1.19178 1.19178 0.390906 4.18519 1.19178 0.777545 0.333961 0.419929 0.755803 0.656541 0.298177 0.20855 0.193327 0.0935838 0.130031 0.193109 1.19178 0.247524 1.19178 0.1013 0.0661116 0.0947853 0.0739604 0.0984674 0.0492941 0.0411359 0.0116306 0.0485934 0.0241638 0.0764679 0.0681991 0.0806674 0.19523 0.205994 0.195511 0.107639 0.0470386 0.178121 0.0250795 0.157139 0.117627 0.308157 0.342256 0.591277 0.495842 0.592793 0.389393 0.320956 0.120148 0.1804 0.101628 0.111521 0.155177 0.0997435 0.184222 0.161733 0.0995896 0.0776889 0.00510413 0.0655042 0.115476 0.082018 0.131376 0.196391 0.316058 0.240729 0.221985 0.303243 0.628767 1.42091 0.0346274 0.97902 0.257125 0.166364 0.0689899 0.307369 0.300352 0.211931 0.107996 0.192268 0.0491626 0.116295 0.18991 0.157914 0.0338535 0.0397228 0.0511575 0.0699528 0.146428 0.0787128 0.0987586 0.160729 0.119303 0.10798 0.179651 0.133713 0.125494 0.14488 0.159354 0.341649 0.155092 0.369989 0.382849 0.44208 0.417592 0.298141 0.173771 0.320105 0.261625 1.19196 1.19525 1.19197 1.19178 1.19132 1.18859 1.1888 1.19122 1.19291 1.19178 1.19288 1.19712 1.19062 1.19084 1.19056 1.19028 1.18744 1.19178 1.19178 0.169858 0.545343 0.570318 0.324163 0.0612678 0.16452 0.646631 0.092562 0.189703 0.166336 0.130701 0.291964 0.254585 0.246896 0.326128 0.442062 0.328077 0.655998 0.473598 0.564618 0.82451 1.46978 1.59248 0.523091 0.12187 1.27977 0.202766 0.294235 0.299073 0.288182 0.386339 0.20456 0.211901 0.186437 0.23862 0.153235 0.457627 0.406045 0.348664 0.296658 0.104835 0.284062 0.260956 0.376608 0.822927 1.69903 1.76942 0.547319 0.23347 0.722957 0.198194 0.869871 0.43031 0.281017 0.410272 0.179515 0.223575 0.284047 0.370899 0.303305 0.0211297 0.200584 0.347029 0.499724 0.636965 0.124667 0.128672 0.16325 0.0568007 0.132382 0.140885 0.189046 0.0438454 0.110648 0.0862831 0.0810493 0.0475053 0.0515538 0.0464824 0.0542793 0.0562919 0.117137 0.0647819 0.167375 0.164723 0.120599 0.0572576 0.0712417 0.0323356 0.0436549 0.257667 0.460688 0.317817 0.0676415 0.355043 0.501274 0.448552 0.298957 0.291072 0.165483 0.0824513 0.0723146 0.0769474 0.0522 0.112752 0.203786 0.184597 0.057 0.00749325 0.0113503 0.0275362 0.169622 0.169838 0.215827 0.255059 0.371007 0.37497 0.617566 0.514097 0.389512 0.482151 0.617023 0.131224 0.331953 0.150391 0.133175 0.118454 0.120624 0.030089 0.037618 0.0649609 0.0615559 0.104736 0.0783198 0.150757 0.205552 0.209513 0.253155 0.246801 0.201657 0.163359 0.0668889 0.174806 0.0731699 0.523261 0.395021 1.19163 1.15498 1.19311 1.19226 1.19266 1.19102 1.18982 1.19269 1.19105 1.1949 1.18909 1.19193 1.19041 1.19096 1.18913 1.19393 1.18818 1.20811 1.25219 1.21699 1.19352 0.171801 0.0595884 0.241351 0.0574094 0.188667 0.185009 0.284196 0.294894 0.30393 0.345591 0.417482 0.492914 0.701156 0.673002 0.673476 0.470547 0.629636 0.520307 0.642144 0.419405 0.324148 0.416965 0.284505 0.0379225 0.214268 0.231301 0.205807 0.161308 0.232706 0.298158 0.330773 0.973772 0.773723 0.357102 0.34844 0.303159 0.232343 0.525599 0.413804 0.311863 0.0856523 0.0806889 0.163956 0.324278 0.220349 0.207193 0.205283 0.528597 0.267617 0.85679 0.814638 0.2301 0.11292 0.141869 0.139657 0.196327 0.0149212 0.0425802 0.0538817 0.0592896 0.0595675 0.0469888 0.0500667 0.12491 0.125185 0.147117 0.089262 0.131444 0.077786 0.0954653 0.0872792 0.153251 0.123884 0.245278 0.220784 0.22451 0.203461 0.397468 0.327821 0.376542 0.0774867 0.14276 0.05713 0.326435 0.165543 0.210952 0.0598976 0.020838 0.0513531 0.186596 0.192657 0.283547 0.224576 0.192727 0.274503 0.258647 0.242789 0.32042 0.21419 0.194604 0.256416 0.294398 0.118186 0.278499 0.110505 0.0447598 0.04042 0.057117 0.0646558 0.0993005 0.128671 0.146188 0.18035 0.217432 0.206914 0.173483 0.155041 0.146287 0.159497 0.149821 0.21159 0.222758 0.263729 0.0821626 0.169952 1.19951 1.15991 1.1944 1.22422 1.22441 1.19025 1.14625 1.18881 1.19284 1.17788 1.19323 1.1918 1.18512 1.19366 1.18733 1.1898 1.19655 1.19087 1.16834 1.1526 1.25344 1.21396 1.16026 0.0751295 0.111569 0.0680266 0.0800698 0.10462 0.17455 0.171894 0.2128 0.273051 0.252876 0.279911 0.353269 0.439663 0.450904 0.66787 0.448452 0.491685 0.230772 0.553049 0.378239 0.25811 0.315088 0.566595 0.407089 0.421508 0.374867 0.37823 0.313024 0.325106 0.178079 0.29805 0.202604 0.193645 0.127366 0.243832 0.276342 0.306928 0.286856 0.254647 0.258347 0.320123 0.43222 0.217145 0.136876 0.091842 0.118156 0.0669953 0.321199 0.233904 0.0213438 0.0737253 0.120858 0.120265 0.124706 0.371568 0.0213897 0.251428 0.0825712 0.197117 0.295849 0.159514 0.165787 0.064156 0.211808 0.383592 0.157905 0.168008 0.307654 0.0937706 0.0732549 0.0479338 0.0538921 0.0599002 0.0859315 0.144705 0.140876 0.12164 0.115303 0.131496 0.115497 0.098339 0.144886 0.0933583 0.117227 0.210417 0.0382292 0.0943495 0.162471 0.104887 0.377577 0.609985 0.501472 0.240942 0.300964 0.0618065 0.071181 0.0453161 0.0257781 0.0387182 0.052773 0.116597 0.0259222 0.0994924 0.183242 0.253741 0.24332 0.26512 0.365933 0.24857 0.228353 0.225057 0.257772 0.183573 0.122757 0.0709485 0.11886 0.0967958 0.0645741 0.0792801 0.116162 0.151886 0.142572 0.184046 0.150934 0.181579 0.185729 0.227142 0.220712 0.241397 0.226649 0.114584 0.08298 1.13523 1.18898 1.18656 1.19007 1.18404 1.1583 1.05694 1.19178 0.0562048 0.0410773 0.0397147 0.111437 0.121323 0.146258 0.134444 0.171431 0.228483 0.213633 0.239348 0.258246 0.283682 0.34648 0.342772 0.291997 0.273152 0.336004 0.296829 0.268934 0.268272 0.273368 0.35883 0.323576 0.312707 0.32014 0.257271 0.269311 0.215219 0.206484 0.103289 0.169363 0.117452 0.0458327 0.117949 0.143392 0.263537 0.242477 0.221239 0.210414 0.175195 0.13942 0.0922198 0.0940707 0.0963058 0.0438922 0.154645 0.088937 0.136819 0.108277 0.086824 0.040902 0.0447794 0.0696337 0.0634808 0.0865489 0.0413747 0.170361 0.305602 0.602758 0.589787 0.184231 0.108679 0.0886089 0.126236 0.104806 0.0408039 0.0929892 0.0888911 0.108125 0.126815 0.135791 0.119771 0.1087 0.105583 0.0546917 0.0457259 0.0922422 0.0207776 0.0766124 0.0899642 0.0816046 0.509065 0.244189 0.498565 0.0852519 0.091435 0.241332 0.0571589 0.061914 0.0385248 0.038465 0.0369646 0.130278 0.142445 0.207882 0.150192 0.186673 0.200511 0.212304 0.197311 0.148608 0.122552 0.10765 0.0920957 0.0847514 0.0996356 0.117624 0.133521 0.130681 0.158987 0.161666 0.158208 0.170004 0.194984 0.185097 0.152918 0.0822602 0.0586928 0.101721 0.126362 0.138333 0.177451 0.175164 0.210394 0.252959 0.225415 0.282522 0.284345 0.254062 0.239415 0.226611 0.260011 0.220035 0.256905 0.233788 0.291152 0.258955 0.266343 0.245323 0.24671 0.230277 0.253254 0.20598 0.17428 0.165624 0.1723 0.144723 0.172961 0.151276 0.18532 0.131098 0.153865 0.150812 0.166619 0.149509 0.0899673 0.0202682 0.0851789 0.0420536 0.0470776 0.0234645 0.0391644 0.0125955 0.0259503 0.0419542 0.0468315 0.0380347 0.100765 0.0201425 0.187291 0.347892 0.239585 0.552585 0.656663 0.193048 0.391043 0.14479 0.221523 0.0905367 0.0554819 0.0972436 0.114492 0.123583 0.116988 0.132858 0.120775 0.107665 0.117136 0.0709289 0.0697577 0.0569129 0.091492 0.103125 0.158149 0.0415116 0.215563 0.154903 0.133094 0.0843792 0.119562 0.0810524 0.0779125 0.0658339 0.0438899 0.0775955 0.0680898 0.0970702 0.103588 0.0901178 0.112315 0.0990388 0.17048 0.154162 0.174437 0.186867 0.155804 0.143723 0.124218 0.132725 0.0962601 0.123172 0.12347 0.134436 0.136426 0.135299 0.150066 0.175513 0.178486 0.180737 0.198281 0.160601 0.147093 0.146823 0.110103 0.0571013 0.104435 0.131378 0.155562 0.180509 0.198336 0.23024 0.201758 0.245024 0.222344 0.200569 0.218609 0.201631 0.231803 0.22939 0.259201 0.235364 0.241318 0.222732 0.212307 0.190086 0.211547 0.173344 0.205328 0.159967 0.191966 0.182953 0.199067 0.195651 0.185778 0.130917 0.133395 0.161588 0.169441 0.14577 0.150217 0.117066 0.134158 0.0897259 0.0902008 0.0309947 0.051679 0.136495 0.0452077 0.0761055 0.0519116 0.0528583 0.108731 0.0414105 0.075766 0.390062 0.617843 0.500453 0.104689 0.131643 0.0623147 0.0408904 0.0839063 0.10449 0.119684 0.119338 0.109816 0.109045 0.109471 0.108759 0.105495 0.0599972 0.0655654 0.0874665 0.090956 0.0397355 0.049938 0.117774 0.162853 0.12402 0.122011 0.106856 0.0744014 0.0751765 0.0832553 0.0901683 0.0879454 0.0756348 0.0841671 0.0850318 0.119628 0.134828 0.149136 0.132275 0.133615 0.120738 0.125704 0.104859 0.127444 0.148628 0.127724 0.127445 0.116497 0.123428 0.164886 0.130215 0.172866 0.172914 0.161545 0.161664 0.183727 0.146266 0.102635 0.07383 0.130733 0.14018 0.140853 0.15691 0.18557 0.168585 0.183986 0.168112 0.178642 0.188648 0.18205 0.213654 0.211963 0.1987 0.209973 0.201994 0.229107 0.19734 0.16177 0.178429 0.174244 0.222571 0.223519 0.193956 0.182837 0.197816 0.180969 0.153205 0.186525 0.150169 0.169459 0.165236 0.181724 0.161408 0.115701 0.145894 0.104521 0.0838007 0.119564 0.0877797 0.0729106 0.0639547 0.106114 0.0384275 0.126253 0.169292 0.420504 0.220916 0.33199 0.134061 0.0807327 0.0388656 0.0406029 0.0910691 0.0957829 0.105967 0.11656 0.119878 0.127184 0.110297 0.102407 0.10009 0.099089 0.0980897 0.103837 0.105293 0.101748 0.105391 0.0930676 0.0673971 0.0898922 0.0637099 0.049759 0.043362 0.0496118 0.107852 0.126173 0.0969219 0.0900548 0.0931299 0.0850397 0.0773255 0.0883716 0.0896453 0.090584 0.0777306 0.0791892 0.0797343 0.0974876 0.122812 0.131919 0.13567 0.12888 0.130286 0.133442 0.140883 0.128947 0.119579 0.123713 0.101498 0.127123 0.111373 0.122567 0.158354 0.12903 0.156828 0.166193 0.155141 0.144685 0.142549 0.155945 0.17643 0.163775 0.174267 0.125311 0.0852685 0.127568 0.12027 0.119184 0.137438 0.147443 0.161441 0.168651 0.171474 0.180357 0.190215 0.192698 0.198926 0.169593 0.197093 0.184086 0.183714 0.198692 0.215628 0.198643 0.180332 0.189044 0.204641 0.185066 0.21105 0.198757 0.173638 0.195514 0.179783 0.182499 0.173822 0.144211 0.129511 0.158874 0.127529 0.110601 0.120236 0.0771774 0.0437829 0.0669576 0.0947408 0.0778596 0.299211 0.169202 0.206549 0.217177 0.208429 0.176825 0.1364 0.045442 0.0642588 0.0534996 0.0496378 0.0955739 0.105494 0.114258 0.0943675 0.109138 0.0996349 0.0966902 0.104075 0.103162 0.107609 0.0819961 0.0766381 0.0950716 0.0142364 0.0413754 0.0654908 0.0952747 0.105128 0.100174 0.0903431 0.0892679 0.0955326 0.106778 0.0935727 0.100034 0.100032 0.0937131 0.0914828 0.104127 0.100156 0.110611 0.130347 0.126131 0.137341 0.149404 0.141837 0.139125 0.128987 0.126285 0.126579 0.102487 0.138825 0.151888 0.14479 0.143609 0.139064 0.144046 0.158362 0.183883 0.10378 0.113193 0.119418 0.129215 0.134546 0.120394 0.139085 0.143768 0.141033 0.156336 0.163119 0.159685 0.142716 0.177166 0.155105 0.208729 0.200706 0.200558 0.189103 0.186186 0.198691 0.186067 0.208509 0.196252 0.207109 0.20133 0.180368 0.186246 0.186928 0.183927 0.182355 0.176001 0.131637 0.120636 0.11091 0.0888582 0.064821 0.0593991 0.077934 0.132006 0.171798 0.183733 0.157371 0.132528 0.0347875 0.0738201 0.0614584 0.0647799 0.0993142 0.100028 0.100272 0.105335 0.117529 0.118832 0.100968 0.0876043 0.08902 0.0999989 0.0950543 0.0851573 0.0846362 0.0184776 0.0438722 0.062479 0.0932278 0.101675 0.101757 0.112255 0.1111 0.117032 0.108174 0.109669 0.117002 0.0931905 0.123721 0.139008 0.138555 0.149448 0.149708 0.159456 0.148616 0.15976 0.156169 0.159131 0.150246 0.117137 0.100617 0.14753 0.143206 0.126538 0.124748 0.137608 0.146162 0.159126 0.207454 0.125251 0.115048 0.130786 0.12699 0.134055 0.112185 0.125 0.126022 0.133174 0.143052 0.142843 0.135639 0.100618 0.120555 0.212193 0.193611 0.178036 0.197931 0.184 0.169124 0.215741 0.204832 0.210792 0.192837 0.194281 0.183637 0.185825 0.196175 0.165068 0.121943 0.112686 0.108042 0.0925077 0.0694889 0.103845 0.149111 0.164499 0.158449 0.117943 0.0626091 0.0797085 0.0816496 0.0960987 0.10304 0.101887 0.108815 0.104914 0.111583 0.0841676 0.0967362 0.10904 0.108474 0.0700037 0.0962209 0.0933761 0.0809843 0.0907767 0.0415411 0.0572007 0.0726103 0.104175 0.108204 0.109269 0.105808 0.112232 0.120068 0.12012 0.127585 0.111377 0.133056 0.139208 0.144588 0.147681 0.154812 0.159165 0.158161 0.170636 0.171952 0.163355 0.165398 0.111984 0.129923 0.128153 0.0837212 0.135061 0.115358 0.125617 0.121057 0.123464 0.141132 0.141732 0.17139 0.114675 0.140204 0.13687 0.151234 0.123431 0.127215 0.12759 0.109859 0.114021 0.0998505 0.121358 0.115149 0.123689 0.106468 0.116791 0.0951231 0.0867844 0.292214 0.219325 0.150068 0.187184 0.189534 0.178968 0.173005 0.234597 0.222871 0.211378 0.196136 0.211963 0.202193 0.179003 0.193164 0.147049 0.122675 0.113011 0.0971391 0.0975987 0.0917123 0.104973 0.149342 0.157155 0.122789 0.0910421 0.0987036 0.111982 0.111539 0.0852943 0.123088 0.0706619 0.0761067 0.067306 0.107882 0.0808893 0.0874716 0.107647 0.127766 0.122736 0.125797 0.141536 0.12231 0.157811 0.147171 0.146635 0.151782 0.158571 0.172345 0.180822 0.102273 0.14623 0.0958676 0.133554 0.1114 0.128718 0.133387 0.145397 0.147234 0.129167 0.12917 0.119244 0.0991692 0.133571 0.0903741 0.100368 0.101794 0.0865345 0.216367 0.191799 0.145544 0.193731 0.19232 0.183284 0.173432 0.229955 0.225864 0.213314 0.215484 0.198642 0.166205 0.156937 0.122179 0.149607 0.119323 0.114211 0.103391 0.0988527 0.0959042 0.161253 0.149448 0.133326 0.0991688 0.0992558 0.0897248 
SCALARS Stress float 1
LOOKUP_TABLE default
-12574600000.0 -12576500000.0 -12567800000.0 -12597000000.0 -12549700000.0 -12634600000.0 -12609000000.0 -12606700000.0 -12557300000.0 -12568300000.0 -12549700000.0 -12560100000.0 -12549700000.0 -12549700000.0 -12564000000.0 -12549700000.0 -12549700000.0 -12551900000.0 -12549700000.0 -12551900000.0 -12556900000.0 -12582800000.0 -12598000000.0 -12578000000.0 -12568800000.0 -12562300000.0 -12556500000.0 -12551200000.0 -12549700000.0 -12549700000.0 -12549700000.0 -12556500000.0 -12564900000.0 -12569700000.0 -12597400000.0 -12580500000.0 -12568500000.0 -12555000000.0 -12550200000.0 -12564300000.0 -12564900000.0 -12550900000.0 -12575000000.0 -12550600000.0 -12551700000.0 -12569400000.0 -12626200000.0 -12619500000.0 -12595000000.0 -12607700000.0 -12558300000.0 -12573600000.0 -12554900000.0 -12612000000.0 -12602100000.0 -12553500000.0 -12552300000.0 -12557400000.0 -12560300000.0 -12616400000.0 -12564400000.0 -12652500000.0 -12591200000.0 -12569000000.0 -12566600000.0 -12561900000.0 -12559800000.0 -12600500000.0 -12640300000.0 -12574600000.0 -12682500000.0 -12757500000.0 -12711500000.0 -12744900000.0 -12728900000.0 -12707700000.0 -12705700000.0 -12667400000.0 -12573600000.0 -12561200000.0 -12549700000.0 -12565500000.0 -12599000000.0 -12597900000.0 -12549700000.0 -12561300000.0 -12559900000.0 -12585400000.0 -12601700000.0 -12745800000.0 -12715400000.0 -12711600000.0 -12613800000.0 -12652700000.0 -12550900000.0 -12594400000.0 -12559200000.0 -12942600000.0 -12801700000.0 -12895500000.0 -12978800000.0 -13155900000.0 -13256600000.0 -13079000000.0 -12646700000.0 -12615200000.0 -12612100000.0 -12549700000.0 -12586800000.0 -12551700000.0 -12549700000.0 -12603100000.0 -12549700000.0 -12549700000.0 -12561700000.0 -12549700000.0 -12576700000.0 -12549700000.0 -12672100000.0 -12549700000.0 -12549700000.0 -12549700000.0 -12554900000.0 -12550600000.0 -12549700000.0 -12551500000.0 -12559200000.0 -12585400000.0 -12597100000.0 -12656300000.0 -12658300000.0 -12736800000.0 -12714900000.0 -12613000000.0 -12592900000.0 -12567500000.0 -12600200000.0 -12632100000.0 -12614000000.0 -12610300000.0 -12565900000.0 -12598200000.0 -12726900000.0 -12569400000.0 -12635200000.0 -12655800000.0 -12625300000.0 -12606700000.0 -12610800000.0 -12555500000.0 -12658000000.0 -12625700000.0 -12789700000.0 -12552200000.0 -12550100000.0 -12549700000.0 -12567300000.0 -12575000000.0 -12728500000.0 -12571500000.0 -12592200000.0 -12549700000.0 -12752700000.0 -12597700000.0 -12549700000.0 -12549700000.0 -12571400000.0 -12617200000.0 -12587000000.0 -12576800000.0 -12553300000.0 -12719200000.0 -12793200000.0 -12844900000.0 -12768700000.0 -12949000000.0 -12569900000.0 -12609500000.0 -12577500000.0 -13063200000.0 -12554500000.0 -12676700000.0 -12657100000.0 -12607100000.0 -12618100000.0 -12748500000.0 -12716900000.0 -12553400000.0 -12590200000.0 -12555000000.0 -12657800000.0 -13112600000.0 -12755500000.0 -12721700000.0 -12716100000.0 -12863400000.0 -12916700000.0 -12844800000.0 -12863900000.0 -12645900000.0 -12549700000.0 -13348800000.0 -13124800000.0 -13137200000.0 -13139700000.0 -12935800000.0 -12569600000.0 -13071100000.0 -12734200000.0 -12837000000.0 -12727100000.0 -12738300000.0 -12696900000.0 -12569700000.0 -12661000000.0 -12549900000.0 -12551300000.0 -12575700000.0 -12549700000.0 -12631700000.0 -12549700000.0 -12709300000.0 -12553700000.0 -12568800000.0 -12549700000.0 -12578900000.0 -12578000000.0 -12582800000.0 -12595900000.0 -12619100000.0 -12669700000.0 -12809200000.0 -12911300000.0 -12615500000.0 -12828600000.0 -12775500000.0 -12708100000.0 -12785800000.0 -12551100000.0 -12558900000.0 -12715600000.0 -12549700000.0 -12626100000.0 -12805900000.0 -12579000000.0 -12581200000.0 -12559800000.0 -12837300000.0 -12747500000.0 -12619400000.0 -12576800000.0 -12751500000.0 -13245400000.0 -12699700000.0 -12675200000.0 -12651700000.0 -12751000000.0 -12809600000.0 -13315300000.0 -13103300000.0 -13134400000.0 -13137700000.0 -12722000000.0 -12826500000.0 -12896900000.0 -12916000000.0 -12828400000.0 -12904800000.0 -12790100000.0 -12812400000.0 -12615800000.0 -12909900000.0 -13614900000.0 -13952200000.0 -12719700000.0 -12623200000.0 -12671000000.0 -12608700000.0 -13721000000.0 -13249800000.0 -13195300000.0 -12865800000.0 -12880100000.0 -12846400000.0 -13185000000.0 -12914900000.0 -12830700000.0 -12708200000.0 -13147200000.0 -12565200000.0 -12650200000.0 -12585500000.0 -12755600000.0 -12609800000.0 -12934100000.0 -12881100000.0 -12881700000.0 -12549700000.0 -13547400000.0 -12604400000.0 -12869000000.0 -13478300000.0 -12828700000.0 -13122100000.0 -13229500000.0 -12631900000.0 -12829000000.0 -12549700000.0 -12612800000.0 -12763100000.0 -12669600000.0 -12682000000.0 -12718100000.0 -12638500000.0 -12668000000.0 -12636300000.0 -12801900000.0 -12688300000.0 -12832500000.0 -12626700000.0 -12604700000.0 -12586400000.0 -12549700000.0 -12553700000.0 -12564900000.0 -12573300000.0 -12676100000.0 -12556800000.0 -12619200000.0 -12729600000.0 -12795900000.0 -12763100000.0 -12677200000.0 -13188800000.0 -13083300000.0 -12915500000.0 -13178200000.0 -13096200000.0 -13117000000.0 -13303100000.0 -13305000000.0 -13009500000.0 -12899500000.0 -12826900000.0 -13206800000.0 -12640600000.0 -12598500000.0 -12568000000.0 -12841100000.0 -12566800000.0 -12882600000.0 -12631000000.0 -13061000000.0 -13917500000.0 -12672600000.0 -12656300000.0 -12711700000.0 -12667900000.0 -13275200000.0 -12549700000.0 -12549700000.0 -12898400000.0 -12549700000.0 -13266200000.0 -13254200000.0 -13060400000.0 -13005900000.0 -12836400000.0 -13605500000.0 -13519500000.0 -12957300000.0 -13461700000.0 -13828800000.0 -12747900000.0 -14289800000.0 -14117200000.0 -14004300000.0 -14320400000.0 -12588500000.0 -12566400000.0 -13208600000.0 -13195600000.0 -13397600000.0 -13061900000.0 -13360900000.0 -12897600000.0 -12764000000.0 -12676400000.0 -13295200000.0 -12786400000.0 -13126700000.0 -13363200000.0 -13433700000.0 -13786700000.0 -12886800000.0 -12800400000.0 -12591700000.0 -12579900000.0 -12776900000.0 -12581700000.0 -14224600000.0 -12670200000.0 -13201400000.0 -14083000000.0 -12825900000.0 -12664000000.0 -13243900000.0 -12941500000.0 -13005000000.0 -12616800000.0 -12606500000.0 -12955700000.0 -12832000000.0 -12637400000.0 -12757900000.0 -12605900000.0 -12620700000.0 -12557300000.0 -12740400000.0 -12553900000.0 -12777500000.0 -12864300000.0 -12704900000.0 -12635700000.0 -12654400000.0 -12617000000.0 -12562900000.0 -12664400000.0 -12601500000.0 -12994100000.0 -12869100000.0 -12712300000.0 -12609900000.0 -13286900000.0 -13437500000.0 -12622900000.0 -12943600000.0 -12668000000.0 -12643300000.0 -12666500000.0 -13080700000.0 -12622800000.0 -12813200000.0 -13136200000.0 -13846100000.0 -12721500000.0 -12693700000.0 -13060700000.0 -12635400000.0 -13174400000.0 -13129300000.0 -12650300000.0 -14231500000.0 -12916600000.0 -12822800000.0 -12980400000.0 -12720300000.0 -13652800000.0 -12549700000.0 -12563000000.0 -12604700000.0 -13099300000.0 -14210900000.0 -12625000000.0 -12575300000.0 -13353400000.0 -13293000000.0 -12602300000.0 -12733800000.0 -13819100000.0 -13562100000.0 -13257300000.0 -13749500000.0 -13867500000.0 -13387700000.0 -12672300000.0 -13144600000.0 -13331000000.0 -14311600000.0 -13825500000.0 -12587400000.0 -12553400000.0 -13274600000.0 -12579400000.0 -14108900000.0 -14311900000.0 -14386800000.0 -14163800000.0 -13458000000.0 -13661900000.0 -13389500000.0 -12611100000.0 -12743600000.0 -13726500000.0 -13215000000.0 -13024300000.0 -13905500000.0 -12549700000.0 -13719100000.0 -12649100000.0 -14261700000.0 -12975800000.0 -13437500000.0 -13495300000.0 -13404700000.0 -13230700000.0 -12919200000.0 -13091700000.0 -12613600000.0 -12598800000.0 -12958200000.0 -13428100000.0 -13434000000.0 -13380600000.0 -13372100000.0 -13316200000.0 -13213200000.0 -13662400000.0 -13435800000.0 -13411900000.0 -13534000000.0 -13670100000.0 -13207400000.0 -13221000000.0 -13029300000.0 -13160000000.0 -12551000000.0 -12625700000.0 -12721200000.0 -12565000000.0 -14139800000.0 -13730700000.0 -12791800000.0 -13023200000.0 -12942900000.0 -12556200000.0 -12608800000.0 -12557500000.0 -13183200000.0 -13038600000.0 -12673100000.0 -13729700000.0 -13890600000.0 -13851600000.0 -13951000000.0 -14819200000.0 -13547500000.0 -13388000000.0 -14634600000.0 -13062100000.0 -12972900000.0 -13606900000.0 -13477800000.0 -13217500000.0 -13522300000.0 -13781500000.0 -14019900000.0 -15836900000.0 -14006800000.0 -14117200000.0 -13101300000.0 -13102500000.0 -13514100000.0 -12932400000.0 -13641200000.0 -13719100000.0 -12999700000.0 -14124700000.0 -12774400000.0 -13434900000.0 -13309800000.0 -13044400000.0 -12669300000.0 -13634100000.0 -13837600000.0 -13478200000.0 -15323200000.0 -14420700000.0 -12898900000.0 -12963300000.0 -13829000000.0 -13331200000.0 -13077500000.0 -13231700000.0 -12549700000.0 -12999100000.0 -12762400000.0 -12565400000.0 -12694000000.0 -14130800000.0 -13376200000.0 -13267400000.0 -13099300000.0 -15230500000.0 -13910600000.0 -15579200000.0 -14320200000.0 -13557200000.0 -13342800000.0 -13541000000.0 -12845700000.0 -12703900000.0 -12979000000.0 -12675400000.0 -12658600000.0 -13564600000.0 -12844800000.0 -12551700000.0 -12565700000.0 -12914600000.0 -12885900000.0 -13103900000.0 -12761700000.0 -12639100000.0 -12841600000.0 -12555000000.0 -12581900000.0 -13113800000.0 -13149700000.0 -13287800000.0 -13258100000.0 -13702500000.0 -13558300000.0 -12986800000.0 -13109400000.0 -12687800000.0 -12867700000.0 -12619200000.0 -12731500000.0 -12841100000.0 -12590500000.0 -13021200000.0 -12777000000.0 -12791600000.0 -13411200000.0 -13374500000.0 -12890400000.0 -13194900000.0 -12650900000.0 -13246800000.0 -12620600000.0 -13307200000.0 -14127900000.0 -13698400000.0 -15087700000.0 -13716000000.0 -13573300000.0 -13424000000.0 -13158800000.0 -12683800000.0 -13277400000.0 -13053900000.0 -12549700000.0 -12568500000.0 -12821700000.0 -15115800000.0 -13141000000.0 -13067200000.0 -13703600000.0 -14742000000.0 -14945100000.0 -15509400000.0 -14886700000.0 -14600300000.0 -14452700000.0 -15120300000.0 -15916300000.0 -13079100000.0 -15440800000.0 -15512600000.0 -15250500000.0 -16175500000.0 -14298500000.0 -14071400000.0 -15448800000.0 -13171200000.0 -13161200000.0 -13556900000.0 -13258000000.0 -13375500000.0 -13230400000.0 -13581200000.0 -12633300000.0 -13231500000.0 -12549700000.0 -14074100000.0 -12612500000.0 -12616000000.0 -12568500000.0 -13329100000.0 -12549700000.0 -16945300000.0 -16637400000.0 -13512100000.0 -16717400000.0 -16514200000.0 -14833700000.0 -14740300000.0 -14358700000.0 -14714800000.0 -14161100000.0 -14528200000.0 -14832100000.0 -13834000000.0 -13951500000.0 -13833000000.0 -13596100000.0 -13533300000.0 -13334400000.0 -13039500000.0 -12713900000.0 -12711300000.0 -13293200000.0 -12713800000.0 -12929800000.0 -13040200000.0 -12999000000.0 -13087200000.0 -12553500000.0 -12777300000.0 -12604500000.0 -12887200000.0 -12673300000.0 -13404400000.0 -13189900000.0 -13473300000.0 -13825600000.0 -12810300000.0 -12727700000.0 -12826300000.0 -13051500000.0 -12931400000.0 -12675000000.0 -13134500000.0 -12733300000.0 -12994900000.0 -12862600000.0 -12782300000.0 -13161000000.0 -12826300000.0 -12694500000.0 -12782700000.0 -13045200000.0 -13281700000.0 -14532000000.0 -15127300000.0 -14596300000.0 -15775300000.0 -12902500000.0 -13141900000.0 -12707100000.0 -13235900000.0 -12706100000.0 -12549700000.0 -12880400000.0 -12762900000.0 -15984100000.0 -12990600000.0 -13208600000.0 -13448300000.0 -14943000000.0 -12549700000.0 -13565900000.0 -13202100000.0 -12568300000.0 -13863100000.0 -13152400000.0 -13370100000.0 -14206300000.0 -15110100000.0 -13491400000.0 -13304900000.0 -16159600000.0 -13395400000.0 -14480700000.0 -14122800000.0 -16793300000.0 -12659100000.0 -12683700000.0 -13589900000.0 -14303600000.0 -12987000000.0 -13888900000.0 -13387600000.0 -13596200000.0 -14374500000.0 -12552500000.0 -12661000000.0 -12558400000.0 -13097000000.0 -13273500000.0 -12549700000.0 -12549700000.0 -15748600000.0 -15866600000.0 -13512300000.0 -13077400000.0 -12740400000.0 -12707400000.0 -12842100000.0 -14612000000.0 -12549700000.0 -13418600000.0 -13422800000.0 -12605500000.0 -12646800000.0 -12808200000.0 -12709400000.0 -12983900000.0 -13026000000.0 -13283800000.0 -12579900000.0 -13146100000.0 -13038700000.0 -12644500000.0 -12824100000.0 -12827600000.0 -13292800000.0 -13261600000.0 -13188700000.0 -13193200000.0 -13481600000.0 -13944100000.0 -13327600000.0 -13597600000.0 -12776600000.0 -13920700000.0 -13274200000.0 -13369700000.0 -12832800000.0 -14365200000.0 -14253000000.0 -13995100000.0 -13767300000.0 -14064200000.0 -14031700000.0 -14277600000.0 -14388500000.0 -13828100000.0 -14264500000.0 -15387000000.0 -12549700000.0 -13950600000.0 -13887400000.0 -15194800000.0 -14845000000.0 -14792000000.0 -14752000000.0 -12622300000.0 -13037500000.0 -14828900000.0 -14308000000.0 -13955700000.0 -14017900000.0 -14552300000.0 -14327000000.0 -12603100000.0 -12846200000.0 -12981800000.0 -13207600000.0 -12561500000.0 -13848800000.0 -13481000000.0 -14316200000.0 -13166300000.0 -13921400000.0 -13594900000.0 -12549700000.0 -13428900000.0 -14477100000.0 -14068400000.0 -14382500000.0 -13127600000.0 -13618700000.0 -14314800000.0 -13435000000.0 -13745700000.0 -17361300000.0 -12549700000.0 -14267200000.0 -14263900000.0 -13122200000.0 -12560500000.0 -12625000000.0 -14270100000.0 -13128100000.0 -13207300000.0 -12566200000.0 -14104700000.0 -13243600000.0 -12866800000.0 -13521500000.0 -12704100000.0 -13673800000.0 -15023500000.0 -12576500000.0 -15252600000.0 -14147100000.0 -12665500000.0 -12622900000.0 -12933600000.0 -14659300000.0 -13251400000.0 -13470900000.0 -12567300000.0 -12558800000.0 -13296800000.0 -12971500000.0 -12647400000.0 -12583800000.0 -12549700000.0 -13026900000.0 -13158200000.0 -13239500000.0 -13023000000.0 -12573400000.0 -13011500000.0 -12767600000.0 -13117800000.0 -13054900000.0 -12553100000.0 -12625600000.0 -12701200000.0 -12550300000.0 -13395500000.0 -13558800000.0 -12550500000.0 -13556200000.0 -12625100000.0 -13999200000.0 -13430800000.0 -12549700000.0 -12550500000.0 -13154400000.0 -12563900000.0 -13554700000.0 -12549700000.0 -12551000000.0 -12639200000.0 -13450800000.0 -13479700000.0 -13874200000.0 -15160200000.0 -12549700000.0 -13999600000.0 -12637100000.0 -12716000000.0 -15054900000.0 -13722400000.0 -13702000000.0 -15565200000.0 -13069000000.0 -12694700000.0 -13204100000.0 -12729300000.0 -13516200000.0 -12655500000.0 -14503800000.0 -12937500000.0 -13770700000.0 -13134600000.0 -13789300000.0 -14809400000.0 -14414600000.0 -16794700000.0 -15947700000.0 -15856000000.0 -12951700000.0 -15708300000.0 -15503800000.0 -16067500000.0 -15784400000.0 -15836400000.0 -16546000000.0 -16553200000.0 -17997500000.0 -14148400000.0 -13634600000.0 -18238300000.0 -19266200000.0 -16099600000.0 -15193200000.0 -13476200000.0 -13483800000.0 -14242700000.0 -13172500000.0 -13112000000.0 -12982800000.0 -14058400000.0 -12554800000.0 -13446700000.0 -13797000000.0 -12771800000.0 -12802300000.0 -13096800000.0 -13168900000.0 -12803600000.0 -12726900000.0 -15664100000.0 -14394000000.0 -12573100000.0 -13068700000.0 -14481400000.0 -12549700000.0 -13075600000.0 -13130200000.0 -12675700000.0 -12754300000.0 -12727100000.0 -12626500000.0 -12570000000.0 -13099700000.0 -12811400000.0 -12804500000.0 -13086500000.0 -12728200000.0 -13684500000.0 -12915100000.0 -12693400000.0 -13114600000.0 -12907600000.0 -12750200000.0 -12967600000.0 -12558500000.0 -12768100000.0 -12729900000.0 -12570700000.0 -12612400000.0 -12552300000.0 -13854300000.0 -12565000000.0 -13195200000.0 -13093300000.0 -13527200000.0 -13735800000.0 -12562400000.0 -12580500000.0 -13184800000.0 -13162300000.0 -14066700000.0 -12646100000.0 -12669200000.0 -12993600000.0 -13273300000.0 -13549400000.0 -13061200000.0 -15710800000.0 -13099600000.0 -14868700000.0 -13866100000.0 -14854600000.0 -12839500000.0 -18257300000.0 -16336000000.0 -16757800000.0 -16227400000.0 -14623700000.0 -13687700000.0 -13877200000.0 -13753900000.0 -13751300000.0 -13619400000.0 -15760400000.0 -14987300000.0 -12964800000.0 -13438400000.0 -13786400000.0 -12851500000.0 -12549700000.0 -15210000000.0 -13768400000.0 -13314800000.0 -13492800000.0 -12728900000.0 -14445500000.0 -13930000000.0 -12923800000.0 -14910900000.0 -12822900000.0 -12632600000.0 -16079200000.0 -15686100000.0 -15158300000.0 -12549700000.0 -14606100000.0 -14525600000.0 -12549700000.0 -15164500000.0 -12751200000.0 -13851300000.0 -12608400000.0 -12563400000.0 -13957700000.0 -12743400000.0 -13161800000.0 -12753300000.0 -14102100000.0 -12668100000.0 -13312800000.0 -13460000000.0 -13174600000.0 -13414800000.0 -15125700000.0 -14240800000.0 -14123000000.0 -12959000000.0 -14918600000.0 -13609500000.0 -13558800000.0 -13897000000.0 -13578800000.0 -13511700000.0 -13167700000.0 -13612500000.0 -12858900000.0 -12957600000.0 -13347500000.0 -12598500000.0 -14012900000.0 -13168400000.0 -13226600000.0 -13606400000.0 -13329200000.0 -13400700000.0 -13380600000.0 -12761600000.0 -12549700000.0 -12814700000.0 -12758000000.0 -12603600000.0 -14030800000.0 -12621000000.0 -12867200000.0 -12869400000.0 -13666300000.0 -13788600000.0 -13157800000.0 -13468400000.0 -12914200000.0 -12610800000.0 -14024600000.0 -12549700000.0 -12558200000.0 -12949900000.0 -12961100000.0 -13842200000.0 -13343700000.0 -15342200000.0 -12549700000.0 -15092000000.0 -15568300000.0 -16681700000.0 -14953800000.0 -12764900000.0 -15202600000.0 -14753600000.0 -14222500000.0 -14404800000.0 -12853300000.0 -13252400000.0 -13127000000.0 -12875000000.0 -14093600000.0 -12549700000.0 -15883400000.0 -15128800000.0 -15374000000.0 -15123000000.0 -16548800000.0 -17505600000.0 -13836800000.0 -14032000000.0 -14390800000.0 -12685300000.0 -15900400000.0 -13147900000.0 -13483100000.0 -14584700000.0 -13078100000.0 -13335800000.0 -13142100000.0 -15686800000.0 -12748200000.0 -16857700000.0 -13231600000.0 -16570900000.0 -14619300000.0 -15609500000.0 -16179400000.0 -17930000000.0 -18349800000.0 -17564500000.0 -17212500000.0 -17986900000.0 -17617800000.0 -17942200000.0 -17631200000.0 -15986700000.0 -14745000000.0 -16626500000.0 -16356700000.0 -16840400000.0 -18375400000.0 -14938700000.0 -12567300000.0 -14579000000.0 -13518900000.0 -13418300000.0 -13038500000.0 -12946700000.0 -12893500000.0 -12980200000.0 -12656100000.0 -12653800000.0 -12704300000.0 -13571800000.0 -13276500000.0 -13183300000.0 -13223000000.0 -13763800000.0 -14728000000.0 -12723300000.0 -12984400000.0 -13137700000.0 -12549700000.0 -12855200000.0 -13406400000.0 -12660900000.0 -13941300000.0 -13940500000.0 -13905400000.0 -14311300000.0 -13524500000.0 -13627700000.0 -13522000000.0 -13740500000.0 -14130900000.0 -13306200000.0 -12761800000.0 -13073400000.0 -13049300000.0 -13155200000.0 -13615700000.0 -14315000000.0 -14027300000.0 -13975400000.0 -15469000000.0 -13426700000.0 -13882100000.0 -15603700000.0 -12549700000.0 -12549700000.0 -18368300000.0 -18155900000.0 -16114600000.0 -14707100000.0 -15528400000.0 -13001200000.0 -13119900000.0 -14654500000.0 -15301000000.0 -14311100000.0 -14156100000.0 -14947100000.0 -16686800000.0 -13059700000.0 -12579300000.0 -12959800000.0 -14650700000.0 -13318300000.0 -14641700000.0 -12561900000.0 -12551200000.0 -14244300000.0 -15094200000.0 -17934000000.0 -15053200000.0 -13021200000.0 -14119800000.0 -12964900000.0 -13270400000.0 -12948500000.0 -12920900000.0 -17192700000.0 -14192200000.0 -15656400000.0 -12889200000.0 -12713500000.0 -13739800000.0 -12609900000.0 -13110600000.0 -13179400000.0 -12812800000.0 -13665600000.0 -14474200000.0 -13922800000.0 -14151300000.0 -14017200000.0 -12967000000.0 -12564300000.0 -12566500000.0 -12629700000.0 -12549700000.0 -16139400000.0 -15687600000.0 -13165900000.0 -12610700000.0 -13037100000.0 -13121200000.0 -13130400000.0 -12687200000.0 -12879200000.0 -12618600000.0 -12579700000.0 -13044600000.0 -12704500000.0 -12744900000.0 -12715800000.0 -12865900000.0 -13004700000.0 -12549700000.0 -14079100000.0 -13767600000.0 -13480400000.0 -13946900000.0 -13702300000.0 -13624200000.0 -13824300000.0 -13007400000.0 -13135200000.0 -12640100000.0 -12981000000.0 -14010600000.0 -13268100000.0 -12835100000.0 -12604300000.0 -14108300000.0 -12735200000.0 -12572500000.0 -12592000000.0 -12867700000.0 -12632100000.0 -14774700000.0 -12549700000.0 -13275400000.0 -13247200000.0 -15484200000.0 -12978300000.0 -12987500000.0 -12879200000.0 -16036800000.0 -16843200000.0 -18817400000.0 -12625300000.0 -12623100000.0 -17647500000.0 -16381200000.0 -13121500000.0 -13878200000.0 -13804200000.0 -12621600000.0 -12715600000.0 -12718100000.0 -12859600000.0 -13249700000.0 -16276000000.0 -13170200000.0 -14178800000.0 -15616500000.0 -14155900000.0 -14766800000.0 -12808700000.0 -16210100000.0 -15290400000.0 -13935700000.0 -14279500000.0 -14519100000.0 -14401900000.0 -13912300000.0 -15526800000.0 -13421500000.0 -12579900000.0 -13467000000.0 -12683300000.0 -14020000000.0 -15208100000.0 -13819200000.0 -15810200000.0 -15637500000.0 -14700300000.0 -14493000000.0 -13547900000.0 -13399500000.0 -12633300000.0 -14949500000.0 -14584700000.0 -13590500000.0 -13102300000.0 -14378300000.0 -12936100000.0 -12609300000.0 -12568100000.0 -12622500000.0 -12569900000.0 -13167100000.0 -16382600000.0 -14907100000.0 -13331900000.0 -13187900000.0 -12908400000.0 -13664100000.0 -13279200000.0 -12813800000.0 -12778000000.0 -13096000000.0 -12590300000.0 -12650200000.0 -12559500000.0 -12726400000.0 -12883600000.0 -12706500000.0 -13731600000.0 -12661900000.0 -12608900000.0 -12821800000.0 -12563700000.0 -12816900000.0 -12556500000.0 -13330200000.0 -12958500000.0 -13349000000.0 -14326700000.0 -15261800000.0 -13169700000.0 -12637200000.0 -12567900000.0 -13955100000.0 -13013000000.0 -13334600000.0 -13030400000.0 -12716300000.0 -12864700000.0 -15036800000.0 -12781800000.0 -13189000000.0 -12574600000.0 -15013600000.0 -17571200000.0 -16722500000.0 -16659600000.0 -17450300000.0 -17431100000.0 -18410700000.0 -12761700000.0 -12567700000.0 -19370300000.0 -15512700000.0 -12686500000.0 -12677500000.0 -13453100000.0 -12878800000.0 -12908800000.0 -13375800000.0 -13087500000.0 -13070700000.0 -13602600000.0 -17024600000.0 -14675900000.0 -17109200000.0 -14075400000.0 -13701000000.0 -13577100000.0 -15608300000.0 -12839900000.0 -12748700000.0 -13304100000.0 -12558700000.0 -14638700000.0 -12578100000.0 -13781600000.0 -15454800000.0 -13086200000.0 -13144600000.0 -13667200000.0 -14381600000.0 -14199300000.0 -16267000000.0 -15046400000.0 -13904900000.0 -13223000000.0 -14296700000.0 -15378400000.0 -15690700000.0 -16026300000.0 -14119400000.0 -14176600000.0 -14470100000.0 -13903900000.0 -14272000000.0 -12862400000.0 -12629200000.0 -12683300000.0 -12705400000.0 -13052500000.0 -15333700000.0 -14876700000.0 -13066000000.0 -12887800000.0 -13507000000.0 -13242300000.0 -12980800000.0 -13139400000.0 -13315900000.0 -13166500000.0 -13207200000.0 -13260400000.0 -13265300000.0 -12953300000.0 -12894000000.0 -13910300000.0 -12609200000.0 -12555000000.0 -12870300000.0 -12568200000.0 -12762700000.0 -12549700000.0 -13158300000.0 -13107300000.0 -12941300000.0 -12882100000.0 -13910600000.0 -13669900000.0 -13205800000.0 -13807800000.0 -14129200000.0 -12919200000.0 -13076800000.0 -12979400000.0 -12598700000.0 -12659700000.0 -15700800000.0 -13480000000.0 -13951000000.0 -15065100000.0 -12602400000.0 -14603300000.0 -13010900000.0 -13372900000.0 -20362700000.0 -13311200000.0 -19906900000.0 -12563300000.0 -12554000000.0 -17057600000.0 -18332000000.0 -12610700000.0 -13291900000.0 -14841200000.0 -13607300000.0 -12747900000.0 -14501500000.0 -12630100000.0 -17761800000.0 -17195100000.0 -12549700000.0 -12690000000.0 -14235000000.0 -12569600000.0 -13341100000.0 -13813000000.0 -15620000000.0 -12768300000.0 -12717400000.0 -13330800000.0 -13626600000.0 -14822200000.0 -14220200000.0 -13299100000.0 -12947200000.0 -15240400000.0 -14031700000.0 -13806000000.0 -14833900000.0 -14032900000.0 -15203900000.0 -14221900000.0 -15242000000.0 -14991300000.0 -12578800000.0 -12565000000.0 -12879600000.0 -13945600000.0 -12549700000.0 -13348300000.0 -12977100000.0 -13700200000.0 -12809500000.0 -13902800000.0 -12798500000.0 -12622000000.0 -12689400000.0 -12713400000.0 -12567700000.0 -12591600000.0 -12858600000.0 -13687300000.0 -14612700000.0 -14192400000.0 -12554800000.0 -12549700000.0 -13465700000.0 -12926400000.0 -12755400000.0 -12915400000.0 -12646500000.0 -12833900000.0 -12658000000.0 -12682700000.0 -12744600000.0 -12593200000.0 -12549700000.0 -13406600000.0 -13003800000.0 -13366300000.0 -13348900000.0 -13449200000.0 -13629500000.0 -13787800000.0 -12725400000.0 -12767600000.0 -12742900000.0 -13004500000.0 -13583400000.0 -13190300000.0 -14260500000.0 -13760900000.0 -13339700000.0 -12882900000.0 -13536300000.0 -12549700000.0 -12891800000.0 -13834400000.0 -16596600000.0 -12653000000.0 -14365200000.0 -15045900000.0 -15139600000.0 -14028000000.0 -14433600000.0 -14233700000.0 -25961600000.0 -15642400000.0 -15810700000.0 -17321000000.0 -15755200000.0 -15818500000.0 -18239300000.0 -13911200000.0 -13904600000.0 -15531300000.0 -13608600000.0 -18518200000.0 -15312000000.0 -14200100000.0 -13819500000.0 -13966700000.0 -14545900000.0 -13876600000.0 -13409400000.0 -13342600000.0 -14899400000.0 -13299600000.0 -13143900000.0 -14617500000.0 -14116900000.0 -12549700000.0 -12556800000.0 -13755600000.0 -13321800000.0 -14945200000.0 -14001700000.0 -13554500000.0 -14631400000.0 -13600400000.0 -12614200000.0 -12554600000.0 -15176900000.0 -13546200000.0 -13959700000.0 -14205300000.0 -15327100000.0 -15045400000.0 -15442200000.0 -12549700000.0 -12872100000.0 -13356100000.0 -13990700000.0 -12696600000.0 -13717000000.0 -12731700000.0 -12620200000.0 -12686400000.0 -12654400000.0 -12693800000.0 -12771600000.0 -13888700000.0 -12584000000.0 -13660000000.0 -13955800000.0 -13071700000.0 -13003300000.0 -12757000000.0 -12706700000.0 -12838200000.0 -12682800000.0 -12920600000.0 -12735200000.0 -13049800000.0 -12943800000.0 -12937900000.0 -13049500000.0 -13083000000.0 -12683000000.0 -12626400000.0 -12551200000.0 -12579100000.0 -12699000000.0 -12691900000.0 -13721800000.0 -13625600000.0 -13394600000.0 -13689800000.0 -14545900000.0 -12549700000.0 -13696900000.0 -14175800000.0 -13285400000.0 -12909000000.0 -12871500000.0 -14582300000.0 -14606500000.0 -12549700000.0 -17137200000.0 -14427200000.0 -12597600000.0 -13495700000.0 -13139700000.0 -14727500000.0 -12557800000.0 -15117800000.0 -15753200000.0 -14432400000.0 -28978000000.0 -12629300000.0 -17096800000.0 -15611900000.0 -18279900000.0 -22939100000.0 -20271500000.0 -17700700000.0 -16084400000.0 -15874300000.0 -18497600000.0 -12571700000.0 -12836700000.0 -12857600000.0 -12549700000.0 -15168700000.0 -13333900000.0 -13943700000.0 -13307800000.0 -13542000000.0 -13962400000.0 -14174900000.0 -13096600000.0 -12643200000.0 -12549700000.0 -12559000000.0 -12578300000.0 -13167900000.0 -14038600000.0 -13478000000.0 -13056800000.0 -14144300000.0 -13301400000.0 -14105700000.0 -13009500000.0 -12873200000.0 -12593700000.0 -13283900000.0 -13034900000.0 -13131100000.0 -12587100000.0 -15084900000.0 -15447700000.0 -15229500000.0 -15636400000.0 -16485300000.0 -14260300000.0 -12643300000.0 -12549700000.0 -12660000000.0 -12576400000.0 -12569700000.0 -12595900000.0 -12727200000.0 -13254500000.0 -13007500000.0 -13458800000.0 -12605600000.0 -13421200000.0 -13042400000.0 -12601200000.0 -12601600000.0 -12696700000.0 -12693400000.0 -12590800000.0 -12943300000.0 -12622500000.0 -12583900000.0 -12619800000.0 -12616600000.0 -12682100000.0 -12771900000.0 -12572400000.0 -12556400000.0 -12558600000.0 -12549700000.0 -12558600000.0 -13073200000.0 -13161600000.0 -12562900000.0 -12611000000.0 -13749200000.0 -13485200000.0 -14666800000.0 -15152000000.0 -13479300000.0 -13055000000.0 -14256200000.0 -13254400000.0 -13531100000.0 -15581900000.0 -16331800000.0 -16075000000.0 -13872800000.0 -12559700000.0 -13304800000.0 -13232400000.0 -15452200000.0 -13453200000.0 -17039700000.0 -18237700000.0 -23330700000.0 -20284400000.0 -21617800000.0 -12927000000.0 -15238800000.0 -18073500000.0 -15282400000.0 -15525600000.0 -16785200000.0 -19035400000.0 -14674100000.0 -15362700000.0 -16557500000.0 -13468900000.0 -13185000000.0 -15094700000.0 -12824500000.0 -12727100000.0 -12886200000.0 -12936300000.0 -13103000000.0 -13244000000.0 -13230900000.0 -12549700000.0 -12756600000.0 -13141700000.0 -12787000000.0 -12804500000.0 -13722600000.0 -12602300000.0 -14072000000.0 -12814600000.0 -13675200000.0 -12549700000.0 -13715400000.0 -13461700000.0 -13022000000.0 -13322700000.0 -12999400000.0 -12767300000.0 -13247500000.0 -13280600000.0 -13536700000.0 -14613400000.0 -13587700000.0 -13647000000.0 -14164200000.0 -13777000000.0 -12618900000.0 -12549700000.0 -12661600000.0 -12578600000.0 -12569000000.0 -12662900000.0 -12571000000.0 -12765400000.0 -13324600000.0 -12549700000.0 -12823800000.0 -12901300000.0 -12653800000.0 -12568500000.0 -12610900000.0 -12549700000.0 -12693100000.0 -12960200000.0 -12582200000.0 -12573100000.0 -12553200000.0 -12570700000.0 -12618000000.0 -12550200000.0 -12648800000.0 -12556600000.0 -12552400000.0 -12568500000.0 -12570400000.0 -12775900000.0 -12758400000.0 -13560600000.0 -13542500000.0 -14744400000.0 -13093800000.0 -12859900000.0 -12978200000.0 -16746500000.0 -15910600000.0 -15805500000.0 -15491600000.0 -16143300000.0 -12623900000.0 -15603600000.0 -14506500000.0 -14886700000.0 -15036600000.0 -13714200000.0 -18956100000.0 -12694900000.0 -15718800000.0 -20845700000.0 -19538900000.0 -19593000000.0 -20096000000.0 -16837700000.0 -15939200000.0 -17662800000.0 -13824700000.0 -14377200000.0 -12549700000.0 -19987600000.0 -15808500000.0 -12599200000.0 -15776500000.0 -14989100000.0 -12736300000.0 -12855600000.0 -12655300000.0 -12798900000.0 -13121800000.0 -13122900000.0 -13239300000.0 -13158800000.0 -12551100000.0 -13039000000.0 -12560800000.0 -12716000000.0 -12711300000.0 -13270500000.0 -13076900000.0 -13041400000.0 -12766900000.0 -13109400000.0 -12937400000.0 -13583800000.0 -12942200000.0 -12745800000.0 -12880000000.0 -13022700000.0 -12992200000.0 -12989100000.0 -13172600000.0 -12946900000.0 -13646400000.0 -12555000000.0 -12551300000.0 -14897800000.0 -13167600000.0 -12672100000.0 -12863800000.0 -12885000000.0 -12862100000.0 -12859700000.0 -12788500000.0 -12795200000.0 -12788300000.0 -12594800000.0 -13129800000.0 -13190000000.0 -13102100000.0 -12853300000.0 -12872100000.0 -12873100000.0 -12820900000.0 -12749000000.0 -12807400000.0 -12552900000.0 -12549700000.0 -12552600000.0 -12574400000.0 -12617100000.0 -12576700000.0 -12575000000.0 -12628600000.0 -12572600000.0 -12553300000.0 -12651100000.0 -12624200000.0 -13335900000.0 -12558000000.0 -12581000000.0 -13277800000.0 -14828400000.0 -14263800000.0 -14753900000.0 -16111000000.0 -13368200000.0 -12691100000.0 -13632800000.0 -13390400000.0 -20123000000.0 -15709400000.0 -16998600000.0 -16930200000.0 -18315600000.0 -15058000000.0 -18142900000.0 -12777300000.0 -14222700000.0 -14058400000.0 -22277300000.0 -29675800000.0 -12933700000.0 -12841200000.0 -20259100000.0 -13862000000.0 -19789600000.0 -12852700000.0 -13873500000.0 -12549700000.0 -18171200000.0 -13917200000.0 -12991100000.0 -13623400000.0 -15218900000.0 -13264800000.0 -13318300000.0 -12983500000.0 -12752500000.0 -13040800000.0 -13285000000.0 -12780500000.0 -13086700000.0 -12557200000.0 -12657200000.0 -12873500000.0 -12611900000.0 -12641400000.0 -13406800000.0 -12760900000.0 -12799700000.0 -12549700000.0 -13002900000.0 -13416400000.0 -12549700000.0 -12885300000.0 -12576600000.0 -12560200000.0 -12552500000.0 -12737900000.0 -12631200000.0 -13417300000.0 -13483200000.0 -12749500000.0 -13251100000.0 -14408600000.0 -13106500000.0 -12956800000.0 -12671500000.0 -12550500000.0 -12549800000.0 -12626400000.0 -12600900000.0 -12581400000.0 -12614300000.0 -12608400000.0 -12588500000.0 -12615900000.0 -12758600000.0 -12717500000.0 -12613300000.0 -12637800000.0 -12650300000.0 -12679000000.0 -12754900000.0 -12814200000.0 -12672200000.0 -12666000000.0 -12701700000.0 -12731100000.0 -12804200000.0 -12753800000.0 -12787800000.0 -12796400000.0 -12709600000.0 -12856300000.0 -12974100000.0 -13174800000.0 -14144500000.0 -13727000000.0 -13746700000.0 -14482600000.0 -12771700000.0 -13390300000.0 -12614900000.0 -16119800000.0 -15100400000.0 -13723200000.0 -12802800000.0 -13276900000.0 -18013700000.0 -14130200000.0 -13378600000.0 -13624500000.0 -19804300000.0 -12549700000.0 -16349600000.0 -15136400000.0 -12552800000.0 -23359100000.0 -13278100000.0 -25395000000.0 -12681800000.0 -12610000000.0 -19962500000.0 -12742300000.0 -20664400000.0 -15456800000.0 -15817000000.0 -18025800000.0 -16116600000.0 -15919300000.0 -16359100000.0 -16080600000.0 -14042400000.0 -13649900000.0 -13689700000.0 -13818200000.0 -14016400000.0 -13994500000.0 -13313800000.0 -13106700000.0 -13247200000.0 -13111700000.0 -12934100000.0 -12866700000.0 -12833200000.0 -13371400000.0 -12782700000.0 -12758700000.0 -12960400000.0 -13030800000.0 -13849500000.0 -12790400000.0 -12740900000.0 -13405900000.0 -13182400000.0 -13023600000.0 -13038900000.0 -13013500000.0 -12551300000.0 -12681300000.0 -12843800000.0 -12558800000.0 -12748600000.0 -13824500000.0 -12775500000.0 -12899100000.0 -12623700000.0 -12565100000.0 -12602400000.0 -12549700000.0 -12549700000.0 -12553200000.0 -12586300000.0 -12570100000.0 -12553900000.0 -12549700000.0 -12596700000.0 -12619500000.0 -12551900000.0 -12549800000.0 -12549700000.0 -12551700000.0 -12549700000.0 -12621300000.0 -12762900000.0 -12751100000.0 -12734600000.0 -12726300000.0 -12689700000.0 -12723100000.0 -12670400000.0 -12768400000.0 -12900800000.0 -13114300000.0 -13316900000.0 -13979900000.0 -12775400000.0 -13058200000.0 -12930700000.0 -14215800000.0 -13459200000.0 -13286200000.0 -13774500000.0 -15222800000.0 -12573300000.0 -15728900000.0 -14407000000.0 -14861900000.0 -15726300000.0 -16402800000.0 -12630200000.0 -13649800000.0 -20364500000.0 -17328000000.0 -13805300000.0 -15532700000.0 -23602900000.0 -13210100000.0 -14000800000.0 -26209200000.0 -12562500000.0 -12818000000.0 -24141500000.0 -17891500000.0 -20353700000.0 -13990400000.0 -16034300000.0 -14656700000.0 -14811100000.0 -13506100000.0 -12615400000.0 -12549700000.0 -13443700000.0 -13581700000.0 -13907700000.0 -14022100000.0 -14076200000.0 -13263000000.0 -14396200000.0 -13517200000.0 -12620800000.0 -12767400000.0 -12590500000.0 -12661500000.0 -12550000000.0 -12566000000.0 -12549700000.0 -13039600000.0 -12680400000.0 -12724400000.0 -12724200000.0 -12779200000.0 -13400700000.0 -12753300000.0 -12758200000.0 -12782100000.0 -12659100000.0 -12760500000.0 -12981800000.0 -12594000000.0 -12779900000.0 -12560800000.0 -13300400000.0 -13123900000.0 -12925500000.0 -12857500000.0 -12571200000.0 -12561000000.0 -12579800000.0 -12549700000.0 -12550400000.0 -12554300000.0 -12576100000.0 -12562600000.0 -12549700000.0 -12549700000.0 -12549700000.0 -12584600000.0 -12550400000.0 -12549700000.0 -12549700000.0 -12552300000.0 -12558700000.0 -12616200000.0 -12572400000.0 -12572200000.0 -12552500000.0 -12580400000.0 -12618700000.0 -12611000000.0 -12701000000.0 -12758500000.0 -12753300000.0 -12718700000.0 -13021700000.0 -13193900000.0 -12775400000.0 -13257500000.0 -13442600000.0 -13698300000.0 -13834600000.0 -14010200000.0 -13997500000.0 -14444700000.0 -15380900000.0 -16495900000.0 -12564700000.0 -16016500000.0 -17350000000.0 -18839200000.0 -17944300000.0 -19907300000.0 -21006700000.0 -25355600000.0 -20341300000.0 -18795400000.0 -25311700000.0 -28437400000.0 -12729500000.0 -22704900000.0 -19759900000.0 -18395200000.0 -20735900000.0 -16543400000.0 -14202000000.0 -15009700000.0 -18859200000.0 -17062800000.0 -15302900000.0 -13495100000.0 -12785500000.0 -12836900000.0 -12743200000.0 -13254800000.0 -12597100000.0 -12721400000.0 -12641500000.0 -12771400000.0 -13268800000.0 -13372000000.0 -12774300000.0 -13110600000.0 -12729600000.0 -12848400000.0 -12723000000.0 -12674100000.0 -12912800000.0 -12551100000.0 -12579000000.0 -12556800000.0 -12572400000.0 -13033200000.0 -12579900000.0 -12562900000.0 -12747100000.0 -12549700000.0 -12593200000.0 -12603400000.0 -13127800000.0 -13018700000.0 -13231000000.0 -13347500000.0 -12652300000.0 -12744700000.0 -12566000000.0 -12555100000.0 -12549700000.0 -12558600000.0 -12549700000.0 -12549800000.0 -12550600000.0 -12558400000.0 -12553600000.0 -12549700000.0 -12549700000.0 -12549700000.0 -12562500000.0 -12549700000.0 -12549700000.0 -12549700000.0 -12550300000.0 -12554600000.0 -12594100000.0 -12580700000.0 -12582100000.0 -12578400000.0 -12557000000.0 -12561500000.0 -12567000000.0 -12614400000.0 -12571400000.0 -12593000000.0 -12603000000.0 -12689400000.0 -12637200000.0 -12600400000.0 -12747500000.0 -12663100000.0 -12769800000.0 -12935900000.0 -13002600000.0 -13041200000.0 -12706300000.0 -12964800000.0 -17625200000.0 -15351000000.0 -16960700000.0 -12591100000.0 -14538300000.0 -18323100000.0 -14335200000.0 -22996200000.0 -14965200000.0 -16275900000.0 -20028300000.0 -15749700000.0 -20281000000.0 -17191000000.0 -13258800000.0 -14766400000.0 -14294600000.0 -21501300000.0 -16106300000.0 -12692700000.0 -13425300000.0 -13046500000.0 -13385100000.0 -13303500000.0 -13278800000.0 -12614500000.0 -12567600000.0 -12560600000.0 -12568300000.0 -12619300000.0 -12628700000.0 -12587700000.0 -12568400000.0 -12870500000.0 -12789100000.0 -12549700000.0 -12603400000.0 -12588600000.0 -12641800000.0 -12589200000.0 -12648900000.0 -12634700000.0 -12625200000.0 -12649800000.0 -12695000000.0 -12550500000.0 -12734000000.0 -12699000000.0 -12567200000.0 -12611800000.0 -12572300000.0 -12635600000.0 -12587200000.0 -12573000000.0 -12639200000.0 -12580000000.0 -12994900000.0 -12566000000.0 -12883100000.0 -12864300000.0 -12711100000.0 -12590100000.0 -13875000000.0 -13828500000.0 -13513500000.0 -19217000000.0 -15137700000.0 -15925900000.0 -18517200000.0 -19210400000.0 -16603800000.0 -18230400000.0 -16538100000.0 -15488500000.0 -16482700000.0 -23856800000.0 -12567500000.0 -15954700000.0 -22044200000.0 -15838200000.0 -14929700000.0 -14348300000.0 -14893400000.0 -20173900000.0 -12694500000.0 -13692700000.0 -13798200000.0 -13136800000.0 -17680200000.0 -13652100000.0 -12777000000.0 -16368900000.0 -12608200000.0 -15736400000.0 -14592900000.0 -16070900000.0 -19655900000.0 -21228800000.0 -18973700000.0 -15318000000.0 -14583800000.0 -14683400000.0 -19861600000.0 -13140000000.0 -13993000000.0 -14766300000.0 -16088600000.0 -15254100000.0 -14184100000.0 -18636700000.0 -23049200000.0 -17619900000.0 -13463000000.0 -19083500000.0 -13640500000.0 -30842100000.0 -16027200000.0 -22525000000.0 -16479800000.0 -14274000000.0 -12549700000.0 -21858100000.0 -12827000000.0 -12947800000.0 -13947300000.0 -13571900000.0 -15333600000.0 -15183400000.0 -17202000000.0 -12587400000.0 -17074200000.0 -16919600000.0 -13110300000.0 -12963600000.0 -13094300000.0 -22559900000.0 -29389100000.0 -12568000000.0 -13504000000.0 -19203100000.0 -12549700000.0 -15443000000.0 -15120400000.0 -14765600000.0 -19984000000.0 -12770300000.0 -12818300000.0 -12549700000.0 -12549700000.0 -12947400000.0 -15015700000.0 -14910400000.0 -19908000000.0 -18133100000.0 -13663300000.0 -18023600000.0 -27828700000.0 -15913600000.0 -15255600000.0 -19662700000.0 -13926100000.0 -14553700000.0 -17883900000.0 -13127000000.0 -12792400000.0 -12904000000.0 -12549700000.0 -12549700000.0 -12549700000.0 -12884200000.0 -14210700000.0 -14189200000.0 -15906300000.0 -16122100000.0 -14007000000.0 -15758300000.0 -14289100000.0 -15723800000.0 -28721700000.0 -14135200000.0 -15175000000.0 -14806800000.0 -18690600000.0 -13683300000.0 -21320800000.0 -18373300000.0 -15708900000.0 -13769200000.0 -12892800000.0 -12549700000.0 -12549700000.0 -12549700000.0 -12549700000.0 -12549700000.0 -12549700000.0 -12549700000.0 -12549700000.0 -12549700000.0 -12549700000.0 -12549700000.0 -12549700000.0 -12549700000.0 -12549700000.0 -12549700000.0 -12549700000.0 -12549700000.0 -12549700000.0 -12549700000.0 -12549700000.0 -12549700000.0 -12549700000.0 -12549700000.0 -12549700000.0 -12549700000.0 -12549700000.0 -12550200000.0 -12549700000.0 -12549700000.0 -12650900000.0 -14117900000.0 -13642900000.0 -13991300000.0 -14002600000.0 -15639800000.0 -16653200000.0 -16310000000.0 -16717300000.0 -17155000000.0 -31038500000.0 -16631700000.0 -12893600000.0 -13836700000.0 -21522900000.0 -20987300000.0 -15176000000.0 -14786000000.0 -13297000000.0 -12631400000.0 -12549700000.0 -12549700000.0 -12549700000.0 -12549700000.0 -12549700000.0 -12549700000.0 -12549700000.0 -12549700000.0 -12549700000.0 -12549700000.0 -12549700000.0 -12549700000.0 -12549700000.0 -12549700000.0 -12549700000.0 -12549700000.0 -12549700000.0 -12549700000.0 -12549700000.0 -12549700000.0 -12549700000.0 -12549700000.0 -12549700000.0 -12549700000.0 -12549700000.0 -12549700000.0 -12549700000.0 -12549700000.0 -12551400000.0 -13593000000.0 -13559700000.0 -12614900000.0 -14301400000.0 -16723800000.0 -21406500000.0 -20099400000.0 -18338100000.0 -16224300000.0 -18240100000.0 -22967600000.0 -15187700000.0 -17161000000.0 -12749600000.0 -20089000000.0 -15872700000.0 -12840000000.0 -12596100000.0 -12558400000.0 -13309700000.0 -16956800000.0 -13066800000.0 -12657000000.0 -12549700000.0 -12549700000.0 -12549700000.0 -12549700000.0 -12549700000.0 -12549700000.0 -12549700000.0 -12549700000.0 -12549700000.0 -12549700000.0 -12549700000.0 -12549700000.0 -12549700000.0 -12549700000.0 -12549700000.0 -12549700000.0 -12549700000.0 -12549700000.0 -12549700000.0 -12549700000.0 -12549700000.0 -12549700000.0 -12549700000.0 -12549700000.0 -12549700000.0 -12549700000.0 -12549700000.0 -12549700000.0 -12549700000.0 -12549700000.0 -12549700000.0 -12549700000.0 -12549700000.0 -12549700000.0 -12549700000.0 -12549700000.0 -12549700000.0 -12549700000.0 -12549700000.0 -12549700000.0 -12593900000.0 -12787500000.0 -12880300000.0 -13052100000.0 -13250900000.0 -14588800000.0 -13375000000.0 -14963700000.0 -17679900000.0 -17372800000.0 -15673500000.0 -13213000000.0 -15237700000.0 -19936700000.0 -25810000000.0 -21275600000.0 -18087000000.0 -20780500000.0 -18325600000.0 -17642400000.0 -13026500000.0 -16826000000.0 -17712800000.0 -12730800000.0 -13302800000.0 -13984900000.0 -12911300000.0 -12668800000.0 -12604400000.0 -12561700000.0 -12555200000.0 -12549700000.0 -12549700000.0 -12549700000.0 -12549700000.0 -12549700000.0 -12549700000.0 -12549700000.0 -12549700000.0 -12549700000.0 -12549700000.0 -12549700000.0 -12549700000.0 -12549700000.0 -12549700000.0 -12549700000.0 -12549700000.0 -12549700000.0 -12549700000.0 -12549700000.0 -12549700000.0 -12549700000.0 -12549700000.0 -12549700000.0 -12549700000.0 -12549700000.0 -12549700000.0 -12549700000.0 -12549700000.0 -12549700000.0 -12549700000.0 -12549700000.0 -12549700000.0 -12549700000.0 -12549700000.0 -12549700000.0 -12549700000.0 -12549700000.0 -12549700000.0 -12549700000.0 -12549700000.0 -12549700000.0 -12549700000.0 -12549700000.0 -12549700000.0 -12552700000.0 -12665300000.0 -13381600000.0 -12887500000.0 -14516400000.0 -16181500000.0 -16556300000.0 -15490000000.0 -12600500000.0 -18229100000.0 -16138100000.0 -20253600000.0 -20189500000.0 -18369600000.0 -16991800000.0 -20851900000.0 -13196000000.0 -17825000000.0 -17197100000.0 -17528000000.0 -14104200000.0 -12577000000.0 -13143700000.0 -12621800000.0 -12569800000.0 -12550200000.0 -12549800000.0 -12549700000.0 -12549700000.0 -12549700000.0 -12549700000.0 -12549700000.0 -12549700000.0 -12549700000.0 -12549700000.0 -12549700000.0 -12549700000.0 -12549700000.0 -12549700000.0 -12549700000.0 -12549700000.0 -12549700000.0 -12549700000.0 -12549700000.0 -12549700000.0 -12549700000.0 -12549700000.0 -12549700000.0 -12549700000.0 -12549700000.0 -12549700000.0 -12549700000.0 -12549700000.0 -12549700000.0 -12549700000.0 -12549700000.0 -12549700000.0 -12549700000.0 -12549700000.0 -12549700000.0 -12549700000.0 -12549700000.0 -12549700000.0 -12549700000.0 -12549700000.0 -12549700000.0 -12549700000.0 -12560000000.0 -12549700000.0 -12745700000.0 -13039200000.0 -13392000000.0 -13384200000.0 -12955000000.0 -18632500000.0 -16836000000.0 -16117500000.0 -19743500000.0 -17734900000.0 -14728100000.0 -20878300000.0 -20677500000.0 -12549700000.0 -12646200000.0 -19182000000.0 -26840500000.0 -22527900000.0 -14069800000.0 -12650400000.0 -12715600000.0 -12561200000.0 -12555000000.0 -12550600000.0 -12549700000.0 -12549700000.0 -12549700000.0 -12549700000.0 -12549700000.0 -12549700000.0 -12549700000.0 -12549700000.0 -12549700000.0 -12549700000.0 -12549700000.0 -12549700000.0 -12549700000.0 -12549700000.0 -12549700000.0 -12549700000.0 -12549700000.0 -12549700000.0 -12549700000.0 -12549700000.0 -12549700000.0 -12549700000.0 -12549700000.0 -12549700000.0 -12549700000.0 -12549700000.0 -12549700000.0 -12549700000.0 -12549700000.0 -12549700000.0 -12549700000.0 -12549700000.0 -12549700000.0 -12549700000.0 -12549700000.0 -12549700000.0 -12549700000.0 -12549700000.0 -12549700000.0 -12549700000.0 -12549700000.0 -12549700000.0 -12549700000.0 -12549700000.0 -12549700000.0 -12576100000.0 -12549700000.0 -12549700000.0 -12903900000.0 -13165100000.0 -14040800000.0 -15596200000.0 -12624000000.0 -20753600000.0 -23657000000.0 -21897700000.0 -19058300000.0 -21050400000.0 -24643900000.0 -15070200000.0 -15005200000.0 -14316900000.0 -19566000000.0 -18141600000.0 -12721200000.0 -29965300000.0 -16684200000.0 -16113600000.0 -13110900000.0 -12674000000.0 -12701400000.0 -12965400000.0 -12549700000.0 -12549700000.0 -12552000000.0 -12549700000.0 -12549700000.0 -12549700000.0 -12549700000.0 -12549700000.0 -12549700000.0 -12549700000.0 -12549700000.0 -12549700000.0 -12549700000.0 -12549700000.0 -12549700000.0 -12549700000.0 -12549700000.0 -12549700000.0 -12549700000.0 -12549700000.0 -12549700000.0 -12549700000.0 -12549700000.0 -12549700000.0 -12549700000.0 -12549700000.0 -12549700000.0 -12549700000.0 -12549700000.0 -12549700000.0 -12549700000.0 -12549700000.0 -12549700000.0 -12549700000.0 -12549700000.0 -12549700000.0 -12549700000.0 -12549700000.0 -12549700000.0 -12549700000.0 -12549700000.0 -12549700000.0 -12549700000.0 -12549700000.0 -12549700000.0 -12549700000.0 -12549700000.0 -12549700000.0 -17961600000.0 -23318500000.0 -12980500000.0 -13895900000.0 -16249700000.0 -15086200000.0 -16908500000.0 -19810500000.0 -13356300000.0 -24118300000.0 -18932700000.0 -14322800000.0 -13958800000.0 -17347600000.0 -17389500000.0 -28125600000.0 -12549700000.0 -17599100000.0 -14021500000.0 -13235800000.0 -12584700000.0 -12549700000.0 -12549700000.0 -12549700000.0 -12549700000.0 -12549700000.0 -12549700000.0 -12549700000.0 -12549700000.0 -12549700000.0 -12549700000.0 -12549700000.0 -12549700000.0 -12549700000.0 -12549700000.0 -12549700000.0 -12549700000.0 -12549700000.0 -12549700000.0 -12549700000.0 -12549700000.0 -12549700000.0 -12549700000.0 -12549700000.0 -12549700000.0 -12549700000.0 -12549700000.0 -12549700000.0 -12549700000.0 -12549700000.0 -12549700000.0 -12549700000.0 -12549700000.0 -12549700000.0 -12549700000.0 -12549700000.0 -12549700000.0 -12549700000.0 -12549700000.0 -12549700000.0 -12549700000.0 -12549700000.0 -13094400000.0 -13142800000.0 -20274700000.0 -20611000000.0 -15953800000.0 -13453900000.0 -13894900000.0 -14231700000.0 -12592300000.0 -19380000000.0 -21289400000.0 -17175400000.0 -17292100000.0 -19438800000.0 -14815400000.0 -16559400000.0 -22385800000.0 -30017000000.0 -12549700000.0 -13367600000.0 -17727500000.0 -13201900000.0 -12549700000.0 -12549700000.0 -12549700000.0 -12549700000.0 -12549700000.0 -12549700000.0 -12549700000.0 -12549700000.0 -12549700000.0 -12549700000.0 -12549700000.0 -12549700000.0 -12549700000.0 -12549700000.0 -12549700000.0 -12549700000.0 -12549700000.0 -12549700000.0 -12549700000.0 -12549700000.0 -12549700000.0 -12549700000.0 -12549700000.0 -12549700000.0 -12549700000.0 -12549700000.0 -12549700000.0 -12549700000.0 -12549700000.0 -12549700000.0 -12549700000.0 -12549700000.0 -12549700000.0 -12549700000.0 -12549700000.0 -12549700000.0 -12549700000.0 -12549700000.0 -12549700000.0 -16573000000.0 -13551000000.0 -29937500000.0 -14918400000.0 -15196300000.0 -15208700000.0 -12553800000.0 -20306500000.0 -17839000000.0 -28371600000.0 -16292900000.0 -36056100000.0 -24015600000.0 -29808900000.0 -28845800000.0 -20595100000.0 -20336200000.0 -13626500000.0 -12549700000.0 -12549700000.0 -12549700000.0 -12549700000.0 -12549700000.0 -12549700000.0 -12549700000.0 -12549700000.0 -12549700000.0 -12549700000.0 -12549700000.0 -12549700000.0 -12549700000.0 -12549100000.0 -12549700000.0 -12549700000.0 -12549700000.0 -12549700000.0 -12549700000.0 -12549700000.0 -12549700000.0 -12549700000.0 -12549700000.0 -12549700000.0 -12549700000.0 -12549700000.0 -12549700000.0 -12549700000.0 -12549700000.0 -12549700000.0 -12549700000.0 -12549700000.0 -12549700000.0 -12549700000.0 -12549700000.0 -12549700000.0 -12549700000.0 -12549700000.0 -12549700000.0 -12549700000.0 -12549700000.0 -12549700000.0 -12549700000.0 -12549700000.0 -12549700000.0 -13725900000.0 -15521300000.0 -31617800000.0 -12680000000.0 -13430400000.0 -16094500000.0 -17009000000.0 -18102900000.0 -15952000000.0 -29945400000.0 -17352600000.0 -23462600000.0 -22153300000.0 -28937400000.0 -21766200000.0 -15920200000.0 -18483200000.0 -13827100000.0 -13065900000.0 -12549700000.0 -12549700000.0 -12549700000.0 -12549700000.0 -12549700000.0 -12549700000.0 -12549700000.0 -12549700000.0 -12549700000.0 -12549700000.0 -12549700000.0 -12549700000.0 -12549700000.0 -12549700000.0 -12549700000.0 -12549700000.0 -12549700000.0 -12549700000.0 -12549700000.0 -12549700000.0 -12549700000.0 -12549700000.0 -12549700000.0 -12549700000.0 -12549700000.0 -12549700000.0 -12549700000.0 -12549700000.0 -12549700000.0 -12549700000.0 -12549700000.0 -12549700000.0 -12954600000.0 -15260900000.0 -12587200000.0 -32013100000.0 -12651200000.0 -12635300000.0 -14241500000.0 -22865300000.0 -18545700000.0 -17313700000.0 -31926700000.0 -24726500000.0 -21507400000.0 -30829300000.0 -38004300000.0 -25802000000.0 -15561600000.0 -17057100000.0 -18348200000.0 -12599600000.0 -12646900000.0 -12587600000.0 -12549700000.0 -12549700000.0 -12549700000.0 -12549700000.0 -12549700000.0 -12549700000.0 -12549700000.0 -12549700000.0 -12549700000.0 -12549700000.0 -12549700000.0 -12549700000.0 -12549700000.0 -12549700000.0 -12549700000.0 -12549700000.0 -12549700000.0 -12549700000.0 -12549700000.0 -12549700000.0 -12549700000.0 -12549700000.0 -12549700000.0 -12549700000.0 -12549700000.0 -12772400000.0 -13205500000.0 -32032600000.0 -29447600000.0 -12742800000.0 -14480600000.0 -14189000000.0 -22322100000.0 -12743700000.0 -34565300000.0 -15627700000.0 -16814500000.0 -29948500000.0 -23687200000.0 -18260700000.0 -23565000000.0 -28344300000.0 -18784200000.0 -15046800000.0 -16577600000.0 -16267400000.0 -12549700000.0 -12549700000.0 -12549700000.0 -12549700000.0 -12549700000.0 -12549700000.0 -12549700000.0 -12549700000.0 -12549700000.0 -12549700000.0 -12549700000.0 -12549700000.0 -12549700000.0 -12549700000.0 -12549700000.0 -12549700000.0 -12549700000.0 -12549700000.0 -12549700000.0 -12549700000.0 -12549700000.0 -12549700000.0 -12549700000.0 -12549700000.0 -19029900000.0 -22147100000.0 -27494100000.0 -28105000000.0 -29109800000.0 -39449000000.0 -27776100000.0 -31849900000.0 -40633200000.0 -35782400000.0 -13583300000.0 -43464300000.0 -40364900000.0 -21291900000.0 -12549700000.0 -12549700000.0 -12549700000.0 -12549700000.0 -14853700000.0 -14225700000.0 -14440100000.0 -12549700000.0 -12549700000.0 -12549700000.0 -12549700000.0 -12549700000.0 -12549700000.0 -12549700000.0 -12549700000.0 -12549700000.0 -12549700000.0 -12549700000.0 -12549700000.0 -12549700000.0 -238579000000.0 -15036300000.0 -12549700000.0 -20926800000.0 -16582900000.0 -20253000000.0 -24332900000.0 -19764200000.0 -17103000000.0 -18684600000.0 -28237900000.0 -29749800000.0 -41422600000.0 -35277500000.0 -13823200000.0 -20351300000.0 -27992400000.0 -12584400000.0 -17837900000.0 -19803200000.0 -13399700000.0 -13141700000.0 -12549700000.0 -12549700000.0 -12549700000.0 -12549700000.0 -12549700000.0 -12549700000.0 -12549700000.0 -12549700000.0 -12549700000.0 -12549700000.0 -12549700000.0 -1.98094e+12 -2.66602e+12 -5.11375e+12 -6.51819e+12 -4.37972e+12 -3.80259e+12 -4.19101e+12 -3.8508e+12 -3.98818e+12 -12549700000.0 -3.21872e+12 -12549700000.0 -3.2821e+12 -3.28837e+12 -3.43024e+12 -5.39345e+12 -4.89147e+12 -3.24351e+12 -4.81749e+12 -2.32979e+12 -4.43663e+12 -4.91954e+12 -6.16705e+12 -4.52774e+12 -2.65719e+12 -4.77281e+12 -5.68813e+12 -4.30106e+12 -4.347e+12 -4.97707e+12 -40663700000.0 -4.34176e+12 -359342000000.0 -352058000000.0 -460855000000.0 -4.08949e+12 -5.67691e+12 -6.04341e+12 -5.14276e+12 -3.84241e+12 -4.69975e+12 -4.24732e+12 -4.48459e+12 -3.27823e+12 -6.18301e+12 -4.16066e+12 -3.69025e+12 -3.30788e+12 -4.29027e+12 -3.99748e+12 -3.16002e+12 -3.31519e+12 -4.59426e+12 -12551600000.0 -12549600000.0 -1.90856e+12 -17068800000.0 -29887400000.0 -31823200000.0 -19477800000.0 -23205300000.0 -14220400000.0 -15181300000.0 -23169600000.0 -28872600000.0 -17402800000.0 -18291200000.0 -17080600000.0 -21349000000.0 -15573000000.0 -12765600000.0 -26566400000.0 -18628800000.0 -23177300000.0 -46948300000.0 -37399500000.0 -32061600000.0 -12549700000.0 -13705600000.0 -2.41989e+12 -4.27464e+12 -12549700000.0 -4.7692e+12 -4.87961e+12 -5.43337e+12 -4.11922e+12 -4.9948e+12 -4.77042e+12 -6.82577e+12 -5.31831e+12 -5.52282e+12 -651387000000.0 -272526000000.0 -3.35735e+12 -4.26157e+12 -5.97175e+12 -3.10323e+12 -2.38966e+12 -2.62171e+12 -3.83383e+12 -3.77427e+12 -12549600000.0 -12549700000.0 -2.25565e+12 -4.08926e+12 -12549700000.0 -12549700000.0 -4.0629e+12 -1.86791e+12 -12549700000.0 -4.32277e+12 -5.17549e+12 -4.15799e+12 -3.72192e+12 -5.28415e+12 -4.83032e+12 -3.44611e+12 -4.29273e+12 -6.08877e+12 -6.30013e+12 -6.41755e+12 -12549700000.0 -5.29433e+12 -12549700000.0 -4.97237e+12 -6.38825e+12 -4.67841e+12 -4.95293e+12 -6.40428e+12 -4.31269e+12 -3.92548e+12 -4.82283e+12 -2.90417e+12 -6.34627e+12 -5.52484e+12 -5.7196e+12 -7.83507e+12 -7.49137e+12 -4.98573e+12 -1.10067e+13 -4.18284e+12 -5.51404e+12 -4.87607e+12 -6.97733e+12 -6.87975e+12 -5.98654e+12 -5.08201e+12 -6.79149e+12 -4.20626e+12 -4.91182e+12 -5.83621e+12 -5.95874e+12 -7.32107e+12 -9.03129e+12 -7.24898e+12 -1.11433e+13 -5.23026e+12 -3.84032e+12 -6.4186e+12 -5.8494e+12 -5.31279e+12 -7.70193e+12 -7.28292e+12 -5.42041e+12 -9.16964e+12 -8.02943e+12 -9.03368e+12 -8.26177e+12 -5.20331e+12 -4.14719e+12 -7.29902e+12 -3.89735e+12 -6.7605e+12 -4.16823e+12 -4.06291e+12 -6.36588e+12 -7.84455e+12 -8.06427e+12 -1.12769e+13 -5.83621e+12 -3.52609e+12 -3.2178e+12 -4.93691e+12 -7.39316e+12 -7.28722e+12 -4.95223e+12 -6.00497e+12 -3.76201e+12 -6.61532e+12 -6.42589e+12 -9.28742e+12 -5.92296e+12 -6.83174e+12 -7.47427e+12 -6.60245e+12 -3.06077e+12 -5.33861e+12 -4.96298e+12 -6.04347e+12 -5.19905e+12 -9.40034e+12 -2.4884e+12 -5.12374e+12 -4.34364e+12 -6.88613e+12 -6.15113e+12 -7.05136e+12 -6.63322e+12 -6.76135e+12 -3.72402e+12 -3.40841e+12 -2.21921e+12 -4.56266e+12 -3.27444e+12 -30009700000.0 -27722200000.0 -13366400000.0 -12549700000.0 -15846700000.0 -19201700000.0 -16948000000.0 -13689200000.0 -13561900000.0 -12549700000.0 -22289700000.0 -15624100000.0 -21389700000.0 -14939500000.0 -13337800000.0 -46980900000.0 -44613100000.0 -12549700000.0 -12549700000.0 -5.43891e+12 -7.73163e+12 -3.65464e+12 -3.37422e+12 -6.52274e+12 -6.17314e+12 -3.27353e+12 -1.0273e+13 -5.71994e+12 -6.30777e+12 -4.36774e+12 -3.81855e+12 -3.09208e+12 -7.50122e+12 -6.74977e+12 -4.08781e+12 -7.22418e+12 -3.94565e+12 -5.22589e+12 -6.01301e+12 -8.6429e+12 -3.11765e+12 -5.66235e+12 -1.00909e+13 -7.45953e+12 -7.04038e+12 -1.07045e+13 -7.49422e+12 -5.30134e+12 -5.3446e+12 -6.24345e+12 -7.98686e+12 -7.34894e+12 -6.30714e+12 -4.6339e+12 -8.99983e+12 -3.69529e+12 -6.63906e+12 -4.87192e+12 -7.35847e+12 -4.06341e+12 -5.74955e+12 -4.64628e+12 -4.58362e+12 -4.24772e+12 -6.06184e+12 -5.56646e+12 -6.33591e+12 -6.32199e+12 -7.06651e+12 -5.65058e+12 -1.58583e+12 -2.69872e+12 -5.00009e+12 -4.20894e+12 -6.17524e+12 -5.13096e+12 -8.15431e+12 -6.73934e+12 -5.71219e+12 -5.43415e+12 -7.4698e+12 -6.41742e+12 -3.96723e+12 -8.14936e+12 -6.2453e+12 -6.97713e+12 -4.96714e+12 -5.94697e+12 -7.91126e+12 -5.80862e+12 -5.76592e+12 -5.57305e+12 -9.76292e+12 -6.92751e+12 -7.45216e+12 -8.58633e+12 -4.14649e+12 -2.5767e+12 -4.72823e+12 -8.33238e+12 -6.45452e+12 -5.35386e+12 -6.31683e+12 -7.68831e+12 -7.00439e+12 -4.66225e+12 -5.08544e+12 -7.09233e+12 -8.6789e+12 -1.95261e+12 -3.62503e+12 -4.57386e+12 -2.41927e+12 -6.69727e+12 -5.32611e+12 -4.15167e+12 -6.04244e+12 -2.42727e+12 -5.87621e+12 -7.15578e+12 -6.12044e+12 -5.79214e+12 -6.11018e+12 -9.04935e+12 -8.76242e+12 -6.39022e+12 -6.31058e+12 -5.83884e+12 -7.03093e+12 -4.89936e+12 -7.75905e+12 -5.15875e+12 -6.02492e+12 -6.06865e+12 -7.52357e+12 -6.1108e+12 -4.47595e+12 -7.40954e+12 -6.62401e+12 -7.36066e+12 -3.26363e+12 -3.99588e+12 -3.02947e+12 -8.43206e+12 -9.83911e+12 -7.92058e+12 -5.0392e+12 -7.07841e+12 -5.41428e+12 -9.4984e+12 -4.44991e+12 -4.24797e+12 -5.55669e+12 -6.57032e+12 -6.45444e+12 -1.09432e+13 -3.71923e+12 -4.6407e+12 -8.17566e+12 -6.40028e+12 -7.30744e+12 -3.43084e+12 -3.83427e+12 -4.77665e+12 -2.13349e+12 -12546600000.0 -62014200000.0 -39969400000.0 -13530200000.0 -13119800000.0 -13943200000.0 -15818000000.0 -12849500000.0 -12904200000.0 -24628000000.0 -33206700000.0 -27780700000.0 -15965700000.0 -21219100000.0 -23585000000.0 -15411800000.0 -25549900000.0 -35174600000.0 -47085100000.0 -53296100000.0 -18240600000.0 -5.37573e+12 -4.50508e+12 -8.86582e+12 -7.83136e+12 -2.12216e+12 -9.97669e+12 -2.16744e+12 -4.74063e+12 -7.04196e+12 -5.2463e+12 -8.39706e+12 -5.92335e+12 -9.3551e+12 -6.17313e+12 -4.37566e+12 -3.73279e+12 -3.96489e+12 -5.02247e+12 -8.42588e+12 -7.07639e+12 -5.23376e+12 -7.29806e+12 -6.51287e+12 -6.70521e+12 -9.14834e+12 -9.68597e+12 -7.3859e+12 -7.84711e+12 -3.47818e+12 -4.93677e+12 -8.2532e+12 -5.99481e+12 -7.69203e+12 -6.096e+12 -5.76653e+12 -5.07215e+12 -5.83609e+12 -6.60793e+12 -5.39618e+12 -6.13607e+12 -4.38894e+12 -7.07619e+12 -1.04019e+13 -5.27672e+12 -6.01363e+12 -6.47562e+12 -8.52071e+12 -3.8402e+12 -4.01124e+12 -3.70658e+12 -5.81956e+12 -4.07818e+12 -5.6582e+12 -3.9914e+12 -4.98997e+12 -5.00292e+12 -7.42162e+12 -7.85141e+12 -8.95358e+12 -5.54267e+12 -4.50629e+12 -4.12641e+12 -7.24321e+12 -7.03544e+12 -5.07054e+12 -6.19582e+12 -5.79571e+12 -7.17968e+12 -6.02189e+12 -4.47145e+12 -1.00183e+13 -6.45484e+12 -5.05514e+12 -1.73352e+12 -6.68314e+12 -3.81166e+12 -5.9088e+12 -4.89312e+12 -5.12446e+12 -6.4337e+12 -5.6984e+12 -5.01584e+12 -6.21743e+12 -4.99597e+12 -6.76989e+12 -4.10639e+12 -5.15159e+12 -4.02151e+12 -8.47028e+12 -7.31695e+12 -8.06656e+12 -5.79099e+12 -7.09526e+12 -5.3179e+12 -4.06156e+12 -8.2267e+12 -4.08978e+12 -4.57092e+12 -6.04998e+12 -5.65112e+12 -4.17665e+12 -6.4363e+12 -5.71086e+12 -3.89807e+12 -8.87856e+12 -5.85939e+12 -4.6286e+12 -4.06365e+12 -3.89566e+12 -6.94176e+12 -3.06872e+12 -4.79933e+12 -6.07409e+12 -6.93845e+12 -3.97707e+12 -7.79478e+12 -5.35133e+12 -4.45068e+12 -5.99867e+12 -6.65774e+12 -4.44013e+12 -6.56281e+12 -6.78675e+12 -5.37821e+12 -4.5964e+12 -49461400000.0 -28683000000.0 -15207600000.0 -42209000000.0 -40450400000.0 -13028900000.0 -41203800000.0 -47347000000.0 -46790800000.0 -46996100000.0 -41790600000.0 -15287200000.0 -16018800000.0 -14430000000.0 -14896700000.0 -14048100000.0 -19610700000.0 -12950000000.0 -47869000000.0 -49348200000.0 -107930000000.0 -191467000000.0 -287355000000.0 -4.02192e+12 -4.50498e+12 -4.94321e+12 -3.10232e+12 -4.33825e+12 -4.32894e+12 -4.70751e+12 -5.92534e+12 -6.40864e+12 -1.04509e+13 -7.31236e+12 -6.49006e+12 -3.09223e+12 -6.74961e+12 -5.32417e+12 -2.59178e+12 -4.18876e+12 -5.14148e+12 -3.77054e+12 -5.23809e+12 -7.75608e+12 -7.17989e+12 -5.53525e+12 -5.13648e+12 -3.67821e+12 -8.98453e+12 -9.91956e+12 -5.94231e+12 -3.8349e+12 -9.31872e+12 -3.68394e+12 -9.57909e+12 -2.99491e+12 -3.67588e+12 -5.01335e+12 -7.82355e+12 -4.47174e+12 -4.87338e+12 -4.57686e+12 -7.43752e+12 -4.78194e+12 -6.06785e+12 -6.17763e+12 -6.18218e+12 -3.48985e+12 -6.39557e+12 -3.96574e+12 -5.68891e+12 -6.07589e+12 -7.40862e+12 -8.10919e+12 -5.65566e+12 -5.91435e+12 -3.62221e+12 -3.77821e+12 -4.72403e+12 -6.11198e+12 -5.69077e+12 -5.42064e+12 -3.5997e+12 -4.34186e+12 -4.3987e+12 -7.31305e+12 -6.5272e+12 -3.34947e+12 -4.40739e+12 -3.12673e+12 -6.50737e+12 -7.47425e+12 -4.34266e+12 -3.08028e+12 -2.18158e+12 -6.61351e+12 -3.80751e+12 -4.41903e+12 -4.96126e+12 -8.98951e+12 -4.33976e+12 -4.2553e+12 -6.80753e+12 -7.94938e+12 -4.48585e+12 -4.16805e+12 -651278000000.0 -4.69825e+12 -4.22291e+12 -9.90731e+12 -5.43924e+12 -4.19749e+12 -4.90096e+12 -3.79045e+12 -4.57172e+12 -5.05536e+12 -2.95032e+12 -4.2571e+12 -6.98803e+12 -4.70738e+12 -6.21082e+12 -4.15877e+12 -4.70057e+12 -7.28465e+12 -2.7029e+12 -6.75903e+12 -8.03457e+12 -4.80468e+12 -3.44263e+12 -4.94607e+12 -2.19898e+12 -7.11497e+12 -4.04336e+12 -4.95553e+12 -2.59854e+12 -7.76613e+12 -6.59751e+12 -5.65404e+12 -7.04711e+12 -3.21332e+12 -5.10768e+12 -5.08407e+12 -5.38203e+12 -3.70725e+12 -5.96548e+12 -2.64068e+12 -7.20814e+12 -5.68527e+12 -4.42713e+12 -5.63894e+12 -4.47667e+12 -5.14412e+12 -3.50231e+12 -2.12518e+12 -1.95711e+12 -32297900000.0 -39453500000.0 -18433100000.0 -14908800000.0 -33696800000.0 -33338700000.0 -37174500000.0 -12549700000.0 -3.76027e+12 -5.14377e+12 -4.62822e+12 -3.3017e+12 -4.34141e+12 -5.60124e+12 -4.19025e+12 -4.83187e+12 -7.39884e+12 -3.44659e+12 -3.9253e+12 -8.05925e+12 -4.96998e+12 -4.12902e+12 -5.56914e+12 -5.37101e+12 -6.76291e+12 -3.59915e+12 -2.71625e+12 -4.11203e+12 -4.09702e+12 -5.21367e+12 -3.55587e+12 -3.52251e+12 -2.91658e+12 -2.90661e+12 -2.26921e+12 -3.08738e+12 -3.68525e+12 -6.11204e+12 -8.31421e+12 -4.11211e+12 -5.10803e+12 -3.05874e+12 -3.26483e+12 -5.0451e+12 -2.48202e+12 -5.33193e+12 -5.56095e+12 -6.56331e+12 -7.58983e+12 -7.06152e+12 -6.79201e+12 -2.88132e+12 -2.54998e+12 -3.37851e+12 -6.19872e+12 -5.8788e+12 -4.41123e+12 -6.02506e+12 -5.7979e+12 -4.23445e+12 -4.88092e+12 -5.17124e+12 -4.39809e+12 -3.07834e+12 -4.80296e+12 -4.3875e+12 -5.85697e+12 -7.4773e+12 -4.8873e+12 -3.43256e+12 -7.24342e+12 -2.00599e+12 -5.93053e+12 -2.44274e+12 -5.73215e+12 -4.21932e+12 -6.13966e+12 -2.95573e+12 -1.00333e+13 -3.89801e+12 -6.6316e+12 -6.09542e+12 -5.46656e+12 -5.97616e+12 -6.01318e+12 -4.23973e+12 -5.82318e+12 -5.02826e+12 -5.65573e+12 -4.93843e+12 -5.15619e+12 -6.06816e+12 -6.36592e+12 -4.93745e+12 -1.74172e+12 -5.55277e+12 -4.89909e+12 -4.89481e+12 -5.28508e+12 -6.78714e+12 -4.1282e+12 -5.70899e+12 -6.02124e+12 -7.33329e+12 -3.27095e+12 -3.97492e+12 -5.23158e+12 -6.63303e+12 -5.59659e+12 -6.33856e+12 -5.24676e+12 -3.40614e+12 -6.39547e+12 -4.77948e+12 -3.4738e+12 -7.34539e+12 -6.3779e+12 -6.25409e+12 -2.9561e+12 -4.61568e+12 -3.3709e+12 -4.2708e+12 -2.86425e+12 -5.39702e+12 -2.04621e+12 -2.68873e+12 -4.57614e+12 -6.76276e+12 -4.13936e+12 -3.36449e+12 -3.4922e+12 -3.34559e+12 -3.54736e+12 -6.19203e+12 -3.29323e+12 -4.10948e+12 -3.60037e+12 -3.65483e+12 -4.76325e+12 -3.84633e+12 -6.01e+12 -6.41405e+12 -4.87539e+12 -3.56496e+12 -3.74099e+12 -7.94052e+12 -3.16087e+12 -3.50723e+12 -4.78522e+12 -2.64759e+12 -5.33467e+12 -3.27929e+12 -2.46628e+12 -4.97297e+12 -5.87494e+12 -1.93395e+12 -3.66844e+12 -5.7746e+12 -4.66883e+12 -6.13107e+12 -5.69701e+12 -2.21871e+12 -5.8457e+12 -5.09501e+12 -4.31552e+12 -4.2615e+12 -2.65772e+12 -6.71584e+12 -2.26576e+12 -2.7499e+12 -3.94898e+12 -5.74676e+12 -6.33148e+12 -4.7643e+12 -3.43232e+12 -5.0093e+12 -3.05037e+12 -5.20593e+12 -3.89222e+12 -5.65245e+12 -3.24927e+12 -5.19576e+12 -4.87349e+12 -4.44592e+12 -2.76259e+12 -5.16108e+12 -3.25733e+12 -2.8036e+12 -6.23453e+12 -3.99774e+12 -4.31405e+12 -5.71856e+12 -3.83981e+12 -4.67676e+12 -3.0122e+12 -4.57698e+12 -5.34207e+12 -5.82825e+12 -4.31798e+12 -3.50347e+12 -4.295e+12 -3.06182e+12 -3.4651e+12 -2.47881e+12 -5.43943e+12 -3.83296e+12 -3.79056e+12 -1.55431e+12 -3.0737e+12 -4.27899e+12 -3.52223e+12 -3.08039e+12 -4.2833e+12 -2.87926e+12 -3.69888e+12 -3.01151e+12 -4.82763e+12 -3.89859e+12 -8.47846e+12 -3.72215e+12 -3.10707e+12 -2.69736e+12 -6.13591e+12 -2.98528e+12 -5.29954e+12 -3.87828e+12 -3.6988e+12 -4.25395e+12 -3.49804e+12 -4.50362e+12 -5.73305e+12 -4.93169e+12 -639273000000.0 -2.51266e+12 -4.92941e+12 -4.8688e+12 -3.18191e+12 -4.05859e+12 -4.2792e+12 -4.16014e+12 -6.03313e+12 -2.13359e+12 -1.74687e+12 -4.10642e+12 -5.28834e+12 -5.60492e+12 -6.49877e+12 -4.6956e+12 -4.46565e+12 -3.57561e+12 -4.04361e+12 -3.31471e+12 -2.46774e+12 -2.69082e+12 -3.41984e+12 -6.31875e+12 -5.35834e+12 -5.83299e+12 -2.53386e+12 -6.49011e+12 -5.33963e+12 -4.60234e+12 -4.19892e+12 -2.90708e+12 -3.22449e+12 -3.56499e+12 -2.25057e+12 -3.56151e+12 -3.72808e+12 -4.80544e+12 -2.80898e+12 -5.52356e+12 -2.98821e+12 -3.82753e+12 -3.04717e+12 -1.41037e+12 -4.47753e+12 -4.23086e+12 -4.44803e+12 -1.86642e+12 -3.418e+12 -3.37778e+12 -2.41987e+12 -3.7964e+12 -4.5519e+12 -2.07434e+12 -5.09246e+12 -2.67504e+12 -1.46488e+12 -3.20448e+12 -3.09869e+12 -3.44757e+12 -6.47037e+12 -4.20211e+12 -3.27061e+12 -4.71485e+12 -3.7429e+12 -6.93246e+12 -2.69031e+12 -2.29337e+12 -4.01078e+12 -2.03019e+12 -4.51877e+12 -2.37021e+12 -1.96431e+12 -3.1219e+12 -3.86176e+12 -2.67844e+12 -5.01812e+12 -2.15179e+12 -2.73381e+12 -4.00742e+12 -3.7465e+12 -2.50071e+12 -3.4132e+12 -4.22328e+12 -2.68048e+12 -2.8483e+12 -3.45155e+12 -3.75481e+12 -2.88084e+12 -3.3086e+12 -2.23363e+12 -2.85532e+12 -2.4543e+12 -4.22107e+12 -1.90103e+12 -4.79314e+12 -3.35039e+12 -2.02884e+12 -4.11026e+12 -2.53348e+12 -3.42265e+12 -2.84992e+12 -2.75013e+12 -3.83044e+12 -3.45331e+12 -2.93242e+12 -3.13762e+12 -3.00009e+12 -2.7792e+12 -3.72354e+12 -2.67114e+12 -3.49106e+12 -4.22e+12 -5.09618e+12 -4.95866e+12 -3.33655e+12 -4.49719e+12 -2.73638e+12 -3.19575e+12 -2.65562e+12 -1.86497e+12 -4.03996e+12 -3.14735e+12 -3.23008e+12 -1.57114e+12 -3.72837e+12 -5.24712e+12 -2.42358e+12 -3.43476e+12 -4.30012e+12 -2.30809e+12 -2.53786e+12 -2.85218e+12 -5.05391e+12 -4.58403e+12 -2.10149e+12 -2.76834e+12 -2.18471e+12 -2.51657e+12 -4.35838e+12 -2.23968e+12 -2.53802e+12 -2.01399e+12 -4.07018e+12 -1.06714e+12 -2.09695e+12 -3.08713e+12 -796983000000.0 -4.98053e+12 -3.8354e+12 -4.36902e+12 -3.00464e+12 -4.05949e+12 -5.27082e+12 -3.98306e+12 -2.11543e+12 -3.7052e+12 -3.66464e+12 -3.1741e+12 -2.75548e+12 -3.48261e+12 -3.66958e+12 -2.3218e+12 -2.33821e+12 -4.14456e+12 -2.91196e+12 -2.31437e+12 -2.67822e+12 -3.90759e+12 -3.94606e+12 -3.88713e+12 -3.37297e+12 -2.39696e+12 -2.01116e+12 -2.1133e+12 -2.32602e+12 -2.88104e+12 -4.45886e+12 -254201000000.0 -2.59197e+12 -2.80263e+12 -2.39119e+12 -2.06452e+12 -1.68944e+12 -2.60012e+12 -4.65988e+12 -1.94417e+12 -2.54018e+12 -2.12786e+12 -1.6279e+12 -1.61346e+12 -2.76269e+12 -3.10097e+12 -2.82113e+12 -3.2887e+12 -5.36459e+12 -3.37077e+12 -2.38848e+12 -2.20958e+12 -1.65974e+12 -3.20741e+12 -3.7203e+12 -2.75297e+12 -2.43469e+12 -2.76061e+12 -3.68507e+12 -4.70962e+12 -1.3643e+12 -1.74616e+12 -3.9737e+12 -4.44139e+12 -5.31512e+12 -3.26222e+12 -1.10855e+12 -2.73216e+12 -2.57416e+12 -2.575e+12 -1.55499e+12 -2.42304e+12 -1.87161e+12 -2.53369e+12 -2.76403e+12 -1.84085e+12 -3.09359e+12 -1.22136e+12 -3.7839e+12 -2.90225e+12 -3.73327e+12 -2.16939e+12 -3.21731e+12 -1.10993e+12 -4.07495e+12 -1.82361e+12 -704466000000.0 -2.70083e+12 -1.58714e+12 -1.5676e+12 -3.71473e+12 -2.84426e+12 -5.3898e+12 -1.83612e+12 -3.7892e+12 -2.00935e+12 -1.76632e+12 -2.67448e+12 -1.41159e+12 -3.32189e+12 -3.0169e+12 -3.21558e+12 -1.47879e+12 -1.98045e+12 -2.15148e+12 -2.51415e+12 -3.04351e+12 -2.93997e+12 -2.35722e+12 -2.83568e+12 -2.18608e+12 -4.59717e+12 -3.12716e+12 -4.22304e+12 -2.58362e+12 -2.95957e+12 -3.41025e+12 -3.44732e+12 -2.18683e+12 -3.44698e+12 -1.55504e+12 -2.78796e+12 -2.18981e+12 -3.14813e+12 -2.75776e+12 -2.92506e+12 -3.89161e+12 -3.44667e+12 -3.18374e+12 -3.17101e+12 -2.28114e+12 -2.14697e+12 -1.08205e+12 -2.10736e+12 -2.81876e+12 -2.07474e+12 -1.34028e+12 -3.30943e+12 -992493000000.0 -2.3885e+12 -1.57397e+12 -2.63115e+12 -1.94657e+12 -2.35635e+12 -2.05904e+12 -1.77837e+12 -1.31837e+12 -3.56078e+12 -1.62721e+12 -2.27431e+12 -1.83946e+12 -1.42377e+12 -2.07006e+12 -1.06881e+12 -2.8995e+12 -2.06693e+12 -2.30912e+12 -1.67488e+12 -2.40665e+12 -1.72347e+12 -2.64784e+12 -1.35349e+12 -2.48613e+12 -2.60552e+12 -5.51865e+12 -2.84448e+12 -3.94108e+12 -2.97622e+12 -1.8928e+12 -2.11417e+12 -2.355e+12 -4.141e+12 -2.38745e+12 -1.16355e+12 -4.45909e+12 -2.47864e+12 -1.91766e+12 -1.54572e+12 -1.55911e+12 -1.86006e+12 -3.11597e+12 -1.15265e+12 -2.58564e+12 -1.59981e+12 -1.00066e+12 -1.5203e+12 -2.20165e+12 -1.15171e+12 -3.08635e+12 -1.97563e+12 -1.05193e+12 -2.80962e+12 -1.81e+12 -2.18082e+12 -2.17609e+12 -2.17477e+12 -3.26725e+12 -1.56233e+12 -3.04988e+12 -1.44339e+12 -2.75716e+12 -2.23991e+12 -1.99165e+12 -939638000000.0 -1.76197e+12 -1.58259e+12 -1.54584e+12 -1.48812e+12 -1.39282e+12 -2.25883e+12 -3.90741e+12 -2.51908e+12 -2.89108e+12 -2.18608e+12 -2.84094e+12 -1.71343e+12 -2.82895e+12 -1.40215e+12 -2.35509e+12 -1.76253e+12 -3.43594e+12 -2.00554e+12 -2.88074e+12 -1.86961e+12 -3.3933e+12 -1.3574e+12 -1.8146e+12 -2.99575e+12 -3.00947e+12 -2.84202e+12 -1.6011e+12 -2.41477e+12 -1.98283e+12 -3.00233e+12 -1.74706e+12 -1.71536e+12 -997367000000.0 -2.13039e+12 -1.88073e+12 -304346000000.0 -1.26812e+12 -1.20733e+12 -769566000000.0 -2.01216e+12 -1.43735e+12 -1.28874e+12 -2.25189e+12 -1.60826e+12 -927734000000.0 -1.34051e+12 -2.1562e+12 -2.48708e+12 -2.2873e+12 -1.66238e+12 -1.62785e+12 -1.32465e+12 -1.33734e+12 -2.45847e+12 -2.02041e+12 -983626000000.0 -1.34679e+12 -1.34498e+12 -1.90301e+12 -607728000000.0 -1.54734e+12 -1.21423e+12 -1.0249e+12 -1.25094e+12 -2.13384e+12 -1.19991e+12 -1.00194e+12 -700418000000.0 -1.53925e+12 -282075000000.0 -1.7693e+12 -2.9225e+12 -2.44908e+12 -1.62532e+12 -1.37028e+12 -1.82874e+12 -2.87323e+12 -2.47751e+12 -1.08568e+12 -995966000000.0 -966878000000.0 -1.1359e+12 -1.86391e+12 -630136000000.0 -589608000000.0 -1.20158e+12 -2.30688e+12 -1.65511e+12 -2.32201e+12 -1.5256e+12 -2.87237e+12 -1.53331e+12 -1.40603e+12 -1.37209e+12 -1.83343e+12 -2.36091e+12 -2.20231e+12 -1.74102e+12 -862146000000.0 -914429000000.0 -931446000000.0 -1.69323e+12 -1.92816e+12 -2.37806e+12 -1.71713e+12 -1.41831e+12 -1.25241e+12 -1.76681e+12 -1.13639e+12 -2.34507e+12 -1.90229e+12 -2.18853e+12 -2.44809e+12 -2.88152e+12 -1.37667e+12 -1.12337e+12 -1.71371e+12 -2.04269e+12 -1.99657e+12 -518028000000.0 -1.05954e+12 -846806000000.0 -1.10639e+12 -2.04951e+12 -439976000000.0 -195135000000.0 -1.11169e+12 -367400000000.0 -2.09491e+12 -928079000000.0 -1.08169e+12 -1.23452e+12 -985551000000.0 -1.38417e+12 -306239000000.0 -1.46613e+12 -1.17634e+12 -500037000000.0 -1.05111e+12 -725589000000.0 -1.60062e+12 -630957000000.0 -1.01257e+12 -358054000000.0 -1.05978e+12 -1.05301e+12 -1.08708e+12 -580051000000.0 -883992000000.0 -984507000000.0 -955666000000.0 -919564000000.0 -683280000000.0 -984193000000.0 -839425000000.0 -977718000000.0 -508437000000.0 -909522000000.0 -806247000000.0 -839644000000.0 -427531000000.0 -663550000000.0 -1.34935e+12 -874987000000.0 -1.0563e+12 -968414000000.0 -1.88933e+12 -458601000000.0 -308324000000.0 -934433000000.0 -452136000000.0 -1.79061e+12 -1.07082e+12 -370974000000.0 -525681000000.0 -1.40398e+12 -400709000000.0 -806186000000.0 -2.02041e+12 -1.65181e+12 -529202000000.0 -1.05931e+12 -745174000000.0 -448848000000.0 -835969000000.0 -1.55684e+12 -887142000000.0 -1.68337e+12 -859801000000.0 -1.34609e+12 -748884000000.0 -1.99771e+12 -918055000000.0 -1.72345e+12 -1.21265e+12 -637894000000.0 -1.2076e+12 -956847000000.0 -278337000000.0 -855462000000.0 -978444000000.0 -691144000000.0 -1.14323e+12 -579880000000.0 -806674000000.0 -1.18825e+12 -729855000000.0 -548692000000.0 -1.179e+12 -793448000000.0 -911719000000.0 -1.20152e+12 -1.60858e+12 -408136000000.0 -1.1684e+12 -911471000000.0 -850430000000.0 -83578900000.0 -635441000000.0 -777892000000.0 -479111000000.0 -669828000000.0 -421404000000.0 -246626000000.0 -678119000000.0 -256153000000.0 -264246000000.0 -162843000000.0 -210813000000.0 -70414500000.0 -172330000000.0 -245121000000.0 -350142000000.0 -181556000000.0 -267346000000.0 -167244000000.0 -139359000000.0 -133719000000.0 -454702000000.0 -539081000000.0 -383742000000.0 -331596000000.0 -428149000000.0 -173318000000.0 -286499000000.0 -180238000000.0 -221996000000.0 -454173000000.0 -229089000000.0 -629947000000.0 -449309000000.0 -312275000000.0 -167771000000.0 -670104000000.0 -451204000000.0 -309910000000.0 -365265000000.0 -166152000000.0 -322749000000.0 -86411900000.0 -121727000000.0 -175329000000.0 -393515000000.0 -372151000000.0 -345534000000.0 -208493000000.0 -173320000000.0 -252981000000.0 -405637000000.0 -371064000000.0 -369659000000.0 -198729000000.0 -213252000000.0 -230551000000.0 -534443000000.0 -707513000000.0 -287335000000.0 -387487000000.0 -604276000000.0 -299223000000.0 -160166000000.0 -668175000000.0 -240931000000.0 -264708000000.0 -177788000000.0 