# vtk DataFile Version 2.0
Time step 45
ASCII
DATASET UNSTRUCTURED_GRID
POINTS 5000 float
8533.58 93371.3 0
12438.9 93205.3 0
16747.6 92523.2 0
27669.3 90906.4 0
33204.6 93593.8 0
57005.0 93176.1 0
72702.5 93517.8 0
87407.7 93552.2 0
167010.0 93563.4 0
171830.0 92446.4 0
177734.0 92484.6 0
182938.0 91670.9 0
187393.0 93525.5 0
201747.0 93210.0 0
212985.0 93309.9 0
230434.0 93509.4 0
241170.0 93211.6 0
252680.0 93196.9 0
278881.0 92615.7 0
297319.0 92580.4 0
303664.0 93364.7 0
345896.0 93436.4 0
361815.0 92983.1 0
372012.0 91001.1 0
377031.0 92972.9 0
388132.0 93147.3 0
394019.0 92463.3 0
403650.0 91389.6 0
408587.0 92601.6 0
422737.0 92408.8 0
432478.0 91921.0 0
442088.0 93215.8 0
446251.0 92796.5 0
450665.0 93564.4 0
455208.0 93504.3 0
460242.0 93348.3 0
471628.0 92993.8 0
477063.0 91797.2 0
485844.0 91729.3 0
491674.0 93268.0 0
497601.0 91761.4 0
2398.29 93997.7 0
6062.26 96691.5 0
11087.1 97723.2 0
17332.4 98425.5 0
22243.6 94170.9 0
28519.3 97258.1 0
38185.0 94177.5 0
42703.6 94330.6 0
47472.3 94237.0 0
48279.6 98231.5 0
52137.1 94336.4 0
57995.2 98617.3 0
62763.5 94251.8 0
67994.7 94385.3 0
72116.0 98637.5 0
77500.0 94264.7 0
82500.0 94254.0 0
87907.8 98310.1 0
92500.0 94292.1 0
97192.6 94313.6 0
101292.0 94230.7 0
105946.0 93620.3 0
111936.0 94099.5 0
108243.0 98211.5 0
117850.0 94284.5 0
123330.0 94361.2 0
128345.0 94482.1 0
133428.0 93730.8 0
138124.0 94414.3 0
142500.0 94335.4 0
147500.0 94269.0 0
152501.0 94238.8 0
157589.0 93866.4 0
156861.0 97915.6 0
162561.0 94021.7 0
166509.0 98235.1 0
172971.0 98015.4 0
178375.0 97896.9 0
183532.0 96738.9 0
188603.0 97971.1 0
192498.0 94687.3 0
196079.0 93849.8 0
198250.0 98194.5 0
207650.0 93974.2 0
213692.0 97860.2 0
218128.0 94395.7 0
222479.0 94408.1 0
225794.0 93637.5 0
226801.0 97872.5 0
235810.0 94507.2 0
246502.0 95213.0 0
259052.0 93671.6 0
257263.0 98310.0 0
263773.0 94760.0 0
268740.0 93669.1 0
267062.0 98512.1 0
273935.0 93964.5 0
271611.0 97815.7 0
277075.0 98219.5 0
282030.0 95948.2 0
286325.0 94255.8 0
291717.0 94711.9 0
298249.0 98090.8 0
307730.0 95935.0 0
312126.0 93789.4 0
317928.0 94406.7 0
323245.0 94311.8 0
327581.0 94582.6 0
332206.0 94181.3 0
337223.0 93890.4 0
341019.0 95101.3 0
343308.0 98126.5 0
350687.0 95359.4 0
347752.0 98523.1 0
355259.0 94342.9 0
361441.0 98295.7 0
365114.0 97988.5 0
367954.0 94316.7 0
372930.0 97801.9 0
382609.0 93846.9 0
378819.0 97523.6 0
382004.0 98662.0 0
388375.0 98235.6 0
393554.0 98610.4 0
399200.0 94132.3 0
402999.0 97589.1 0
412474.0 94252.2 0
408388.0 96882.4 0
412864.0 98194.3 0
417500.0 94297.8 0
422128.0 97045.5 0
427271.0 94117.6 0
433429.0 97154.1 0
437540.0 94274.2 0
443214.0 97498.1 0
447602.0 96806.4 0
451946.0 98042.0 0
457176.0 98231.5 0
465794.0 93737.2 0
466599.0 98306.9 0
475181.0 98286.8 0
481305.0 94660.4 0
486589.0 97918.6 0
496837.0 97270.6 0
2284.52 99012.7 0
6739.04 101737.0 0
11843.4 103553.0 0
16323.4 103633.0 0
23005.3 99681.4 0
20502.9 103643.0 0
34969.1 98868.3 0
40341.6 99186.8 0
38263.6 103699.0 0
44464.4 99528.5 0
47588.8 102953.0 0
52500.0 99296.6 0
62849.9 99351.3 0
67505.2 99023.1 0
77500.0 99422.8 0
82116.1 99068.9 0
81954.5 103795.0 0
92500.0 99431.8 0
97183.5 99060.7 0
97548.4 103580.0 0
102467.0 98965.3 0
107924.0 102991.0 0
112500.0 99368.1 0
117500.0 99449.6 0
122500.0 99372.5 0
125864.0 103283.0 0
127727.0 98915.2 0
132494.0 99266.0 0
137520.0 99280.8 0
142774.0 98758.0 0
140992.0 102879.0 0
146926.0 99106.1 0
151938.0 98983.6 0
156244.0 102476.0 0
161296.0 98735.9 0
169996.0 102802.0 0
176294.0 103655.0 0
182187.0 101878.0 0
193570.0 98831.5 0
203920.0 98829.8 0
199972.0 103300.0 0
209357.0 99044.2 0
213300.0 102671.0 0
217601.0 99466.4 0
222033.0 99232.7 0
222564.0 103507.0 0
226872.0 102877.0 0
232205.0 98934.1 0
237686.0 99758.5 0
243283.0 99583.0 0
248462.0 99286.6 0
246841.0 103355.0 0
252678.0 99757.1 0
257738.0 103062.0 0
262325.0 98935.7 0
262719.0 103713.0 0
267489.0 102967.0 0
273047.0 103056.0 0
279878.0 102282.0 0
282828.0 99634.8 0
287500.0 99346.1 0
292912.0 99203.1 0
291017.0 103510.0 0
296734.0 103134.0 0
303118.0 99035.2 0
307441.0 99228.0 0
307700.0 103658.0 0
312501.0 99540.7 0
317475.0 99282.0 0
318188.0 103772.0 0
322433.0 98779.8 0
322509.0 102785.0 0
327500.0 99326.4 0
332500.0 99398.7 0
336511.0 103397.0 0
337713.0 98732.0 0
341414.0 102332.0 0
346846.0 102910.0 0
352668.0 99249.3 0
356026.0 102637.0 0
357755.0 98763.1 0
361260.0 102998.0 0
366513.0 102070.0 0
377673.0 103459.0 0
384354.0 101999.0 0
392424.0 103433.0 0
397217.0 103393.0 0
398136.0 99045.1 0
409243.0 102527.0 0
417519.0 98813.4 0
419144.0 103503.0 0
428326.0 99060.0 0
424121.0 101863.0 0
432249.0 102777.0 0
437510.0 99342.5 0
437342.0 103515.0 0
442358.0 102735.0 0
448275.0 101879.0 0
454178.0 103446.0 0
462429.0 99720.9 0
470193.0 99487.2 0
472372.0 102809.0 0
477746.0 103758.0 0
480797.0 99935.4 0
492077.0 100169.0 0
2238.62 104936.0 0
8050.24 107577.0 0
13471.9 108180.0 0
17752.3 107477.0 0
22417.3 108017.0 0
27043.6 104091.0 0
32615.8 103924.0 0
32072.6 108212.0 0
42970.5 104086.0 0
49063.5 107744.0 0
51800.5 104717.0 0
56554.5 104238.0 0
62115.0 104208.0 0
63616.9 108539.0 0
67697.6 103867.0 0
73695.4 104180.0 0
78211.1 104620.0 0
77068.8 108540.0 0
82136.1 108816.0 0
86960.3 103826.0 0
92531.5 104183.0 0
102630.0 104727.0 0
107685.0 108490.0 0
116732.0 104053.0 0
112494.0 104265.0 0
113113.0 108594.0 0
120857.0 103903.0 0
118139.0 108529.0 0
123420.0 107890.0 0
131158.0 104982.0 0
136445.0 104934.0 0
137738.0 108848.0 0
146306.0 103997.0 0
151834.0 105595.0 0
148002.0 108606.0 0
156828.0 107871.0 0
161703.0 104426.0 0
166528.0 106245.0 0
170842.0 108831.0 0
182233.0 107356.0 0
188048.0 104133.0 0
194261.0 103858.0 0
197223.0 108585.0 0
203055.0 108439.0 0
208111.0 103953.0 0
204288.0 104295.0 0
217709.0 104400.0 0
214360.0 108342.0 0
222021.0 107765.0 0
227506.0 108428.0 0
232444.0 104399.0 0
234332.0 108778.0 0
237422.0 104184.0 0
237874.0 107508.0 0
241792.0 104838.0 0
246211.0 108540.0 0
251784.0 104648.0 0
255872.0 107777.0 0
260336.0 107447.0 0
266349.0 107649.0 0
278361.0 107785.0 0
283554.0 104568.0 0
287216.0 104636.0 0
288758.0 107789.0 0
302234.0 104270.0 0
313207.0 104783.0 0
316257.0 108486.0 0
321078.0 108011.0 0
326812.0 104667.0 0
329893.0 108209.0 0
331856.0 104383.0 0
339780.0 107723.0 0
351893.0 104084.0 0
357349.0 106594.0 0
366551.0 106762.0 0
371101.0 103943.0 0
382813.0 107515.0 0
388338.0 105188.0 0
402858.0 103830.0 0
408059.0 107876.0 0
414413.0 105082.0 0
416948.0 108885.0 0
427685.0 104899.0 0
425658.0 108526.0 0
437115.0 107710.0 0
441812.0 108321.0 0
446524.0 106876.0 0
450849.0 107374.0 0
458992.0 104495.0 0
463187.0 104259.0 0
467519.0 104366.0 0
466976.0 108692.0 0
472594.0 107769.0 0
482622.0 104630.0 0
487506.0 105733.0 0
491506.0 104230.0 0
492124.0 108086.0 0
496591.0 103839.0 0
2182.12 109350.0 0
7154.96 113885.0 0
11905.2 111920.0 0
17161.5 112656.0 0
23053.1 113401.0 0
26988.8 110014.0 0
30224.3 112751.0 0
34875.0 113545.0 0
37589.2 108904.0 0
39764.3 112968.0 0
43205.8 109149.0 0
48582.7 112968.0 0
53807.2 109418.0 0
59223.0 108916.0 0
57213.5 113309.0 0
63064.8 113314.0 0
68064.9 109539.0 0
72603.0 109056.0 0
73401.3 113114.0 0
78302.3 113688.0 0
83593.7 113757.0 0
87334.1 109000.0 0
88398.0 113817.0 0
92269.2 109513.0 0
97732.1 108932.0 0
102767.0 110184.0 0
111306.0 113178.0 0
116640.0 113787.0 0
122098.0 113081.0 0
127500.0 109447.0 0
126931.0 113489.0 0
132691.0 109810.0 0
136577.0 113398.0 0
142524.0 108998.0 0
147012.0 112883.0 0
153419.0 110249.0 0
157942.0 113808.0 0
160406.0 109239.0 0
164429.0 109948.0 0
167047.0 112823.0 0
177032.0 110223.0 0
186625.0 109767.0 0
191646.0 109254.0 0
193693.0 113340.0 0
203174.0 113540.0 0
208748.0 110299.0 0
218717.0 109649.0 0
216320.0 112959.0 0
221176.0 113298.0 0
231983.0 113277.0 0
237943.0 112244.0 0
241749.0 109439.0 0
248029.0 113618.0 0
251518.0 109907.0 0
252898.0 113935.0 0
257727.0 112960.0 0
262636.0 111022.0 0
267587.0 113601.0 0
271757.0 109325.0 0
284358.0 109307.0 0
283574.0 113893.0 0
288835.0 113110.0 0
292983.0 109505.0 0
298941.0 109434.0 0
303985.0 109667.0 0
302639.0 113972.0 0
307500.0 109490.0 0
312166.0 109309.0 0
316966.0 112923.0 0
325851.0 109599.0 0
322296.0 113606.0 0
330937.0 113724.0 0
334357.0 110206.0 0
341522.0 113216.0 0
346088.0 109164.0 0
352844.0 109660.0 0
361674.0 108986.0 0
357892.0 113172.0 0
367104.0 111669.0 0
362982.0 113960.0 0
371934.0 109576.0 0
377880.0 110910.0 0
387369.0 109373.0 0
383272.0 113527.0 0
388209.0 113554.0 0
393045.0 110105.0 0
399508.0 109000.0 0
403054.0 113002.0 0
404321.0 109026.0 0
408162.0 112726.0 0
412346.0 109546.0 0
414685.0 113193.0 0
421365.0 110132.0 0
427477.0 112976.0 0
431066.0 108969.0 0
436127.0 112694.0 0
441996.0 113981.0 0
448331.0 112388.0 0
455407.0 109219.0 0
461201.0 108908.0 0
464982.0 113799.0 0
473888.0 112985.0 0
478847.0 109257.0 0
484704.0 109771.0 0
489148.0 110495.0 0
496754.0 110482.0 0
1482.5 114025.0 0
2749.64 118063.0 0
12671.2 116425.0 0
18088.4 118427.0 0
28648.5 116798.0 0
33633.0 119102.0 0
39135.2 117809.0 0
43683.1 114803.0 0
43745.8 119012.0 0
48694.6 118938.0 0
53134.9 115419.0 0
59720.3 118320.0 0
68310.5 114715.0 0
68289.9 118904.0 0
72212.4 116993.0 0
76319.3 118584.0 0
87885.7 118886.0 0
92508.7 114355.0 0
96906.3 118921.0 0
97237.0 114348.0 0
101195.0 114413.0 0
101491.0 119050.0 0
105586.0 114006.0 0
111043.0 118028.0 0
115385.0 118503.0 0
120870.0 119105.0 0
127441.0 118753.0 0
131218.0 114191.0 0
133301.0 118644.0 0
142212.0 114691.0 0
151801.0 114815.0 0
148389.0 118901.0 0
161442.0 118283.0 0
163657.0 114434.0 0
166774.0 118175.0 0
171003.0 114839.0 0
176728.0 116514.0 0
182933.0 114276.0 0
189204.0 114173.0 0
192410.0 118680.0 0
198249.0 114472.0 0
202629.0 118116.0 0
207321.0 115679.0 0
212115.0 114550.0 0
210631.0 119078.0 0
216384.0 118853.0 0
222686.0 118941.0 0
226331.0 115066.0 0
236017.0 117227.0 0
242843.0 114095.0 0
250905.0 118085.0 0
262830.0 116601.0 0
268273.0 118957.0 0
272697.0 115210.0 0
278480.0 114440.0 0
282084.0 117824.0 0
293487.0 114102.0 0
293046.0 118522.0 0
297507.0 115480.0 0
301871.0 117899.0 0
307115.0 114332.0 0
311941.0 114050.0 0
316864.0 118048.0 0
327150.0 114470.0 0
328008.0 119081.0 0
333888.0 117953.0 0
337123.0 114103.0 0
346658.0 115131.0 0
351578.0 115311.0 0
355550.0 117436.0 0
360517.0 118702.0 0
366514.0 118811.0 0
370164.0 115118.0 0
374541.0 115132.0 0
378546.0 118483.0 0
383422.0 117666.0 0
387241.0 118025.0 0
392170.0 116351.0 0
397892.0 114937.0 0
405311.0 118243.0 0
411971.0 117311.0 0
417929.0 114446.0 0
422499.0 114993.0 0
427294.0 117230.0 0
431263.0 114398.0 0
432240.0 118988.0 0
437084.0 118026.0 0
447111.0 118553.0 0
454028.0 114379.0 0
459446.0 114520.0 0
466555.0 118481.0 0
469646.0 114650.0 0
477663.0 116058.0 0
481986.0 114211.0 0
486773.0 114106.0 0
487738.0 118955.0 0
492177.0 114663.0 0
497457.0 116218.0 0
3057.97 123863.0 0
7838.92 120405.0 0
13609.9 122272.0 0
23745.5 119159.0 0
28782.6 122141.0 0
38542.0 122995.0 0
43271.6 123269.0 0
49672.3 123831.0 0
54182.0 120123.0 0
58566.4 124188.0 0
64871.8 119420.0 0
63416.7 123367.0 0
67007.2 123829.0 0
71705.5 122329.0 0
77975.2 123914.0 0
81940.4 119177.0 0
88019.0 123919.0 0
92636.7 119282.0 0
93070.6 123901.0 0
98000.0 123390.0 0
106437.0 119342.0 0
105783.0 123779.0 0
110766.0 123381.0 0
116642.0 123282.0 0
126500.0 124014.0 0
131193.0 123339.0 0
138726.0 119131.0 0
143744.0 119298.0 0
145104.0 123892.0 0
152799.0 119405.0 0
150851.0 123951.0 0
157000.0 119506.0 0
162036.0 122946.0 0
167180.0 123271.0 0
172235.0 120623.0 0
177078.0 120839.0 0
181363.0 120887.0 0
186882.0 119174.0 0
197843.0 120180.0 0
202645.0 123553.0 0
206636.0 120291.0 0
212134.0 123459.0 0
228326.0 120610.0 0
233994.0 121766.0 0
240938.0 119662.0 0
246423.0 120213.0 0
252376.0 122359.0 0
256764.0 119167.0 0
262543.0 123763.0 0
268735.0 123926.0 0
272894.0 120107.0 0
277851.0 120449.0 0
282796.0 123202.0 0
287109.0 119195.0 0
293224.0 123856.0 0
297883.0 120837.0 0
302610.0 123746.0 0
306177.0 119812.0 0
311437.0 119778.0 0
317437.0 123802.0 0
322340.0 119526.0 0
325880.0 123062.0 0
337522.0 121380.0 0
342203.0 119197.0 0
347981.0 119884.0 0
351083.0 124055.0 0
352292.0 119588.0 0
356010.0 122032.0 0
372525.0 120074.0 0
383496.0 122113.0 0
390732.0 120985.0 0
396043.0 120760.0 0
400401.0 119236.0 0
409494.0 122908.0 0
417777.0 119182.0 0
414469.0 123158.0 0
417767.0 123317.0 0
422969.0 119862.0 0
420956.0 123673.0 0
427626.0 123740.0 0
433304.0 123354.0 0
437889.0 123005.0 0
441852.0 119587.0 0
452640.0 119568.0 0
458109.0 119882.0 0
462539.0 119479.0 0
467794.0 123460.0 0
471813.0 119217.0 0
476954.0 120777.0 0
482254.0 119568.0 0
488548.0 124081.0 0
492469.0 120519.0 0
497459.0 121301.0 0
8752.19 126289.0 0
18380.2 126008.0 0
23880.4 124861.0 0
33719.8 124806.0 0
32329.9 129057.0 0
46373.3 127632.0 0
53687.0 124868.0 0
63645.1 128536.0 0
68689.2 127111.0 0
83400.2 125259.0 0
90126.7 128400.0 0
98603.3 127566.0 0
102078.0 125043.0 0
105637.0 128288.0 0
118204.0 128853.0 0
122654.0 124574.0 0
123813.0 129102.0 0
128387.0 127431.0 0
135218.0 125164.0 0
139747.0 124682.0 0
137790.0 128622.0 0
147422.0 129203.0 0
152993.0 129158.0 0
156884.0 124863.0 0
161786.0 128514.0 0
167144.0 128242.0 0
171462.0 125948.0 0
176185.0 124564.0 0
180973.0 126489.0 0
185795.0 124458.0 0
191577.0 124560.0 0
197331.0 125710.0 0
201626.0 129025.0 0
207608.0 124314.0 0
207153.0 129282.0 0
212988.0 128969.0 0
217212.0 125241.0 0
223347.0 124911.0 0
228979.0 126605.0 0
233411.0 126233.0 0
238461.0 125426.0 0
243836.0 124704.0 0
242101.0 128955.0 0
248990.0 124316.0 0
246558.0 128680.0 0
251470.0 128280.0 0
255537.0 125268.0 0
273495.0 124653.0 0
278387.0 125839.0 0
284549.0 129236.0 0
287975.0 125186.0 0
293312.0 128214.0 0
297717.0 126115.0 0
308389.0 124728.0 0
313173.0 124321.0 0
312021.0 128493.0 0
316759.0 128396.0 0
322202.0 125102.0 0
326427.0 128687.0 0
329965.0 124244.0 0
335029.0 124790.0 0
331733.0 129195.0 0
340296.0 125198.0 0
345917.0 125921.0 0
351164.0 129231.0 0
356392.0 127600.0 0
360813.0 124578.0 0
366436.0 124556.0 0
371143.0 125011.0 0
377226.0 125739.0 0
387807.0 125288.0 0
392749.0 125315.0 0
398356.0 126275.0 0
403887.0 124280.0 0
411605.0 128432.0 0
416992.0 127042.0 0
422628.0 128673.0 0
432998.0 127998.0 0
438724.0 128651.0 0
442650.0 124481.0 0
448517.0 124437.0 0
453997.0 124434.0 0
458539.0 124852.0 0
455670.0 128828.0 0
462991.0 124632.0 0
468722.0 128685.0 0
472983.0 124963.0 0
477805.0 129193.0 0
479982.0 124681.0 0
484310.0 124535.0 0
486594.0 128237.0 0
492635.0 124673.0 0
490650.0 128688.0 0
497770.0 126062.0 0
2142.5 129767.0 0
2239.97 134339.0 0
7229.67 132368.0 0
13671.6 129916.0 0
18603.9 130950.0 0
22344.4 129347.0 0
23275.0 134200.0 0
27492.0 129793.0 0
32590.7 132531.0 0
37271.8 129605.0 0
42440.4 130927.0 0
47008.1 134114.0 0
51408.5 130019.0 0
57400.2 130318.0 0
62195.7 133931.0 0
67963.8 133997.0 0
73557.7 130180.0 0
79821.0 129392.0 0
78090.1 133988.0 0
85124.4 130183.0 0
95037.7 130256.0 0
101293.0 130923.0 0
97844.2 133624.0 0
105727.0 133781.0 0
111337.0 129718.0 0
121623.0 133933.0 0
128112.0 133470.0 0
133268.0 129508.0 0
137500.0 132564.0 0
133715.0 134343.0 0
141902.0 129474.0 0
157246.0 130777.0 0
153546.0 133978.0 0
163103.0 134352.0 0
170762.0 129979.0 0
173356.0 133227.0 0
168439.0 133513.0 0
176881.0 129558.0 0
177762.0 134000.0 0
182321.0 131310.0 0
186887.0 129485.0 0
191537.0 129864.0 0
191579.0 134376.0 0
196349.0 131157.0 0
212098.0 133903.0 0
219801.0 130329.0 0
224910.0 130232.0 0
228653.0 130698.0 0
232797.0 130014.0 0
231021.0 134046.0 0
236990.0 130667.0 0
241284.0 133864.0 0
246730.0 133617.0 0
252429.0 133792.0 0
257766.0 130535.0 0
262740.0 129836.0 0
268253.0 129543.0 0
274071.0 129615.0 0
279358.0 131362.0 0
284011.0 133696.0 0
289723.0 130117.0 0
292658.0 133539.0 0
296528.0 131037.0 0
302306.0 129432.0 0
303661.0 134385.0 0
307427.0 129993.0 0
307812.0 134311.0 0
312334.0 133721.0 0
321330.0 130235.0 0
317611.0 133434.0 0
328006.0 133352.0 0
332710.0 134308.0 0
337285.0 130498.0 0
342892.0 130529.0 0
346828.0 130488.0 0
345478.0 134203.0 0
349518.0 133423.0 0
355328.0 133800.0 0
361677.0 130683.0 0
366973.0 129427.0 0
366486.0 134147.0 0
371655.0 129493.0 0
382201.0 129665.0 0
378335.0 132345.0 0
386894.0 130012.0 0
391451.0 129822.0 0
392581.0 134193.0 0
395529.0 130574.0 0
400529.0 131384.0 0
405864.0 130053.0 0
412514.0 133677.0 0
417168.0 132170.0 0
421020.0 134220.0 0
428258.0 129825.0 0
425370.0 133858.0 0
431956.0 133642.0 0
444698.0 129361.0 0
450508.0 131117.0 0
454498.0 134074.0 0
461373.0 129721.0 0
465833.0 131364.0 0
469296.0 134172.0 0
473166.0 130535.0 0
479087.0 134081.0 0
482449.0 129363.0 0
486587.0 132441.0 0
495005.0 130042.0 0
2127.52 138706.0 0
6960.4 138252.0 0
12440.5 135979.0 0
18049.4 135406.0 0
16008.6 139414.0 0
24885.0 139452.0 0
29083.0 135766.0 0
35952.4 135423.0 0
40992.1 135145.0 0
52812.1 134763.0 0
53579.7 139291.0 0
57602.9 136478.0 0
62542.2 139163.0 0
67219.3 139249.0 0
73651.6 136886.0 0
79098.8 139508.0 0
82804.1 134900.0 0
84542.5 139499.0 0
88774.1 134722.0 0
93972.8 135099.0 0
92508.1 139206.0 0
101251.0 135208.0 0
97466.4 138015.0 0
110243.0 135157.0 0
107194.0 138533.0 0
111837.0 139320.0 0
115522.0 134732.0 0
123247.0 139165.0 0
127766.0 138858.0 0
132819.0 139413.0 0
142031.0 134742.0 0
138522.0 138668.0 0
148122.0 135785.0 0
157983.0 134956.0 0
161568.0 139285.0 0
166875.0 138388.0 0
173249.0 139447.0 0
181596.0 135882.0 0
186463.0 134752.0 0
195893.0 136908.0 0
201124.0 134618.0 0
207148.0 135343.0 0
212779.0 138561.0 0
216813.0 135115.0 0
221590.0 135933.0 0
223358.0 139432.0 0
226069.0 134760.0 0
227641.0 139462.0 0
232481.0 138757.0 0
235877.0 135305.0 0
246692.0 138454.0 0
257588.0 135782.0 0
263720.0 135340.0 0
269613.0 135207.0 0
267689.0 139395.0 0
274591.0 134597.0 0
271757.0 138958.0 0
279916.0 136706.0 0
276114.0 139425.0 0
284286.0 138110.0 0
288600.0 135131.0 0
293600.0 138081.0 0
298743.0 135741.0 0
302641.0 139330.0 0
306701.0 138182.0 0
311690.0 139414.0 0
316843.0 138266.0 0
323360.0 135225.0 0
324883.0 139117.0 0
328697.0 138063.0 0
337435.0 135811.0 0
341915.0 134458.0 0
344143.0 138420.0 0
350100.0 139079.0 0
360664.0 135872.0 0
369396.0 138935.0 0
373420.0 134644.0 0
378300.0 136841.0 0
383175.0 135309.0 0
388072.0 134418.0 0
388068.0 138918.0 0
397114.0 134432.0 0
397921.0 138612.0 0
393144.0 139265.0 0
408059.0 134810.0 0
403355.0 135532.0 0
406595.0 139434.0 0
418441.0 137603.0 0
423545.0 139022.0 0
428716.0 137664.0 0
437683.0 134891.0 0
443669.0 134943.0 0
450715.0 137549.0 0
458799.0 135012.0 0
456147.0 139155.0 0
463933.0 134836.0 0
463205.0 138881.0 0
467453.0 139437.0 0
474376.0 135071.0 0
472541.0 139370.0 0
477866.0 139409.0 0
483695.0 135764.0 0
487589.0 139007.0 0
491386.0 134509.0 0
497411.0 134659.0 0
497811.0 139421.0 0
3067.48 143816.0 0
8555.01 142752.0 0
12581.3 141387.0 0
20037.4 139692.0 0
16420.7 143586.0 0
21312.2 144595.0 0
32222.0 140131.0 0
32650.3 143939.0 0
37673.4 141025.0 0
43318.2 139568.0 0
48686.3 140112.0 0
53255.7 144247.0 0
57458.9 141389.0 0
62499.3 143585.0 0
71133.0 141654.0 0
66930.3 143685.0 0
82351.3 143104.0 0
86393.1 143439.0 0
88606.3 139758.0 0
91254.0 144289.0 0
96601.7 143136.0 0
101325.0 144296.0 0
102445.0 139634.0 0
106448.0 143701.0 0
117994.0 140240.0 0
123220.0 144417.0 0
128380.0 143361.0 0
138695.0 144399.0 0
143145.0 139571.0 0
143897.0 143613.0 0
151877.0 139571.0 0
147994.0 141760.0 0
152641.0 144003.0 0
156564.0 139788.0 0
158023.0 144266.0 0
162828.0 143419.0 0
168108.0 143840.0 0
178608.0 139596.0 0
183533.0 140533.0 0
187087.0 144488.0 0
189457.0 139602.0 0
193908.0 140731.0 0
197934.0 144354.0 0
199741.0 139634.0 0
203874.0 140215.0 0
202908.0 144198.0 0
208359.0 140482.0 0
212052.0 143505.0 0
219058.0 139863.0 0
222464.0 143655.0 0
232440.0 143463.0 0
237725.0 139767.0 0
237065.0 144080.0 0
242287.0 140187.0 0
246106.0 143471.0 0
251865.0 140042.0 0
254522.0 144514.0 0
257453.0 140079.0 0
262305.0 141568.0 0
272517.0 142845.0 0
283203.0 143502.0 0
288580.0 140370.0 0
292773.0 143686.0 0
298814.0 140501.0 0
297383.0 144454.0 0
302106.0 144470.0 0
306892.0 142910.0 0
316042.0 143160.0 0
321345.0 140158.0 0
320406.0 144578.0 0
326140.0 143904.0 0
334154.0 139931.0 0
339612.0 139719.0 0
343317.0 143365.0 0
348163.0 144564.0 0
356712.0 140646.0 0
363252.0 140536.0 0
372381.0 144105.0 0
367630.0 144494.0 0
374924.0 139962.0 0
379745.0 140813.0 0
382003.0 143994.0 0
384038.0 140936.0 0
387376.0 143543.0 0
391837.0 143981.0 0
396415.0 143194.0 0
401987.0 139858.0 0
406578.0 144297.0 0
412747.0 139573.0 0
417742.0 143528.0 0
428007.0 143873.0 0
433882.0 140126.0 0
440195.0 141057.0 0
445499.0 139662.0 0
448654.0 142211.0 0
453284.0 143930.0 0
458570.0 143043.0 0
460062.0 139620.0 0
463270.0 143073.0 0
468255.0 144494.0 0
473568.0 144552.0 0
478469.0 144322.0 0
482744.0 140012.0 0
485371.0 143469.0 0
492465.0 139697.0 0
490340.0 143583.0 0
495333.0 143675.0 0
7503.92 147171.0 0
12197.8 145934.0 0
12524.8 149573.0 0
17165.4 149126.0 0
27465.9 144806.0 0
32916.9 148046.0 0
37797.0 146391.0 0
42305.7 144720.0 0
47951.0 145621.0 0
51665.8 148737.0 0
58928.7 145280.0 0
56222.4 148827.0 0
61495.3 149259.0 0
71359.3 145835.0 0
67362.3 149186.0 0
76176.5 144699.0 0
80897.5 147365.0 0
86724.0 149064.0 0
98368.8 148509.0 0
103676.0 148451.0 0
108521.0 149098.0 0
112395.0 144832.0 0
118078.0 145667.0 0
123558.0 149451.0 0
128426.0 148536.0 0
133236.0 144897.0 0
133081.0 149417.0 0
146817.0 145998.0 0
143072.0 147738.0 0
150635.0 147939.0 0
155609.0 148019.0 0
161150.0 148302.0 0
172596.0 145125.0 0
172930.0 149413.0 0
177246.0 144883.0 0
182427.0 145490.0 0
192265.0 144755.0 0
189253.0 149228.0 0
194195.0 149276.0 0
203778.0 148416.0 0
207315.0 145184.0 0
213126.0 148763.0 0
217205.0 144933.0 0
222500.0 149407.0 0
227444.0 145005.0 0
227501.0 149583.0 0
231365.0 147598.0 0
235335.0 148124.0 0
241372.0 144658.0 0
241012.0 149049.0 0
246229.0 149320.0 0
250345.0 145053.0 0
258823.0 145142.0 0
257745.0 148932.0 0
262636.0 148064.0 0
267465.0 144731.0 0
268649.0 149448.0 0
272486.0 147497.0 0
277259.0 144707.0 0
282613.0 149280.0 0
288222.0 144926.0 0
287962.0 149339.0 0
293356.0 149166.0 0
298041.0 148322.0 0
306759.0 147784.0 0
311368.0 144929.0 0
317139.0 148848.0 0
322855.0 149114.0 0
326677.0 148854.0 0
332573.0 145983.0 0
338274.0 144979.0 0
340793.0 149675.0 0
345207.0 147763.0 0
349873.0 149186.0 0
353180.0 145118.0 0
358609.0 146163.0 0
363217.0 146027.0 0
377383.0 145466.0 0
372563.0 149019.0 0
382879.0 148649.0 0
389046.0 148515.0 0
397277.0 148375.0 0
401429.0 144760.0 0
407528.0 149006.0 0
411926.0 145934.0 0
417012.0 149228.0 0
422243.0 146455.0 0
432011.0 149268.0 0
435853.0 145398.0 0
440095.0 146007.0 0
444885.0 144815.0 0
448961.0 145324.0 0
447788.0 149005.0 0
457752.0 147892.0 0
463133.0 148246.0 0
468195.0 149639.0 0
473084.0 149714.0 0
478098.0 149160.0 0
481959.0 144852.0 0
482742.0 149471.0 0
487708.0 148375.0 0
493259.0 148411.0 0
497791.0 147965.0 0
2830.07 149722.0 0
9657.49 151024.0 0
7270.05 154467.0 0
12116.9 154801.0 0
23591.3 150028.0 0
28519.1 149894.0 0
28809.9 154402.0 0
32723.4 152746.0 0
37936.9 152057.0 0
44154.4 150080.0 0
48947.1 151770.0 0
52884.1 154430.0 0
58210.5 153603.0 0
71362.2 153746.0 0
73114.7 150202.0 0
78024.8 151207.0 0
92877.5 150273.0 0
96751.3 154329.0 0
101923.0 152803.0 0
113658.0 150214.0 0
118711.0 150969.0 0
123398.0 154517.0 0
128618.0 153701.0 0
137596.0 149776.0 0
133599.0 153947.0 0
141641.0 152308.0 0
146707.0 150044.0 0
150726.0 153650.0 0
156814.0 153245.0 0
162657.0 154369.0 0
167133.0 149918.0 0
170995.0 154279.0 0
178054.0 150393.0 0
183653.0 150255.0 0
183159.0 154207.0 0
187240.0 154310.0 0
192617.0 153884.0 0
199079.0 150004.0 0
202934.0 153425.0 0
208282.0 150225.0 0
210961.0 154334.0 0
217850.0 150238.0 0
215629.0 154553.0 0
221239.0 154629.0 0
231614.0 151785.0 0
237590.0 153816.0 0
243850.0 154521.0 0
248904.0 154292.0 0
252669.0 149799.0 0
257368.0 152271.0 0
260306.0 154310.0 0
265515.0 153232.0 0
272406.0 153801.0 0
276647.0 149755.0 0
279500.0 154524.0 0
285572.0 153409.0 0
290283.0 153280.0 0
297351.0 153519.0 0
302181.0 150379.0 0
306881.0 153259.0 0
311374.0 150151.0 0
318328.0 154667.0 0
323489.0 154063.0 0
331450.0 150396.0 0
328118.0 152355.0 0
335630.0 150880.0 0
340947.0 154254.0 0
345693.0 153055.0 0
355447.0 151350.0 0
361543.0 150742.0 0
367147.0 149892.0 0
368943.0 154556.0 0
373329.0 153889.0 0
377583.0 151201.0 0
381329.0 154475.0 0
386962.0 154658.0 0
393442.0 150667.0 0
402363.0 150399.0 0
398527.0 153954.0 0
407775.0 154407.0 0
411988.0 151240.0 0
421587.0 151083.0 0
426096.0 149979.0 0
424598.0 154015.0 0
428963.0 154552.0 0
437799.0 150354.0 0
434131.0 154247.0 0
443152.0 149836.0 0
442788.0 154198.0 0
447718.0 154269.0 0
452657.0 149846.0 0
458330.0 153697.0 0
463624.0 153064.0 0
473597.0 154125.0 0
478149.0 154319.0 0
482808.0 153670.0 0
487497.0 153957.0 0
492502.0 153362.0 0
497556.0 152613.0 0
2518.28 155065.0 0
7677.16 159489.0 0
12004.6 159001.0 0
17592.9 155400.0 0
23417.2 156087.0 0
34065.0 158136.0 0
39402.3 157025.0 0
43273.9 155511.0 0
47708.9 155590.0 0
48759.9 159301.0 0
53065.7 159604.0 0
59515.8 158695.0 0
64169.9 154862.0 0
69258.4 155809.0 0
67606.5 159259.0 0
75108.2 155574.0 0
71692.1 159199.0 0
81048.6 155373.0 0
78263.7 159081.0 0
87053.7 155726.0 0
92020.5 154855.0 0
91999.2 159495.0 0
96999.9 159444.0 0
102128.0 158695.0 0
107424.0 155192.0 0
111124.0 159504.0 0
113364.0 155210.0 0
118426.0 156229.0 0
126570.0 159222.0 0
132454.0 158920.0 0
137995.0 155585.0 0
142292.0 159187.0 0
145474.0 154906.0 0
147728.0 158655.0 0
152626.0 159305.0 0
157521.0 158329.0 0
167210.0 158369.0 0
172467.0 159427.0 0
175347.0 156006.0 0
179616.0 155079.0 0
183468.0 158131.0 0
190430.0 158901.0 0
197965.0 155644.0 0
203351.0 158780.0 0
206812.0 155784.0 0
208222.0 159765.0 0
212606.0 158833.0 0
217696.0 159239.0 0
223412.0 159478.0 0
227185.0 154943.0 0
232730.0 159166.0 0
237915.0 159833.0 0
242249.0 158712.0 0
246578.0 158607.0 0
254147.0 155928.0 0
262656.0 158431.0 0
268086.0 158490.0 0
284059.0 157667.0 0
289117.0 158379.0 0
293632.0 156652.0 0
298812.0 159267.0 0
302309.0 155483.0 0
302795.0 158948.0 0
307470.0 158816.0 0
312363.0 156203.0 0
316382.0 159584.0 0
321289.0 159685.0 0
327598.0 158231.0 0
332371.0 154850.0 0
333607.0 159831.0 0
337053.0 155466.0 0
340751.0 158387.0 0
346463.0 159608.0 0
350919.0 155164.0 0
359291.0 155547.0 0
364354.0 155238.0 0
362684.0 159103.0 0
367601.0 159831.0 0
377200.0 156285.0 0
373234.0 159014.0 0
383127.0 159886.0 0
393351.0 155521.0 0
397598.0 158371.0 0
402913.0 155339.0 0
415878.0 155038.0 0
417737.0 159199.0 0
421177.0 156341.0 0
432064.0 159025.0 0
438737.0 155537.0 0
436732.0 159380.0 0
442765.0 159219.0 0
453045.0 154868.0 0
453409.0 159039.0 0
463599.0 157606.0 0
468161.0 154965.0 0
471814.0 157824.0 0
476449.0 159351.0 0
481100.0 157661.0 0
485658.0 158622.0 0
490710.0 159657.0 0
496002.0 157893.0 0
2475.48 160059.0 0
8257.61 164589.0 0
12763.0 164225.0 0
15771.8 160435.0 0
20838.9 161132.0 0
26808.3 160474.0 0
30952.5 163759.0 0
40054.2 161268.0 0
35932.5 163874.0 0
44705.6 159977.0 0
43629.8 163962.0 0
47755.2 163333.0 0
51809.0 163662.0 0
56829.6 163883.0 0
63885.5 159999.0 0
62579.3 164013.0 0
67170.8 164437.0 0
72520.7 164386.0 0
77991.8 163180.0 0
82471.8 160363.0 0
82526.5 164788.0 0
87140.7 161316.0 0
90159.8 164630.0 0
95222.1 164467.0 0
101125.0 164364.0 0
106970.0 161070.0 0
111795.0 164367.0 0
115819.0 160873.0 0
121102.0 160876.0 0
132214.0 164237.0 0
127624.0 164342.0 0
137140.0 160056.0 0
137231.0 164655.0 0
146468.0 163650.0 0
156132.0 163272.0 0
162025.0 159939.0 0
169286.0 164752.0 0
178178.0 160338.0 0
186112.0 162532.0 0
190993.0 164206.0 0
195416.0 160346.0 0
195754.0 165021.0 0
199786.0 160964.0 0
204962.0 163300.0 0
211617.0 163399.0 0
216504.0 164558.0 0
221705.0 163883.0 0
227692.0 159940.0 0
226695.0 164432.0 0
231956.0 163438.0 0
236066.0 164719.0 0
241435.0 163205.0 0
246763.0 163719.0 0
251457.0 160391.0 0
251418.0 164642.0 0
257659.0 160201.0 0
261549.0 163773.0 0
266315.0 162929.0 0
273563.0 160511.0 0
279477.0 160719.0 0
284957.0 162807.0 0
290185.0 163245.0 0
293860.0 160872.0 0
297271.0 163690.0 0
302712.0 162107.0 0
307445.0 162750.0 0
312804.0 162021.0 0
316961.0 163729.0 0
326197.0 163615.0 0
331854.0 164814.0 0
337889.0 161339.0 0
341784.0 164265.0 0
350388.0 163915.0 0
352479.0 159984.0 0
358046.0 161129.0 0
363421.0 164445.0 0
372652.0 163705.0 0
377756.0 161019.0 0
381263.0 164396.0 0
385749.0 165005.0 0
388875.0 160538.0 0
393912.0 160799.0 0
397805.0 164453.0 0
401995.0 159956.0 0
407554.0 160209.0 0
403437.0 164933.0 0
413357.0 160233.0 0
417328.0 163898.0 0
420740.0 160483.0 0
422294.0 164230.0 0
426079.0 159927.0 0
433144.0 164959.0 0
438898.0 163440.0 0
448812.0 161368.0 0
443938.0 164810.0 0
453765.0 163994.0 0
458511.0 160225.0 0
463038.0 164685.0 0
467768.0 160281.0 0
472249.0 162868.0 0
476531.0 164386.0 0
481591.0 162930.0 0
487406.0 163533.0 0
497268.0 163545.0 0
3211.01 165187.0 0
8042.87 169611.0 0
14921.9 169427.0 0
17406.4 165193.0 0
19909.7 170004.0 0
22006.4 165728.0 0
25329.2 170101.0 0
26229.3 165258.0 0
40009.1 166998.0 0
47202.0 168608.0 0
52669.6 167857.0 0
57753.5 170124.0 0
63751.3 169373.0 0
69579.3 169729.0 0
78841.1 167934.0 0
86294.1 165383.0 0
82761.3 169556.0 0
87411.7 169815.0 0
93077.6 169890.0 0
98832.4 169724.0 0
106555.0 166092.0 0
107222.0 170099.0 0
118333.0 165543.0 0
123281.0 165302.0 0
124184.0 169570.0 0
128406.0 168967.0 0
132872.0 168572.0 0
136853.0 169345.0 0
141708.0 165928.0 0
141100.0 170111.0 0
146522.0 169618.0 0
151573.0 166115.0 0
156635.0 169712.0 0
161834.0 166239.0 0
172255.0 169737.0 0
175976.0 166113.0 0
181606.0 165148.0 0
179233.0 169727.0 0
189315.0 168721.0 0
193668.0 169623.0 0
197502.0 169205.0 0
200539.0 166143.0 0
202966.0 169990.0 0
208467.0 165546.0 0
206275.0 167866.0 0
212257.0 169237.0 0
216807.0 169090.0 0
220975.0 168716.0 0
225740.0 169401.0 0
230981.0 167833.0 0
235664.0 169642.0 0
240543.0 168452.0 0
248381.0 168496.0 0
252559.0 168285.0 0
256143.0 165307.0 0
259972.0 168366.0 0
265489.0 168179.0 0
270639.0 165391.0 0
272928.0 168860.0 0
276599.0 165467.0 0
275665.0 169446.0 0
281962.0 168321.0 0
288337.0 168000.0 0
293756.0 165492.0 0
298770.0 168087.0 0
304642.0 166815.0 0
310130.0 165331.0 0
309148.0 168995.0 0
313928.0 166784.0 0
317700.0 168696.0 0
321557.0 165661.0 0
327810.0 168124.0 0
336696.0 165352.0 0
332500.0 169471.0 0
336870.0 169963.0 0
346627.0 165482.0 0
342208.0 169839.0 0
351679.0 168736.0 0
347217.0 169854.0 0
354412.0 165195.0 0
357651.0 168734.0 0
368528.0 165053.0 0
368505.0 169316.0 0
376987.0 166167.0 0
382576.0 168428.0 0
391603.0 165553.0 0
395893.0 169184.0 0
400749.0 169647.0 0
405935.0 169271.0 0
408193.0 165326.0 0
412655.0 165399.0 0
416962.0 169727.0 0
422189.0 169131.0 0
427069.0 166617.0 0
437982.0 168864.0 0
448492.0 167215.0 0
453591.0 169221.0 0
457909.0 166138.0 0
462240.0 169675.0 0
468113.0 165049.0 0
467266.0 170054.0 0
472251.0 168013.0 0
478243.0 169150.0 0
483445.0 168054.0 0
487729.0 168205.0 0
492246.0 166068.0 0
497114.0 169146.0 0
2743.24 170616.0 0
6629.69 174545.0 0
11765.3 172092.0 0
16445.0 174672.0 0
22133.1 174803.0 0
26805.4 174676.0 0
32699.6 170555.0 0
42538.2 171968.0 0
47182.2 173739.0 0
52162.2 173285.0 0
62695.8 174752.0 0
67631.1 175072.0 0
74694.6 170266.0 0
72734.0 174812.0 0
77869.6 174186.0 0
83358.2 174270.0 0
88734.1 174776.0 0
93487.7 174749.0 0
97430.6 174360.0 0
103893.0 170277.0 0
111638.0 170238.0 0
107419.0 173350.0 0
116413.0 172928.0 0
120398.0 170271.0 0
125857.0 173892.0 0
131746.0 173295.0 0
137378.0 174225.0 0
143319.0 175009.0 0
151900.0 171505.0 0
148470.0 174568.0 0
157300.0 174712.0 0
160656.0 171780.0 0
163242.0 174137.0 0
166704.0 171020.0 0
170863.0 173172.0 0
175911.0 173745.0 0
184127.0 170351.0 0
189133.0 173968.0 0
194263.0 174367.0 0
199454.0 173556.0 0
207411.0 172651.0 0
216143.0 174614.0 0
221749.0 172962.0 0
226488.0 174672.0 0
232442.0 173819.0 0
238430.0 173572.0 0
244736.0 172776.0 0
251357.0 173276.0 0
256058.0 170311.0 0
256819.0 174838.0 0
261841.0 172950.0 0
270071.0 172208.0 0
274196.0 174945.0 0
278052.0 172487.0 0
283490.0 174637.0 0
289033.0 173326.0 0
293477.0 170165.0 0
297213.0 172970.0 0
303005.0 173292.0 0
308805.0 174203.0 0
312953.0 171526.0 0
318356.0 173973.0 0
323366.0 170849.0 0
328792.0 173348.0 0
334066.0 175097.0 0
339592.0 174505.0 0
344932.0 174304.0 0
349988.0 173839.0 0
354428.0 172352.0 0
363233.0 170800.0 0
368161.0 174031.0 0
373400.0 170532.0 0
376962.0 175108.0 0
379099.0 170573.0 0
382471.0 174069.0 0
387079.0 170604.0 0
387497.0 175084.0 0
392324.0 171738.0 0
396150.0 174558.0 0
401229.0 175116.0 0
406693.0 174433.0 0
411228.0 170574.0 0
415491.0 174765.0 0
421158.0 174717.0 0
426356.0 172174.0 0
431391.0 170656.0 0
430960.0 175085.0 0
435835.0 174885.0 0
443845.0 170691.0 0
446665.0 175056.0 0
449070.0 171565.0 0
458351.0 170336.0 0
456077.0 174007.0 0
461499.0 174726.0 0
472915.0 173212.0 0
478057.0 174620.0 0
482524.0 172517.0 0
487864.0 173335.0 0
492458.0 171057.0 0
493643.0 174959.0 0
498089.0 173828.0 0
2122.1 175441.0 0
2813.65 180234.0 0
8165.97 179489.0 0
10874.6 175745.0 0
12894.7 178854.0 0
16332.2 179503.0 0
20384.6 179381.0 0
31181.2 178355.0 0
38046.2 175998.0 0
44045.5 176486.0 0
53101.5 179779.0 0
57345.5 176222.0 0
63565.4 179905.0 0
68267.9 179469.0 0
72453.5 179661.0 0
77185.3 179299.0 0
86321.8 178394.0 0
82034.7 179379.0 0
91303.7 179314.0 0
96817.4 178760.0 0
102461.0 175487.0 0
111801.0 176604.0 0
116464.0 179337.0 0
120437.0 176133.0 0
126005.0 180053.0 0
132122.0 179679.0 0
137819.0 179865.0 0
147532.0 179121.0 0
152879.0 176036.0 0
157561.0 179700.0 0
162712.0 178639.0 0
168107.0 176434.0 0
172608.0 178935.0 0
177852.0 179041.0 0
181671.0 175560.0 0
186374.0 178302.0 0
192083.0 178838.0 0
196622.0 179531.0 0
203612.0 175578.0 0
201111.0 179036.0 0
206768.0 178836.0 0
210865.0 176328.0 0
212749.0 179447.0 0
221800.0 177625.0 0
226799.0 179779.0 0
231547.0 179446.0 0
236389.0 178475.0 0
241207.0 178045.0 0
245773.0 178125.0 0
250431.0 179169.0 0
255179.0 179019.0 0
260749.0 179129.0 0
266227.0 176298.0 0
271141.0 178604.0 0
278165.0 178199.0 0
288465.0 178621.0 0
293267.0 175675.0 0
298393.0 178178.0 0
303461.0 178844.0 0
308193.0 179211.0 0
314356.0 179319.0 0
319271.0 178924.0 0
324039.0 176298.0 0
328968.0 178907.0 0
333146.0 179308.0 0
336742.0 179256.0 0
342592.0 179667.0 0
347881.0 178811.0 0
353211.0 178522.0 0
358650.0 175457.0 0
363896.0 176393.0 0
372314.0 175267.0 0
367793.0 179680.0 0
373566.0 179897.0 0
382651.0 179321.0 0
378335.0 179615.0 0
387500.0 179620.0 0
392129.0 175845.0 0
390840.0 179422.0 0
394209.0 179013.0 0
397990.0 179018.0 0
411220.0 175446.0 0
412257.0 180080.0 0
417886.0 179584.0 0
423011.0 179982.0 0
428522.0 175682.0 0
427877.0 179572.0 0
432790.0 180042.0 0
442045.0 176630.0 0
447083.0 179310.0 0
451287.0 176282.0 0
456331.0 178954.0 0
466931.0 175462.0 0
466168.0 180045.0 0
470975.0 178205.0 0
476162.0 179647.0 0
482656.0 178519.0 0
488908.0 178900.0 0
497008.0 178610.0 0
2316.54 184675.0 0
7488.63 184336.0 0
11899.4 182821.0 0
17721.6 183745.0 0
25268.9 180611.0 0
22192.5 184339.0 0
25713.9 185137.0 0
33500.7 183939.0 0
37228.7 181339.0 0
41794.6 180349.0 0
47445.9 180469.0 0
51636.9 185124.0 0
58687.7 181512.0 0
62241.2 185361.0 0
67515.8 184184.0 0
72506.5 184273.0 0
81267.0 184500.0 0
76625.2 185335.0 0
87014.8 183416.0 0
92308.8 184582.0 0
101396.0 181379.0 0
97255.5 184603.0 0
107501.0 181578.0 0
111799.0 185407.0 0
113002.0 181431.0 0
121274.0 180869.0 0
117643.0 184878.0 0
123436.0 184605.0 0
128783.0 185107.0 0
134059.0 184720.0 0
142840.0 180399.0 0
137961.0 184451.0 0
142163.0 184400.0 0
147504.0 184920.0 0
152629.0 180678.0 0
158962.0 184087.0 0
162909.0 184010.0 0
167293.0 181463.0 0
171989.0 183374.0 0
177728.0 184578.0 0
182305.0 180656.0 0
183253.0 185337.0 0
188242.0 183277.0 0
193898.0 184133.0 0
199056.0 183854.0 0
204159.0 184292.0 0
214028.0 182802.0 0
209492.0 183904.0 0
217644.0 180529.0 0
217435.0 184912.0 0
222151.0 183117.0 0
226340.0 183641.0 0
230558.0 184972.0 0
235732.0 183218.0 0
240055.0 181417.0 0
243732.0 182326.0 0
240026.0 185374.0 0
250365.0 184562.0 0
256477.0 184447.0 0
262642.0 184756.0 0
266798.0 181819.0 0
272519.0 184246.0 0
278324.0 184013.0 0
283291.0 181474.0 0
289988.0 184118.0 0
293486.0 180575.0 0
294959.0 185022.0 0
299385.0 183532.0 0
303667.0 182842.0 0
307824.0 184369.0 0
317923.0 183727.0 0
322913.0 182047.0 0
327989.0 183944.0 0
333197.0 183593.0 0
338998.0 184960.0 0
344323.0 184948.0 0
346990.0 182366.0 0
351177.0 184621.0 0
357775.0 181138.0 0
362517.0 181207.0 0
367649.0 185044.0 0
377591.0 184292.0 0
387666.0 184076.0 0
383033.0 184487.0 0
390579.0 184964.0 0
394661.0 183632.0 0
400640.0 183402.0 0
405861.0 180464.0 0
416361.0 185365.0 0
428624.0 184404.0 0
433383.0 184862.0 0
437676.0 180530.0 0
441768.0 181299.0 0
448820.0 184171.0 0
444221.0 185095.0 0
452131.0 181444.0 0
457220.0 185213.0 0
461274.0 180381.0 0
462827.0 184860.0 0
470795.0 183394.0 0
482885.0 185259.0 0
488671.0 184422.0 0
492846.0 181753.0 0
497140.0 184474.0 0
2879.26 188507.0 0
7660.86 188797.0 0
13296.1 187219.0 0
17519.4 188637.0 0
21981.8 188625.0 0
29624.8 186926.0 0
25925.0 189030.0 0
33841.2 189793.0 0
36829.6 186362.0 0
38550.9 189829.0 0
41261.2 185577.0 0
46266.4 185698.0 0
47500.0 189433.0 0
56874.0 185774.0 0
58911.0 190328.0 0
69008.2 189281.0 0
73877.7 188742.0 0
77217.5 189159.0 0
80691.7 189603.0 0
86321.7 189723.0 0
92811.5 189589.0 0
98242.9 189864.0 0
102435.0 186529.0 0
106772.0 186723.0 0
103094.0 190493.0 0
109027.0 189902.0 0
113211.0 189518.0 0
122442.0 189388.0 0
126563.0 189999.0 0
131864.0 189457.0 0
136845.0 188999.0 0
144006.0 189688.0 0
152870.0 185612.0 0
150411.0 189483.0 0
157085.0 189307.0 0
162990.0 188397.0 0
167203.0 186102.0 0
173048.0 189008.0 0
183029.0 189947.0 0
186680.0 188656.0 0
191843.0 189012.0 0
196806.0 188206.0 0
201799.0 189302.0 0
207325.0 189010.0 0
213593.0 187070.0 0
216949.0 190106.0 0
220483.0 187952.0 0
225384.0 187489.0 0
229373.0 190006.0 0
235824.0 188697.0 0
240223.0 190396.0 0
245170.0 188408.0 0
252494.0 189572.0 0
257217.0 189906.0 0
262355.0 189536.0 0
267377.0 187335.0 0
272615.0 190354.0 0
277797.0 189033.0 0
282852.0 187013.0 0
289758.0 188891.0 0
285974.0 190515.0 0
293416.0 188596.0 0
297870.0 189531.0 0
303739.0 187994.0 0
309258.0 189934.0 0
313037.0 185510.0 0
320304.0 188052.0 0
324619.0 186616.0 0
328767.0 189597.0 0
334658.0 188904.0 0
342802.0 190095.0 0
348333.0 189425.0 0
354571.0 189342.0 0
358163.0 185520.0 0
358832.0 189480.0 0
362968.0 186113.0 0
362305.0 190165.0 0
366732.0 190083.0 0
372887.0 185528.0 0
376885.0 188114.0 0
380638.0 188767.0 0
386648.0 189264.0 0
391380.0 188348.0 0
396439.0 189340.0 0
400517.0 187780.0 0
404214.0 186705.0 0
409727.0 185927.0 0
418109.0 190407.0 0
422812.0 185640.0 0
426878.0 189248.0 0
431420.0 189149.0 0
438577.0 185782.0 0
442100.0 190437.0 0
447550.0 189352.0 0
452094.0 185433.0 0
452803.0 189621.0 0
461585.0 189078.0 0
466793.0 186130.0 0
465841.0 190186.0 0
470827.0 189189.0 0
476400.0 186026.0 0
480519.0 189676.0 0
485119.0 190302.0 0
492896.0 185475.0 0
491128.0 190268.0 0
497365.0 189965.0 0
2104.65 192664.0 0
6793.27 194293.0 0
12523.0 192580.0 0
18520.4 193675.0 0
24345.7 193401.0 0
30115.2 193772.0 0
35415.9 195209.0 0
39873.3 193885.0 0
43314.6 190638.0 0
47481.7 193608.0 0
51975.3 190771.0 0
51744.5 195609.0 0
56705.4 195357.0 0
64498.2 190553.0 0
61964.4 195368.0 0
66638.2 195048.0 0
71690.7 193628.0 0
77191.4 192777.0 0
82291.4 194590.0 0
93313.1 193696.0 0
97500.0 194467.0 0
107094.0 194041.0 0
102236.0 194267.0 0
112290.0 193769.0 0
117544.0 190588.0 0
117489.0 195203.0 0
122473.0 193457.0 0
132589.0 194216.0 0
127669.0 194965.0 0
137654.0 193941.0 0
140200.0 191312.0 0
142126.0 194376.0 0
147636.0 194159.0 0
153045.0 193493.0 0
157497.0 195187.0 0
161579.0 193335.0 0
167631.0 190766.0 0
165668.0 195022.0 0
171229.0 194875.0 0
176235.0 194868.0 0
178837.0 190643.0 0
180327.0 195316.0 0
184960.0 193735.0 0
190262.0 193302.0 0
195404.0 193790.0 0
201311.0 194756.0 0
206583.0 195081.0 0
212322.0 192900.0 0
218105.0 194436.0 0
222871.0 192412.0 0
227523.0 195022.0 0
232627.0 193569.0 0
238165.0 194381.0 0
243791.0 194743.0 0
248620.0 193311.0 0
254996.0 193632.0 0
259925.0 193802.0 0
266658.0 194377.0 0
272632.0 195298.0 0
276489.0 193901.0 0
281554.0 192760.0 0
287001.0 195106.0 0
292799.0 193417.0 0
298711.0 195398.0 0
303424.0 193288.0 0
307680.0 194589.0 0
315430.0 190929.0 0
319111.0 195295.0 0
323692.0 191575.0 0
328217.0 195240.0 0
332684.0 193543.0 0
338217.0 191160.0 0
337214.0 194941.0 0
341746.0 195332.0 0
346956.0 194822.0 0
352960.0 194621.0 0
358289.0 193299.0 0
363852.0 194559.0 0
371988.0 190913.0 0
368576.0 194194.0 0
377264.0 192417.0 0
372516.0 194789.0 0
383137.0 193736.0 0
392796.0 193084.0 0
388492.0 194968.0 0
396697.0 194862.0 0
401632.0 192855.0 0
407475.0 191391.0 0
413219.0 191222.0 0
417500.0 194366.0 0
422107.0 190795.0 0
423655.0 194695.0 0
429096.0 193445.0 0
432842.0 194626.0 0
436288.0 191127.0 0
439598.0 194778.0 0
445091.0 194429.0 0
449570.0 194083.0 0
453928.0 194429.0 0
457499.0 191286.0 0
461735.0 193634.0 0
466235.0 194895.0 0
472008.0 195215.0 0
476634.0 191950.0 0
481396.0 194299.0 0
487085.0 195520.0 0
497596.0 194999.0 0
3506.58 199745.0 0
8912.79 199558.0 0
12819.2 198006.0 0
18045.9 199885.0 0
23734.8 198768.0 0
29009.0 199567.0 0
33721.4 199371.0 0
38524.6 199691.0 0
43534.5 195923.0 0
43678.4 200643.0 0
47740.9 198371.0 0
52003.7 200166.0 0
61796.1 200076.0 0
66400.0 199640.0 0
71634.1 199513.0 0
78211.2 199994.0 0
84122.9 199335.0 0
88450.0 196041.0 0
94100.3 197910.0 0
99300.5 199164.0 0
103853.0 200601.0 0
108319.0 199006.0 0
113637.0 198611.0 0
122392.0 197849.0 0
118188.0 199648.0 0
126889.0 199910.0 0
131334.0 199061.0 0
135399.0 197697.0 0
139962.0 198647.0 0
145194.0 199293.0 0
151682.0 199602.0 0
157461.0 200355.0 0
162224.0 198764.0 0
167837.0 199339.0 0
173461.0 200512.0 0
178657.0 199290.0 0
183497.0 199282.0 0
188825.0 197406.0 0
193401.0 200034.0 0
198163.0 198502.0 0
202226.0 200080.0 0
207011.0 200250.0 0
212377.0 199301.0 0
217313.0 198900.0 0
221939.0 197751.0 0
226296.0 199818.0 0
231236.0 198965.0 0
236066.0 199563.0 0
240758.0 199407.0 0
247331.0 198780.0 0
251702.0 196639.0 0
251815.0 200646.0 0
256818.0 198782.0 0
262022.0 198920.0 0
272433.0 200042.0 0
277769.0 198330.0 0
282670.0 198258.0 0
287574.0 200589.0 0
294278.0 200034.0 0
299741.0 200213.0 0
304166.0 198298.0 0
308988.0 199570.0 0
312791.0 196205.0 0
320388.0 200306.0 0
323805.0 195799.0 0
326100.0 200538.0 0
333159.0 199706.0 0
339147.0 200227.0 0
343440.0 199352.0 0
347374.0 199621.0 0
351811.0 200168.0 0
357562.0 198650.0 0
363013.0 199595.0 0
368207.0 199034.0 0
373386.0 198448.0 0
378061.0 197517.0 0
382809.0 199886.0 0
392116.0 198039.0 0
388002.0 200691.0 0
397057.0 199212.0 0
402872.0 199527.0 0
407559.0 199534.0 0
408624.0 195984.0 0
412939.0 196185.0 0
411392.0 200478.0 0
416297.0 199330.0 0
421524.0 199126.0 0
427086.0 198511.0 0
436283.0 198289.0 0
442626.0 199694.0 0
449564.0 199710.0 0
458052.0 195849.0 0
454946.0 199098.0 0
459034.0 200131.0 0
462487.0 197868.0 0
466447.0 199757.0 0
470794.0 200382.0 0
477068.0 196567.0 0
475071.0 200123.0 0
479813.0 200614.0 0
492809.0 196164.0 0
491394.0 200373.0 0
496535.0 200475.0 0
7860.72 203622.0 0
13198.6 203916.0 0
22913.6 204399.0 0
28302.8 204711.0 0
33684.8 204280.0 0
38744.3 204629.0 0
42462.6 204475.0 0
47500.0 204242.0 0
52557.8 204563.0 0
56979.4 200764.0 0
62773.9 204542.0 0
67039.9 204441.0 0
72935.3 205564.0 0
78321.3 205793.0 0
82589.4 204387.0 0
87688.3 201116.0 0
87056.7 205031.0 0
92062.4 203225.0 0
97669.7 204454.0 0
102295.0 204273.0 0
107409.0 204839.0 0
113346.0 204028.0 0
121263.0 203138.0 0
117556.0 205379.0 0
125793.0 205831.0 0
129830.0 203326.0 0
135551.0 203496.0 0
141806.0 203514.0 0
147624.0 205644.0 0
152815.0 204952.0 0
156959.0 204832.0 0
162562.0 204878.0 0
168612.0 204858.0 0
178545.0 204375.0 0
188006.0 203293.0 0
193371.0 204842.0 0
197865.0 203526.0 0
202705.0 204276.0 0
206537.0 204639.0 0
210415.0 203882.0 0
215936.0 203422.0 0
222030.0 203893.0 0
227890.0 204282.0 0
232869.0 203433.0 0
237576.0 204039.0 0
243286.0 203888.0 0
248665.0 204254.0 0
254447.0 204316.0 0
259269.0 203622.0 0
262860.0 205422.0 0
266300.0 201704.0 0
270744.0 204325.0 0
276853.0 202897.0 0
282832.0 204414.0 0
292396.0 205589.0 0
298265.0 204507.0 0
306027.0 203894.0 0
310185.0 205441.0 0
315365.0 201107.0 0
311332.0 202622.0 0
318484.0 204358.0 0
322500.0 204528.0 0
328894.0 205206.0 0
337017.0 204095.0 0
341124.0 204015.0 0
346185.0 204146.0 0
357136.0 203968.0 0
361937.0 204508.0 0
372172.0 203063.0 0
367473.0 205804.0 0
377871.0 203510.0 0
389039.0 205449.0 0
392970.0 203255.0 0
398548.0 204634.0 0
404604.0 204686.0 0
408305.0 204690.0 0
411601.0 204771.0 0
415648.0 204125.0 0
420774.0 204615.0 0
427258.0 205065.0 0
431837.0 200775.0 0
432708.0 204845.0 0
437828.0 204896.0 0
448897.0 205832.0 0
453712.0 203933.0 0
458585.0 204222.0 0
462382.0 202337.0 0
466455.0 204637.0 0
471665.0 205039.0 0
476743.0 204702.0 0
482111.0 205486.0 0
485459.0 201181.0 0
489724.0 204499.0 0
3164.77 206407.0 0
6289.98 210607.0 0
11599.4 210032.0 0
18016.5 205859.0 0
17536.7 210322.0 0
22463.8 210070.0 0
27690.2 209772.0 0
32846.4 209660.0 0
37849.1 209163.0 0
42860.5 209264.0 0
47500.0 209326.0 0
52500.0 209245.0 0
57797.5 206078.0 0
57471.1 210539.0 0
62273.8 209599.0 0
67614.2 208827.0 0
81627.4 209292.0 0
77001.2 209681.0 0
86238.9 209152.0 0
91741.1 209638.0 0
97809.6 209842.0 0
102672.0 208820.0 0
111197.0 208912.0 0
115541.0 209709.0 0
120820.0 209029.0 0
126021.0 210663.0 0
131558.0 209314.0 0
137589.0 209683.0 0
143032.0 210123.0 0
152333.0 208940.0 0
156773.0 209512.0 0
161249.0 210727.0 0
165865.0 209389.0 0
170814.0 209816.0 0
173681.0 205885.0 0
176299.0 210458.0 0
183146.0 206007.0 0
181148.0 209522.0 0
190721.0 208228.0 0
195905.0 209164.0 0
202302.0 207962.0 0
207015.0 209654.0 0
212684.0 208102.0 0
217357.0 207849.0 0
221318.0 209397.0 0
226105.0 209113.0 0
231885.0 208487.0 0
236933.0 210598.0 0
240965.0 208134.0 0
246407.0 210221.0 0
252566.0 209586.0 0
257957.0 207674.0 0
262512.0 210468.0 0
267434.0 207400.0 0
272736.0 208415.0 0
277836.0 207594.0 0
288070.0 205921.0 0
290025.0 210438.0 0
296066.0 209690.0 0
302092.0 208559.0 0
308498.0 209408.0 0
314051.0 206128.0 0
318496.0 208926.0 0
325750.0 208893.0 0
331013.0 210644.0 0
333249.0 206082.0 0
336305.0 209767.0 0
342218.0 209415.0 0
347987.0 210346.0 0
352140.0 206276.0 0
357716.0 209834.0 0
363372.0 209429.0 0
372128.0 209183.0 0
377596.0 209474.0 0
383977.0 205931.0 0
388203.0 210320.0 0
393858.0 208930.0 0
403548.0 210485.0 0
413408.0 208958.0 0
418015.0 209567.0 0
422331.0 209657.0 0
432985.0 209102.0 0
437053.0 209822.0 0
443856.0 205943.0 0
447415.0 209206.0 0
451703.0 209786.0 0
455863.0 208201.0 0
461826.0 209515.0 0
468601.0 210216.0 0
474668.0 210124.0 0
480001.0 209592.0 0
486587.0 209714.0 0
493000.0 206488.0 0
493164.0 210864.0 0
497149.0 206470.0 0
498364.0 210790.0 0
2175.08 211655.0 0
2648.3 215936.0 0
6704.61 214476.0 0
17237.5 214820.0 0
21689.6 214944.0 0
26625.8 214974.0 0
32269.6 215115.0 0
37800.7 214233.0 0
42911.0 214380.0 0
48373.5 214199.0 0
53049.3 214427.0 0
57491.6 214824.0 0
62500.0 214412.0 0
67351.0 214435.0 0
72220.4 211284.0 0
72974.1 215621.0 0
77090.0 214609.0 0
80945.3 214596.0 0
86598.3 214324.0 0
98143.0 214886.0 0
106903.0 210985.0 0
102893.0 213838.0 0
112144.0 214213.0 0
117789.0 214079.0 0
127517.0 214379.0 0
123040.0 215747.0 0
135063.0 213188.0 0
139793.0 215816.0 0
148507.0 211451.0 0
153455.0 214735.0 0
159439.0 215272.0 0
165968.0 214603.0 0
171465.0 215042.0 0
186186.0 211525.0 0
191882.0 212967.0 0
201236.0 212920.0 0
211859.0 213871.0 0
217583.0 212567.0 0
222974.0 214049.0 0
228684.0 214073.0 0
233716.0 213455.0 0
236982.0 215144.0 0
241134.0 213483.0 0
251685.0 215027.0 0
257179.0 212143.0 0
268885.0 213383.0 0
276232.0 211820.0 0
279024.0 214879.0 0
283411.0 211452.0 0
288598.0 215187.0 0
293685.0 215386.0 0
300198.0 214727.0 0
305286.0 213075.0 0
308887.0 215326.0 0
313707.0 211259.0 0
316785.0 214082.0 0
320576.0 215787.0 0
322152.0 211648.0 0
326685.0 215329.0 0
333861.0 215599.0 0
338665.0 214141.0 0
342799.0 214878.0 0
347415.0 215317.0 0
352469.0 211933.0 0
357815.0 215619.0 0
362633.0 214251.0 0
367626.0 211913.0 0
371864.0 214655.0 0
377441.0 215400.0 0
382670.0 212201.0 0
386622.0 215850.0 0
391984.0 215111.0 0
397810.0 212792.0 0
406986.0 215433.0 0
409206.0 211229.0 0
411808.0 214931.0 0
417019.0 214107.0 0
422567.0 215394.0 0
427432.0 211817.0 0
432185.0 215695.0 0
437979.0 215042.0 0
442560.0 211432.0 0
448193.0 214261.0 0
455966.0 214114.0 0
466226.0 214726.0 0
477523.0 214924.0 0
481988.0 213570.0 0
491854.0 215972.0 0
497014.0 215553.0 0
11883.7 216819.0 0
92662.9 216232.0 0
107106.0 216339.0 0
131674.0 216119.0 0
146644.0 216686.0 0
162838.0 218259.0 0
177279.0 216677.0 0
183204.0 216806.0 0
188838.0 217114.0 0
195938.0 216816.0 0
201229.0 218355.0 0
206404.0 216387.0 0
204476.0 220919.0 0
210791.0 219535.0 0
216417.0 218313.0 0
222471.0 219780.0 0
227959.0 219478.0 0
233920.0 218280.0 0
240340.0 219263.0 0
246167.0 216648.0 0
253470.0 219791.0 0
258379.0 217132.0 0
263481.0 216059.0 0
261359.0 220198.0 0
265889.0 220949.0 0
274514.0 216062.0 0
270706.0 218903.0 0
278603.0 220359.0 0
284480.0 217832.0 0
289821.0 219733.0 0
297137.0 220098.0 0
305011.0 217057.0 0
302387.0 220645.0 0
313478.0 216266.0 0
352858.0 216758.0 0
367022.0 216259.0 0
382625.0 216560.0 0
396543.0 216909.0 0
401644.0 217206.0 0
427263.0 217521.0 0
442951.0 216985.0 0
452071.0 217431.0 0
461566.0 216073.0 0
471899.0 216442.0 0
481329.0 217411.0 0
486495.0 217032.0 0
199567.0 223274.0 0
204441.0 225052.0 0
209451.0 224524.0 0
215731.0 224419.0 0
221139.0 225161.0 0
226644.0 225196.0 0
231462.0 222822.0 0
236554.0 221606.0 0
235320.0 224777.0 0
244602.0 222319.0 0
240447.0 225363.0 0
248994.0 221196.0 0
252386.0 224728.0 0
257902.0 222688.0 0
262174.0 223281.0 0
271470.0 224040.0 0
276418.0 225727.0 0
283462.0 222476.0 0
280937.0 225612.0 0
287256.0 224041.0 0
293225.0 224614.0 0
299485.0 225467.0 0
200567.0 229561.0 0
206825.0 229539.0 0
212343.0 228739.0 0
218217.0 230095.0 0
223360.0 229080.0 0
227341.0 231154.0 0
231814.0 228129.0 0
236723.0 228442.0 0
240956.0 231085.0 0
245799.0 227468.0 0
250599.0 229029.0 0
256856.0 229089.0 0
262924.0 227351.0 0
268034.0 228186.0 0
273344.0 230408.0 0
278894.0 229629.0 0
284565.0 226906.0 0
283257.0 230493.0 0
288821.0 229331.0 0
294306.0 230211.0 0
298361.0 230173.0 0
202163.0 235939.0 0
208342.0 235038.0 0
213593.0 233820.0 0
218681.0 235470.0 0
223709.0 235088.0 0
228231.0 235717.0 0
231676.0 233502.0 0
236091.0 232503.0 0
240598.0 235166.0 0
246378.0 233336.0 0
252213.0 233764.0 0
257463.0 234981.0 0
261597.0 232491.0 0
266660.0 233416.0 0
271774.0 235169.0 0
276906.0 234394.0 0
281085.0 233549.0 0
285902.0 234534.0 0
291469.0 234271.0 0
297266.0 234771.0 0
10310.7 239369.0 0
206115.0 240441.0 0
210329.0 239042.0 0
215195.0 239359.0 0
220810.0 239697.0 0
226488.0 240662.0 0
231212.0 238109.0 0
237006.0 237936.0 0
243163.0 237939.0 0
248814.0 238713.0 0
254688.0 238913.0 0
261854.0 237807.0 0
268410.0 239888.0 0
274603.0 238438.0 0
279543.0 237254.0 0
278616.0 241336.0 0
283537.0 239465.0 0
289171.0 239063.0 0
293918.0 238373.0 0
297981.0 240926.0 0
309756.0 240899.0 0
341742.0 237033.0 0
174681.0 245818.0 0
201806.0 243064.0 0
206248.0 245750.0 0
211439.0 243888.0 0
216915.0 244897.0 0
222263.0 244561.0 0
228038.0 245172.0 0
232132.0 243180.0 0
237054.0 243319.0 0
241905.0 243375.0 0
247659.0 244611.0 0
253229.0 244062.0 0
258639.0 242579.0 0
262729.0 245139.0 0
267373.0 246164.0 0
273141.0 244752.0 0
282869.0 243721.0 0
287187.0 245291.0 0
293024.0 243577.0 0
389098.0 245889.0 0
404603.0 244155.0 0
421499.0 245426.0 0
443009.0 245073.0 0
455114.0 245455.0 0
472319.0 246198.0 0
497243.0 245023.0 0
6878.9 249179.0 0
48261.5 246793.0 0
56374.4 250707.0 0
63868.7 250716.0 0
68827.6 251735.0 0
96187.4 250983.0 0
100416.0 250430.0 0
126005.0 250150.0 0
167796.0 249041.0 0
177286.0 249871.0 0
191569.0 251023.0 0
201362.0 247841.0 0
205140.0 250644.0 0
210418.0 249558.0 0
215509.0 249588.0 0
220078.0 249013.0 0
225520.0 248664.0 0
231418.0 249312.0 0
237508.0 248234.0 0
242307.0 251253.0 0
248058.0 250676.0 0
253775.0 249408.0 0
258819.0 247774.0 0
263576.0 250329.0 0
269203.0 251283.0 0
274268.0 250012.0 0
279213.0 247058.0 0
284340.0 250267.0 0
288859.0 249888.0 0
292820.0 248858.0 0
297888.0 247435.0 0
317421.0 249118.0 0
322450.0 250509.0 0
357807.0 248625.0 0
362467.0 247042.0 0
368610.0 246824.0 0
374583.0 249466.0 0
437044.0 248716.0 0
461586.0 249316.0 0
476569.0 249442.0 0
481239.0 250534.0 0
492537.0 247175.0 0
14254.8 253732.0 0
22442.4 255047.0 0
30433.9 254952.0 0
36537.1 255485.0 0
75161.9 253771.0 0
79658.9 252469.0 0
85031.3 253167.0 0
107589.0 252167.0 0
111005.0 254011.0 0
115161.0 252469.0 0
121008.0 252362.0 0
131855.0 254473.0 0
137504.0 253486.0 0
142262.0 255738.0 0
154054.0 252772.0 0
158565.0 252166.0 0
173221.0 254894.0 0
178042.0 256738.0 0
178735.0 253237.0 0
196244.0 251951.0 0
200884.0 252199.0 0
204080.0 255288.0 0
207997.0 253640.0 0
213357.0 254458.0 0
217846.0 253256.0 0
222321.0 253180.0 0
227456.0 253963.0 0
233020.0 255044.0 0
238127.0 254187.0 0
241700.0 256038.0 0
245360.0 255185.0 0
251060.0 255549.0 0
259056.0 252182.0 0
255503.0 253945.0 0
261791.0 254629.0 0
267220.0 256330.0 0
273096.0 254307.0 0
277796.0 253726.0 0
282146.0 254050.0 0
284677.0 256541.0 0
287764.0 254041.0 0
292968.0 253862.0 0
297459.0 252438.0 0
309917.0 252404.0 0
322451.0 255221.0 0
326630.0 255980.0 0
330913.0 256254.0 0
339605.0 255598.0 0
391311.0 252567.0 0
396056.0 254006.0 0
417127.0 255072.0 0
423600.0 253377.0 0
439714.0 255937.0 0
449230.0 255088.0 0
462790.0 255765.0 0
466760.0 254578.0 0
471850.0 253175.0 0
479717.0 255818.0 0
484429.0 255898.0 0
497839.0 254474.0 0
8033.11 259368.0 0
14588.8 260556.0 0
17655.2 257048.0 0
30589.4 261153.0 0
40985.6 259889.0 0
48339.7 257696.0 0
45936.2 261365.0 0
53010.0 257694.0 0
88220.9 259158.0 0
93065.2 257084.0 0
97919.2 259209.0 0
102310.0 261316.0 0
113050.0 261374.0 0
119140.0 259359.0 0
124379.0 257257.0 0
126262.0 261464.0 0
146000.0 259190.0 0
150902.0 257061.0 0
155278.0 260427.0 0
169989.0 260146.0 0
177569.0 260907.0 0
188923.0 261211.0 0
199533.0 259811.0 0
204405.0 260427.0 0
209313.0 258014.0 0
215065.0 259991.0 0
220061.0 257249.0 0
222084.0 261515.0 0
225948.0 258945.0 0
230700.0 259799.0 0
236386.0 259538.0 0
241424.0 259813.0 0
247380.0 260610.0 0
253469.0 260056.0 0
257880.0 257829.0 0
262773.0 258858.0 0
267282.0 261665.0 0
271753.0 258757.0 0
276232.0 260211.0 0
280753.0 258282.0 0
287947.0 258997.0 0
292567.0 258774.0 0
296827.0 256945.0 0
300502.0 259359.0 0
296386.0 261690.0 0
304859.0 259852.0 0
308760.0 259037.0 0
314014.0 261943.0 0
318278.0 259242.0 0
335045.0 258913.0 0
345114.0 257790.0 0
342101.0 261191.0 0
348027.0 261345.0 0
364943.0 260347.0 0
377600.0 261209.0 0
383597.0 260000.0 0
388726.0 257082.0 0
390690.0 261012.0 0
393964.0 258889.0 0
398809.0 261040.0 0
407296.0 258159.0 0
403236.0 261912.0 0
412976.0 260480.0 0
422388.0 258843.0 0
426612.0 256946.0 0
431907.0 257649.0 0
436080.0 259486.0 0
444222.0 258195.0 0
458451.0 257954.0 0
478880.0 261038.0 0
489239.0 258823.0 0
2631.23 262338.0 0
10165.2 265591.0 0
18911.2 262883.0 0
27252.5 265206.0 0
37311.7 263485.0 0
44551.6 266846.0 0
54909.3 264354.0 0
60744.6 265403.0 0
85759.2 264373.0 0
91010.0 264506.0 0
92904.6 262093.0 0
96476.5 263530.0 0
100409.0 265699.0 0
105708.0 264406.0 0
118044.0 266663.0 0
127597.0 266192.0 0
137141.0 262924.0 0
132697.0 264843.0 0
166524.0 264201.0 0
175196.0 266242.0 0
183086.0 262561.0 0
194746.0 262484.0 0
208774.0 263223.0 0
204248.0 265942.0 0
212999.0 266385.0 0
218416.0 265080.0 0
222786.0 265412.0 0
226654.0 263775.0 0
231894.0 264989.0 0
237319.0 264953.0 0
242504.0 264449.0 0
247181.0 266983.0 0
252149.0 264978.0 0
257611.0 263612.0 0
262741.0 263557.0 0
272535.0 264458.0 0
278427.0 264343.0 0
284101.0 263182.0 0
290976.0 264126.0 0
305457.0 263786.0 0
301918.0 266820.0 0
309713.0 263200.0 0
335177.0 266420.0 0
341691.0 266085.0 0
360423.0 264149.0 0
368691.0 262981.0 0
373639.0 265400.0 0
380959.0 265990.0 0
385630.0 264732.0 0
394399.0 263679.0 0
398411.0 265058.0 0
402468.0 266814.0 0
415149.0 264924.0 0
431773.0 263171.0 0
462565.0 265585.0 0
473827.0 262603.0 0
483291.0 264636.0 0
488293.0 266084.0 0
492521.0 262821.0 0
497266.0 262578.0 0
4198.95 267441.0 0
1396.57 270432.0 0
8211.08 269398.0 0
11918.4 270873.0 0
16619.4 270342.0 0
21754.5 269038.0 0
31965.1 267691.0 0
40529.6 271312.0 0
36111.9 271683.0 0
49617.5 267782.0 0
53511.7 269324.0 0
65233.2 268547.0 0
73247.1 267440.0 0
79797.4 267939.0 0
97591.4 269134.0 0
101262.0 270249.0 0
122206.0 268662.0 0
125707.0 269885.0 0
132217.0 270926.0 0
140009.0 267151.0 0
145853.0 267168.0 0
150246.0 270584.0 0
157949.0 269337.0 0
162385.0 270116.0 0
169946.0 267906.0 0
178322.0 269755.0 0
173828.0 271061.0 0
182125.0 267803.0 0
203599.0 271523.0 0
208492.0 268705.0 0
212185.0 271282.0 0
217001.0 271949.0 0
221535.0 269350.0 0
226387.0 268717.0 0
231035.0 270331.0 0
236952.0 270901.0 0
242597.0 269512.0 0
247334.0 271437.0 0
251017.0 270110.0 0
255658.0 268842.0 0
261566.0 268953.0 0
265988.0 267423.0 0
270040.0 271242.0 0
276310.0 270194.0 0
281571.0 267794.0 0
286619.0 268746.0 0
291670.0 271288.0 0
296246.0 267822.0 0
305267.0 270596.0 0
308862.0 267817.0 0
312813.0 267194.0 0
315851.0 271021.0 0
321609.0 270788.0 0
329672.0 269511.0 0
345721.0 271245.0 0
350533.0 268838.0 0
355714.0 270332.0 0
368277.0 268484.0 0
376826.0 270443.0 0
388242.0 267970.0 0
397327.0 270274.0 0
402414.0 271573.0 0
406830.0 269427.0 0
411664.0 267921.0 0
417627.0 269736.0 0
435876.0 270819.0 0
440796.0 268425.0 0
448497.0 270784.0 0
468005.0 267244.0 0
472750.0 268278.0 0
494690.0 267528.0 0
490331.0 270668.0 0
498185.0 270620.0 0
9024.03 274277.0 0
22141.1 274525.0 0
27556.0 275549.0 0
31750.6 272433.0 0
42506.5 274955.0 0
47221.1 275669.0 0
55082.9 273426.0 0
57767.4 277165.0 0
71070.6 273775.0 0
66580.1 276814.0 0
75981.4 272329.0 0
87177.6 275271.0 0
101304.0 275473.0 0
105416.0 275880.0 0
115988.0 273491.0 0
121376.0 274299.0 0
127453.0 273331.0 0
125026.0 276731.0 0
137709.0 272407.0 0
134374.0 275283.0 0
136926.0 275580.0 0
142940.0 275039.0 0
149278.0 277171.0 0
154955.0 275973.0 0
159503.0 274696.0 0
162950.0 277012.0 0
166757.0 272693.0 0
170964.0 274500.0 0
178095.0 274018.0 0
182575.0 272580.0 0
188423.0 274510.0 0
198191.0 274168.0 0
202877.0 277125.0 0
208334.0 273747.0 0
213345.0 275941.0 0
221886.0 274600.0 0
227461.0 274456.0 0
232908.0 275338.0 0
238285.0 277118.0 0
244005.0 274954.0 0
249419.0 274805.0 0
253932.0 275038.0 0
259256.0 273495.0 0
265044.0 272218.0 0
263832.0 276229.0 0
268010.0 275635.0 0
272689.0 275714.0 0
278030.0 276524.0 0
282381.0 272726.0 0
287570.0 274911.0 0
292513.0 276725.0 0
296088.0 273459.0 0
310186.0 274199.0 0
315912.0 276889.0 0
326129.0 273987.0 0
329885.0 275930.0 0
332766.0 273904.0 0
359390.0 274000.0 0
365233.0 273043.0 0
371514.0 272952.0 0
375763.0 276345.0 0
382983.0 273283.0 0
392773.0 272437.0 0
388117.0 276817.0 0
405524.0 274537.0 0
418256.0 274901.0 0
423877.0 274952.0 0
430432.0 272484.0 0
443743.0 272714.0 0
448865.0 275658.0 0
453540.0 276979.0 0
457751.0 274225.0 0
463509.0 274336.0 0
472922.0 272601.0 0
469551.0 275719.0 0
473869.0 276718.0 0
477904.0 272723.0 0
485101.0 276799.0 0
492549.0 274524.0 0
497345.0 275518.0 0
12432.9 279912.0 0
18261.9 279873.0 0
31572.7 282048.0 0
35807.4 279048.0 0
40409.5 279756.0 0
62118.7 278672.0 0
78232.9 277701.0 0
83627.7 279968.0 0
88025.0 280780.0 0
92596.4 277720.0 0
98112.3 281421.0 0
110427.0 277762.0 0
115498.0 279593.0 0
119859.0 277954.0 0
119756.0 281842.0 0
124322.0 280761.0 0
145130.0 279044.0 0
152637.0 280410.0 0
157044.0 280520.0 0
175791.0 278767.0 0
179935.0 277418.0 0
193802.0 277340.0 0
203858.0 282216.0 0
208375.0 279211.0 0
213630.0 281511.0 0
218054.0 278452.0 0
223604.0 279532.0 0
220713.0 281844.0 0
229037.0 279438.0 0
233880.0 280495.0 0
238181.0 282138.0 0
242503.0 280647.0 0
247734.0 279563.0 0
252004.0 278419.0 0
255720.0 280346.0 0
260652.0 279442.0 0
265215.0 280233.0 0
269724.0 279783.0 0
274714.0 281213.0 0
283190.0 278070.0 0
288141.0 280730.0 0
293577.0 281521.0 0
296866.0 277467.0 0
297770.0 281122.0 0
305810.0 278074.0 0
301395.0 278616.0 0
309214.0 279198.0 0
320548.0 280979.0 0
332502.0 278828.0 0
337497.0 278721.0 0
344487.0 279638.0 0
350089.0 279177.0 0
354804.0 277714.0 0
359342.0 279530.0 0
363529.0 277653.0 0
368250.0 278108.0 0
379842.0 278914.0 0
383935.0 278983.0 0
396224.0 280985.0 0
420703.0 278627.0 0
428710.0 278462.0 0
443848.0 281150.0 0
460614.0 282163.0 0
475351.0 281920.0 0
480010.0 278196.0 0
486287.0 282349.0 0
2385.26 284965.0 0
11457.4 286049.0 0
19755.7 284397.0 0
23726.9 285624.0 0
28043.2 286380.0 0
37894.0 285905.0 0
42563.5 283674.0 0
48901.4 286503.0 0
59411.4 285032.0 0
73236.5 283787.0 0
78992.8 285616.0 0
84814.0 285833.0 0
103476.0 284848.0 0
108327.0 286276.0 0
127047.0 285064.0 0
137186.0 282839.0 0
133529.0 285547.0 0
141682.0 285592.0 0
178009.0 285835.0 0
182816.0 285508.0 0
188845.0 285435.0 0
208073.0 284701.0 0
212465.0 286272.0 0
217763.0 285218.0 0
223042.0 285136.0 0
226283.0 282524.0 0
230319.0 284357.0 0
235414.0 285433.0 0
240555.0 285602.0 0
245781.0 285111.0 0
251494.0 283565.0 0
256395.0 285403.0 0
262262.0 284277.0 0
267760.0 284588.0 0
272922.0 286372.0 0
278143.0 285898.0 0
281330.0 282407.0 0
284671.0 285403.0 0
290897.0 286124.0 0
296525.0 285941.0 0
320417.0 286571.0 0
324961.0 286496.0 0
327915.0 283486.0 0
332244.0 282762.0 0
349617.0 285896.0 0
356286.0 286814.0 0
366109.0 287064.0 0
370489.0 287357.0 0
373783.0 284084.0 0
391305.0 284426.0 0
401114.0 282943.0 0
405441.0 285060.0 0
410203.0 286981.0 0
415232.0 285463.0 0
420447.0 286113.0 0
436061.0 286923.0 0
441300.0 285415.0 0
447423.0 285002.0 0
452098.0 286782.0 0
463371.0 286483.0 0
468386.0 283917.0 0
472620.0 286813.0 0
478625.0 287080.0 0
482264.0 284711.0 0
488314.0 286221.0 0
491602.0 283937.0 0
6006.39 288661.0 0
10345.6 291475.0 0
14356.5 292409.0 0
17628.4 290094.0 0
21198.9 292279.0 0
31549.5 289353.0 0
44669.6 288327.0 0
53337.5 288597.0 0
57735.5 288505.0 0
81396.5 289934.0 0
88732.2 291171.0 0
94616.0 291875.0 0
115852.0 292380.0 0
131487.0 289597.0 0
147366.0 287498.0 0
151889.0 291261.0 0
157006.0 289854.0 0
162148.0 289552.0 0
166764.0 288511.0 0
172721.0 288673.0 0
195076.0 287698.0 0
203964.0 287761.0 0
208985.0 289943.0 0
215424.0 290881.0 0
220830.0 289479.0 0
223891.0 292564.0 0
226900.0 288660.0 0
232157.0 289174.0 0
237585.0 290174.0 0
242700.0 289322.0 0
247669.0 291024.0 0
251771.0 288144.0 0
259937.0 288436.0 0
255609.0 290589.0 0
264650.0 289129.0 0
269297.0 289213.0 0
275666.0 291147.0 0
282088.0 290728.0 0
288380.0 291278.0 0
294168.0 291202.0 0
307859.0 290186.0 0
313339.0 291746.0 0
318165.0 290828.0 0
333604.0 292265.0 0
339112.0 288687.0 0
344315.0 290829.0 0
361855.0 289627.0 0
373349.0 290360.0 0
382120.0 290425.0 0
377846.0 290963.0 0
386421.0 290653.0 0
424465.0 288959.0 0
429055.0 288509.0 0
434661.0 291924.0 0
444448.0 291435.0 0
456662.0 291883.0 0
475464.0 290100.0 0
484076.0 291167.0 0
497634.0 287754.0 0
2520.43 297155.0 0
23712.7 295627.0 0
27712.7 296541.0 0
38957.8 297611.0 0
69034.9 297653.0 0
73587.4 295049.0 0
78890.1 296877.0 0
99836.4 294910.0 0
111993.0 297492.0 0
124424.0 293702.0 0
129417.0 294015.0 0
132091.0 297428.0 0
137331.0 295594.0 0
141484.0 297231.0 0
178121.0 295867.0 0
173534.0 297252.0 0
182877.0 294414.0 0
190151.0 294632.0 0
198863.0 296063.0 0
204533.0 293542.0 0
209812.0 294912.0 0
214272.0 296604.0 0
219383.0 294793.0 0
223634.0 297123.0 0
228552.0 294443.0 0
233632.0 293557.0 0
237509.0 296070.0 0
241571.0 293597.0 0
249634.0 295799.0 0
245266.0 296442.0 0
254552.0 296048.0 0
260839.0 294170.0 0
267630.0 294054.0 0
273080.0 296161.0 0
278625.0 296041.0 0
282938.0 295698.0 0
286583.0 295859.0 0
291010.0 295706.0 0
295789.0 296516.0 0
304833.0 294614.0 0
326082.0 297059.0 0
345237.0 295346.0 0
348224.0 292796.0 0
348323.0 297126.0 0
375332.0 293727.0 0
387759.0 297357.0 0
396070.0 295612.0 0
405148.0 295632.0 0
412280.0 293467.0 0
416387.0 295122.0 0
425494.0 292902.0 0
431748.0 295919.0 0
439140.0 293728.0 0
452878.0 295341.0 0
457920.0 296839.0 0
461427.0 293331.0 0
465643.0 295383.0 0
478873.0 292764.0 0
35470.8 299232.0 0
31330.3 299646.0 0
58276.5 302377.0 0
64003.3 297741.0 0
62760.5 302528.0 0
79117.6 301695.0 0
83595.1 299327.0 0
106851.0 298025.0 0
102136.0 299639.0 0
115838.0 298142.0 0
118035.0 301657.0 0
122579.0 299776.0 0
187621.0 300068.0 0
194183.0 297870.0 0
206165.0 298021.0 0
204357.0 301118.0 0
210207.0 299515.0 0
219003.0 299675.0 0
214471.0 301421.0 0
223352.0 301893.0 0
227926.0 300084.0 0
232406.0 298027.0 0
236316.0 301126.0 0
241300.0 299367.0 0
246217.0 301624.0 0
251079.0 299902.0 0
256303.0 302030.0 0
262861.0 300877.0 0
268059.0 299265.0 0
272177.0 301283.0 0
277010.0 300966.0 0
282246.0 300468.0 0
286579.0 299537.0 0
292295.0 300267.0 0
296350.0 300020.0 0
320801.0 298074.0 0
334097.0 302311.0 0
339966.0 298066.0 0
338749.0 301273.0 0
344226.0 299292.0 0
353398.0 298298.0 0
377578.0 299831.0 0
383309.0 301966.0 0
391971.0 298555.0 0
417562.0 299515.0 0
422843.0 297787.0 0
429251.0 300562.0 0
440415.0 301511.0 0
448734.0 299016.0 0
444373.0 300588.0 0
483950.0 301235.0 0
488519.0 299105.0 0
493893.0 297791.0 0
23860.2 306293.0 0
85357.4 303998.0 0
89677.3 305166.0 0
114635.0 305362.0 0
119205.0 305817.0 0
148593.0 304937.0 0
154063.0 306013.0 0
160451.0 306727.0 0
172783.0 307263.0 0
177642.0 305496.0 0
182265.0 303684.0 0
186511.0 303770.0 0
204007.0 305575.0 0
209786.0 304966.0 0
219173.0 304364.0 0
215089.0 305823.0 0
222789.0 306351.0 0
226786.0 304859.0 0
232143.0 305242.0 0
237492.0 305416.0 0
241630.0 304445.0 0
247322.0 306587.0 0
251264.0 304465.0 0
257637.0 306785.0 0
261118.0 305896.0 0
267903.0 304731.0 0
273126.0 305717.0 0
279254.0 305269.0 0
284088.0 305417.0 0
288281.0 303123.0 0
287843.0 307428.0 0
292285.0 305743.0 0
296140.0 303246.0 0
343860.0 306620.0 0
354633.0 306633.0 0
362728.0 305801.0 0
367860.0 304209.0 0
374256.0 304545.0 0
388742.0 304424.0 0
441465.0 307703.0 0
449043.0 304066.0 0
472532.0 304194.0 0
476982.0 303644.0 0
487877.0 306799.0 0
18980.9 310208.0 0
24601.3 311419.0 0
29372.6 312593.0 0
41944.7 312771.0 0
46285.1 310727.0 0
57656.8 309059.0 0
59419.7 312961.0 0
131308.0 312318.0 0
136308.0 312187.0 0
164978.0 310456.0 0
169679.0 311659.0 0
175845.0 309135.0 0
203274.0 311344.0 0
207137.0 309751.0 0
212541.0 309920.0 0
216903.0 309354.0 0
221028.0 310568.0 0
226469.0 310028.0 0
231406.0 310327.0 0
236716.0 310375.0 0
242994.0 309808.0 0
247799.0 310759.0 0
251624.0 309017.0 0
256146.0 310591.0 0
260920.0 310188.0 0
265927.0 310101.0 0
270797.0 309327.0 0
276141.0 309517.0 0
281425.0 309757.0 0
285814.0 310814.0 0
295740.0 308726.0 0
291086.0 310660.0 0
300752.0 310566.0 0
347413.0 309105.0 0
351113.0 310127.0 0
359569.0 309805.0 0
378320.0 308320.0 0
378180.0 312703.0 0
447200.0 308098.0 0
496741.0 309313.0 0
3000.82 315858.0 0
34198.8 314553.0 0
38189.5 317606.0 0
44756.1 316227.0 0
49720.9 315054.0 0
78998.1 315754.0 0
109302.0 316978.0 0
125705.0 313664.0 0
203607.0 314924.0 0
199008.0 317452.0 0
209616.0 315619.0 0
216026.0 313096.0 0
215005.0 316723.0 0
219940.0 315499.0 0
225127.0 315593.0 0
230480.0 314966.0 0
235397.0 315780.0 0
240006.0 315041.0 0
245797.0 315686.0 0
252776.0 315604.0 0
259145.0 315017.0 0
263538.0 313951.0 0
264996.0 318045.0 0
269639.0 314452.0 0
273818.0 313004.0 0
277559.0 314920.0 0
282425.0 314240.0 0
286250.0 314544.0 0
290629.0 316144.0 0
295575.0 313640.0 0
303327.0 315963.0 0
318205.0 316982.0 0
344872.0 316748.0 0
354750.0 313419.0 0
374379.0 314360.0 0
382647.0 315248.0 0
388980.0 314008.0 0
430527.0 317090.0 0
435600.0 316442.0 0
441425.0 314111.0 0
463934.0 315202.0 0
5576.43 320259.0 0
40981.1 320350.0 0
78850.0 319208.0 0
104572.0 320804.0 0
110496.0 321737.0 0
199280.0 323173.0 0
204506.0 319748.0 0
213854.0 319998.0 0
209705.0 322919.0 0
217595.0 319383.0 0
222169.0 320158.0 0
227333.0 320362.0 0
232822.0 320304.0 0
238449.0 319901.0 0
242878.0 319932.0 0
247483.0 321426.0 0
251330.0 320375.0 0
255291.0 321259.0 0
260318.0 320232.0 0
270308.0 320716.0 0
275508.0 319206.0 0
280916.0 319993.0 0
286405.0 319035.0 0
290401.0 321714.0 0
295370.0 319438.0 0
306624.0 322238.0 0
321222.0 319252.0 0
324319.0 318176.0 0
394819.0 322032.0 0
399809.0 318541.0 0
406576.0 320826.0 0
412274.0 320505.0 0
420030.0 320458.0 0
425901.0 319004.0 0
466754.0 321659.0 0
470906.0 323015.0 0
13308.9 326949.0 0
30674.9 323501.0 0
114684.0 323200.0 0
118920.0 325691.0 0
123167.0 327946.0 0
190052.0 327367.0 0
194107.0 324295.0 0
203762.0 324639.0 0
215563.0 324173.0 0
222849.0 323956.0 0
219946.0 324896.0 0
226713.0 326020.0 0
231988.0 325350.0 0
236793.0 324941.0 0
241917.0 324140.0 0
246392.0 326210.0 0
252118.0 324557.0 0
255128.0 325993.0 0
259938.0 325454.0 0
265584.0 324779.0 0
275365.0 323854.0 0
270872.0 326639.0 0
280266.0 325866.0 0
285529.0 324125.0 0
289387.0 327830.0 0
294636.0 325588.0 0
336311.0 327568.0 0
349594.0 323596.0 0
355596.0 326396.0 0
389404.0 324199.0 0
417609.0 326583.0 0
431254.0 327910.0 0
4937.82 331177.0 0
9627.86 331429.0 0
203371.0 330853.0 0
207021.0 328523.0 0
213627.0 329474.0 0
209713.0 332685.0 0
218154.0 329475.0 0
222500.0 329339.0 0
228118.0 331277.0 0
233102.0 329930.0 0
237975.0 329734.0 0
242687.0 328687.0 0
241624.0 333334.0 0
247738.0 330406.0 0
251699.0 328688.0 0
255829.0 330170.0 0
260264.0 330514.0 0
265036.0 330168.0 0
269992.0 332003.0 0
275872.0 329985.0 0
280221.0 332796.0 0
284133.0 329994.0 0
288836.0 333384.0 0
294886.0 332216.0 0
341778.0 331035.0 0
351904.0 329010.0 0
361777.0 332750.0 0
367623.0 332802.0 0
378832.0 331530.0 0
2103.89 333736.0 0
187646.0 333605.0 0
204452.0 334487.0 0
208611.0 336967.0 0
213389.0 335171.0 0
218306.0 334135.0 0
222726.0 334249.0 0
226681.0 335807.0 0
231449.0 334599.0 0
236417.0 334523.0 0
247090.0 335522.0 0
253246.0 334732.0 0
258473.0 334788.0 0
262430.0 334133.0 0
266448.0 336025.0 0
273824.0 335360.0 0
278168.0 336301.0 0
282084.0 335826.0 0
285751.0 337290.0 0
289876.0 338062.0 0
320148.0 337360.0 0
325382.0 337750.0 0
329037.0 334023.0 0
371598.0 336365.0 0
375018.0 338298.0 0
385884.0 335551.0 0
390115.0 337907.0 0
35193.8 341585.0 0
68661.0 341142.0 0
74935.4 342745.0 0
139476.0 341845.0 0
144683.0 342545.0 0
204665.0 340139.0 0
208958.0 342520.0 0
213534.0 340387.0 0
218165.0 338889.0 0
222182.0 338964.0 0
225758.0 340375.0 0
230740.0 340081.0 0
236519.0 339742.0 0
242380.0 339682.0 0
247901.0 341088.0 0
252047.0 339597.0 0
256535.0 339396.0 0
261403.0 339014.0 0
266160.0 341887.0 0
271274.0 339335.0 0
276404.0 341390.0 0
281975.0 340288.0 0
287124.0 342293.0 0
294931.0 338973.0 0
292000.0 343249.0 0
315116.0 339484.0 0
61778.3 346901.0 0
68580.0 345516.0 0
71617.3 347030.0 0
90847.8 345100.0 0
137181.0 346560.0 0
149546.0 345481.0 0
154306.0 343675.0 0
157366.0 347833.0 0
161601.0 344561.0 0
295743.0 345085.0 0
300503.0 348013.0 0
302840.0 343883.0 0
306217.0 347193.0 0
78448.2 352382.0 0
81810.3 349568.0 0
132100.0 349910.0 0
135499.0 353433.0 0
309713.0 352358.0 0
305097.0 357834.0 0
308845.0 356899.0 0
185974.0 360118.0 0
197715.0 363920.0 0
138284.0 368658.0 0
142495.0 366030.0 0
1675.04 375613.0 0
5465.47 375228.0 0
9918.7 375286.0 0
14380.1 375202.0 0
18540.3 375145.0 0
23080.7 375107.0 0
26969.7 375431.0 0
30830.0 375248.0 0
34494.7 375525.0 0
37402.2 375622.0 0
41290.0 375477.0 0
45953.2 375119.0 0
49326.9 375251.0 0
53031.6 375806.0 0
57129.7 375454.0 0
61175.7 375910.0 0
65904.9 375032.0 0
69475.2 375483.0 0
72869.9 375639.0 0
76646.0 375166.0 0
80816.1 375341.0 0
85403.7 375207.0 0
90398.6 375321.0 0
94803.4 375252.0 0
99413.2 375287.0 0
103499.0 375341.0 0
107412.0 375264.0 0
111445.0 375235.0 0
115809.0 375161.0 0
119950.0 375551.0 0
124149.0 375097.0 0
129625.0 375536.0 0
133594.0 375400.0 0
136396.0 375583.0 0
142679.0 375548.0 0
139583.0 375497.0 0
145961.0 375380.0 0
150513.0 375899.0 0
154786.0 375162.0 0
158532.0 375936.0 0
162487.0 375732.0 0
166253.0 375328.0 0
170212.0 375381.0 0
173336.0 375491.0 0
177163.0 375143.0 0
181644.0 375194.0 0
179304.0 377031.0 0
185132.0 375591.0 0
188781.0 375195.0 0
193783.0 373430.0 0
191681.0 376587.0 0
196365.0 376192.0 0
198991.0 375318.0 0
300820.0 376267.0 0
304655.0 375619.0 0
308278.0 376321.0 0
311703.0 375295.0 0
316391.0 375688.0 0
320497.0 375852.0 0
323742.0 375592.0 0
327211.0 375464.0 0
331330.0 375355.0 0
335625.0 375063.0 0
339568.0 375655.0 0
343479.0 375386.0 0
348510.0 375742.0 0
352651.0 375984.0 0
356276.0 375020.0 0
360890.0 375283.0 0
365771.0 375917.0 0
370473.0 375271.0 0
376025.0 375300.0 0
373192.0 377288.0 0
380017.0 375744.0 0
383943.0 375469.0 0
388341.0 375991.0 0
393560.0 375225.0 0
397089.0 375496.0 0
400075.0 375347.0 0
404033.0 375346.0 0
408368.0 375053.0 0
410412.0 377462.0 0
412986.0 375144.0 0
417700.0 375173.0 0
421937.0 375485.0 0
426156.0 375641.0 0
429852.0 375276.0 0
433858.0 375442.0 0
438227.0 375079.0 0
442810.0 375211.0 0
440984.0 377227.0 0
446236.0 375191.0 0
451368.0 375463.0 0
456189.0 375568.0 0
461190.0 375629.0 0
465524.0 375573.0 0
470187.0 375560.0 0
474315.0 375275.0 0
479444.0 375354.0 0
484126.0 375572.0 0
487872.0 375309.0 0
492743.0 375224.0 0
497733.0 375435.0 0
4054.09 378773.0 0
1268.37 378714.0 0
1387.23 381462.0 0
7747.44 378073.0 0
10029.3 380699.0 0
5661.13 382309.0 0
12128.0 378246.0 0
13867.1 382170.0 0
16157.4 379052.0 0
20691.5 378550.0 0
25240.5 378463.0 0
23292.6 382292.0 0
27010.0 381094.0 0
29001.9 378380.0 0
30210.1 381734.0 0
32879.5 378714.0 0
37350.8 378970.0 0
38777.6 382207.0 0
40758.9 379907.0 0
44793.6 377975.0 0
43874.9 381145.0 0
48665.2 377947.0 0
47806.4 381148.0 0
50933.8 382087.0 0
51899.0 379255.0 0
54444.5 382051.0 0
56468.7 379039.0 0
60048.9 380398.0 0
65060.8 379108.0 0
69381.2 378262.0 0
68385.1 382296.0 0
72022.0 380118.0 0
74987.7 378207.0 0
75958.8 382590.0 0
78681.8 378364.0 0
81141.7 381801.0 0
83290.7 378452.0 0
85584.8 381859.0 0
87806.5 378833.0 0
92722.5 379394.0 0
96915.1 378804.0 0
101169.0 378573.0 0
98802.9 381635.0 0
105035.0 378500.0 0
102582.0 381986.0 0
107169.0 382210.0 0
109346.0 378468.0 0
111560.0 382125.0 0
113436.0 378540.0 0
115324.0 381864.0 0
117751.0 378874.0 0
121816.0 379306.0 0
126613.0 379044.0 0
122760.0 382209.0 0
131022.0 379381.0 0
130032.0 381877.0 0
133702.0 378373.0 0
137459.0 378832.0 0
139418.0 382956.0 0
146697.0 378947.0 0
142466.0 379085.0 0
147936.0 382019.0 0
151225.0 380084.0 0
155074.0 378402.0 0
161125.0 378547.0 0
158645.0 379628.0 0
162179.0 380935.0 0
167825.0 378000.0 0
164650.0 379067.0 0
168158.0 381210.0 0
171231.0 378673.0 0
172005.0 382402.0 0
175249.0 378742.0 0
179391.0 379403.0 0
181189.0 382132.0 0
182788.0 378570.0 0
184553.0 381209.0 0
187104.0 378515.0 0
190909.0 379869.0 0
193774.0 381841.0 0
194678.0 378311.0 0
196573.0 381537.0 0
198935.0 378529.0 0
199589.0 381711.0 0
301204.0 380395.0 0
304684.0 379196.0 0
308440.0 380600.0 0
312541.0 378969.0 0
312579.0 382130.0 0
320772.0 379240.0 0
316911.0 380831.0 0
323614.0 378051.0 0
323843.0 381176.0 0
326075.0 378763.0 0
326887.0 381148.0 0
329710.0 379110.0 0
333805.0 378479.0 0
340692.0 378784.0 0
337662.0 377880.0 0
337592.0 380926.0 0
340765.0 382549.0 0
344814.0 379845.0 0
349392.0 380044.0 0
353627.0 380116.0 0
357644.0 377929.0 0
358011.0 381642.0 0
361826.0 379680.0 0
366577.0 380626.0 0
369814.0 379081.0 0
373167.0 380829.0 0
377146.0 379791.0 0
381423.0 379119.0 0
385211.0 378765.0 0
383593.0 382440.0 0
388020.0 381442.0 0
392266.0 379565.0 0
395658.0 381769.0 0
397591.0 378690.0 0
400468.0 381817.0 0
402004.0 378146.0 0
406240.0 377813.0 0
404222.0 380392.0 0
408554.0 381127.0 0
412638.0 380003.0 0
415481.0 377797.0 0
416620.0 382302.0 0
419491.0 378938.0 0
421496.0 382491.0 0
427500.0 379275.0 0
423777.0 379285.0 0
430852.0 378348.0 0
430642.0 380966.0 0
432645.0 381046.0 0
428616.0 382598.0 0
434399.0 378721.0 0
437159.0 378346.0 0
435910.0 382078.0 0
439600.0 380519.0 0
444239.0 379177.0 0
448070.0 382563.0 0
448370.0 378029.0 0
451846.0 379744.0 0
454788.0 379216.0 0
456633.0 382313.0 0
459108.0 379194.0 0
460640.0 382331.0 0
463405.0 379722.0 0
467951.0 379024.0 0
466346.0 382646.0 0
471018.0 381721.0 0
472586.0 378594.0 0
476227.0 378325.0 0
475493.0 382111.0 0
479386.0 380451.0 0
482375.0 378528.0 0
483919.0 382546.0 0
486092.0 378711.0 0
488245.0 382393.0 0
489912.0 378704.0 0
494573.0 379210.0 0
498636.0 378954.0 0
497734.0 382456.0 0
1883.62 384852.0 0
10101.1 384145.0 0
6195.12 387164.0 0
14523.0 386257.0 0
10386.7 387657.0 0
18506.5 383276.0 0
19328.5 387124.0 0
23100.4 386012.0 0
26946.0 384282.0 0
30799.7 385454.0 0
34868.3 382707.0 0
34767.6 387029.0 0
38389.9 385785.0 0
41186.4 386564.0 0
45057.6 383526.0 0
41454.2 383518.0 0
44145.5 386870.0 0
48565.4 384958.0 0
52208.0 384504.0 0
55765.8 385918.0 0
57401.4 382702.0 0
59794.5 384746.0 0
63646.0 383510.0 0
63193.7 387741.0 0
67109.1 385877.0 0
70367.4 387565.0 0
71660.3 384204.0 0
74817.3 387461.0 0
79196.7 385946.0 0
83656.0 385569.0 0
90221.8 382818.0 0
87394.1 385068.0 0
91253.4 387545.0 0
95010.2 383785.0 0
99717.7 385030.0 0
104504.0 385307.0 0
109337.0 385574.0 0
114378.0 385950.0 0
118988.0 383197.0 0
119139.0 387396.0 0
126284.0 383384.0 0
122536.0 385535.0 0
130070.0 385384.0 0
133985.0 382727.0 0
136686.0 386713.0 0
133134.0 387183.0 0
142432.0 386917.0 0
144353.0 382622.0 0
147207.0 385574.0 0
151019.0 384197.0 0
155398.0 382781.0 0
153648.0 386597.0 0
158008.0 387270.0 0
159943.0 383110.0 0
162315.0 386064.0 0
164907.0 383434.0 0
168873.0 385481.0 0
172809.0 385981.0 0
176873.0 383527.0 0
180761.0 386841.0 0
183613.0 383829.0 0
187716.0 383015.0 0
185803.0 387058.0 0
191345.0 383709.0 0
190092.0 386615.0 0
194718.0 385609.0 0
199041.0 385334.0 0
301305.0 384651.0 0
304756.0 382828.0 0
305143.0 386777.0 0
307451.0 384485.0 0
310828.0 384378.0 0
309160.0 387458.0 0
314253.0 384277.0 0
317635.0 386016.0 0
320941.0 383565.0 0
325925.0 385262.0 0
329462.0 382637.0 0
330948.0 386937.0 0
333646.0 382893.0 0
335681.0 387274.0 0
337589.0 384212.0 0
340076.0 386805.0 0
344191.0 384387.0 0
346510.0 386516.0 0
347925.0 383480.0 0
351377.0 383616.0 0
349496.0 386889.0 0
355357.0 384086.0 0
353054.0 386127.0 0
359747.0 384842.0 0
363550.0 383403.0 0
364453.0 386840.0 0
366995.0 384529.0 0
370094.0 383210.0 0
374745.0 385391.0 0
379439.0 383290.0 0
379164.0 387629.0 0
382213.0 385911.0 0
386396.0 386424.0 0
392130.0 385179.0 0
397314.0 384960.0 0
401293.0 385720.0 0
404853.0 384407.0 0
408887.0 385072.0 0
412500.0 383861.0 0
415488.0 386652.0 0
419444.0 385597.0 0
425122.0 383180.0 0
423462.0 386962.0 0
427930.0 386603.0 0
432179.0 384163.0 0
436114.0 386071.0 0
439071.0 384111.0 0
442789.0 383279.0 0
445456.0 386844.0 0
452876.0 383008.0 0
450658.0 386254.0 0
455451.0 386810.0 0
463131.0 383717.0 0
459405.0 385042.0 0
461934.0 386473.0 0
465960.0 386738.0 0
469151.0 384773.0 0
472811.0 385665.0 0
477088.0 385348.0 0
479984.0 384037.0 0
483775.0 386468.0 0
488317.0 386737.0 0
492351.0 382621.0 0
493997.0 386236.0 0
498391.0 386185.0 0
1902.29 388815.0 0
1447.76 392453.0 0
8831.02 390255.0 0
5552.01 391856.0 0
12164.4 390322.0 0
16653.4 390761.0 0
22554.2 390523.0 0
26874.6 388211.0 0
31854.5 390466.0 0
37190.5 390002.0 0
40945.6 389279.0 0
44494.9 391268.0 0
47847.2 388872.0 0
51804.8 387824.0 0
54770.7 389878.0 0
59025.5 388930.0 0
62276.6 391864.0 0
66935.9 390482.0 0
71745.6 390860.0 0
76000.6 391756.0 0
78697.8 389518.0 0
82370.7 389089.0 0
86582.6 388476.0 0
84994.5 391631.0 0
88631.3 391673.0 0
96570.4 388402.0 0
93409.8 392210.0 0
101659.0 388751.0 0
106787.0 388819.0 0
110983.0 388851.0 0
109369.0 392309.0 0
116468.0 389615.0 0
113344.0 390909.0 0
119595.0 390539.0 0
126245.0 387891.0 0
122694.0 389615.0 0
126392.0 391969.0 0
129859.0 389659.0 0
133967.0 391370.0 0
138727.0 390102.0 0
142823.0 392488.0 0
146756.0 389604.0 0
150594.0 387861.0 0
150619.0 391722.0 0
154489.0 390077.0 0
161621.0 389309.0 0
158817.0 392147.0 0
163309.0 391758.0 0
165733.0 388561.0 0
170912.0 389849.0 0
175662.0 388033.0 0
174938.0 391590.0 0
178903.0 390832.0 0
183716.0 391349.0 0
188529.0 390541.0 0
193054.0 389507.0 0
198192.0 390161.0 0
301060.0 388675.0 0
304528.0 390649.0 0
307504.0 390264.0 0
310607.0 391295.0 0
313433.0 388097.0 0
314573.0 392422.0 0
317531.0 390070.0 0
320529.0 392286.0 0
322015.0 388369.0 0
324038.0 392535.0 0
327713.0 390702.0 0
333111.0 390814.0 0
337525.0 390914.0 0
341785.0 390901.0 0
343999.0 387879.0 0
346789.0 390521.0 0
356184.0 387838.0 0
352135.0 390454.0 0
356538.0 391789.0 0
360708.0 389538.0 0
365236.0 390250.0 0
369503.0 388200.0 0
371701.0 392708.0 0
373596.0 389899.0 0
376702.0 390234.0 0
374869.0 392592.0 0
379604.0 391003.0 0
382525.0 389382.0 0
385385.0 390981.0 0
389783.0 390258.0 0
396054.0 388212.0 0
393877.0 389363.0 0
393776.0 392246.0 0
397254.0 391732.0 0
399680.0 388680.0 0
401925.0 392497.0 0
403479.0 388562.0 0
405568.0 391056.0 0
407255.0 388380.0 0
411504.0 388007.0 0
409516.0 392501.0 0
414692.0 391365.0 0
418741.0 389324.0 0
422425.0 391405.0 0
426149.0 390388.0 0
429194.0 390213.0 0
432286.0 388079.0 0
432296.0 392353.0 0
436224.0 390111.0 0
440682.0 387920.0 0
439633.0 392033.0 0
444192.0 391745.0 0
448364.0 389532.0 0
452395.0 390225.0 0
456548.0 391120.0 0
459329.0 388664.0 0
460139.0 392073.0 0
463286.0 389754.0 0
467803.0 391055.0 0
469657.0 387811.0 0
472382.0 389678.0 0
475681.0 387840.0 0
476861.0 391655.0 0
480213.0 388020.0 0
481546.0 391525.0 0
484622.0 389750.0 0
487822.0 390786.0 0
492116.0 390107.0 0
497702.0 390006.0 0
2775.83 396669.0 0
9744.87 393189.0 0
7511.22 395748.0 0
13047.3 393922.0 0
11194.8 397085.0 0
19907.7 393462.0 0
16767.1 397289.0 0
22531.2 395600.0 0
26730.3 392874.0 0
26386.8 397596.0 0
31475.6 395754.0 0
36045.0 393800.0 0
40317.3 392981.0 0
38130.1 395416.0 0
40768.6 397220.0 0
44515.6 394968.0 0
50443.6 393085.0 0
47352.0 396870.0 0
54193.3 396574.0 0
57253.2 393159.0 0
58115.7 397363.0 0
61441.4 395554.0 0
65641.0 394544.0 0
69669.0 394273.0 0
73427.3 393881.0 0
73196.3 397160.0 0
76856.7 395713.0 0
80685.9 393409.0 0
85358.6 395840.0 0
89824.6 395141.0 0
96059.2 394813.0 0
93689.6 397702.0 0
99043.1 392946.0 0
97909.4 397182.0 0
104260.0 393147.0 0
107455.0 396547.0 0
117120.0 392943.0 0
112932.0 395316.0 0
122009.0 393981.0 0
117929.0 396750.0 0
127061.0 396868.0 0
129888.0 393360.0 0
132875.0 396746.0 0
137904.0 394790.0 0
141974.0 397505.0 0
147146.0 393193.0 0
145591.0 395895.0 0
149907.0 396487.0 0
154288.0 394232.0 0
157865.0 397162.0 0
162785.0 396011.0 0
167344.0 393176.0 0
172515.0 395570.0 0
176881.0 394204.0 0
177353.0 397848.0 0
180428.0 394686.0 0
184128.0 395536.0 0
187377.0 394508.0 0
191614.0 393719.0 0
190588.0 397687.0 0
195016.0 393048.0 0
196878.0 394738.0 0
194565.0 396448.0 0
198344.0 397745.0 0
199414.0 394243.0 0
301271.0 393441.0 0
306875.0 395098.0 0
311725.0 394814.0 0
315189.0 396458.0 0
318084.0 394327.0 0
322072.0 395565.0 0
326113.0 395579.0 0
330668.0 394864.0 0
335389.0 394428.0 0
339609.0 394348.0 0
337498.0 397515.0 0
344041.0 394409.0 0
348999.0 394576.0 0
353500.0 394965.0 0
360095.0 393435.0 0
357732.0 394960.0 0
361325.0 396836.0 0
363556.0 393495.0 0
365631.0 396699.0 0
367766.0 392993.0 0
370074.0 396469.0 0
374540.0 396425.0 0
377863.0 393567.0 0
378812.0 397295.0 0
382198.0 393906.0 0
385068.0 397435.0 0
387126.0 394114.0 0
391368.0 394692.0 0
395403.0 395097.0 0
393410.0 397438.0 0
399256.0 395220.0 0
402896.0 397730.0 0
405593.0 394389.0 0
413096.0 395968.0 0
418683.0 394552.0 0
422952.0 395485.0 0
425357.0 393665.0 0
426466.0 397252.0 0
428355.0 393511.0 0
431094.0 396463.0 0
435939.0 394810.0 0
437888.0 397564.0 0
441100.0 395691.0 0
445589.0 396192.0 0
448799.0 393256.0 0
450399.0 397228.0 0
453535.0 393909.0 0
457598.0 394862.0 0
461190.0 395600.0 0
463993.0 397705.0 0
464274.0 393705.0 0
467610.0 395803.0 0
471546.0 393583.0 0
475584.0 396474.0 0
480485.0 395121.0 0
484998.0 393894.0 0
486815.0 397517.0 0
490010.0 394289.0 0
494342.0 397368.0 0
498820.0 393379.0 0
495148.0 393375.0 0
498349.0 396473.0 0
2886.75 402405.0 0
7809.57 399851.0 0
12390.5 401487.0 0
17567.6 402841.0 0
21815.9 399929.0 0
25728.6 401839.0 0
30684.0 400940.0 0
35975.4 398394.0 0
40108.4 402040.0 0
44928.4 400224.0 0
50469.1 399580.0 0
55491.5 400994.0 0
61091.8 400817.0 0
64497.5 398152.0 0
65309.1 402102.0 0
68744.3 398846.0 0
76521.4 398961.0 0
73496.9 401425.0 0
80527.5 398466.0 0
77871.3 402105.0 0
81361.3 402423.0 0
84704.8 400647.0 0
89111.0 399409.0 0
93088.8 402268.0 0
101909.0 397996.0 0
97668.4 401135.0 0
105394.0 400723.0 0
110749.0 400761.0 0
115244.0 399153.0 0
121899.0 398992.0 0
118215.0 400376.0 0
125358.0 402779.0 0
129860.0 400654.0 0
133925.0 401620.0 0
137825.0 399398.0 0
142117.0 401982.0 0
146255.0 399866.0 0
150721.0 401747.0 0
153545.0 398368.0 0
155837.0 401865.0 0
161021.0 401626.0 0
164183.0 399869.0 0
167464.0 398247.0 0
165344.0 402471.0 0
171340.0 399704.0 0
174530.0 401430.0 0
181984.0 398473.0 0
179405.0 401626.0 0
186357.0 398460.0 0
184364.0 401971.0 0
189278.0 401918.0 0
194568.0 400951.0 0
199085.0 401299.0 0
302220.0 397980.0 0
301459.0 402541.0 0
306718.0 401118.0 0
311073.0 398875.0 0
315573.0 400912.0 0
319234.0 397991.0 0
320265.0 402321.0 0
323921.0 399331.0 0
328661.0 398805.0 0
331023.0 401727.0 0
327068.0 402648.0 0
333639.0 399015.0 0
337940.0 401357.0 0
341345.0 398034.0 0
346209.0 398570.0 0
342788.0 402760.0 0
350994.0 399007.0 0
356287.0 399078.0 0
360295.0 400060.0 0
363904.0 400924.0 0
368055.0 399413.0 0
372025.0 400690.0 0
376324.0 400648.0 0
380355.0 401275.0 0
381998.0 398414.0 0
384713.0 401794.0 0
389189.0 398543.0 0
389209.0 403003.0 0
393355.0 400902.0 0
397417.0 398804.0 0
400974.0 401730.0 0
405526.0 402657.0 0
408482.0 398186.0 0
409984.0 402337.0 0
412942.0 400487.0 0
416577.0 398629.0 0
417113.0 402995.0 0
421500.0 399289.0 0
425779.0 401475.0 0
429660.0 400100.0 0
428623.0 402851.0 0
434552.0 400195.0 0
439231.0 399469.0 0
439064.0 403069.0 0
442650.0 399860.0 0
447110.0 400624.0 0
451944.0 401671.0 0
455047.0 398362.0 0
455991.0 402461.0 0
459654.0 399091.0 0
463714.0 401911.0 0
467303.0 399865.0 0
471145.0 398310.0 0
474555.0 400678.0 0
479018.0 399795.0 0
483311.0 398722.0 0
486560.0 401867.0 0
490202.0 398796.0 0
490344.0 402062.0 0
493649.0 401415.0 0
497825.0 400367.0 0
3356.45 408010.0 0
8270.46 404919.0 0
13435.3 406781.0 0
18480.0 406716.0 0
22422.5 404703.0 0
27434.6 405361.0 0
31445.2 405436.0 0
35420.0 403325.0 0
34492.2 407575.0 0
39014.3 407126.0 0
43979.7 405740.0 0
47865.1 403641.0 0
48659.4 408045.0 0
51681.5 404235.0 0
55439.9 405043.0 0
58803.3 404179.0 0
58021.5 407751.0 0
63161.8 406255.0 0
69188.0 404388.0 0
74983.8 405926.0 0
79776.7 405583.0 0
84253.5 404964.0 0
88484.9 403673.0 0
91770.1 405856.0 0
96555.2 405679.0 0
101687.0 403637.0 0
100417.0 407591.0 0
106850.0 404643.0 0
104235.0 407804.0 0
111798.0 405933.0 0
115600.0 402982.0 0
117095.0 407432.0 0
120046.0 403315.0 0
122074.0 406734.0 0
126045.0 408035.0 0
130335.0 405320.0 0
134922.0 405427.0 0
138414.0 403865.0 0
142183.0 406631.0 0
146039.0 404202.0 0
149846.0 405874.0 0
154100.0 405947.0 0
158650.0 405752.0 0
163499.0 406048.0 0
168334.0 408055.0 0
169411.0 403253.0 0
173081.0 406145.0 0
176886.0 404648.0 0
181455.0 405910.0 0
187155.0 406035.0 0
192815.0 406345.0 0
197997.0 404624.0 0
304793.0 405181.0 0
301458.0 407449.0 0
307788.0 405819.0 0
311476.0 404274.0 0
316680.0 405644.0 0
321379.0 406805.0 0
323770.0 403709.0 0
325758.0 407008.0 0
330354.0 405803.0 0
334476.0 403711.0 0
338733.0 406561.0 0
343201.0 406961.0 0
348163.0 403435.0 0
350767.0 407110.0 0
353306.0 403478.0 0
359158.0 404441.0 0
364143.0 406358.0 0
368208.0 403411.0 0
371046.0 405796.0 0
368167.0 408048.0 0
374368.0 404625.0 0
378081.0 404134.0 0
381527.0 405299.0 0
386118.0 406640.0 0
390529.0 406426.0 0
393024.0 404434.0 0
397029.0 403903.0 0
398323.0 406898.0 0
401517.0 405866.0 0
405893.0 405892.0 0
409376.0 406288.0 0
412856.0 403758.0 0
414423.0 407675.0 0
419233.0 406752.0 0
422401.0 404252.0 0
427168.0 405946.0 0
431322.0 403765.0 0
431369.0 407893.0 0
435038.0 405254.0 0
438557.0 407071.0 0
441679.0 407544.0 0
443607.0 404311.0 0
448914.0 405508.0 0
453552.0 404914.0 0
457158.0 406830.0 0
459578.0 403342.0 0
461990.0 406375.0 0
466152.0 405659.0 0
470823.0 403414.0 0
473749.0 407115.0 0
477197.0 404190.0 0
482087.0 403165.0 0
481170.0 407658.0 0
485125.0 405691.0 0
490942.0 406534.0 0
495525.0 404067.0 0
498594.0 403979.0 0
497380.0 407969.0 0
1627.74 412020.0 0
8679.92 409539.0 0
5559.55 412663.0 0
12783.9 412027.0 0
17626.8 410787.0 0
21249.5 408373.0 0
25073.6 408698.0 0
22123.9 411697.0 0
30205.8 409936.0 0
25992.3 412682.0 0
36016.5 411807.0 0
41154.1 411277.0 0
44785.9 410026.0 0
47593.7 411921.0 0
53389.5 408298.0 0
51505.6 412253.0 0
56280.6 411734.0 0
60448.2 410395.0 0
64104.0 411927.0 0
67278.7 408950.0 0
71445.5 408699.0 0
74406.5 410093.0 0
78143.4 409457.0 0
82753.5 409032.0 0
85416.5 412112.0 0
87939.2 408435.0 0
92957.1 409380.0 0
94636.1 413171.0 0
97604.2 410245.0 0
101900.0 411433.0 0
106623.0 411626.0 0
108249.0 408172.0 0
111944.0 410907.0 0
117126.0 412665.0 0
121450.0 410566.0 0
125589.0 412846.0 0
130158.0 410662.0 0
133932.0 408443.0 0
137894.0 408030.0 0
140594.0 411141.0 0
146713.0 408821.0 0
143482.0 409644.0 0
144436.0 412921.0 0
151584.0 409696.0 0
155883.0 409617.0 0
157940.0 412798.0 0
160232.0 409405.0 0
164471.0 410588.0 0
168189.0 412718.0 0
172549.0 411143.0 0
176884.0 408660.0 0
180793.0 410426.0 0
184489.0 409462.0 0
188853.0 410952.0 0
193827.0 411677.0 0
198033.0 408963.0 0
305453.0 408836.0 0
301887.0 411561.0 0
309527.0 408949.0 0
313428.0 408352.0 0
312354.0 412590.0 0
318027.0 411166.0 0
323731.0 410923.0 0
329138.0 410942.0 0
334188.0 408592.0 0
333706.0 412729.0 0
337853.0 411587.0 0
342297.0 410635.0 0
346696.0 408406.0 0
346310.0 413134.0 0
350783.0 411205.0 0
355262.0 408476.0 0
360582.0 410227.0 0
365133.0 410470.0 0
368635.0 411570.0 0
372506.0 409365.0 0
375200.0 412935.0 0
377515.0 408221.0 0
379117.0 412112.0 0
382215.0 409479.0 0
386491.0 411576.0 0
389809.0 409359.0 0
394624.0 408392.0 0
396717.0 412478.0 0
399583.0 409635.0 0
404947.0 409698.0 0
410467.0 411320.0 0
415320.0 412964.0 0
418654.0 410250.0 0
423566.0 409497.0 0
428032.0 410273.0 0
431548.0 413064.0 0
435506.0 409744.0 0
440533.0 411698.0 0
444877.0 408764.0 0
448737.0 410268.0 0
452992.0 408844.0 0
456512.0 411953.0 0
460178.0 409637.0 0
464301.0 409874.0 0
469379.0 409454.0 0
474325.0 410996.0 0
477191.0 408389.0 0
478443.0 411415.0 0
482323.0 412372.0 0
485933.0 409899.0 0
493968.0 411223.0 0
489912.0 412409.0 0
497924.0 412673.0 0
2424.94 416044.0 0
9134.63 413674.0 0
7226.03 417699.0 0
12018.1 416664.0 0
19765.0 414242.0 0
16410.5 415378.0 0
22892.7 415446.0 0
28915.1 413641.0 0
27616.8 417373.0 0
32038.2 414872.0 0
35798.8 416626.0 0
39810.3 415434.0 0
44403.9 414350.0 0
42554.1 418213.0 0
48728.2 415175.0 0
50424.9 418111.0 0
54665.4 416556.0 0
59851.6 414529.0 0
64155.7 416715.0 0
69878.2 414058.0 0
75871.3 413428.0 0
74763.2 417541.0 0
80863.1 413773.0 0
85423.9 415909.0 0
82510.6 417230.0 0
89732.7 413612.0 0
93873.0 418003.0 0
98686.3 414895.0 0
103992.0 416473.0 0
109525.0 415613.0 0
113619.0 415352.0 0
116982.0 417524.0 0
121529.0 415490.0 0
130097.0 416575.0 0
135666.0 413279.0 0
140870.0 416366.0 0
145953.0 416915.0 0
148738.0 413068.0 0
150015.0 416688.0 0
153644.0 413844.0 0
157738.0 416673.0 0
161549.0 413384.0 0
162016.0 417358.0 0
164978.0 414434.0 0
167215.0 418089.0 0
171030.0 415504.0 0
177586.0 413946.0 0
174196.0 416706.0 0
180994.0 417562.0 0
183832.0 413961.0 0
188125.0 415433.0 0
191234.0 414497.0 0
198084.0 414050.0 0
194407.0 415675.0 0
301849.0 415515.0 0
306731.0 413518.0 0
310918.0 416901.0 0
315799.0 416782.0 0
320902.0 415712.0 0
325927.0 415126.0 0
330990.0 415989.0 0
336720.0 416650.0 0
342021.0 415103.0 0
346123.0 417868.0 0
350572.0 415852.0 0
355926.0 413910.0 0
360829.0 414790.0 0
365392.0 414566.0 0
362685.0 418072.0 0
370598.0 415438.0 0
374917.0 416958.0 0
378641.0 415940.0 0
382645.0 414073.0 0
386972.0 416825.0 0
391669.0 413549.0 0
396010.0 416757.0 0
401149.0 414559.0 0
406914.0 415135.0 0
411928.0 416454.0 0
416572.0 417139.0 0
420886.0 414750.0 0
426426.0 414098.0 0
424428.0 418332.0 0
429704.0 418334.0 0
436128.0 413432.0 0
434767.0 416933.0 0
438536.0 415755.0 0
442601.0 416784.0 0
445721.0 413216.0 0
447813.0 417824.0 0
451547.0 413897.0 0
452180.0 418178.0 0
455604.0 416404.0 0
461291.0 413921.0 0
466565.0 413961.0 0
471449.0 414431.0 0
479326.0 414734.0 0
475893.0 414825.0 0
478264.0 418127.0 0
482349.0 416634.0 0
486207.0 414617.0 0
490291.0 416768.0 0
494368.0 415080.0 0
497978.0 416635.0 0
2728.75 421032.0 0
7240.09 422135.0 0
11003.9 420996.0 0
15289.8 419742.0 0
19835.8 418548.0 0
18513.5 422423.0 0
23684.9 418998.0 0
22959.9 422691.0 0
28445.7 422854.0 0
32610.7 419430.0 0
38383.4 420616.0 0
43826.8 422476.0 0
46505.6 418399.0 0
49355.8 422181.0 0
54921.0 422335.0 0
59671.1 419307.0 0
64210.3 421631.0 0
67579.9 419131.0 0
71304.6 419519.0 0
74811.1 422530.0 0
79117.6 419200.0 0
84081.6 420110.0 0
88646.0 419034.0 0
92831.3 423483.0 0
99235.3 420502.0 0
104088.0 421606.0 0
108164.0 420386.0 0
112813.0 419490.0 0
116566.0 421562.0 0
120760.0 420292.0 0
125251.0 418933.0 0
135665.0 419664.0 0
139891.0 420178.0 0
139402.0 423185.0 0
143469.0 421069.0 0
148689.0 420997.0 0
153649.0 419018.0 0
158600.0 421944.0 0
163750.0 421383.0 0
172204.0 420439.0 0
176976.0 418982.0 0
176385.0 423264.0 0
180893.0 421880.0 0
185659.0 419263.0 0
191309.0 418746.0 0
189187.0 422850.0 0
197202.0 419371.0 0
302259.0 419914.0 0
305927.0 422889.0 0
306695.0 418688.0 0
310574.0 421460.0 0
315228.0 421527.0 0
319486.0 420296.0 0
323612.0 418961.0 0
327932.0 419859.0 0
332692.0 420697.0 0
336991.0 422005.0 0
341491.0 420327.0 0
346008.0 422768.0 0
350319.0 420822.0 0
354348.0 418628.0 0
358610.0 418543.0 0
361836.0 423065.0 0
366819.0 419491.0 0
372172.0 420934.0 0
377604.0 420323.0 0
381280.0 423445.0 0
382273.0 418890.0 0
386517.0 422626.0 0
391820.0 419755.0 0
395953.0 423431.0 0
399107.0 419715.0 0
403860.0 419274.0 0
405817.0 423199.0 0
408619.0 419859.0 0
414464.0 421083.0 0
419790.0 420105.0 0
426230.0 421999.0 0
434171.0 420816.0 0
438840.0 420128.0 0
444052.0 421624.0 0
449199.0 422719.0 0
455074.0 422049.0 0
459365.0 418547.0 0
464173.0 418411.0 0
469096.0 418430.0 0
466632.0 422207.0 0
473825.0 418603.0 0
471390.0 423261.0 0
476763.0 422369.0 0
481561.0 421080.0 0
486117.0 419273.0 0
494070.0 418878.0 0
490410.0 422032.0 0
494524.0 422550.0 0
497844.0 420786.0 0
1119.5 424695.0 0
4804.19 425975.0 0
1166.91 427229.0 0
9790.64 425500.0 0
14495.8 424450.0 0
19593.4 427306.0 0
25311.9 427237.0 0
30254.1 427710.0 0
33887.4 424118.0 0
38470.7 425793.0 0
42685.4 427240.0 0
46996.4 426418.0 0
51775.8 426899.0 0
56347.3 427267.0 0
60064.4 424469.0 0
64750.1 426707.0 0
69221.2 423714.0 0
72976.5 427263.0 0
81259.8 423848.0 0
77510.5 426538.0 0
87058.8 424718.0 0
91409.8 427963.0 0
97297.5 425648.0 0
101951.0 425075.0 0
106888.0 425328.0 0
111339.0 423679.0 0
115344.0 425536.0 0
119232.0 424018.0 0
120235.0 428118.0 0
123389.0 424063.0 0
125294.0 428259.0 0
129535.0 423492.0 0
135240.0 424510.0 0
142689.0 425770.0 0
138385.0 427498.0 0
146100.0 424333.0 0
148888.0 425091.0 0
153077.0 424491.0 0
157591.0 428097.0 0
162784.0 426095.0 0
167783.0 423426.0 0
167166.0 428223.0 0
172409.0 426730.0 0
176896.0 426716.0 0
180557.0 427072.0 0
185135.0 424565.0 0
193468.0 423593.0 0
189758.0 428164.0 0
198046.0 424605.0 0
195237.0 427904.0 0
301979.0 424521.0 0
305466.0 427481.0 0
301495.0 428529.0 0
308919.0 425477.0 0
313241.0 425891.0 0
318444.0 425397.0 0
324085.0 423892.0 0
329589.0 424630.0 0
334329.0 425380.0 0
340065.0 426599.0 0
345455.0 426814.0 0
349955.0 425920.0 0
355353.0 423544.0 0
358628.0 428338.0 0
363555.0 428581.0 0
367970.0 425325.0 0
376142.0 426232.0 0
383654.0 427274.0 0
391123.0 424394.0 0
388380.0 427778.0 0
393573.0 428307.0 0
398470.0 427725.0 0
401251.0 423847.0 0
401897.0 427542.0 0
405678.0 427823.0 0
410313.0 424595.0 0
414304.0 427437.0 0
417825.0 424527.0 0
422399.0 424163.0 0
426255.0 425918.0 0
430784.0 424302.0 0
436625.0 425000.0 0
441980.0 426504.0 0
446784.0 426583.0 0
451947.0 427724.0 0
457519.0 427336.0 0
461629.0 423546.0 0
466861.0 427039.0 0
475260.0 428008.0 0
480717.0 425719.0 0
484665.0 427823.0 0
485231.0 423859.0 0
488797.0 426767.0 0
493445.0 426007.0 0
497822.0 425202.0 0
2477.86 430455.0 0
4942.33 433398.0 0
7811.36 430182.0 0
12929.0 429363.0 0
17213.5 433067.0 0
22510.8 431952.0 0
27537.5 432089.0 0
34946.1 429184.0 0
39507.0 430150.0 0
43301.3 431351.0 0
48461.3 431856.0 0
54333.0 431320.0 0
60449.7 429862.0 0
65609.8 431950.0 0
68877.4 428584.0 0
71580.5 431544.0 0
75981.9 430901.0 0
82287.7 429595.0 0
85750.0 433159.0 0
87763.3 430146.0 0
91277.8 432610.0 0
95411.5 430181.0 0
100612.0 429657.0 0
105991.0 430700.0 0
111285.0 428744.0 0
109850.0 433230.0 0
115931.0 429797.0 0
118808.0 432902.0 0
122920.0 431853.0 0
126740.0 432444.0 0
129322.0 429471.0 0
133510.0 428498.0 0
136819.0 433040.0 0
142022.0 430927.0 0
146838.0 428770.0 0
151707.0 429126.0 0
154463.0 432856.0 0
159573.0 433129.0 0
163593.0 430881.0 0
167657.0 432654.0 0
172431.0 432593.0 0
176872.0 430331.0 0
181390.0 431898.0 0
184498.0 429025.0 0
186258.0 433079.0 0
198265.0 430595.0 0
193951.0 433057.0 0
303869.0 432424.0 0
310166.0 431347.0 0
316036.0 430056.0 0
319850.0 433273.0 0
322081.0 428926.0 0
324320.0 432359.0 0
326786.0 428796.0 0
331562.0 429077.0 0
336087.0 431638.0 0
341003.0 433337.0 0
344140.0 430414.0 0
348606.0 431076.0 0
353552.0 429781.0 0
357068.0 433124.0 0
367129.0 430291.0 0
368538.0 433520.0 0
371417.0 430102.0 0
376215.0 431410.0 0
380194.0 430719.0 0
385144.0 432055.0 0
390319.0 432471.0 0
397093.0 432381.0 0
401765.0 430974.0 0
406318.0 433160.0 0
410274.0 429828.0 0
414714.0 432725.0 0
418485.0 429019.0 0
420286.0 433670.0 0
423319.0 429253.0 0
428744.0 429944.0 0
432907.0 433614.0 0
433497.0 428857.0 0
438071.0 430561.0 0
443162.0 431755.0 0
447600.0 430743.0 0
455718.0 431494.0 0
461946.0 428950.0 0
465217.0 432051.0 0
470367.0 431772.0 0
481166.0 430578.0 0
486264.0 432417.0 0
492294.0 431055.0 0
497606.0 429565.0 0
11096.2 435060.0 0
32724.2 434009.0 0
38060.8 434622.0 0
58216.7 434679.0 0
79074.3 434260.0 0
97027.0 434958.0 0
102340.0 434833.0 0
114107.0 433680.0 0
373861.0 433868.0 0
425373.0 433959.0 0
451432.0 433504.0 0
460098.0 433555.0 0
477170.0 433656.0 0
481766.0 434860.0 0
490186.0 435973.0 0
494343.0 435668.0 0
497934.0 433956.0 0
POINT_DATA 5000
SCALARS Radius float 1
LOOKUP_TABLE default
3979.26 3471.03 5253.55 5782.6 4862.21 5379.87 4792.73 3485.26 3850.77 6044.04 5415.48 5120.0 3863.18 6182.6 5258.36 5812.43 5906.14 7513.1 5580.89 6810.52 5840.26 6716.79 7613.27 5529.52 5255.32 5096.78 6756.95 6324.23 3843.58 4270.53 5191.63 4150.99 4216.92 4742.68 4344.58 5634.83 6268.1 4861.06 5320.28 6739.08 4797.52 4796.58 4298.67 5960.66 6608.73 5820.48 7034.11 5113.21 3929.19 4107.03 4043.57 4478.15 5681.38 5925.6 4501.51 5513.6 4736.58 4931.38 6082.81 4329.05 4151.94 4049.23 5337.48 6124.89 4929.8 5708.81 5252.48 4780.03 5495.39 3996.0 3856.1 4665.12 3383.4 4133.88 4094.62 4834.9 5546.39 5325.36 5484.83 5085.53 5351.6 2356.98 4998.37 4715.55 5492.18 3951.75 5061.3 3642.12 3163.97 5542.27 5122.66 5484.19 5254.28 4688.68 4436.4 5733.48 4517.56 4672.91 4182.53 5903.42 3588.44 5645.7 5176.86 4366.19 3672.51 6110.27 5561.06 5073.35 3615.22 5670.04 4380.59 3589.27 3997.1 3607.45 3260.67 5759.91 3038.33 4333.2 4951.03 7199.21 6037.08 4523.7 2240.39 5091.39 5293.9 4129.43 6142.94 3320.52 4727.24 4602.25 4194.5 5082.47 5344.25 5445.87 4593.7 4704.72 4177.94 4571.7 5896.46 5495.84 3784.5 6481.79 5374.51 7042.12 6326.39 4569.12 5873.69 4962.09 3999.48 5011.84 4359.62 6261.42 4502.5 5433.8 3771.48 5499.11 4271.69 4138.42 3708.04 3240.09 4556.36 4901.41 3191.99 4685.34 4382.74 5601.05 4651.28 3586.91 3103.0 3554.9 5481.78 4015.92 5542.21 4487.31 3936.02 5043.05 4044.71 5980.74 5109.54 4927.02 5945.65 6759.9 5538.89 4730.36 5867.73 6059.59 5013.56 5701.86 4499.64 4375.68 4238.81 4468.59 5054.98 6030.06 5170.02 3557.27 5200.76 4927.31 4862.64 4402.52 5185.34 4432.58 6684.56 3968.64 3955.56 3761.32 4118.05 5292.64 6166.5 5553.16 2938.66 5936.02 4940.78 4231.61 4861.08 4008.92 4003.05 3942.53 3379.84 4805.87 4827.82 5227.21 5697.78 5123.52 4091.31 4392.68 6372.62 4295.38 7565.34 5923.5 4612.68 4973.83 3912.37 6691.39 4790.08 5135.69 4763.45 5344.0 6045.46 3815.26 4245.72 5908.1 6048.7 6133.92 5022.8 3780.23 4166.08 4123.6 5224.12 4819.73 4471.58 6098.14 4472.17 4203.26 5188.81 6946.21 2586.12 6057.22 4011.77 4527.08 3633.87 5922.5 5198.77 3970.25 5987.17 6013.14 2765.2 5011.31 5138.31 5110.37 5664.98 5927.43 6355.42 3693.63 4384.42 4362.19 4516.43 5690.56 4948.92 5637.59 4937.14 3307.12 5816.2 5693.81 4002.16 4174.52 6483.19 3829.13 6230.49 5418.62 7021.47 5416.38 5740.68 5926.61 4955.55 2720.68 3563.63 5836.15 4345.55 6704.06 5885.03 3653.41 2837.58 3871.88 5325.02 5246.2 5017.13 5279.39 3673.74 5205.43 7447.37 4688.67 2635.86 4385.06 5065.13 5305.17 4290.3 5399.73 5390.22 3888.21 4712.33 6038.78 4667.36 4254.17 5090.24 5615.42 5530.87 4281.49 6342.25 4187.56 4840.84 4301.06 4020.32 4290.14 4156.38 5316.75 4541.21 4164.68 3719.84 4178.4 3095.48 5624.49 5762.59 4850.14 5163.55 3382.7 3954.91 6817.32 4319.79 6643.85 3637.61 6222.42 5654.31 4730.41 3745.84 5690.26 5062.71 4156.2 6125.34 5965.78 5347.48 4850.01 4810.12 5643.58 5147.67 3979.82 4292.06 5577.04 5006.58 5264.06 4602.86 4659.59 6327.9 4048.37 5492.26 5244.78 5762.84 3115.91 3937.74 4493.48 6084.86 5924.89 4778.34 4138.16 6894.71 3486.22 4684.5 3091.3 6458.82 4601.27 5493.32 3641.64 4277.89 6051.14 3261.21 4195.44 5539.32 6496.85 5600.93 3856.01 5541.59 4390.66 4124.71 5728.85 4827.23 4911.47 6116.18 4924.6 4381.97 6257.19 4733.32 7184.19 2899.43 2812.98 2924.37 3867.67 4695.45 4660.72 6052.7 3921.18 5891.05 5308.1 6902.81 6644.76 5629.19 5655.21 4786.6 4645.41 5740.84 6445.94 4310.18 5542.14 4218.06 7134.64 5978.9 4716.19 3629.62 5514.76 4997.27 3456.98 4877.67 3066.13 6562.18 6006.16 6009.88 7055.53 5669.65 5934.22 5339.78 4970.88 7092.87 4666.81 3703.1 6471.55 2965.01 5499.39 5501.93 5463.38 4938.74 5696.88 5607.14 4497.59 3923.03 5975.63 4374.35 6396.74 5215.05 2775.04 3821.72 4986.77 5586.81 3688.8 4621.75 4548.16 3369.23 4551.24 5449.18 4220.88 4515.71 6519.71 6640.13 4749.8 5082.6 5478.92 5551.36 5094.44 4467.94 4414.54 4850.81 5789.98 6138.47 7054.71 5489.43 5573.7 5747.75 4727.62 5054.25 4796.33 4055.8 7325.81 5280.17 5360.19 4794.96 4874.39 5083.08 6337.56 5525.39 5803.39 5863.59 4024.3 3255.82 5555.28 5242.73 4737.14 4065.69 5603.15 5556.96 3798.62 5581.75 6392.01 3666.57 4907.89 4937.02 4073.93 6043.3 5952.75 4433.59 4320.28 6122.55 2739.94 4931.53 5480.13 6308.71 6695.82 6405.76 3498.2 5105.16 5448.61 4302.5 5050.65 4827.33 5513.57 5013.67 5826.04 4538.95 4143.78 4763.66 4636.5 4940.42 4946.42 5923.4 5085.71 6116.33 5644.82 6343.14 5945.21 5750.71 4831.47 4643.85 4004.04 5252.34 5564.02 4138.46 4274.61 2965.79 6898.19 6035.6 6318.18 4481.53 3948.17 5330.45 4581.13 5358.59 3610.4 6387.01 5367.52 3092.35 5210.03 5810.84 4230.54 5351.39 3748.24 6142.37 4655.49 4933.21 5375.47 6038.14 2540.31 6029.66 5527.54 5697.4 6038.2 4270.95 5206.78 6425.26 5143.58 6186.19 4839.34 2980.99 6834.49 7933.0 4455.12 3998.5 5938.34 5380.13 6394.38 5118.27 5169.36 5932.23 4686.65 5834.74 4479.66 5788.23 3043.85 3599.45 6730.19 4907.06 5489.34 3735.44 5163.9 6332.36 6155.31 4223.33 5911.67 3323.28 5835.78 5794.24 4127.74 2476.04 4678.38 3942.07 7443.72 3937.08 5260.34 5206.48 5729.23 5226.0 3365.82 5724.64 5965.15 4780.2 6090.91 4963.34 5019.93 5081.78 6263.44 5774.97 5462.21 5470.77 3474.39 6062.05 4289.17 6072.45 4410.55 5137.34 5423.0 3856.59 4219.07 5413.79 6202.55 4322.15 5025.39 4714.54 3629.96 5478.47 3320.11 6022.17 5119.37 6061.47 6163.38 4566.18 4723.12 5120.49 5201.36 5262.61 6302.8 5409.61 5094.81 4005.44 5972.06 5713.22 5555.88 6732.43 5028.96 3866.16 6362.12 4484.76 3778.1 4840.01 5152.36 4511.82 5611.2 5173.87 4894.16 4896.52 5711.87 3372.79 4941.22 5791.61 3369.13 4669.66 4808.52 5367.2 5607.24 5461.13 4726.76 5053.92 5839.13 5495.68 4863.72 5002.48 5708.14 5537.72 3920.42 8332.24 4553.56 5329.64 6049.55 5709.62 5991.09 5133.97 6600.94 5371.02 6155.1 4709.35 6586.45 4373.3 4750.78 5029.78 4163.5 4888.6 5078.86 4918.77 5100.1 3561.29 4219.78 3295.83 3885.86 4459.28 4260.92 4479.94 6250.23 5960.56 4118.84 4020.95 5862.86 6313.06 3493.7 6470.3 4200.03 6939.12 5082.74 6915.83 5092.37 6444.77 7099.43 5526.14 4287.63 5198.29 5077.33 4746.52 3689.45 5572.95 6338.89 5584.06 7111.16 5893.5 4547.19 3817.13 5030.91 3982.23 4583.31 5806.08 3459.9 4853.39 4997.27 4964.09 4093.08 4809.42 5024.9 4306.53 4717.05 5659.17 4312.67 5861.71 4359.04 3183.98 3794.63 5017.78 4524.28 6175.81 4727.24 6677.09 5826.64 4220.65 6820.42 4816.2 6321.41 4089.76 4751.02 3192.41 5184.56 5282.64 4987.87 4715.72 3315.57 5804.71 5046.33 4764.96 4242.52 5356.51 6352.26 3847.38 3818.59 4087.15 4143.08 7500.97 6623.85 4262.82 5228.18 5102.36 4342.9 5065.11 5069.84 4051.44 4978.31 4241.89 5054.74 5941.72 4656.78 5126.91 3600.43 4788.58 5131.24 5196.67 5876.71 6262.72 3664.11 6515.84 2990.77 5882.65 4739.14 5187.7 4371.99 4188.3 5235.29 4255.31 5453.3 6413.02 4863.27 3492.19 5122.63 6049.79 5374.98 4719.7 4735.33 4406.4 5411.85 4844.57 4027.46 6314.07 5776.37 5315.4 4516.28 6449.45 3975.31 4044.45 3824.16 5125.78 3868.18 4373.47 5045.38 6723.16 5372.61 3686.21 6480.17 5507.24 5023.15 6851.54 4503.89 4336.42 5243.29 7589.94 4449.22 5543.27 5287.2 6135.57 5998.38 5013.13 5423.8 4270.24 3417.33 4989.15 4926.42 4164.13 5015.69 4947.52 4305.57 6959.81 4829.35 4389.21 5201.67 3791.79 4424.7 4925.44 4754.05 5526.55 6084.93 5215.15 3697.96 4739.42 5538.93 5020.12 5727.3 2631.9 5281.28 4277.88 3057.03 4758.21 7228.46 3948.23 5978.82 5787.31 3927.99 5868.82 4050.9 4948.98 4099.77 4414.48 5227.52 4537.32 4981.9 5163.02 4906.82 5687.83 5004.23 6496.67 5474.8 6607.87 5117.47 4721.32 4925.63 3293.56 5274.14 4434.19 4903.82 5746.28 4623.61 5511.6 6261.75 5177.64 4378.3 6134.99 4094.73 4407.9 4584.5 4440.57 5548.29 4703.08 2315.64 6345.13 5274.19 5516.95 5313.22 4413.85 3999.94 4470.98 4864.22 3921.08 4190.31 3627.82 5678.96 5262.19 4244.9 5344.43 6070.58 5350.88 5130.91 5402.24 6445.22 4377.07 3844.9 3813.22 5101.59 3963.86 5570.3 3848.93 4306.11 5935.47 3130.65 5628.24 5004.67 5856.11 3327.49 5992.26 4109.88 4234.94 3960.8 4562.29 4980.85 5080.66 5110.45 5248.77 4642.34 4083.97 4520.1 5153.74 5874.89 4528.09 4293.03 5813.4 4128.98 6246.22 4951.47 5246.61 4307.28 4100.38 5344.77 4723.48 4899.11 4745.45 4278.07 7267.18 6255.18 4668.71 5269.18 4406.1 6362.14 6719.88 4454.63 5080.18 5266.5 4523.88 3279.1 4066.38 4403.98 4560.84 4729.43 4092.24 4562.74 7144.24 5598.74 7493.3 6442.69 6320.71 4648.04 3464.83 6413.11 4305.16 3163.78 5092.28 4965.89 5659.95 4152.85 4082.47 4453.64 4338.08 4517.73 5469.47 4989.56 4718.54 2588.37 6736.03 6766.43 5916.16 4390.41 5226.56 5599.49 4097.57 3905.51 5017.5 5563.79 3901.8 6171.13 5759.46 5083.41 7055.42 6048.86 4285.32 5490.43 6034.41 5452.83 4959.34 4948.5 4519.22 4527.02 3695.36 4564.34 4871.44 5076.35 6020.48 3402.32 5200.05 5903.66 4528.49 5365.89 5419.37 4466.03 4511.54 5070.39 4923.9 5714.58 3329.99 5208.32 3947.47 3296.27 4713.25 4607.02 4204.84 6243.0 3895.51 4165.81 3556.85 5441.96 6291.51 3435.9 5174.89 5882.89 5370.52 4188.32 4652.29 5774.81 3746.31 5027.98 5097.87 6475.1 4969.21 2691.29 6256.02 5320.92 5314.85 4305.43 5450.44 5034.59 4942.77 4263.33 5912.61 5381.16 6193.35 6086.96 5233.78 5776.57 5046.21 5683.26 5894.61 5139.5 5944.09 4814.55 3527.05 5698.77 2477.07 4497.31 5529.42 5257.12 5243.43 4537.14 5551.9 2908.7 3757.34 6415.61 4687.64 4419.71 5660.16 3838.47 4541.8 5175.29 6235.57 3623.87 5412.31 3087.09 6934.37 6113.95 4050.08 5452.42 5328.22 2395.5 5511.88 4512.11 5486.68 5683.61 5100.25 5022.28 5197.52 5178.99 5383.07 4531.14 4591.87 5013.42 3838.56 6552.22 5651.07 6248.81 6375.99 5273.35 5234.29 5313.66 2651.49 5512.23 5275.32 5409.33 4898.94 5196.0 4613.31 4973.78 4733.04 6119.09 5091.68 7531.29 5069.25 5048.89 6673.96 3161.47 3991.03 6390.78 7435.25 4288.3 6826.57 4788.87 4495.87 6022.72 5498.32 5527.33 5346.27 5402.21 4989.09 2845.98 4880.14 5289.52 3848.54 5941.4 6510.17 5742.65 5592.32 4402.67 4470.61 5565.13 4384.88 6887.27 3701.27 5653.9 4806.34 5612.21 4929.14 3979.54 5304.13 3306.14 5490.58 5833.06 4863.79 4923.41 3830.46 6031.67 5384.76 6138.12 4428.78 4345.67 4765.72 4642.66 4752.14 5329.59 4888.12 5037.06 5512.16 3197.63 5842.56 5887.15 7480.41 3423.15 4890.5 3981.07 3731.84 4901.07 5186.3 6853.85 3497.9 4151.76 5941.61 4020.4 5782.48 3493.47 6248.6 3836.45 5443.58 4558.46 5805.86 6894.26 4470.4 4986.51 5339.38 6169.11 5615.35 4790.78 6422.84 4247.15 4502.18 5379.09 4602.85 5872.05 4853.02 4091.8 4645.58 5181.4 5670.2 5985.29 4247.23 4178.15 4268.65 4694.83 5509.42 4354.08 5788.66 5936.36 4520.62 3903.75 4755.47 5935.03 5475.8 5314.69 4249.46 5965.81 3702.37 5660.85 4643.31 2330.66 4177.19 6917.52 3587.05 6229.37 6718.19 4982.31 5282.91 4307.48 4425.84 7256.35 5331.02 4871.96 4863.23 3555.86 6386.78 4631.83 4996.99 6081.14 6008.49 4220.46 4287.53 5945.08 3169.67 4968.03 5395.14 4702.06 3967.48 6213.04 4689.15 3685.13 4655.16 5409.66 3867.19 5857.79 4039.91 5276.7 5036.58 6119.63 4950.97 4752.9 4287.16 4863.96 5191.08 5203.08 5374.07 5163.77 4588.7 4488.85 3766.55 4579.69 3554.48 6496.52 3436.15 5005.85 4216.17 6484.17 4721.02 4596.75 4254.37 4933.65 4031.78 6098.1 5708.99 4049.02 5346.68 5311.03 5255.12 4896.11 4285.66 4027.09 5172.53 5801.99 5210.48 4962.77 7552.94 6259.23 5088.44 4998.21 4711.62 4662.56 4114.24 5349.31 4649.22 5394.55 5094.52 4256.43 4946.74 2682.24 5928.32 5229.48 5475.7 4485.99 4016.18 5127.16 5435.74 4244.99 6050.81 5543.46 6185.89 3997.96 4750.17 3460.94 3990.25 3691.0 4752.51 4236.14 4407.87 5282.51 3797.33 5945.89 4105.55 4800.69 6566.1 6065.22 4456.39 4896.39 3633.79 5421.53 5480.83 4607.85 6070.3 5128.57 6000.7 5233.29 5604.21 5204.04 3361.92 4750.58 6710.88 6667.68 5235.11 6622.11 5211.38 4590.55 6790.73 5920.32 5251.4 5097.69 3988.3 6543.13 5149.72 5464.25 5411.02 5301.47 4617.55 5199.44 5424.88 4062.5 5415.85 4435.51 5683.95 6027.62 5010.2 6123.03 5966.61 5711.11 4938.72 3374.08 3546.71 5768.57 5564.23 5950.04 5687.85 2435.33 5296.29 4611.53 2681.29 5094.48 3872.61 4238.4 4135.62 4318.48 6132.95 5534.94 4860.33 7644.38 4051.34 6101.92 5323.3 3627.55 4635.6 4256.67 3457.48 5166.79 3931.07 2976.22 3405.98 5417.15 3688.16 4681.72 4945.39 5996.33 3950.63 5415.19 4612.62 3619.07 5526.75 4275.57 6385.23 5327.45 2983.99 5560.26 2614.4 6363.92 6205.93 4439.35 5830.72 6184.4 3758.07 3828.81 4373.45 4082.57 5733.62 5169.9 4460.92 3004.16 4767.78 4042.28 5235.17 4421.12 4779.5 4340.76 5254.49 4221.28 4303.19 5514.84 3914.2 5937.08 4135.08 5620.74 4778.82 4312.56 4612.06 5467.84 5053.95 5926.11 5767.9 5089.62 5869.4 4741.26 4186.6 4255.85 5895.77 4732.09 6136.49 4356.25 4216.95 5776.96 5742.74 5486.48 4947.24 3645.12 6200.54 5148.58 4199.45 8659.64 5469.13 4233.8 5765.42 4997.83 4893.49 4575.94 5325.44 5021.88 5956.65 4498.25 4188.87 3735.24 4231.83 6401.43 4074.48 4558.47 5020.71 5997.88 5839.71 5576.92 6408.83 5266.22 3930.79 5226.97 3685.13 3312.06 6004.68 3361.26 6799.4 6239.84 5865.39 4427.28 6079.11 6430.39 7440.72 3949.6 5703.6 6326.18 5661.62 6631.19 6648.68 4467.04 4713.74 5626.61 5817.25 4084.49 5061.98 6632.99 4537.6 4923.24 4419.61 7177.44 4563.46 5309.98 6553.94 5255.18 5460.65 5652.0 5463.41 5225.33 4929.75 4435.36 6649.96 5134.39 5784.3 5769.98 4256.57 5442.32 6088.68 2221.99 4643.56 4863.01 5356.79 5657.36 6124.08 5029.47 6306.21 5266.01 5253.37 2040.66 7016.27 6515.8 3876.21 3685.65 3701.16 4916.22 6022.7 5750.07 4809.67 4757.74 6045.67 4209.49 3946.28 3821.94 4244.21 5439.9 5367.73 3875.05 3540.11 3456.47 4652.01 7234.66 6599.66 4055.54 4976.12 6098.95 5453.98 3991.42 4388.63 5102.75 4200.09 4597.29 5931.77 5151.21 6574.95 6333.29 4477.04 5731.57 5703.74 5662.55 5737.92 5365.24 4004.35 4763.96 5754.18 5180.76 3418.99 4480.95 5278.36 4409.63 5521.25 3661.9 3082.32 5370.85 5949.46 3658.37 3178.54 5376.71 4448.13 5070.29 4807.28 4867.08 4266.03 5280.69 4220.03 6923.84 5407.78 5449.46 6179.96 6113.54 5147.36 6260.79 3963.76 5528.53 6799.88 3062.43 5726.66 5426.78 2967.38 4159.35 6477.91 4237.98 6439.37 6045.22 4614.3 3532.3 5580.92 5973.33 5067.46 3583.21 2511.46 3580.58 4011.37 2775.69 4785.25 3619.79 5876.64 5424.46 4857.84 2978.76 4908.49 4962.21 5884.9 4673.35 5689.26 4992.42 4940.84 4351.38 4833.46 5933.7 7248.4 5280.12 5984.81 3498.16 4409.27 4640.06 5471.74 5421.64 3548.39 3673.28 4858.51 4207.54 4886.12 6419.12 6107.89 4817.16 5660.55 5148.08 4834.87 5760.22 3672.21 5938.17 4795.43 5398.64 5097.95 6817.57 4693.52 3614.96 3886.68 6853.04 4745.43 5831.96 4747.55 4360.23 3056.7 3755.95 6234.32 5293.51 4446.06 3450.93 5008.63 5132.68 6595.03 4993.35 4558.15 6218.95 5222.16 5107.23 5136.08 3776.94 5558.68 4765.02 4010.57 5629.39 2684.03 6157.04 4768.61 2261.36 5075.55 4522.21 5506.19 6719.94 4950.67 5227.59 6166.29 5453.6 5703.07 5294.77 4662.43 4709.05 4630.82 4043.66 4813.08 4540.86 5990.52 4835.83 5604.35 6316.56 4332.87 3091.67 6420.81 4081.97 5401.99 5151.52 4347.74 4009.62 5291.9 2081.58 6505.78 5461.55 6519.43 6449.64 4684.44 4749.59 4858.44 3468.42 3809.69 5571.72 4771.13 7051.9 5297.19 4184.23 5550.75 6226.14 5466.33 4444.97 5721.05 4247.69 4514.39 4588.99 4321.21 4344.34 4928.27 3583.49 5052.84 3375.28 4366.74 5625.65 4301.61 3184.64 4446.84 5530.49 3718.69 4514.79 2216.82 4509.89 6752.75 5269.38 5607.3 5108.06 3573.73 2928.82 4222.4 4000.43 3420.08 4912.04 4539.07 5464.68 5591.76 4586.19 4585.31 6625.18 5323.91 4270.74 6293.89 2761.07 4983.39 5366.52 4690.55 5533.72 5533.42 4802.32 3678.08 4599.38 5246.47 4187.31 6191.29 3240.51 7422.36 5161.01 4298.15 4628.4 5832.37 6051.83 4642.93 5409.63 4263.16 3973.12 3077.84 6024.75 6109.49 5567.93 5860.67 5332.65 3764.1 6451.33 5413.31 6400.08 4743.59 5208.14 4715.58 3317.83 4450.7 3763.05 5092.24 5369.08 3101.75 4518.04 4766.06 4874.18 5435.19 3298.2 4270.15 6865.76 4093.99 6464.8 4406.05 4680.94 5799.69 5876.72 5236.43 3208.96 5285.07 4608.41 4144.57 4187.94 5980.59 6834.41 3796.15 4801.8 3000.29 7216.98 5271.02 4209.31 5718.28 6242.79 5950.45 5713.03 5849.65 5134.67 4165.21 5297.16 4936.96 5206.33 4481.76 5452.78 5653.03 5065.26 4304.41 6192.0 4940.28 5885.28 3004.34 3022.6 4914.45 4811.76 4698.87 4568.41 4661.03 3624.7 4691.91 5262.35 4475.83 2685.81 4510.8 5889.35 5010.04 4394.56 4570.98 5097.45 4275.07 5825.38 4185.61 5737.75 4047.87 5742.47 3778.02 6552.21 5417.8 5146.37 7132.12 4836.16 5518.57 5151.11 5463.48 5730.33 5545.46 4527.99 4376.7 5190.61 8325.01 3764.06 4440.81 5941.9 5434.47 6642.76 5829.22 4497.78 4243.79 5987.42 5433.65 4442.22 4887.76 4669.06 3012.99 4811.32 4286.49 6184.88 5829.32 4396.25 5551.95 5549.49 3918.87 5423.42 2275.45 6605.86 5012.5 4383.56 3562.79 7093.13 4953.1 5818.95 3604.14 3940.49 4452.54 5089.1 2711.19 5828.35 4028.32 4099.92 4884.59 3858.06 4680.14 4083.79 5263.27 6300.92 5021.77 5599.29 6038.68 4807.4 7013.17 3805.67 4601.74 6506.86 5088.57 5580.34 3852.6 5775.31 4215.0 4706.5 4603.5 4647.67 4356.36 4892.44 5578.94 7610.49 4286.17 6579.31 5323.55 5375.1 4172.6 5313.12 5351.56 5160.59 3984.88 4732.09 4320.42 4255.34 5064.79 5480.3 7509.24 4146.81 5896.26 5388.78 6101.13 4573.72 5099.21 4917.99 5636.4 4367.78 4350.12 5227.02 5670.0 4232.16 5300.96 4344.51 5680.94 3781.77 5581.55 5193.01 4543.1 3474.5 6550.44 3860.83 5732.27 4523.39 5278.56 5146.37 6917.62 4013.38 5631.14 4343.78 5811.18 4909.65 4008.15 6523.86 7693.4 4326.48 4437.07 3449.37 5491.9 6405.0 4659.16 5789.55 4633.05 4901.2 5711.62 4990.79 4798.17 5166.79 6479.39 2895.63 4516.53 4122.92 4997.91 5079.22 5381.54 5810.77 5474.15 7519.2 6355.68 4511.7 4478.6 3953.55 4304.63 4469.54 4314.56 4173.54 3928.53 5606.51 5046.12 3834.47 6349.67 4590.01 6101.86 5993.0 4803.57 5966.42 4110.59 3332.49 5354.66 4214.44 5375.12 4787.97 3746.36 6789.23 3989.7 4777.03 3684.56 4246.61 6028.09 5452.36 3804.5 6486.37 5498.42 5318.53 3344.57 5220.76 4281.98 7165.9 5344.83 7046.11 3427.63 4863.97 6342.48 5756.75 5599.7 6969.28 3665.95 5698.96 4095.75 3603.51 4298.45 5222.51 6609.84 5135.96 3834.43 5658.37 4707.06 6074.94 5491.37 4250.88 3783.54 6348.03 3475.67 4792.39 7038.89 4814.12 5067.56 6137.8 2735.53 5263.3 3352.35 3747.03 2783.85 4356.49 3994.07 4219.94 5907.46 4264.91 5399.29 4909.31 5971.22 6522.59 3568.28 5425.98 5996.66 4405.42 2995.67 3598.08 4599.81 5698.23 7300.58 4714.83 3608.06 6633.61 4867.7 5484.36 4277.24 4063.9 5291.05 5161.1 4619.2 5166.41 5740.65 5067.56 6329.53 4139.3 6541.45 4227.41 4750.49 5078.31 5391.48 4923.43 5131.15 4847.14 3950.27 5116.66 5378.23 3566.79 5374.67 4981.43 5069.89 4215.2 4157.29 6813.72 5327.75 4609.02 4638.18 4196.37 6448.66 4453.97 6945.98 5138.2 5783.48 4449.98 4504.35 4771.65 4840.44 5093.82 4587.67 5951.81 4163.74 3924.14 4296.69 6238.32 3319.67 6471.42 5283.8 4076.59 4428.14 5164.1 6464.15 4479.11 4972.17 6685.4 5699.53 4222.77 6332.01 5268.38 5527.23 4805.33 3863.67 5980.95 6193.08 6069.3 5887.01 5116.6 5388.39 5335.47 5633.61 4526.81 5048.19 6799.23 4888.27 6740.71 6487.56 4854.11 5533.19 5417.21 6602.43 5583.61 6063.64 7382.3 5522.21 3772.3 4855.01 4923.57 3340.09 5217.95 2279.05 4829.35 4075.28 8137.11 5484.32 6650.77 4067.96 7104.73 2596.96 6162.3 5701.75 3272.75 4350.15 4264.54 3516.27 4263.78 4643.9 5228.75 6047.14 5009.83 5210.38 5717.8 3629.44 5003.78 3299.24 6246.56 4741.28 4061.6 2603.64 5107.0 6212.15 4783.07 4896.65 4946.23 6083.28 5211.6 3556.79 5806.31 3503.41 7317.04 4701.5 7001.83 5012.97 5589.37 5439.49 6918.35 4834.3 6804.79 6372.13 5369.5 5404.01 6016.19 4124.49 3230.13 5714.25 5325.96 4850.06 7044.29 4234.18 4049.16 7085.01 3936.95 6153.94 6836.82 3862.77 4631.99 5168.35 3185.39 5128.77 3728.18 7122.87 5797.36 4243.26 4153.84 5119.86 4592.15 5084.17 4901.44 4998.22 5096.43 6156.21 6104.26 4653.83 6171.71 4986.71 4668.88 4022.56 5027.43 5522.75 5867.64 6208.9 6059.93 5602.53 6061.63 6545.43 6760.92 4711.04 4506.18 4824.12 4383.47 5971.21 7043.44 6502.97 4852.58 5456.71 6412.67 4036.91 6639.64 5212.43 5454.12 6348.54 4066.57 5642.35 4206.98 5156.76 6357.47 6101.57 4891.38 5535.91 5955.86 6176.67 4848.46 5412.24 5016.02 2779.99 5887.38 4920.21 4581.37 6942.34 5851.61 5478.11 5526.31 3858.17 5030.15 4740.98 5089.26 3776.8 2460.79 3628.89 6589.82 4438.58 5073.02 3472.91 4989.2 7144.05 2970.9 6542.5 6318.23 4058.87 5174.75 5932.07 4984.46 5948.71 4793.65 2949.12 3856.53 4532.89 5460.89 4533.37 5260.85 5742.09 2884.65 5807.46 4648.21 3658.05 4393.16 4549.69 6423.81 6192.77 6413.15 6103.11 5048.55 6459.51 4024.31 4955.16 5844.72 3992.97 5989.05 6040.74 4054.22 7228.94 5393.65 4961.99 6551.93 4595.12 3311.29 3110.13 6484.43 4625.67 3485.54 6735.97 5305.59 5416.45 4330.58 5754.6 3288.01 4904.51 4147.31 2202.77 5751.15 5950.88 4149.55 4441.22 5853.89 3380.69 4140.4 4386.8 5446.4 4725.01 5966.75 3104.96 5244.78 3636.15 6114.89 5135.63 6384.7 4355.83 6870.97 5351.86 6056.87 5474.01 6201.86 7554.58 5166.89 3639.44 4731.21 5491.63 5725.37 3868.62 5138.33 3477.1 4729.42 5216.26 4844.83 5377.37 5652.87 5483.7 5018.69 3152.86 5952.38 3896.27 5807.52 5963.36 5230.02 5307.35 4342.18 5169.48 6016.08 3124.7 6064.71 6102.98 5096.24 5769.14 3381.82 4831.93 4023.93 5494.28 5493.89 5261.19 4811.22 4918.76 4208.41 5826.78 3758.22 4268.19 4788.08 6379.14 3687.65 5478.95 4749.96 4658.24 5869.67 4311.48 4899.73 5457.66 6394.19 5973.89 5366.22 6193.73 5518.11 5087.14 5712.35 5701.52 4743.9 6776.22 5321.17 3719.11 4467.13 6060.17 5934.82 4501.78 5415.45 4385.81 6592.93 6350.71 7107.63 5868.89 4099.26 5206.47 4834.39 3831.52 6106.43 6761.81 5467.63 2856.55 6214.73 4553.68 4532.7 3205.68 5561.74 6100.73 4908.75 6556.26 3971.08 4593.7 4349.13 6818.91 3503.65 3634.5 3851.85 4019.34 4869.48 3623.19 4906.11 4387.39 4564.1 5825.55 5509.51 4848.14 3199.4 4316.5 5254.24 3742.11 4192.21 3597.43 5144.56 4158.91 5311.55 3360.86 3034.16 4869.25 5545.21 3877.8 6418.11 4922.49 3572.94 5001.58 6456.58 5039.12 4824.81 7307.21 5135.5 5615.84 5788.97 3274.85 5007.21 5545.59 4580.06 4835.97 4057.17 7066.96 4587.7 4263.65 5644.81 5666.95 4127.53 4642.2 5210.75 5175.89 5361.87 5232.85 4374.74 5975.23 6816.66 4473.29 4745.79 6204.65 4482.9 6550.4 5513.8 4887.52 5350.88 4392.65 5429.3 5510.96 6653.07 4745.16 4697.91 4584.81 5071.98 5719.79 4371.08 7261.51 4968.14 4914.03 5086.29 5527.13 5139.18 4278.57 5551.43 5049.99 4201.03 4333.87 4458.64 5001.87 4312.15 3657.69 4078.93 6015.02 4820.17 5244.98 3814.65 3886.72 4034.05 5798.38 6436.74 5366.11 3419.87 4384.28 3908.98 5944.3 5113.6 6328.42 5640.72 3619.72 4565.93 4504.52 4464.73 6440.38 5610.53 6419.64 5262.47 4991.35 5196.92 4807.35 4568.64 5750.35 6555.44 5293.75 6358.93 2205.51 3894.64 3703.49 5144.44 4757.2 5034.69 5079.64 4211.82 5470.04 4891.67 4882.66 6631.28 6571.31 4944.51 5603.68 5610.95 5532.72 3220.8 5179.17 5579.39 5270.51 5148.1 5490.75 5224.64 5949.73 4312.48 6370.33 5081.08 6318.25 6864.06 3644.78 5510.9 4883.63 7039.98 6006.89 7778.01 5127.82 5690.96 5805.1 3862.91 4456.26 4027.33 4810.98 3563.14 5851.63 5556.0 4954.81 5755.15 4608.34 3926.11 5464.83 5414.58 2781.96 3512.94 4467.0 4994.65 5601.55 5334.36 3919.62 4929.6 4489.99 3683.86 5658.14 5473.72 7124.45 2617.39 4062.56 4198.94 3217.67 6163.54 6003.78 5684.25 5438.92 3766.69 5110.11 5188.53 4521.75 4813.33 4027.63 5635.32 4526.34 4316.45 5409.08 5042.75 4598.92 5241.22 6647.08 4979.52 3422.29 4407.79 5214.63 3495.68 5783.94 5352.24 7362.42 4202.77 5836.14 5473.05 6008.81 4583.52 4505.28 3492.83 6280.13 5244.22 5585.14 4960.64 5792.98 4983.3 5910.86 6239.68 4456.11 5782.43 4708.31 5026.76 5091.22 6282.38 5727.79 5212.92 5043.14 5748.9 3742.31 5695.79 4420.6 3622.8 4431.23 4258.98 6545.99 3903.91 4368.28 4945.0 4548.45 4658.11 5730.61 5114.07 4508.18 5064.67 3717.47 4504.86 5969.37 4928.35 4509.46 3844.54 5212.37 3538.53 996.652 6500.49 5965.58 5058.51 4244.49 4050.03 5036.98 4120.07 3840.21 5569.2 6746.66 5420.67 5661.6 4827.61 5285.75 5481.64 5673.75 5360.67 5968.54 6263.3 4501.05 4537.03 6548.29 3990.96 4114.2 4326.06 5034.46 5757.29 5793.12 5469.17 5061.75 4373.2 6711.21 4971.29 5832.29 2606.51 4438.76 5401.4 5053.15 5124.17 5749.6 7320.78 4234.88 4834.44 3873.92 4092.07 5347.9 5657.55 5188.82 4717.73 4928.85 5072.5 4749.18 3663.0 4546.96 4316.0 6304.49 5134.72 4475.38 5287.25 5917.34 5740.98 5630.9 4728.55 4554.68 4551.26 7142.95 4559.74 4383.68 6618.21 6666.67 6200.63 4583.94 1937.5 5046.31 4337.32 2628.22 3352.34 4901.29 4952.52 3429.57 5410.33 3242.31 6099.28 5372.25 5385.03 4169.15 3234.26 4778.37 5134.17 4074.16 4904.35 5592.54 3247.97 5124.34 4904.37 4358.81 4651.64 5729.92 5016.46 6224.13 4761.84 3769.24 3661.67 3743.76 5153.18 3425.69 5510.45 3864.92 6119.99 4159.81 4446.58 5372.82 4402.17 4775.49 4681.29 3845.9 4174.44 6331.74 4213.05 4224.3 5235.87 3904.07 6502.99 5424.55 4921.1 4770.51 6511.37 3787.08 4462.87 4218.16 6139.64 4140.92 4474.83 4585.04 6570.35 4242.63 7407.91 6063.44 4051.18 5849.53 4680.69 4420.11 5863.0 4802.98 4833.55 7224.99 4898.29 4431.06 5730.2 4830.13 3494.16 5370.9 4529.77 4325.13 6172.27 5390.33 5078.73 5278.54 5729.0 5192.92 5275.57 4179.87 4786.66 5891.25 5370.1 5393.76 3684.15 4730.14 3994.39 5906.57 7541.76 4990.23 3784.94 5499.59 5667.51 4198.9 5431.29 4833.67 5325.91 5157.38 6203.03 4700.07 5273.37 4732.37 5713.36 5553.94 4704.92 4287.25 4392.75 3814.16 4191.01 5577.41 4216.44 3999.5 4012.92 4346.07 4933.49 4692.32 5236.24 3127.83 3269.54 5836.26 6015.22 6449.06 4651.99 6127.39 5640.12 4972.18 5329.76 4124.76 7200.89 3908.56 5265.63 5684.88 6523.78 4645.86 4045.67 5620.88 4941.52 5900.0 4262.74 6241.77 3783.79 4248.14 5317.19 5279.19 4016.6 5821.49 7050.08 5580.44 5998.13 5902.67 5454.11 4236.86 6010.59 7123.04 4128.1 4932.29 4506.66 4439.71 4141.21 4064.58 4646.51 4546.44 4184.21 6089.45 4985.3 3987.69 6219.34 4589.06 4920.88 4013.86 4177.47 4770.63 4385.49 6102.49 5114.23 6061.85 4826.52 5241.75 4731.53 3763.9 4577.73 4288.45 4147.49 5419.57 5760.98 4954.76 4642.74 5764.52 4390.64 5150.84 4608.01 5087.97 6005.95 4308.49 4930.17 4581.1 4085.96 4745.44 5762.82 7360.12 6223.98 5462.6 5617.29 3035.06 4262.19 4597.88 5095.52 4763.4 5806.61 2955.36 4618.73 3965.3 3220.29 4125.9 5426.4 5951.86 5023.41 3791.41 952.938 5702.4 5473.89 5265.21 4657.24 4966.07 4400.14 4666.12 2918.64 5345.73 4639.8 5678.58 4212.15 4263.18 5495.0 5512.44 4454.74 2904.46 5120.92 4685.4 4081.34 5384.86 3770.22 3402.44 4848.98 5184.98 4491.96 4467.51 5339.82 4519.03 5460.57 5110.27 5703.34 4612.68 6668.98 6649.52 4232.33 4939.56 4747.68 5770.92 3093.38 4878.93 2002.78 4941.02 5784.37 3682.35 3142.09 5182.13 6110.48 5515.73 6715.73 4564.41 5247.01 5853.12 4841.7 4678.7 5810.17 3450.07 4271.07 5674.63 5340.05 5759.79 4489.29 4301.93 4924.07 3200.6 4918.64 6206.98 6638.25 4775.04 5162.67 4636.53 3646.95 5537.61 6084.88 4199.44 4397.06 4053.12 4479.5 6261.67 3435.13 5065.78 4431.46 4521.42 3207.84 3977.98 6043.34 4128.93 4959.72 4712.17 4845.91 3808.04 4723.71 4461.67 5003.3 3756.96 3954.77 6793.1 6016.87 5209.55 6740.35 3306.84 3484.81 5308.33 6023.07 6710.14 4598.54 5218.42 4512.07 4896.43 4462.35 3986.41 5146.0 4788.7 5078.59 4607.18 2403.72 3228.27 4721.98 5252.82 3543.98 5056.26 5878.55 4014.44 6604.72 6002.77 3794.47 4610.55 4967.02 4614.49 5400.69 4462.5 5573.31 5004.68 4023.88 4405.61 5348.11 6273.6 3668.93 4009.24 6245.52 5077.29 3125.13 4550.92 6506.63 5995.4 5188.22 4841.23 4196.62 5984.8 3469.18 6347.72 6240.42 3956.24 6334.53 7558.99 4142.1 3393.59 5043.14 5333.04 5445.91 4521.99 4812.59 6842.54 7115.67 5675.45 3361.11 5329.84 6038.56 2807.46 5599.16 4179.8 3488.34 5658.35 5428.24 5684.05 4708.17 5167.53 5800.81 5166.05 7035.54 5866.91 4208.37 6019.35 6075.99 5191.26 4184.47 2804.54 3372.95 5819.0 3460.93 5117.64 5580.95 3549.92 6598.99 4032.06 5246.81 5089.1 5888.95 5394.78 3463.34 5122.38 2853.68 5262.85 4998.37 6559.82 3879.83 6565.95 4577.98 5043.34 5886.81 5136.87 2741.2 3779.45 6405.69 5763.05 5357.39 4252.18 6296.54 5797.21 3669.32 4762.1 5700.79 3825.48 5124.86 4629.02 4927.73 4705.68 5469.35 4313.38 5250.56 2468.16 3633.58 6294.14 4339.97 5203.75 5169.09 4691.15 2459.88 4210.24 5470.67 5901.71 5342.9 5225.11 5252.22 5733.12 4962.35 6436.29 7350.26 7145.73 4168.52 5233.76 4659.88 5685.74 3495.3 5890.25 2832.83 5827.3 6036.99 4084.87 3010.1 3825.98 4589.22 5087.03 4667.84 3906.41 5584.64 4123.08 4512.6 4260.38 4636.45 4932.27 5638.51 6793.49 3563.33 6060.19 5536.0 6786.37 5591.77 4556.19 5106.46 6562.92 3612.44 4140.04 5766.05 4474.96 4758.76 4790.63 5259.29 3584.05 4916.75 4818.53 5097.85 6189.04 6224.64 4221.03 3799.55 5082.66 4550.77 4337.93 3550.88 4345.51 4048.73 5813.79 4644.88 5790.42 4068.31 3671.06 4850.5 4683.28 4658.59 5532.75 6949.65 4608.62 5407.96 5367.05 4449.73 5647.11 4088.72 3945.62 3743.85 6236.46 5342.17 6379.3 5015.67 3795.63 5189.4 4576.71 6538.04 4894.15 6157.59 5201.3 5848.41 6223.33 4090.28 5024.32 4176.32 3185.09 3587.93 5064.23 5721.14 5084.5 4987.28 4071.75 6562.03 4246.83 4493.79 4932.56 4279.44 2945.34 5676.61 6006.16 3565.32 5638.7 3667.93 3487.31 5399.43 3835.81 4096.86 5710.33 4668.8 5322.11 4697.49 5735.08 4726.2 5034.05 4816.51 4711.15 4474.39 3810.68 6478.35 3990.94 4756.8 5477.8 5463.06 6069.78 5260.52 4241.68 4975.85 4095.83 5323.95 5846.95 5716.42 5268.15 5701.63 4603.04 4620.95 4870.94 5368.93 4488.39 6121.56 5914.5 4602.57 3419.07 3622.48 4796.12 5344.44 6432.8 4626.72 5131.77 5549.71 4815.47 4759.99 3899.7 5134.33 5214.4 2646.13 3629.49 5034.34 5695.44 3769.2 3422.21 3916.42 5537.34 5884.99 5192.49 4899.19 6643.4 5058.34 4028.22 5575.11 4983.1 5293.13 4507.36 6224.85 6406.8 5403.97 4795.08 5648.78 6875.73 5501.73 6081.3 4697.24 4983.43 5117.52 6311.89 6549.8 2820.07 5129.68 4825.73 5076.84 4165.36 5288.33 4871.77 5811.26 5062.77 4884.93 5069.9 6028.63 3673.6 4494.15 5146.1 6215.87 6485.77 6060.06 5866.42 5544.27 5393.43 6896.55 4685.65 5377.01 6470.23 5939.22 4271.93 4215.05 3626.86 5125.17 4604.1 6371.96 4859.01 5076.11 5524.45 7133.44 4426.02 5600.21 3953.26 4750.81 4282.11 5467.51 5459.92 2347.41 4625.53 5453.77 4096.47 4357.11 5114.67 2809.19 5005.6 4916.7 5486.89 5589.53 7208.19 4549.51 5025.42 5196.08 4517.29 6379.38 5695.25 6257.79 4495.75 4849.5 6171.01 6229.83 5796.26 4468.26 4523.81 5578.18 5106.33 5791.25 5293.37 5198.94 5271.88 4028.35 5933.54 5559.79 7168.2 2980.31 3763.85 3148.79 4571.74 5740.78 6824.53 5001.51 5997.91 4742.82 5385.86 5115.42 3186.07 4082.4 4209.0 4410.82 4369.86 4967.51 4368.12 5173.82 6443.99 4365.58 3889.98 5193.58 3720.7 5490.64 5698.53 3604.31 4507.46 4450.49 5036.14 3468.45 6022.78 4087.32 6647.85 5726.42 2569.12 4674.9 7025.09 3392.26 4433.12 3918.94 2549.95 5461.72 5487.63 3768.46 3852.82 5138.93 5099.9 6945.69 5118.86 7086.69 5368.66 4304.64 6170.9 5833.78 4436.48 5226.42 5758.98 5615.35 3967.76 5288.64 6213.24 6734.39 4217.36 5679.74 5942.45 4150.76 4851.18 4228.53 6123.46 5005.72 5368.52 6142.88 5155.28 5111.26 5205.38 5388.73 4764.83 1969.87 3132.34 4949.55 4600.71 3957.38 4841.28 5262.79 5927.2 6889.5 5035.71 4710.88 4419.79 5300.17 5407.69 3869.39 5152.78 5960.5 4896.67 5534.23 4117.9 4753.76 6025.77 4781.9 4638.09 6815.96 4441.91 5339.6 5330.26 5828.25 4725.11 5483.37 5418.12 5322.07 5934.05 5770.07 4714.66 5990.75 5101.6 4984.17 4656.01 5781.62 6589.13 4037.86 5602.62 2030.03 3543.37 4542.16 5714.51 5628.97 4104.04 5353.66 2638.82 5030.33 5593.79 5104.39 5234.2 4612.13 4965.24 5846.6 5327.05 5438.55 5353.23 4434.65 6688.53 5977.66 5209.5 5065.74 4873.23 6731.89 5464.05 4733.41 5879.24 5410.6 5453.2 6348.93 5136.51 3901.53 6815.51 4332.64 5232.16 4422.23 6791.86 3989.26 6031.22 4820.68 4930.72 5482.76 5728.58 3745.02 7212.97 6297.99 4211.36 5378.24 5918.95 3856.73 4538.89 5817.74 5887.71 5517.65 4009.68 5114.51 3303.49 4622.73 4655.37 4161.32 5256.75 5161.74 7336.37 4361.24 5932.28 6599.28 5560.23 2960.5 5783.38 4975.32 3043.77 4298.7 3902.48 5237.55 4183.4 3909.94 6030.39 4733.79 4905.53 3799.01 4823.06 7392.65 5254.49 5319.1 3757.23 6828.8 6883.86 5987.88 3579.59 6161.94 4065.28 5057.59 4461.14 5285.6 4574.54 5575.11 5615.06 5490.54 5203.54 4047.95 5507.38 6142.94 4416.87 5001.69 6581.56 4057.4 4052.43 3980.46 5383.9 3934.11 5158.44 3886.56 4466.22 4496.51 6153.71 5917.08 6561.94 5259.21 5092.93 4256.08 2803.01 5881.93 4444.0 6771.18 6182.19 5327.39 7415.84 4981.81 4138.59 4970.55 4938.33 4484.78 4621.33 5527.27 5157.73 5847.91 4934.66 4984.01 4109.44 4903.84 4290.49 4557.1 4605.39 5927.1 6270.59 6175.27 5876.51 4103.76 4907.55 4286.61 4094.63 2932.52 5264.83 4603.66 4757.87 4969.68 6636.43 5431.14 6298.8 5313.86 4457.05 5178.07 5189.91 3618.64 5777.26 4171.02 5485.84 6424.77 4887.73 4335.79 5453.69 5797.32 5432.04 5689.56 6556.86 5129.4 4746.15 3720.38 4758.84 5585.25 4731.37 5023.61 3976.0 6351.89 4672.86 6530.78 5059.37 4742.35 5394.79 4139.39 5645.54 5088.64 6264.03 4526.87 6589.8 4151.74 6920.92 4174.22 3729.16 3783.36 3573.84 3038.91 4181.93 3922.28 6570.43 3350.99 3820.19 3445.92 5236.69 4979.5 5524.28 4586.82 3133.28 4745.37 5939.29 6026.04 6200.05 5418.98 5859.17 4034.41 4052.49 5061.74 5522.34 5326.03 6189.67 4420.35 5717.45 4948.96 5256.82 4013.86 4061.87 4645.93 5165.31 5448.64 3798.09 4585.37 4288.5 6417.61 5715.51 3721.69 4511.05 3456.3 6074.39 5317.83 6738.9 4399.52 4460.89 4554.24 4157.1 3939.96 8052.53 4867.12 5910.66 6044.01 6520.19 4637.3 5141.03 1458.87 5734.07 4840.44 8123.59 3997.68 4819.83 5765.14 4801.16 4767.54 4541.22 4946.08 3539.68 5121.08 4696.03 6217.33 6177.68 4698.7 2848.44 6229.64 6045.26 4220.43 6500.45 5743.8 5084.76 6666.34 6605.11 4645.91 6834.92 3557.46 6379.33 5971.95 5652.73 3689.24 3979.46 6321.97 5151.19 6412.84 6509.54 5703.84 7012.36 3530.82 5128.59 5028.06 4002.99 4886.99 5159.67 5587.3 3921.27 3161.1 3572.73 4864.38 3702.45 6275.25 6892.33 4505.3 4491.26 4452.36 4511.34 4068.41 6463.71 5009.21 4574.03 4379.91 5290.37 5850.38 5264.08 3562.8 4227.66 4730.97 4691.01 4594.89 5192.82 5245.95 5821.42 4067.89 4515.02 6294.09 4924.52 4571.57 5131.07 4121.07 2970.24 4197.87 5658.05 5105.54 5731.43 6353.81 3414.67 3518.14 5444.36 4150.44 5044.68 5771.98 2649.69 5899.78 5000.74 5117.83 5772.57 5268.27 4813.81 3882.37 4095.4 5244.95 4634.25 5901.8 6351.48 5395.12 5783.69 3830.7 6210.0 5432.4 3483.61 5350.9 4262.52 7430.48 5992.06 5545.68 6080.69 4970.12 4967.93 6369.66 5973.57 5922.62 6241.48 6033.28 5957.82 6286.27 5071.38 3717.22 6327.54 2927.84 5616.66 5688.77 4802.36 2943.17 5368.28 5466.13 5257.38 6263.87 5075.23 4975.56 7282.36 3826.01 5581.01 3928.99 6959.88 4125.75 5749.53 5130.57 5090.48 5402.45 5582.28 3985.93 5945.25 6071.59 2589.19 6119.0 3856.4 3792.06 5485.61 4993.49 4937.36 4293.3 5308.4 5310.33 6583.37 3688.83 5631.32 6126.5 6322.0 5793.14 6345.2 4609.65 5488.96 5704.61 4832.21 3720.92 5128.03 5410.73 5087.3 4942.63 6139.74 6637.38 4975.57 7066.26 3057.3 6150.31 3677.85 5214.71 4677.84 4811.11 3463.53 5379.52 6126.03 4866.8 5314.67 6044.69 5563.47 5651.46 6593.1 4066.36 4000.51 5462.1 6033.93 6032.45 5011.37 4026.03 2827.92 6908.32 3467.11 5336.61 4817.75 6153.26 4848.15 5637.53 4439.09 5523.81 5648.59 4718.61 5188.57 3873.79 5717.67 5357.33 5515.59 5252.37 3224.81 4499.54 5037.58 6457.89 5640.67 6572.17 3751.73 5555.89 4766.47 4871.1 5678.08 3917.09 6009.93 5872.45 4414.09 5270.1 5125.45 3784.68 4188.16 4947.64 6305.9 6649.21 5507.07 4654.92 5327.71 4880.78 4322.56 5509.09 5625.02 3873.72 5212.05 4592.49 5479.86 4829.77 6474.5 4444.92 4702.32 4763.04 5971.9 3746.62 5247.73 4876.37 5034.02 4769.62 5260.13 4649.5 5181.31 5985.75 6079.55 4696.06 4137.16 6189.29 5984.55 6581.13 4569.32 4034.88 5108.84 3511.5 6007.1 5067.92 5357.14 3188.21 4850.95 5919.27 4793.06 6271.22 3421.81 6188.33 3920.64 6111.23 6916.18 5786.06 5873.62 3868.69 4137.41 4996.91 3920.44 4450.51 6033.72 3768.62 3851.47 4966.74 2329.93 4959.94 1635.31 5639.4 3162.27 6185.73 4083.24 5516.37 5092.44 4441.44 5432.2 4232.44 4612.4 3312.3 5563.09 6381.58 3282.57 5212.2 4798.13 4611.21 5108.42 6697.45 4630.5 6296.36 4432.32 5237.27 4451.76 7885.41 3775.38 4046.22 5782.25 4104.97 4844.2 4575.72 5114.61 6118.13 3374.62 4926.62 4420.3 6332.64 4202.12 6492.44 4613.32 4083.1 3482.73 5191.29 5130.56 4957.99 4063.26 5345.05 4997.89 4542.62 3470.69 4859.95 5286.55 4132.08 5522.18 5223.1 4699.77 4850.49 4981.55 5144.23 3625.98 6188.62 6153.07 4414.06 5908.57 5944.52 4413.56 4532.67 5050.2 5316.05 2513.38 4821.41 4908.32 3995.08 4499.52 5019.84 4810.74 3900.93 5784.38 5475.83 4149.17 4329.8 5728.27 5672.46 5803.3 4582.12 4487.51 4295.25 4520.14 5354.48 7394.47 4729.45 6261.13 5374.09 4167.55 4720.34 5244.47 5378.75 4731.16 5510.89 6186.24 5822.7 3780.07 4159.89 5466.49 5178.55 5447.74 4038.17 5007.41 4907.48 3692.99 6213.74 4488.41 4369.87 6938.87 5412.07 5512.57 4806.99 6520.96 3771.91 5856.43 5217.62 6178.19 4746.19 4616.81 5715.25 5172.1 4362.94 4469.82 6545.78 4870.14 3354.94 4404.87 5105.72 5767.65 4750.76 5003.49 4907.03 5497.27 4081.77 5617.91 4948.21 2181.29 4987.01 4706.31 2694.25 6265.48 4735.99 4203.68 4739.56 5145.39 3818.37 3996.93 3352.46 6351.95 5195.09 5200.1 7679.2 5093.28 4881.51 6131.52 4311.92 2626.41 6009.88 6729.99 5093.41 6842.35 5464.34 3621.63 4777.96 5801.89 6833.5 7296.47 5742.39 4780.16 4924.53 3834.01 5616.11 4433.23 3874.12 4813.24 4028.13 5759.19 4457.73 6476.35 3113.64 4304.75 6260.58 4067.24 3053.19 5202.33 3074.49 4246.24 6805.02 4919.13 5640.63 4900.26 5783.88 5002.38 6705.93 4865.11 5449.09 5502.14 6470.87 4495.33 5282.67 4131.08 5747.9 3864.19 4287.93 5146.69 6203.24 6818.23 5081.65 6679.12 5652.19 5806.74 3878.8 6578.62 4813.55 4698.94 6284.12 3465.03 4796.04 3839.0 5229.56 5349.85 6011.4 5799.86 3330.85 4672.34 6052.22 5376.41 5003.63 2932.2 4695.7 4380.86 4944.08 4082.01 5269.39 3964.03 4216.33 5832.72 3903.9 4444.95 4721.2 5161.02 3943.77 3124.49 5242.38 6081.35 5003.81 6262.18 5566.5 4701.03 5663.36 6225.05 5434.04 5125.53 3997.52 4444.54 5403.81 5779.9 4909.74 5310.33 5299.03 6664.54 3922.98 5161.73 5259.48 4008.67 5254.93 4803.4 6608.94 2613.78 3796.73 5417.07 5656.84 5738.37 6789.66 4739.41 5847.27 4490.2 4706.59 5734.84 5480.86 6139.9 3982.31 6571.26 5402.81 4328.76 4600.81 5561.63 4124.33 5168.97 4358.06 5093.51 5647.93 4280.92 6201.49 4696.92 5154.74 4605.61 4465.56 6898.8 5386.95 6540.57 5332.11 4893.72 5315.71 6004.72 6158.93 5373.78 4823.14 5438.5 4489.18 4621.32 5699.4 5237.76 4286.84 3948.21 5669.15 5296.05 5263.86 6988.4 5056.32 5533.52 5410.33 4060.17 4747.24 6051.35 5302.53 4909.13 5576.16 4305.35 5648.02 3308.75 5210.22 2451.27 5677.42 2701.42 4929.35 5606.22 6673.92 5151.68 4884.94 5459.52 4609.98 4738.72 4752.31 5240.97 4276.59 5579.04 5405.6 5994.21 4884.93 5082.25 4759.38 6964.78 4374.05 5036.84 4565.36 5813.68 4025.08 5040.9 3618.53 5596.68 4770.21 4868.66 8013.28 3846.55 4644.68 5283.65 3082.16 2892.36 5981.54 5911.29 5416.41 5312.2 4694.27 6760.64 2515.5 5177.88 5551.79 4950.07 6981.47 4720.22 4582.24 4333.23 5145.13 3860.8 3747.96 5611.29 5940.5 6568.45 5004.22 4601.54 7263.57 3832.09 5705.96 6437.99 5739.69 4790.16 6632.04 7360.62 4985.45 4072.4 4983.56 5699.51 4714.52 5345.65 2489.44 5499.37 5863.36 4632.75 4752.94 4994.98 3950.53 6423.96 6058.13 5894.69 4384.91 6550.61 4987.01 6635.51 6094.34 6779.82 5543.67 3999.81 4287.61 4867.13 4604.34 4439.17 4502.12 3255.93 5442.79 5051.39 6327.61 4633.59 5733.59 5362.15 4455.61 3695.72 6874.6 5106.9 5569.85 5523.96 3929.35 4223.53 4733.37 6960.97 3037.72 4287.15 4523.9 5282.51 5504.65 5669.41 5732.11 3760.4 3919.47 4602.7 3783.35 4037.16 4004.39 5159.9 6395.63 4987.48 5943.61 4248.58 5479.17 5020.37 4542.25 4414.23 5233.88 4849.21 4785.55 3793.83 5245.4 3916.15 6189.81 5438.6 7370.52 4726.5 5467.05 4521.88 3724.23 5103.3 4963.88 5888.94 4727.98 4122.2 5175.88 5267.65 4516.26 3509.34 3647.26 5360.88 3166.37 4977.64 5369.42 5207.08 5205.53 4587.19 5543.05 4883.13 6028.89 4836.76 5333.16 5551.09 5755.98 5392.85 4501.1 5581.47 5077.2 4274.05 4277.54 4713.56 4531.46 5925.82 4739.5 6210.48 6377.45 4863.27 6853.07 5575.8 5268.93 5306.31 4535.94 5126.08 5604.0 4951.02 3731.58 4888.17 5275.27 5529.09 5448.68 4072.95 4491.62 3865.5 4182.05 
SCALARS Velocity float 1
LOOKUP_TABLE default
1.1918 1.19179 1.19179 1.1918 1.1918 1.19178 1.19178 1.19178 1.19179 1.19179 1.19179 1.19179 1.19178 1.19178 1.19179 1.19179 1.19178 1.19178 1.19178 1.19178 1.1918 1.19179 1.19178 1.19181 1.19181 1.19178 1.19179 1.19182 1.1918 1.19179 1.19181 1.19179 1.19178 1.19179 1.19181 1.19183 1.1918 1.19179 1.19178 1.19178 1.19178 1.19179 1.19181 1.19179 1.19179 1.19178 1.19181 1.1918 1.19178 1.19179 1.1918 1.19178 1.19178 1.19178 1.19178 1.19179 1.19178 1.19178 1.19178 1.19178 1.19178 1.19178 1.19179 1.19178 1.19179 1.19178 1.19178 1.19178 1.19178 1.19178 1.19178 1.19178 1.19178 1.19178 1.19178 1.19178 1.19179 1.19179 1.19179 1.19179 1.19178 1.19178 1.19178 1.19179 1.19178 1.19179 1.19178 1.19178 1.1918 1.1918 1.19178 1.19178 1.19178 1.19178 1.19177 1.19179 1.1918 1.1918 1.19183 1.19183 1.19178 1.19178 1.19178 1.19178 1.1918 1.19178 1.19181 1.19179 1.19177 1.19178 1.19178 1.19178 1.19178 1.19177 1.19181 1.19181 1.19178 1.19183 1.19181 1.19181 1.1918 1.19181 1.19181 1.19178 1.19178 1.19181 1.19181 1.1918 1.1918 1.1918 1.19178 1.19179 1.1918 1.19181 1.19179 1.19179 1.19178 1.19179 1.19182 1.19179 1.19179 1.19179 1.19179 1.19179 1.19178 1.19183 1.19181 1.19182 1.1918 1.19181 1.19182 1.1918 1.1918 1.1918 1.1918 1.1918 1.19178 1.19178 1.19178 1.19178 1.19178 1.19178 1.19178 1.19179 1.19179 1.19178 1.19179 1.19178 1.19178 1.19178 1.19178 1.19178 1.19178 1.19178 1.19178 1.19178 1.19178 1.19178 1.19178 1.19179 1.19179 1.19179 1.19179 1.19178 1.19178 1.19179 1.19179 1.19179 1.19177 1.19179 1.19179 1.1918 1.19178 1.19177 1.1918 1.19179 1.1918 1.19178 1.19178 1.19178 1.19178 1.1918 1.19184 1.1918 1.19178 1.19178 1.19179 1.19181 1.19179 1.1918 1.1918 1.1918 1.19178 1.19182 1.19182 1.19179 1.19179 1.19178 1.19178 1.19179 1.19179 1.19178 1.19181 1.19177 1.19179 1.1918 1.19178 1.19183 1.19181 1.19181 1.19178 1.19178 1.19178 1.1918 1.19177 1.19178 1.19181 1.19179 1.19181 1.19178 1.19186 1.19178 1.19177 1.1918 1.19177 1.19179 1.19179 1.19182 1.19179 1.19179 1.19178 1.19181 1.1918 1.1918 1.19182 1.1918 1.19181 1.19181 1.19178 1.19179 1.19178 1.19178 1.19181 1.19181 1.19178 1.19179 1.19178 1.19179 1.19178 1.19178 1.19178 1.19178 1.19179 1.19178 1.19179 1.19179 1.19178 1.19178 1.19177 1.19178 1.19177 1.19178 1.19178 1.19178 1.19178 1.19181 1.19179 1.19179 1.19179 1.19179 1.19178 1.19178 1.19178 1.19179 1.19178 1.19179 1.19178 1.19179 1.1918 1.19179 1.19178 1.1918 1.19177 1.19178 1.19178 1.1918 1.19179 1.19179 1.19181 1.19181 1.19179 1.19178 1.1918 1.1918 1.1918 1.19179 1.19183 1.19186 1.1918 1.19182 1.19183 1.19178 1.19178 1.19179 1.19183 1.19181 1.1918 1.19182 1.19181 1.19181 1.1918 1.19177 1.19179 1.19179 1.19186 1.19179 1.19179 1.19185 1.19177 1.19178 1.19184 1.19185 1.19179 1.1918 1.19176 1.19179 1.1918 1.19179 1.19178 1.1918 1.19179 1.1918 1.19182 1.19182 1.19181 1.1918 1.1918 1.19179 1.19178 1.19179 1.19178 1.19178 1.19177 1.19181 1.19179 1.19178 1.19179 1.19179 1.19178 1.19178 1.19178 1.19177 1.19179 1.19179 1.19179 1.19178 1.19178 1.19178 1.19181 1.19178 1.19178 1.19178 1.19178 1.19179 1.19178 1.19179 1.19179 1.19178 1.19179 1.19178 1.1918 1.19179 1.19179 1.19178 1.19176 1.19178 1.19175 1.19181 1.19178 1.1918 1.1918 1.19179 1.19179 1.19179 1.1918 1.19181 1.19184 1.19178 1.19178 1.1918 1.1918 1.19179 1.19178 1.19178 1.19178 1.19178 1.19182 1.1918 1.19184 1.19183 1.19179 1.19177 1.19181 1.19178 1.19179 1.19177 1.19183 1.19179 1.1918 1.1918 1.19181 1.19183 1.19182 1.19176 1.19182 1.19181 1.1918 1.19181 1.19183 1.19181 1.19186 1.19183 1.1918 1.19184 1.19179 1.19181 1.19178 1.19182 1.19181 1.1918 1.19182 1.19179 1.19179 1.19179 1.19182 1.19182 1.19179 1.19179 1.19181 1.1918 1.19178 1.19182 1.19182 1.19179 1.19175 1.19178 1.19178 1.19182 1.1918 1.19181 1.19179 1.19177 1.19179 1.19179 1.19178 1.19178 1.19179 1.19179 1.19178 1.19177 1.19181 1.19178 1.19178 1.19178 1.19179 1.19179 1.19177 1.19179 1.19178 1.19179 1.19179 1.19178 1.19179 1.1918 1.19178 1.19178 1.19177 1.19177 1.19178 1.19178 1.19178 1.19179 1.19179 1.19176 1.19179 1.1918 1.19182 1.19184 1.19179 1.19179 1.19179 1.19178 1.19179 1.19177 1.19178 1.19177 1.19182 1.19179 1.19179 1.19185 1.19181 1.19178 1.19179 1.19181 1.19181 1.19177 1.19179 1.19183 1.19184 1.19183 1.19183 1.19176 1.19181 1.19181 1.19182 1.19177 1.19187 1.19183 1.1918 1.19176 1.19183 1.19182 1.19175 1.19179 1.1918 1.1918 1.19177 1.19183 1.1918 1.1918 1.1918 1.19179 1.19182 1.19179 1.19179 1.19181 1.19181 1.19179 1.19182 1.19178 1.19174 1.19178 1.19178 1.19178 1.19176 1.1918 1.19178 1.19178 1.19178 1.1918 1.1918 1.19179 1.19179 1.19179 1.19178 1.19178 1.19178 1.19179 1.19178 1.19178 1.19178 1.19178 1.19178 1.19178 1.19177 1.19178 1.19179 1.19179 1.19178 1.19178 1.19178 1.19179 1.19177 1.19178 1.19178 1.19178 1.19178 1.19178 1.19185 1.19179 1.19183 1.19182 1.19184 1.19178 1.19178 1.1918 1.19178 1.19177 1.19177 1.19178 1.19176 1.19179 1.19183 1.19196 1.19178 1.19176 1.19181 1.19181 1.19179 1.19181 1.19181 1.19183 1.19178 1.19181 1.1918 1.19182 1.19185 1.19189 1.19185 1.19186 1.19185 1.1918 1.19175 1.19182 1.19179 1.19177 1.1918 1.19178 1.19179 1.19178 1.19178 1.19183 1.1918 1.19175 1.19179 1.19179 1.19179 1.19181 1.1918 1.1918 1.1918 1.19174 1.19178 1.19177 1.19178 1.19179 1.1918 1.19177 1.19178 1.19178 1.1918 1.1918 1.19178 1.19179 1.19178 1.19177 1.19178 1.19179 1.19178 1.19178 1.19178 1.19179 1.19179 1.19178 1.19178 1.1918 1.19178 1.1918 1.19176 1.19177 1.19182 1.19178 1.19178 1.19179 1.19178 1.19177 1.19181 1.19179 1.19182 1.19183 1.19177 1.19179 1.19183 1.19178 1.19184 1.1918 1.1919 1.19174 1.19176 1.19178 1.19176 1.19179 1.19183 1.19181 1.19176 1.19177 1.1918 1.19177 1.19183 1.19181 1.19177 1.1918 1.19177 1.19181 1.1918 1.19184 1.1918 1.19181 1.1918 1.19181 1.19186 1.19182 1.19175 1.19183 1.19178 1.19181 1.19177 1.1918 1.19178 1.19183 1.19179 1.19178 1.19182 1.1918 1.19177 1.19183 1.19175 1.19178 1.19179 1.19178 1.19178 1.19178 1.19177 1.19178 1.1918 1.19179 1.19175 1.19179 1.19181 1.19177 1.19179 1.19182 1.19178 1.19178 1.19177 1.19177 1.19179 1.19179 1.19176 1.19181 1.19178 1.19179 1.19178 1.19178 1.19179 1.19178 1.19178 1.19178 1.19178 1.19179 1.19176 1.19178 1.19178 1.19178 1.19178 1.19178 1.19179 1.19179 1.19178 1.19178 1.1918 1.1918 1.19179 1.19182 1.19177 1.19177 1.19179 1.19177 1.1918 1.19177 1.19179 1.19182 1.19178 1.1918 1.19183 1.19182 1.19182 1.19177 1.19183 1.19182 1.19184 1.19176 1.19184 1.19187 1.19178 1.19183 1.19176 1.19182 1.19173 1.19181 1.19179 1.19173 1.19178 1.19183 1.19183 1.19182 1.19179 1.19179 1.19177 1.19177 1.19181 1.19179 1.19179 1.19183 1.1918 1.19179 1.19181 1.1918 1.19179 1.1918 1.19186 1.19183 1.19178 1.1918 1.19178 1.1918 1.19179 1.19178 1.19182 1.1918 1.19173 1.19174 1.19182 1.19178 1.19183 1.19179 1.19177 1.19174 1.19176 1.19178 1.19176 1.19179 1.19175 1.19176 1.19179 1.19178 1.19176 1.19178 1.19179 1.19178 1.19176 1.1918 1.19177 1.19179 1.19175 1.19182 1.19178 1.19178 1.19179 1.19177 1.19178 1.19177 1.19177 1.19179 1.19178 1.19178 1.19178 1.19179 1.19177 1.19176 1.19178 1.19178 1.19178 1.19178 1.19178 1.19178 1.1918 1.19178 1.19178 1.19178 1.1918 1.19178 1.19177 1.19178 1.19183 1.19177 1.19182 1.19178 1.19182 1.19181 1.19181 1.19181 1.19186 1.19178 1.19182 1.19183 1.19183 1.19185 1.19183 1.19178 1.19184 1.19176 1.19174 1.19181 1.19181 1.19181 1.19173 1.19177 1.19182 1.19182 1.19179 1.19179 1.1918 1.19179 1.19178 1.19182 1.19181 1.1918 1.19179 1.19179 1.19179 1.1918 1.19179 1.19181 1.19174 1.19179 1.19183 1.1918 1.19179 1.19182 1.19184 1.19181 1.1918 1.19174 1.19177 1.19178 1.19182 1.19177 1.19178 1.19183 1.1918 1.1918 1.19177 1.19175 1.19176 1.19176 1.19175 1.19176 1.19174 1.19183 1.19177 1.19181 1.19177 1.19178 1.19178 1.19179 1.19177 1.19178 1.19179 1.19178 1.19175 1.19176 1.19179 1.19178 1.19178 1.19178 1.19177 1.19179 1.19178 1.19179 1.19178 1.19178 1.19177 1.19177 1.19179 1.19175 1.19177 1.19178 1.19178 1.19178 1.19177 1.19177 1.19177 1.19178 1.19178 1.19178 1.19178 1.19178 1.19178 1.19178 1.19179 1.19179 1.19183 1.19173 1.19172 1.19182 1.19181 1.19178 1.1918 1.19178 1.1918 1.19187 1.19182 1.19183 1.19183 1.19183 1.19179 1.1917 1.19184 1.19174 1.19175 1.19172 1.1918 1.19179 1.19168 1.19181 1.19177 1.19177 1.1918 1.19179 1.19184 1.19181 1.19179 1.19173 1.19167 1.19179 1.19174 1.19183 1.1918 1.19179 1.1918 1.19179 1.19178 1.19181 1.19181 1.19181 1.19175 1.19185 1.19173 1.19173 1.1918 1.19174 1.19178 1.19182 1.19177 1.19184 1.19185 1.19186 1.19181 1.19176 1.19177 1.19177 1.19175 1.1918 1.19183 1.19178 1.1918 1.19177 1.19177 1.19177 1.19176 1.19177 1.19177 1.19178 1.19178 1.1918 1.19177 1.19178 1.1918 1.19177 1.19177 1.19176 1.19178 1.19178 1.19178 1.19178 1.19177 1.19177 1.1918 1.1918 1.19178 1.19179 1.19179 1.19177 1.19177 1.19178 1.19177 1.19178 1.19176 1.19177 1.19178 1.19179 1.19178 1.19177 1.19177 1.19186 1.19177 1.19181 1.19181 1.19181 1.19178 1.19184 1.19178 1.19185 1.1918 1.19182 1.19187 1.19183 1.19183 1.19182 1.19181 1.19182 1.19177 1.19184 1.1917 1.19178 1.19176 1.19179 1.19179 1.19176 1.19178 1.19183 1.19173 1.19176 1.19178 1.19179 1.19178 1.19179 1.19176 1.19176 1.19176 1.19178 1.19178 1.19179 1.19179 1.19179 1.19169 1.19179 1.19178 1.19176 1.19178 1.19173 1.19175 1.1918 1.19165 1.19167 1.19182 1.1916 1.1918 1.19187 1.19177 1.19182 1.19175 1.19178 1.19179 1.19178 1.19177 1.1918 1.1918 1.19179 1.19176 1.19177 1.19177 1.19179 1.19177 1.19181 1.19178 1.19178 1.19177 1.19178 1.19179 1.19177 1.19176 1.19178 1.19178 1.19179 1.19178 1.19177 1.19178 1.1918 1.1918 1.19178 1.19177 1.19178 1.19177 1.19178 1.19178 1.19176 1.19177 1.19177 1.19179 1.19178 1.19175 1.19179 1.1918 1.19182 1.19187 1.19181 1.19183 1.1918 1.19179 1.19178 1.19178 1.19186 1.19186 1.19183 1.1918 1.19187 1.19177 1.19181 1.1918 1.19183 1.19169 1.19179 1.19174 1.19178 1.1918 1.1918 1.19178 1.19181 1.19179 1.19177 1.19178 1.19177 1.19178 1.19178 1.19174 1.19176 1.19179 1.19177 1.19175 1.19177 1.19179 1.19171 1.19178 1.19178 1.19176 1.19177 1.19168 1.19177 1.19176 1.19173 1.1917 1.19176 1.19181 1.19167 1.19181 1.1918 1.19184 1.19176 1.19181 1.19176 1.19178 1.19178 1.19175 1.19177 1.19175 1.19176 1.19177 1.19176 1.19177 1.19179 1.19177 1.19178 1.19175 1.19176 1.19181 1.19177 1.19176 1.19179 1.19177 1.19177 1.19177 1.19178 1.19179 1.19177 1.19177 1.19176 1.19176 1.19179 1.19178 1.19176 1.19176 1.19178 1.19178 1.1918 1.19179 1.19179 1.19178 1.19178 1.19177 1.19177 1.19176 1.19177 1.19179 1.19172 1.19176 1.19179 1.19183 1.19182 1.19175 1.19182 1.1918 1.19184 1.19181 1.19178 1.19182 1.19185 1.19185 1.19177 1.19181 1.19184 1.19185 1.19194 1.19184 1.1917 1.19171 1.19183 1.19177 1.19182 1.19182 1.19177 1.19177 1.19181 1.19186 1.19178 1.19176 1.19177 1.19173 1.19178 1.19176 1.19177 1.19179 1.19176 1.19177 1.19179 1.19176 1.19173 1.19178 1.19178 1.19177 1.19176 1.1917 1.1917 1.1918 1.19165 1.19166 1.1918 1.19177 1.19182 1.19182 1.19179 1.19176 1.19178 1.19178 1.19177 1.19178 1.19172 1.19174 1.19177 1.19176 1.19177 1.19178 1.19177 1.19179 1.19178 1.19178 1.19177 1.19177 1.19177 1.19178 1.19175 1.19175 1.19177 1.19177 1.19177 1.19178 1.19178 1.19176 1.19176 1.19174 1.19178 1.19179 1.19176 1.19176 1.19178 1.19179 1.19178 1.19179 1.19177 1.19177 1.19176 1.19176 1.19176 1.19177 1.1918 1.19183 1.19185 1.19181 1.19173 1.19172 1.19179 1.19177 1.19185 1.19181 1.19182 1.19181 1.19184 1.19182 1.19182 1.19179 1.19179 1.19182 1.19177 1.19181 1.19183 1.19194 1.19184 1.1917 1.19183 1.19177 1.19181 1.19174 1.19176 1.19188 1.19188 1.19178 1.19174 1.19176 1.19176 1.19178 1.19175 1.19175 1.19178 1.19176 1.19177 1.19177 1.19175 1.19179 1.19174 1.19173 1.19175 1.19172 1.19177 1.19176 1.19172 1.19176 1.19177 1.1918 1.19178 1.19165 1.19177 1.19176 1.19177 1.19182 1.19178 1.19176 1.19178 1.19179 1.19177 1.19178 1.19177 1.19172 1.19171 1.19175 1.19177 1.19179 1.19177 1.19177 1.19178 1.19178 1.19177 1.19178 1.19177 1.19177 1.19178 1.19177 1.19178 1.19176 1.19175 1.19178 1.19178 1.19178 1.19176 1.19177 1.19178 1.19178 1.19177 1.19176 1.19178 1.19179 1.19178 1.19179 1.19179 1.19176 1.19174 1.19183 1.19181 1.1918 1.1917 1.19175 1.19177 1.19185 1.19181 1.19178 1.19175 1.19177 1.19184 1.19184 1.19182 1.19186 1.19184 1.1918 1.19178 1.19176 1.19177 1.19177 1.1918 1.19181 1.19176 1.19181 1.19188 1.19171 1.19171 1.19184 1.19184 1.19183 1.19178 1.19167 1.19178 1.19167 1.19176 1.19175 1.19178 1.19176 1.19179 1.19181 1.19172 1.19172 1.19177 1.19174 1.19176 1.19175 1.19174 1.19176 1.19176 1.19174 1.1918 1.19175 1.19176 1.19176 1.19172 1.19177 1.19177 1.19179 1.19173 1.19174 1.19178 1.19174 1.19175 1.19181 1.19175 1.19177 1.19176 1.19179 1.19178 1.19177 1.19178 1.19172 1.19173 1.19174 1.19177 1.19178 1.19177 1.19178 1.19176 1.19176 1.19178 1.19178 1.19177 1.19177 1.19178 1.19177 1.19176 1.19178 1.19178 1.19177 1.19179 1.19178 1.19176 1.19178 1.19176 1.19177 1.19176 1.19179 1.19181 1.19178 1.19179 1.19178 1.1918 1.19176 1.19178 1.19183 1.19178 1.19183 1.19183 1.19179 1.19177 1.19179 1.19187 1.19181 1.19182 1.19182 1.19183 1.19176 1.19178 1.19173 1.19183 1.1918 1.19177 1.19182 1.19186 1.19179 1.19184 1.19184 1.19184 1.19178 1.19174 1.19174 1.19175 1.19176 1.1918 1.19173 1.19175 1.19173 1.19176 1.19177 1.19176 1.19175 1.19178 1.19176 1.19176 1.19173 1.19175 1.19174 1.1918 1.19175 1.19174 1.19177 1.19178 1.19176 1.19173 1.19172 1.19172 1.19176 1.19174 1.19179 1.19178 1.19174 1.19175 1.19181 1.19175 1.19173 1.19176 1.19176 1.19176 1.19178 1.19178 1.19177 1.19177 1.19178 1.19173 1.19174 1.19173 1.19174 1.19177 1.19177 1.19178 1.19176 1.19178 1.19178 1.19178 1.19177 1.19178 1.19177 1.19176 1.19175 1.19175 1.19178 1.19178 1.19176 1.19177 1.19176 1.19176 1.19181 1.19178 1.19178 1.19176 1.1918 1.19179 1.19181 1.19174 1.19178 1.1918 1.19189 1.19176 1.19178 1.19182 1.19177 1.19178 1.19189 1.19173 1.19186 1.19181 1.19181 1.19181 1.1918 1.19181 1.19184 1.19178 1.19177 1.19183 1.19186 1.19178 1.19177 1.19178 1.19183 1.19184 1.19175 1.19178 1.19174 1.19184 1.19176 1.19179 1.19173 1.19164 1.19175 1.1917 1.19176 1.19178 1.19178 1.19176 1.19177 1.19178 1.19175 1.19174 1.19173 1.19175 1.19174 1.19178 1.1918 1.19175 1.19174 1.19176 1.19171 1.19174 1.19174 1.19174 1.19175 1.19174 1.19175 1.19181 1.19176 1.19176 1.19178 1.19177 1.19178 1.19176 1.19178 1.19176 1.19173 1.19175 1.19173 1.19172 1.19173 1.19177 1.19177 1.19178 1.19176 1.19178 1.19177 1.19178 1.19177 1.19177 1.19177 1.19175 1.19176 1.19176 1.19175 1.19176 1.19176 1.19178 1.19178 1.19177 1.19178 1.19177 1.19177 1.19176 1.19177 1.19183 1.19179 1.19175 1.19176 1.19179 1.19179 1.19179 1.1918 1.19178 1.19175 1.19182 1.1919 1.19182 1.19181 1.19182 1.19179 1.19176 1.19188 1.19172 1.1918 1.19184 1.19181 1.19177 1.19181 1.19179 1.19181 1.19184 1.19178 1.19177 1.19177 1.19176 1.19183 1.19186 1.19178 1.19175 1.19181 1.19183 1.19175 1.19171 1.19176 1.19185 1.19178 1.19179 1.19171 1.19175 1.19178 1.19182 1.19176 1.19178 1.19179 1.19176 1.19175 1.19178 1.19178 1.19175 1.19176 1.19174 1.19176 1.19175 1.19171 1.19178 1.19178 1.19176 1.19175 1.19177 1.19174 1.19176 1.19175 1.19177 1.19178 1.19178 1.19178 1.19178 1.19175 1.19178 1.19178 1.19172 1.19172 1.19174 1.19173 1.19178 1.19176 1.19175 1.19178 1.19177 1.19177 1.19177 1.19178 1.19177 1.19177 1.19177 1.19175 1.19177 1.19177 1.19177 1.19178 1.19178 1.19178 1.19178 1.19177 1.19176 1.19176 1.19177 1.19182 1.19178 1.19174 1.1918 1.19179 1.19179 1.19176 1.19178 1.19188 1.19183 1.19177 1.19183 1.1918 1.19178 1.19188 1.19181 1.19177 1.19183 1.19176 1.19179 1.19175 1.19181 1.19182 1.19178 1.19177 1.19181 1.19177 1.19172 1.19184 1.19178 1.19176 1.19177 1.19182 1.19174 1.19174 1.19178 1.19175 1.1918 1.19179 1.19179 1.19171 1.19172 1.19176 1.1917 1.19178 1.19176 1.19178 1.19178 1.19178 1.19176 1.19175 1.19173 1.19181 1.19174 1.19173 1.19176 1.19176 1.19175 1.19174 1.19171 1.19171 1.19176 1.19176 1.19176 1.19175 1.19173 1.19177 1.19178 1.19175 1.19174 1.19175 1.19177 1.19177 1.19178 1.19177 1.19177 1.19178 1.19177 1.19173 1.19174 1.19177 1.19173 1.19173 1.19177 1.19178 1.19177 1.19176 1.19178 1.19177 1.19178 1.19177 1.19178 1.19178 1.19178 1.19178 1.19176 1.19176 1.1918 1.1918 1.19177 1.19178 1.19175 1.19176 1.19178 1.19178 1.19177 1.19178 1.19178 1.19177 1.19176 1.19177 1.19176 1.19175 1.19179 1.19179 1.19179 1.19178 1.19176 1.19181 1.1918 1.19183 1.19189 1.19184 1.19177 1.19175 1.19184 1.19179 1.19179 1.19174 1.19175 1.1918 1.1918 1.19181 1.19176 1.19172 1.19184 1.19178 1.19176 1.19172 1.19172 1.19174 1.19173 1.1917 1.1917 1.19177 1.19181 1.19178 1.19179 1.19173 1.19171 1.19174 1.19176 1.19172 1.19177 1.19178 1.19176 1.19175 1.19175 1.19173 1.19174 1.19178 1.19174 1.19175 1.19174 1.19178 1.19177 1.1918 1.19176 1.19178 1.19178 1.19173 1.19181 1.19176 1.19175 1.19173 1.19175 1.19173 1.19175 1.19177 1.19178 1.19178 1.19177 1.19177 1.19178 1.19177 1.19177 1.19176 1.19177 1.19176 1.19173 1.19177 1.19176 1.19178 1.19177 1.19177 1.19177 1.19177 1.19178 1.19177 1.19178 1.19178 1.1918 1.19177 1.19178 1.19177 1.19179 1.19177 1.19178 1.19178 1.19175 1.19178 1.19175 1.19176 1.19174 1.19179 1.19179 1.19179 1.19178 1.19176 1.19176 1.1918 1.19179 1.19181 1.19182 1.19184 1.19178 1.19176 1.19168 1.19176 1.19176 1.19181 1.1919 1.19175 1.19179 1.19179 1.19181 1.19175 1.19171 1.19185 1.19182 1.19176 1.19171 1.19174 1.19173 1.19173 1.19177 1.19178 1.19181 1.19174 1.19178 1.19173 1.19173 1.19177 1.19177 1.19176 1.19178 1.19171 1.19176 1.19175 1.19172 1.19173 1.19174 1.19176 1.19177 1.19176 1.19174 1.19181 1.19177 1.19178 1.19173 1.19179 1.19176 1.19177 1.19176 1.19175 1.19179 1.19178 1.19178 1.19174 1.19174 1.19175 1.19178 1.19178 1.19178 1.19178 1.19177 1.19177 1.19177 1.19178 1.19173 1.19176 1.19178 1.19178 1.19178 1.19177 1.19178 1.19177 1.19177 1.19177 1.19177 1.19176 1.19178 1.19178 1.19178 1.19178 1.19175 1.19178 1.19178 1.19178 1.19177 1.19178 1.19175 1.19178 1.19175 1.19174 1.19179 1.19177 1.19178 1.19176 1.19176 1.19179 1.19179 1.19178 1.19181 1.19182 1.19177 1.19177 1.19169 1.19174 1.19192 1.19167 1.19173 1.19175 1.19179 1.19178 1.19171 1.19172 1.1918 1.19179 1.19172 1.1918 1.19176 1.19178 1.1917 1.19172 1.19176 1.19182 1.19178 1.19173 1.19178 1.19177 1.19178 1.19178 1.19178 1.19178 1.19176 1.19178 1.19176 1.19177 1.19176 1.19173 1.19176 1.19175 1.19176 1.19177 1.19178 1.19176 1.19178 1.19176 1.19175 1.19177 1.19176 1.19173 1.19174 1.19177 1.19177 1.19177 1.19178 1.19178 1.19178 1.19178 1.19177 1.19177 1.19178 1.19178 1.19178 1.19177 1.19177 1.19178 1.19178 1.19178 1.19178 1.19177 1.19177 1.19177 1.19178 1.19177 1.19177 1.19177 1.19175 1.19177 1.19178 1.19176 1.19175 1.19175 1.19173 1.19177 1.19174 1.19175 1.19174 1.19175 1.19176 1.19175 1.19179 1.19175 1.19175 1.19174 1.19177 1.19174 1.19182 1.1918 1.19179 1.19178 1.19171 1.19173 1.19178 1.19165 1.19175 1.19171 1.1918 1.19173 1.19172 1.19168 1.19171 1.19177 1.19173 1.19176 1.19173 1.19176 1.19177 1.19176 1.19175 1.19177 1.19174 1.19174 1.19174 1.19178 1.19178 1.19175 1.19178 1.19179 1.19176 1.19176 1.19178 1.19176 1.19175 1.19176 1.19177 1.19178 1.19178 1.19178 1.19176 1.19177 1.19176 1.19173 1.19175 1.19176 1.19176 1.19174 1.19174 1.19177 1.19177 1.19178 1.19178 1.19178 1.19178 1.19177 1.19177 1.19178 1.19178 1.19178 1.19177 1.19178 1.19178 1.19178 1.19178 1.19178 1.19178 1.19177 1.19177 1.19178 1.19177 1.19178 1.19178 1.19176 1.19177 1.19178 1.19176 1.19177 1.19178 1.19173 1.19177 1.19175 1.19171 1.19176 1.19174 1.19174 1.19176 1.1918 1.19183 1.19179 1.19173 1.19173 1.19173 1.19178 1.19173 1.19177 1.19172 1.19177 1.19172 1.1917 1.19169 1.19164 1.19165 1.19172 1.19181 1.19167 1.1917 1.19173 1.19176 1.19178 1.19178 1.19177 1.19174 1.19174 1.19174 1.19175 1.19173 1.19176 1.19178 1.19176 1.19178 1.19176 1.19176 1.19178 1.19177 1.19178 1.19175 1.19173 1.19175 1.19176 1.19177 1.19177 1.19177 1.19177 1.19177 1.19173 1.19175 1.19177 1.19177 1.19177 1.19177 1.19177 1.19176 1.19175 1.19174 1.19168 1.19173 1.19172 1.19174 1.19173 1.1917 1.19174 1.19175 1.1918 1.19183 1.19178 1.19171 1.1917 1.19177 1.19176 1.19164 1.19178 1.19167 1.19176 1.19174 1.19172 1.19177 1.1917 1.19173 1.19172 1.19177 1.19168 1.19174 1.19175 1.19178 1.19176 1.19176 1.19178 1.19177 1.19176 1.19176 1.19176 1.19173 1.19173 1.19178 1.1917 1.19175 1.19174 1.19179 1.19175 1.19177 1.1918 1.19179 1.19178 1.19178 1.19177 1.19177 1.19174 1.19178 1.19172 1.19171 1.19176 1.19176 1.19168 1.19171 1.19175 1.19179 1.19174 1.19177 1.19174 1.19179 1.19172 1.19176 1.1918 1.1918 1.19176 1.19179 1.19173 1.19176 1.19174 1.19174 1.19173 1.19168 1.19178 1.19168 1.19176 1.19175 1.19178 1.19176 1.19178 1.19173 1.19171 1.19177 1.19175 1.19179 1.1918 1.19175 1.19176 1.19178 1.1917 1.19174 1.19178 1.19175 1.19169 1.19166 1.19169 1.19176 1.19178 1.19176 1.19172 1.19176 1.19172 1.19177 1.19175 1.19179 1.1918 1.19174 1.19177 1.1917 1.19173 1.19176 1.19171 1.19171 1.19168 1.19166 1.19173 1.19181 1.19178 1.19178 1.19178 1.19178 1.19176 1.19173 1.19177 1.19173 1.19177 1.19173 1.19179 1.1918 1.19172 1.19178 1.19175 1.19177 1.19173 1.19182 1.19166 1.19178 1.19179 1.19178 1.19178 1.19178 1.19178 1.19178 1.19178 1.19178 1.19178 1.19178 1.19178 1.19178 1.19178 1.19178 1.19178 1.19178 1.19178 1.19178 1.19178 1.19177 1.19175 1.19173 1.19178 1.19174 1.19172 1.19173 1.19179 1.19184 1.19169 1.19179 1.19175 1.19178 1.19173 1.19178 1.19172 1.19181 1.19175 1.19179 1.19179 1.19178 1.19178 1.19178 1.19178 1.19178 1.19178 1.19178 1.19178 1.19178 1.19178 1.19178 1.19178 1.19178 1.19178 1.19178 1.19178 1.19178 1.19178 1.19178 1.19178 1.19178 1.19178 1.19178 1.19178 1.19178 1.19178 1.19178 1.19178 1.19178 1.19178 1.19178 1.19177 1.19175 1.19173 1.19177 1.1918 1.19176 1.19171 1.19173 1.19184 1.19177 1.19171 1.19172 1.19175 1.19181 1.19175 1.19171 1.19177 1.1918 1.1918 1.19178 1.19176 1.19179 1.19178 1.19178 1.19178 1.19178 1.19178 1.19178 1.19178 1.19178 1.19178 1.19178 1.19178 1.19178 1.19178 1.19178 1.19178 1.19178 1.19178 1.19178 1.19178 1.19178 1.19178 1.19178 1.19178 1.19178 1.19178 1.19178 1.19178 1.19178 1.19178 1.19178 1.19178 1.19178 1.19178 1.19178 1.19178 1.19178 1.19178 1.19178 1.19178 1.19179 1.19183 1.19175 1.19174 1.19172 1.19178 1.19177 1.1917 1.19172 1.19174 1.19176 1.19174 1.19168 1.19178 1.19173 1.19171 1.19176 1.19177 1.1918 1.19175 1.19178 1.19176 1.1918 1.19179 1.19177 1.19179 1.19178 1.19178 1.19178 1.19178 1.19178 1.19178 1.19178 1.19178 1.19178 1.19178 1.19178 1.19178 1.19178 1.19178 1.19178 1.19178 1.19178 1.19178 1.19178 1.19178 1.19178 1.19178 1.19178 1.19178 1.19178 1.19178 1.19178 1.19178 1.19178 1.19178 1.19178 1.19178 1.19178 1.19178 1.19178 1.19178 1.19178 1.19178 1.19178 1.19178 1.19178 1.19178 1.19178 1.19178 1.19178 1.19176 1.1918 1.19175 1.19175 1.19172 1.19177 1.1917 1.19172 1.19174 1.19176 1.19174 1.19167 1.19164 1.19173 1.19176 1.19179 1.1918 1.19176 1.19177 1.1918 1.19178 1.19178 1.19178 1.19178 1.19178 1.19178 1.19178 1.19178 1.19178 1.19178 1.19178 1.19178 1.19178 1.19178 1.19178 1.19178 1.19178 1.19178 1.19178 1.19178 1.19178 1.19178 1.19178 1.19178 1.19178 1.19178 1.19178 1.19178 1.19178 1.19178 1.19178 1.19178 1.19178 1.19178 1.19178 1.19178 1.19178 1.19178 1.19178 1.19178 1.19178 1.19178 1.19178 1.19178 1.19177 1.19178 1.19177 1.19175 1.19172 1.19174 1.19175 1.19175 1.19178 1.19172 1.19174 1.19173 1.19173 1.19172 1.19164 1.19178 1.19172 1.19178 1.19177 1.19173 1.19179 1.19181 1.19177 1.19175 1.19178 1.19178 1.19178 1.19178 1.19178 1.19178 1.19178 1.19178 1.19178 1.19178 1.19178 1.19178 1.19178 1.19178 1.19178 1.19178 1.19178 1.19178 1.19178 1.19178 1.19178 1.19178 1.19178 1.19178 1.19178 1.19178 1.19178 1.19178 1.19178 1.19178 1.19178 1.19178 1.19178 1.19178 1.19178 1.19178 1.19178 1.19178 1.19178 1.19178 1.19178 1.19178 1.19178 1.19178 1.19178 1.19178 1.19178 1.19178 1.19178 1.19178 1.19178 1.19178 1.19178 1.19177 1.19178 1.19182 1.19175 1.19178 1.19175 1.19174 1.19175 1.19178 1.19176 1.19172 1.19176 1.19177 1.19167 1.19173 1.19176 1.19175 1.19178 1.19175 1.19172 1.19174 1.19177 1.19177 1.19178 1.19178 1.19178 1.19178 1.19178 1.19178 1.19178 1.19178 1.19178 1.19178 1.19178 1.19178 1.19178 1.19178 1.19178 1.19178 1.19178 1.19178 1.19178 1.19178 1.19178 1.19178 1.19178 1.19178 1.19178 1.19178 1.19178 1.19178 1.19178 1.19178 1.19178 1.19178 1.19178 1.19178 1.19178 1.19178 1.19178 1.19178 1.19178 1.19178 1.19178 1.19178 1.19178 1.19178 1.19178 1.19178 1.19178 1.19178 1.19178 1.19176 1.19178 1.19178 1.19176 1.19171 1.19178 1.19176 1.19176 1.19173 1.19176 1.19179 1.19176 1.19178 1.19176 1.1918 1.1917 1.19172 1.19173 1.19171 1.19173 1.19176 1.19177 1.19174 1.19179 1.1918 1.19177 1.19178 1.19178 1.19178 1.19178 1.19178 1.19178 1.19178 1.19178 1.19178 1.19178 1.19178 1.19178 1.19178 1.19178 1.19178 1.19178 1.19178 1.19178 1.19178 1.19178 1.19178 1.19178 1.19178 1.19178 1.19178 1.19178 1.19178 1.19178 1.19178 1.19178 1.19178 1.19178 1.19178 1.19178 1.19178 1.19178 1.19178 1.19178 1.19178 1.19178 1.19177 1.19174 1.19179 1.19173 1.19178 1.19176 1.19176 1.19175 1.19177 1.19176 1.19176 1.19178 1.19173 1.19173 1.19178 1.19178 1.1918 1.19174 1.19178 1.19178 1.19178 1.19178 1.19178 1.19178 1.19178 1.19178 1.19178 1.19178 1.19178 1.19178 1.19178 1.19178 1.19178 1.19178 1.19178 1.19178 1.19178 1.19178 1.19178 1.19178 1.19178 1.19178 1.19178 1.19178 1.19178 1.19178 1.19178 1.19178 1.19178 1.19178 1.19178 1.19178 1.19178 1.19178 1.19178 1.19178 1.19178 1.19178 1.19178 1.19178 1.19178 1.19178 1.19178 1.19178 1.19178 1.19178 1.19179 1.19176 1.19177 1.19182 1.19177 1.19173 1.19179 1.19177 1.19176 1.19177 1.19176 1.19176 1.19178 1.19174 1.19177 1.19173 1.19178 1.19176 1.19178 1.19178 1.19178 1.19178 1.19178 1.19178 1.19178 1.19178 1.19178 1.19178 1.19178 1.19178 1.19178 1.19178 1.19178 1.19178 1.19178 1.19178 1.19178 1.19178 1.19178 1.19178 1.19178 1.19178 1.19178 1.19178 1.19178 1.19178 1.19178 1.19178 1.19178 1.19178 1.19178 1.19178 1.19178 1.19178 1.19178 1.19178 1.19178 1.19175 1.19177 1.19178 1.19177 1.19177 1.19178 1.19178 1.19177 1.19176 1.19176 1.19176 1.19177 1.19175 1.19178 1.19177 1.19172 1.19178 1.19176 1.19179 1.19178 1.19178 1.19178 1.19178 1.19178 1.19178 1.19178 1.19178 1.19178 1.19178 1.19178 1.19178 1.19178 1.19178 1.19178 1.19178 1.19178 1.19178 1.19178 1.19178 1.19178 1.19178 1.19178 1.19178 1.19178 1.19178 1.19178 1.19178 1.19178 1.19178 1.19178 1.19178 1.19178 1.19178 1.19177 1.19177 1.19177 1.19177 1.19177 1.19177 1.19177 1.19181 1.19176 1.19177 1.19178 1.19176 1.19178 1.19175 1.19178 1.19177 1.19174 1.19177 1.19176 1.19177 1.19177 1.19178 1.19178 1.19178 1.19178 1.19178 1.19178 1.19178 1.19178 1.19178 1.19178 1.19178 1.19178 1.19178 1.19178 1.19178 1.19178 1.19178 1.19178 1.19178 1.19178 1.19178 1.19178 1.19178 1.19178 1.19178 1.19178 1.19178 1.19178 1.19178 1.19178 1.19178 1.19177 1.19177 1.19177 1.19176 1.19178 1.19176 1.19177 1.19177 1.19177 1.19176 1.19177 1.19175 1.19175 1.19177 1.19175 1.19177 1.19177 1.19177 1.19176 1.19177 1.19178 1.19178 1.19178 1.19178 1.19178 1.19178 1.19178 1.19178 1.19178 1.19178 1.19178 1.19178 1.19178 1.19178 1.19178 1.19178 1.19178 1.19178 1.19178 1.19178 1.19178 1.19178 1.19178 1.19178 1.19178 1.19177 1.19177 1.19176 1.19178 1.19175 1.19176 1.19177 1.19176 1.19176 1.19176 1.19175 1.19174 1.19176 1.19177 1.19178 1.19178 1.19176 1.19177 1.19178 1.19178 1.19178 1.19178 1.19178 1.19178 1.19178 1.19178 1.19178 1.19178 1.19178 1.19178 1.19178 1.19178 1.19178 1.19178 1.19178 1.19178 1.19176 1.19177 1.19177 1.19176 1.19177 1.19175 1.19176 1.19177 1.19176 1.19176 1.19176 1.19178 1.19178 1.19174 1.19175 1.19178 1.19178 1.19178 1.19177 1.19176 1.19176 1.19178 1.19178 1.19178 1.19178 1.19178 1.19178 1.19178 1.19178 1.19178 1.19178 1.19178 1.19178 1.19178 1.19178 1.19178 1.19178 1.19177 1.19177 1.19177 1.19176 1.19178 1.19177 1.19176 1.19177 1.19176 1.19176 1.19175 1.19177 1.19178 1.19174 1.19178 1.19176 1.19178 1.19177 1.19177 1.19178 1.19178 1.19178 1.19178 1.19178 1.19178 1.19178 1.19178 1.19178 1.19178 1.19178 1.19178 1.19178 1.19178 1.19178 1.19178 1.19178 1.19178 1.19177 1.19178 1.19178 1.19177 1.19177 1.19176 1.19177 1.19176 1.19177 1.19178 1.19177 1.19177 1.19176 1.19176 1.19178 1.19176 1.19178 1.19178 1.19177 1.19178 1.19178 1.19178 1.19178 1.19178 1.19178 1.19178 1.19178 1.19177 1.19177 1.19178 1.19177 1.19178 1.19178 1.19178 1.19176 1.19178 1.19178 1.19177 1.19176 1.19176 1.19177 1.19177 1.19176 1.19177 1.19178 1.19178 1.19176 1.19176 1.19178 1.19178 1.19178 1.19178 1.19178 1.19178 1.19178 1.19178 1.19178 1.19177 1.19177 1.19178 1.19178 1.19178 1.19177 1.19178 1.19176 1.19177 1.19178 1.19178 1.19178 1.19177 1.19177 1.19178 1.19178 1.19176 1.19178 1.19178 1.19178 1.19178 1.19178 1.19178 1.19178 1.19178 1.19178 1.19178 1.19178 1.19178 1.19178 1.19178 1.19177 1.19178 1.19178 1.19177 1.19177 1.19178 1.19177 1.19178 1.19177 1.19177 1.19178 1.19178 1.19178 1.19178 1.19178 1.19178 1.19178 1.19178 1.19178 1.19178 1.19178 1.19178 1.19178 1.19178 1.19178 1.19178 1.19178 1.19178 1.19178 1.19178 1.19178 1.19178 1.19178 1.19178 1.19178 1.19178 1.19178 1.19178 1.19178 1.19178 1.19178 1.19178 1.19178 0.00225638 0.00276553 0.00070923 0.00609104 0.0141429 0.0210304 0.0270171 0.0261952 0.021153 0.018337 0.0203865 0.0180537 0.00469146 0.0121227 0.00388909 0.0110913 0.0191407 0.0158854 0.00652721 0.0296909 0.0175419 0.0185653 0.0267199 0.0216927 0.0117404 0.0466563 0.0557926 0.0720254 0.0794922 0.0637479 0.0401435 0.081393 0.240445 0.198538 0.548546 0.311165 0.420941 0.191149 0.132735 0.114004 0.0941636 0.0553169 0.0320505 0.0266439 0.048566 0.127039 0.0951659 0.437295 1.05494 3.79941 2.37633 1.8612 0.964304 0.0146105 0.0203627 0.0374787 0.0548346 0.030657 0.0379146 0.0226213 0.0399312 0.0362243 0.0523182 0.0440515 0.0321292 0.0307075 0.0344013 0.0284551 0.0305665 0.0268965 0.02657 0.0271574 0.0281563 0.0282246 0.0283792 0.0259786 0.0268074 0.0242722 0.0223889 0.0247408 0.0252368 0.0299532 0.0256934 0.0267349 0.0274465 0.0291191 0.027333 0.0315081 0.0344711 0.0337878 0.0302503 0.0347084 0.0369255 0.0389745 0.0425768 0.0474955 0.0460647 0.0408419 0.030146 0.0265095 0.0179818 0.0088493 0.00982509 0.00421178 0.00110906 0.00216709 0.00151437 0.00641492 0.00422949 0.00525124 0.00584453 0.00815053 0.0136746 0.0193452 0.0198279 0.019886 0.0197686 0.0166947 0.0168222 0.0179867 0.0197842 0.0204205 0.0229949 0.0155253 0.0182229 0.0149837 0.0105971 0.0169003 0.00269671 0.00452363 0.0041172 0.0068364 0.000827869 0.0047823 0.00812393 0.00831312 0.0161115 0.0170873 0.0134499 0.017752 0.00892473 0.00953726 0.0175683 0.0184664 0.0347713 0.0291437 0.0527427 0.0253757 0.0466515 0.0449823 0.0336663 0.0447792 0.0491506 0.0991989 0.103567 0.144433 0.0670775 0.302614 0.253379 0.236128 0.118522 0.135575 0.200589 0.138728 0.0878929 0.0208646 0.0978673 0.111073 0.0809386 0.157388 0.0935616 0.0683176 0.0453892 0.05249 0.0444658 0.0483684 0.0914303 0.094428 0.21934 0.240721 0.206497 0.205278 1.04503 1.32094 0.981522 0.649984 0.305195 0.016849 0.0478145 0.0220904 0.0163186 0.0338542 0.0395399 0.0377551 0.0500145 0.0369769 0.0498985 0.0313676 0.0303695 0.0428449 0.0307076 0.06493 0.00910087 0.0205574 0.0340538 0.0335705 0.0340974 0.0327497 0.0281169 0.0287403 0.0280895 0.0274951 0.0277289 0.0280751 0.0277318 0.0278282 0.0255695 0.0259111 0.0237619 0.0243116 0.0253949 0.0287875 0.0255549 0.0269716 0.0273917 0.0290708 0.0274761 0.0229526 0.0323192 0.0267482 0.0333202 0.0299944 0.030093 0.0298629 0.0339372 0.0348451 0.0348647 0.0319871 0.03112 0.034039 0.0320454 0.0347624 0.0352822 0.038284 0.0393051 0.0390115 0.0375276 0.0458758 0.0422334 0.0432354 0.0472195 0.0404739 0.0452985 0.0428244 0.0387111 0.0482991 0.0450266 0.0259893 0.0462905 0.0342647 0.044704 0.0225705 0.00771774 0.0142845 0.0210227 0.00344806 0.00491391 0.00378651 0.00619036 0.00581034 0.0110035 0.00781703 0.0118451 0.0161527 0.0171851 0.0166917 0.0163652 0.0162714 0.0161048 0.0115237 0.0166692 0.00967904 0.00470258 0.00137443 0.00513572 0.00541085 0.00222096 0.00602472 0.00589748 0.00711871 0.0219032 0.0133707 0.0193125 0.021915 0.0083931 0.00844235 0.00149492 0.0117202 0.0196815 0.0225436 0.0314097 0.0226802 0.0132268 0.0423722 0.0135167 0.0868995 0.024896 0.159418 0.11045 0.0518927 0.0260469 0.0522729 0.105499 0.101838 0.0616026 0.0617119 0.0759926 0.0643115 0.113714 0.0969422 0.045405 0.0609203 0.0477052 0.0636071 0.0535125 0.0935253 0.0213658 0.091391 0.384596 0.128518 0.424952 0.419599 0.0123457 0.00868879 0.0279405 0.0145393 0.0254075 0.0235762 0.0184933 0.0162312 0.0341321 0.0183099 0.0362594 0.00143849 0.0166172 0.00727148 0.0146587 0.0183871 0.0364949 0.0396024 0.031201 0.0279745 0.0225915 0.0285577 0.0217159 0.0246499 0.0274445 0.023389 0.0259774 0.026755 0.0262895 0.0264261 0.0281854 0.0281933 0.0271661 0.0271743 0.0294811 0.0316688 0.0321062 0.033373 0.0322151 0.0362403 0.037834 0.0311162 0.0343752 0.0341794 0.0368852 0.0331664 0.0338911 0.0329933 0.030099 0.0355253 0.0294682 0.0315865 0.0381581 0.0336062 0.0291673 0.0275448 0.0326094 0.0326405 0.0363189 0.065561 0.0209903 0.0240671 0.0258803 0.0243594 0.0219084 0.00312968 0.00161674 0.00512378 0.00233917 0.00417318 0.00702017 0.0114564 0.013978 0.0156748 0.0139609 0.0129411 0.0109191 0.00780123 0.00411897 0.00111702 0.00293117 0.00522804 0.0150806 0.0176951 0.0156284 0.0135052 0.0188843 0.00838071 0.0216445 0.0144978 0.0232756 0.0142197 0.0257185 0.0387002 0.0466467 0.0454553 0.0148183 0.032938 0.0185468 0.060349 0.0346778 0.0631986 0.0950749 0.0363433 0.034612 0.0466059 0.114466 0.0253539 0.0263839 0.0937151 0.0774424 0.0411896 0.0704075 0.0692968 0.0431335 0.0408705 0.0270919 0.0328087 0.0494196 0.0421934 0.0851219 0.101245 0.0118597 0.019157 0.00326536 0.00235186 0.0181522 0.00865655 0.0201738 0.0077522 0.0227039 0.0240959 0.0277576 0.00952057 0.0172634 0.0104037 0.014458 0.0239708 0.0213625 0.0189212 0.0188214 0.0221874 0.0245076 0.0243931 0.0274113 0.0255976 0.0269722 0.0277831 0.0264878 0.0276631 0.0280418 0.0295478 0.0306065 0.0307763 0.0306636 0.0322843 0.0313585 0.0320173 0.0315439 0.0318149 0.0327741 0.0335923 0.0308699 0.0321953 0.033732 0.032668 0.0331643 0.0332272 0.0324087 0.0278874 0.0293463 0.02964 0.0273097 0.0295215 0.0310007 0.0308835 0.0303208 0.0290591 0.0240776 0.0252632 0.0203784 0.0279794 0.0269717 0.0262085 0.0304866 0.0419267 0.0319462 0.0142556 0.0281931 0.0298651 0.0263012 0.000830848 0.00374479 0.00221573 0.0062564 0.00746366 0.0127446 0.0126892 0.0140308 0.0154055 0.0176081 0.016813 0.0133646 0.0126807 0.0145937 0.00999774 0.00779331 0.00521994 0.00275606 0.0047234 0.00646773 0.00499716 0.00736979 0.00123616 0.0068254 0.0143803 0.0123153 0.0147485 0.0133167 0.0109234 0.0165444 0.00944199 0.0200521 0.0199359 0.0130853 0.0253559 0.0221658 0.0103274 0.0394099 0.0404791 0.0195053 0.0435401 0.0514811 0.0294479 0.0107122 0.0484201 0.111396 0.0360638 0.050177 0.0807967 0.0375438 0.0477735 0.0398174 0.0453915 0.0426862 0.0484149 0.0476317 0.0354911 0.0320413 0.0241066 0.0233529 0.0249458 0.0186248 0.0288252 0.0152632 0.0230827 0.00726887 0.0065485 0.0128428 0.0157038 0.0131287 0.0236041 0.0132511 0.0168469 0.0157603 0.0144659 0.00913398 0.00833388 0.0173738 0.0160341 0.0186117 0.0170971 0.0174136 0.0223934 0.0228057 0.0263563 0.0271616 0.0272931 0.0260604 0.0275253 0.027019 0.0310754 0.0294918 0.0301087 0.0311726 0.0306595 0.0316735 0.0305813 0.0318259 0.0293954 0.0306907 0.0288203 0.0306988 0.0275426 0.0301043 0.0272752 0.0253581 0.0278851 0.026379 0.0261171 0.0278023 0.0283527 0.030866 0.0256032 0.0198364 0.0169081 0.0198031 0.0143534 0.0187949 0.0272152 0.0292124 0.0219649 0.0263625 0.0318566 0.0412208 0.0340425 0.0370884 0.0387831 0.00312348 0.00651994 0.0145899 0.0187355 0.0176334 0.0212534 0.0202732 0.0150022 0.0170415 0.00967215 0.00772358 0.0117234 0.00689131 0.0157054 0.00510484 0.013602 0.0160798 0.0211236 0.00781176 0.0177761 0.0259388 0.0219782 0.0229921 0.0138105 0.0175999 0.0117863 0.0126975 0.0185522 0.0392814 0.031978 0.0241045 0.0342619 0.0294235 0.0227042 0.0448921 0.00573637 0.0252253 0.0363361 0.0735854 0.0358925 0.0335986 0.0869837 0.0435925 0.0857973 0.0750608 0.0598527 0.0375803 0.0426071 0.0259087 0.0287662 0.0248606 0.0298287 0.0178556 0.00142663 0.00222059 0.00685854 0.00208166 0.0178978 0.0177047 0.0102559 0.00833353 0.00608901 0.00547111 0.00100401 0.00784663 0.0073744 0.00973863 0.00683554 0.00676605 0.0121768 0.0154839 0.0152777 0.0158171 0.0228726 0.026564 0.0281379 0.0288853 0.0295859 0.0306801 0.0306138 0.0296055 0.0298839 0.0302538 0.0300919 0.0291764 0.0291451 0.0301045 0.0307765 0.0305729 0.0300389 0.0290533 0.0286436 0.0266629 0.0263287 0.027565 0.0280504 0.0234709 0.0260086 0.0270797 0.0245955 0.0214744 0.0222162 0.0203602 0.0219992 0.0174208 0.0183601 0.0243336 0.0272404 0.0325824 0.0392019 0.0373616 0.0382504 0.0457716 0.0415443 0.0206473 0.0163032 0.0201187 0.0217106 0.0221654 0.0220264 0.0204463 0.0188595 0.0221173 0.0239874 0.0190235 0.0109643 0.0196617 0.0113481 0.00768767 0.00746159 0.0102902 0.00310678 0.00946952 0.0145698 0.0213272 0.0147463 0.014598 0.0172823 0.00360352 0.0118366 0.00651567 0.0254636 0.0160002 0.00958626 0.0220401 0.00554992 0.0142233 0.0140302 0.0289329 0.0256095 0.036878 0.0265177 0.0243925 0.0514294 0.0222681 0.0359509 0.00974216 0.0263316 0.0492579 0.0922019 0.0536979 0.0417233 0.0301944 0.0298082 0.0217165 0.0249194 0.0099707 0.00698355 0.013223 0.0127189 0.0125813 0.00958055 0.00668587 0.00944374 0.0051177 0.0102528 0.010172 0.0106425 0.00820551 0.0127692 0.0133389 0.0170779 0.0179765 0.0125823 0.0315273 0.0268925 0.0344446 0.033925 0.0340281 0.0301591 0.0299416 0.0297909 0.0297839 0.0304609 0.0298122 0.0257976 0.0281018 0.0291256 0.0303441 0.0305513 0.0292218 0.0283167 0.0284701 0.0312615 0.0276262 0.0296681 0.0256085 0.0236714 0.0254642 0.0193446 0.00929304 0.0196346 0.00939856 0.0233687 0.0131913 0.0194907 0.0271719 0.0337916 0.0348896 0.0433691 0.0435424 0.0464941 0.0427374 0.0496908 0.0137904 0.0186263 0.0113307 0.0214483 0.0236661 0.0243989 0.0252733 0.0278782 0.0239425 0.0244544 0.0279713 0.0301621 0.025873 0.0227175 0.0142513 0.0205615 0.0174557 0.014683 0.0131688 0.00322861 0.0124673 0.0275 0.0159404 0.0197599 0.0291588 0.0208043 0.00944694 0.0141654 0.00822316 0.0077995 0.0090283 0.0157457 0.0129206 0.00748457 0.00785587 0.0165262 0.027766 0.0245638 0.0302455 0.0320018 0.0362244 0.0274522 0.0418364 0.0396709 0.0413384 0.0464231 0.03956 0.0489829 0.046857 0.0371762 0.0345432 0.032612 0.0343365 0.0273398 0.0176047 0.0263309 0.0109756 0.00937005 0.0100777 0.0123218 0.0126357 0.0119791 0.0123148 0.0110787 0.00849197 0.00819218 0.00660408 0.00938576 0.0114821 0.0140331 0.0159322 0.0170591 0.0216127 0.0258145 0.0260927 0.0254944 0.0231696 0.027082 0.0258799 0.0268876 0.0276916 0.0290089 0.0298839 0.0299585 0.0295795 0.0282909 0.0302638 0.0315496 0.0304996 0.0278011 0.0292108 0.0277474 0.0341232 0.037765 0.0204331 0.0308373 0.0103055 0.0149928 0.00926973 0.0181737 0.0150961 0.026834 0.0305654 0.0320393 0.0315325 0.0410119 0.0512082 0.0453658 0.0470273 0.0148541 0.0203172 0.0189696 0.0165896 0.017957 0.0178386 0.0242739 0.0240096 0.024882 0.0260512 0.027438 0.0292174 0.0249108 0.0297575 0.0218865 0.0221626 0.0213977 0.0188653 0.0239429 0.0213079 0.0099865 0.0167997 0.0269062 0.0215546 0.0282345 0.0149748 0.0204579 0.0153111 0.00601801 0.0171109 0.0087586 0.0193852 0.0146584 0.0183997 0.0237057 0.018401 0.0276039 0.0352554 0.0297841 0.0350458 0.0321843 0.0522407 0.0367866 0.0513465 0.0387575 0.0382426 0.0317926 0.0383904 0.0522551 0.0308067 0.0184014 0.021299 0.0282127 0.0226621 0.0108991 0.0127807 0.0140062 0.0139552 0.011854 0.01039 0.0105868 0.0122793 0.0143924 0.0169605 0.0186745 0.0199796 0.0220513 0.0221022 0.0240041 0.0237717 0.0246425 0.0256033 0.0276592 0.028318 0.0292132 0.0303463 0.0298263 0.0301189 0.0311094 0.0264519 0.0263826 0.0266761 0.0237243 0.0203869 0.0311451 0.0261309 0.0290787 0.0276048 0.0643478 0.0705618 0.0292863 0.0174485 0.0182583 0.0252045 0.0182759 0.0254554 0.0300631 0.0254433 0.0292628 0.0364228 0.0406911 0.0444801 0.0509351 0.0496308 0.0189307 0.0205228 0.0173845 0.0179255 0.0226144 0.0219103 0.026463 0.0285473 0.0287053 0.0268875 0.0321739 0.0315632 0.025609 0.0329555 0.0313984 0.0271691 0.0306745 0.0265533 0.0205875 0.0187495 0.0390099 0.0265393 0.0133802 0.0537984 0.0230495 0.018661 0.0152689 0.0187012 0.0105594 0.0182462 0.00878094 0.0104695 0.0101282 0.0189729 0.015018 0.0284257 0.0275389 0.0355975 0.0375069 0.039226 0.0426625 0.031918 0.0213172 0.0198289 0.020001 0.0269149 0.0270812 0.0106527 0.0122747 0.0139375 0.0109854 0.00896802 0.0112118 0.012039 0.010772 0.0123521 0.0139059 0.0137821 0.0184527 0.0201089 0.0212229 0.0223 0.0240485 0.0248976 0.0263658 0.0268075 0.0299921 0.0273006 0.0295648 0.0299675 0.0321086 0.0326276 0.0334015 0.0325582 0.0342427 0.0236843 0.02224 0.0189989 0.0203567 0.0265696 0.0332465 0.152968 0.0620906 0.0428413 0.0282466 0.0279645 0.0235631 0.0243346 0.0196567 0.0251773 0.0318403 0.035364 0.0477877 0.0518433 0.0475875 0.0535333 0.0195349 0.0229357 0.0197692 0.0191018 0.0168339 0.0301914 0.0303108 0.0294282 0.0311102 0.0352405 0.0355888 0.0357717 0.0348465 0.035245 0.0305803 0.0325371 0.0330133 0.0255358 0.0468958 0.0194967 0.0432907 0.0442977 0.0529603 0.029901 0.0307871 0.0305156 0.0231527 0.0240617 0.0280495 0.0224922 0.0227447 0.0157257 0.00759032 0.0368934 0.0308909 0.0368347 0.0446473 0.0410474 0.0377801 0.0384029 0.0376064 0.0376972 0.039776 0.0345518 0.0260524 0.0279345 0.0237405 0.0246856 0.0275867 0.0279094 0.00785286 0.00624616 0.00580032 0.0127456 0.00986334 0.00972028 0.00946632 0.0109128 0.0125896 0.015187 0.014112 0.0153584 0.0213161 0.0301444 0.029997 0.0263896 0.0324558 0.0307371 0.0286587 0.0302452 0.0321007 0.0312313 0.0320905 0.0304237 0.0279059 0.0286298 0.0247405 0.0203632 0.019483 0.0204206 0.0192196 0.0208985 0.0409048 0.222481 0.0878319 0.023004 0.0230468 0.0207203 0.0354692 0.0390046 0.0324322 0.0420409 0.0599931 0.0473805 0.0581034 0.0230612 0.0185916 0.0217566 0.0122752 0.0277675 0.02189 0.0246885 0.0345115 0.034876 0.0348313 0.0360498 0.034833 0.0402005 0.0253104 0.026763 0.0262524 0.028436 0.0207364 0.0347369 0.0283763 0.0139594 0.0515384 0.0527593 0.052494 0.0338072 0.0608757 0.0315158 0.043391 0.0303076 0.0335316 0.028468 0.0261423 0.0604863 0.0604768 0.0591722 0.0654866 0.0399722 0.0384546 0.0360158 0.0325205 0.0427089 0.0292595 0.0237394 0.0264255 0.0214789 0.0154495 0.0152602 0.00517518 0.00259949 0.0084199 0.00913568 0.00991005 0.00989159 0.00897263 0.00924796 0.00879574 0.0258858 0.02986 0.0309527 0.029151 0.0153258 0.030675 0.0341807 0.0309499 0.0372746 0.0366795 0.0411216 0.0374445 0.02802 0.0272808 0.0242102 0.0247982 0.0261855 0.0264571 0.0262412 0.0239559 0.0247135 0.0283709 0.0258663 0.0373542 0.0765527 0.231899 0.121338 0.0198862 0.0284209 0.0351038 0.0243456 0.0203932 0.0473487 0.0619911 0.0335136 0.0303444 0.0263661 0.038089 0.0241774 0.0686728 0.0684752 0.0566436 0.0331974 0.0261808 0.202179 0.119314 0.0113323 0.020153 0.0370332 0.0513321 0.0656735 
SCALARS Stress float 1
LOOKUP_TABLE default
-12554000000.0 -12552500000.0 -12556900000.0 -12563200000.0 -12559600000.0 -12551300000.0 -12551900000.0 -12550000000.0 -12552400000.0 -12556700000.0 -12554400000.0 -12552500000.0 -12550500000.0 -12552000000.0 -12553600000.0 -12560700000.0 -12557000000.0 -12551000000.0 -12550200000.0 -12552300000.0 -12560700000.0 -12558500000.0 -12557300000.0 -12573800000.0 -12580000000.0 -12582600000.0 -12579600000.0 -12573300000.0 -12554200000.0 -12552500000.0 -12560200000.0 -12552000000.0 -12551500000.0 -12556400000.0 -12559200000.0 -12586100000.0 -12580300000.0 -12561700000.0 -12549900000.0 -12558200000.0 -12551500000.0 -12554000000.0 -12591600000.0 -12606300000.0 -12618900000.0 -12549700000.0 -12664800000.0 -12559500000.0 -12551000000.0 -12552700000.0 -12559900000.0 -12549700000.0 -12555400000.0 -12549700000.0 -12549700000.0 -12558000000.0 -12549700000.0 -12549700000.0 -12551600000.0 -12549700000.0 -12550000000.0 -12550700000.0 -12554400000.0 -12556700000.0 -12567400000.0 -12553800000.0 -12552400000.0 -12551500000.0 -12550600000.0 -12549900000.0 -12549700000.0 -12549700000.0 -12549700000.0 -12550700000.0 -12556300000.0 -12552000000.0 -12564400000.0 -12577400000.0 -12574700000.0 -12559400000.0 -12556400000.0 -12549700000.0 -12552000000.0 -12557800000.0 -12549900000.0 -12559700000.0 -12549800000.0 -12549900000.0 -12552500000.0 -12575300000.0 -12559200000.0 -12559500000.0 -12552900000.0 -12556600000.0 -12551400000.0 -12561100000.0 -12565900000.0 -12562100000.0 -12561700000.0 -12595800000.0 -12550200000.0 -12550500000.0 -12552400000.0 -12555900000.0 -12553500000.0 -12552200000.0 -12567000000.0 -12557100000.0 -12553000000.0 -12552600000.0 -12551800000.0 -12551500000.0 -12561200000.0 -12556300000.0 -12554300000.0 -12565800000.0 -12581500000.0 -12602900000.0 -12593300000.0 -12599200000.0 -12586400000.0 -12626900000.0 -12553900000.0 -12556600000.0 -12554500000.0 -12579400000.0 -12651500000.0 -12552200000.0 -12573700000.0 -12571700000.0 -12549700000.0 -12561900000.0 -12558900000.0 -12592500000.0 -12554600000.0 -12558200000.0 -12550800000.0 -12570700000.0 -12654100000.0 -12580700000.0 -12582100000.0 -12609900000.0 -12569300000.0 -12605800000.0 -12568300000.0 -12613500000.0 -12678300000.0 -12643000000.0 -12643800000.0 -12650200000.0 -12647300000.0 -12639400000.0 -12565600000.0 -12641600000.0 -12559800000.0 -12596500000.0 -12549700000.0 -12550000000.0 -12549700000.0 -12549700000.0 -12549700000.0 -12549900000.0 -12549700000.0 -12553800000.0 -12562000000.0 -12549700000.0 -12572800000.0 -12549700000.0 -12549700000.0 -12549700000.0 -12554100000.0 -12550500000.0 -12549800000.0 -12549700000.0 -12549900000.0 -12556900000.0 -12551100000.0 -12555000000.0 -12568700000.0 -12564900000.0 -12601300000.0 -12559100000.0 -12592300000.0 -12552500000.0 -12562600000.0 -12587200000.0 -12559200000.0 -12575700000.0 -12552100000.0 -12556900000.0 -12561100000.0 -12586700000.0 -12552700000.0 -12560100000.0 -12565800000.0 -12563300000.0 -12595700000.0 -12558500000.0 -12554400000.0 -12551300000.0 -12555800000.0 -12579800000.0 -12659800000.0 -12587500000.0 -12549700000.0 -12549700000.0 -12556100000.0 -12598600000.0 -12603100000.0 -12579400000.0 -12557300000.0 -12649500000.0 -12549700000.0 -12583900000.0 -12651900000.0 -12558600000.0 -12581900000.0 -12549700000.0 -12549700000.0 -12612500000.0 -12553900000.0 -12598000000.0 -12611200000.0 -12550300000.0 -12596000000.0 -12593000000.0 -12569200000.0 -12621000000.0 -12840600000.0 -12578600000.0 -12569600000.0 -12565100000.0 -12550300000.0 -12690800000.0 -12561000000.0 -12606900000.0 -12586700000.0 -12608600000.0 -12682100000.0 -12549700000.0 -12620300000.0 -12605300000.0 -12580300000.0 -12660100000.0 -12587800000.0 -12581200000.0 -12589700000.0 -12561400000.0 -12620400000.0 -12609800000.0 -12549700000.0 -12708200000.0 -12557800000.0 -12598300000.0 -12698200000.0 -12606100000.0 -12552700000.0 -12632400000.0 -12581100000.0 -12593500000.0 -12578600000.0 -12579900000.0 -12573700000.0 -12583100000.0 -12553000000.0 -12567100000.0 -12549700000.0 -12575700000.0 -12562900000.0 -12553800000.0 -12549700000.0 -12549700000.0 -12590900000.0 -12550200000.0 -12552800000.0 -12562300000.0 -12549700000.0 -12557900000.0 -12555200000.0 -12553900000.0 -12554800000.0 -12550200000.0 -12560500000.0 -12569400000.0 -12550800000.0 -12560500000.0 -12589200000.0 -12582900000.0 -12641600000.0 -12605600000.0 -12584700000.0 -12574500000.0 -12637800000.0 -12668000000.0 -12549900000.0 -12551100000.0 -12549700000.0 -12620900000.0 -12591000000.0 -12645100000.0 -12553900000.0 -12562900000.0 -12551400000.0 -12552900000.0 -12550600000.0 -12603500000.0 -12576900000.0 -12590700000.0 -12569300000.0 -12626600000.0 -12588900000.0 -12579500000.0 -12572000000.0 -12594300000.0 -12685200000.0 -12653900000.0 -12610400000.0 -12671200000.0 -12599200000.0 -12638300000.0 -12614900000.0 -12604200000.0 -12591300000.0 -12628500000.0 -12777100000.0 -12751500000.0 -12895300000.0 -12582200000.0 -12787200000.0 -12556000000.0 -12671300000.0 -12672200000.0 -12603200000.0 -12646700000.0 -12618900000.0 -12594300000.0 -12574700000.0 -12688600000.0 -12552500000.0 -12567000000.0 -12556900000.0 -12710400000.0 -12723200000.0 -12624500000.0 -12616000000.0 -12614800000.0 -12555700000.0 -12614200000.0 -12549700000.0 -12814700000.0 -12568100000.0 -12651300000.0 -12794300000.0 -12592700000.0 -12591900000.0 -12577400000.0 -12664000000.0 -12655000000.0 -12562500000.0 -12620100000.0 -12549700000.0 -12558500000.0 -12557200000.0 -12614600000.0 -12567900000.0 -12569700000.0 -12563200000.0 -12582800000.0 -12558500000.0 -12567500000.0 -12561000000.0 -12562400000.0 -12587400000.0 -12570000000.0 -12598300000.0 -12571500000.0 -12561500000.0 -12549700000.0 -12564300000.0 -12551700000.0 -12550800000.0 -12553300000.0 -12558100000.0 -12577700000.0 -12597700000.0 -12586800000.0 -12569300000.0 -12574500000.0 -12629300000.0 -12646800000.0 -12634400000.0 -12561400000.0 -12565300000.0 -12668200000.0 -12603000000.0 -12562800000.0 -12592400000.0 -12750900000.0 -12589400000.0 -12566600000.0 -12626100000.0 -12552200000.0 -12562200000.0 -12622300000.0 -12642700000.0 -12573200000.0 -12763200000.0 -12573600000.0 -12578900000.0 -12642400000.0 -12568800000.0 -12674100000.0 -12549700000.0 -12549700000.0 -12549700000.0 -12549700000.0 -12643800000.0 -12670900000.0 -12829800000.0 -12563600000.0 -12630100000.0 -12688000000.0 -12738300000.0 -12725800000.0 -12712200000.0 -12772200000.0 -12729400000.0 -12675300000.0 -12586900000.0 -12703500000.0 -12873300000.0 -12573800000.0 -12681000000.0 -12845100000.0 -12907500000.0 -12878000000.0 -12552900000.0 -12763500000.0 -12662200000.0 -12555800000.0 -12712600000.0 -12555800000.0 -12708000000.0 -12901400000.0 -12931700000.0 -12864200000.0 -12598200000.0 -12657700000.0 -12721100000.0 -12563400000.0 -12791900000.0 -12599900000.0 -12557900000.0 -12594500000.0 -12554800000.0 -12764800000.0 -12732200000.0 -12563800000.0 -12614100000.0 -12698300000.0 -12700700000.0 -12607700000.0 -12684800000.0 -12660000000.0 -12559200000.0 -12635400000.0 -12594600000.0 -12557500000.0 -12614300000.0 -12689700000.0 -12681900000.0 -12550900000.0 -12679000000.0 -12578500000.0 -12550100000.0 -12655600000.0 -12580900000.0 -12689100000.0 -12684000000.0 -12705300000.0 -12725000000.0 -12558200000.0 -12653400000.0 -12567400000.0 -12619100000.0 -12644300000.0 -12576200000.0 -12558900000.0 -12551500000.0 -12655900000.0 -12729800000.0 -12687300000.0 -12611200000.0 -12623100000.0 -12568700000.0 -12550500000.0 -12569000000.0 -12635700000.0 -12550800000.0 -12653100000.0 -12633600000.0 -12648200000.0 -12714800000.0 -12570000000.0 -12745400000.0 -12743400000.0 -12699200000.0 -12823100000.0 -12640000000.0 -12709600000.0 -12566800000.0 -12711200000.0 -12731100000.0 -12656100000.0 -12552000000.0 -12559400000.0 -12796000000.0 -12554000000.0 -12795200000.0 -12817600000.0 -12676800000.0 -12558700000.0 -12581800000.0 -12716300000.0 -12745000000.0 -12756100000.0 -12762000000.0 -12784800000.0 -12837600000.0 -12594400000.0 -12708000000.0 -12676200000.0 -12667700000.0 -12795300000.0 -12767300000.0 -12550300000.0 -12693900000.0 -12942800000.0 -12879000000.0 -12623900000.0 -12625200000.0 -12670300000.0 -12741300000.0 -12765600000.0 -12637000000.0 -12593200000.0 -12553200000.0 -12779100000.0 -12680700000.0 -12714300000.0 -12642700000.0 -12658300000.0 -12976200000.0 -12555400000.0 -12758300000.0 -12822700000.0 -12829900000.0 -12672700000.0 -12703500000.0 -12597700000.0 -12609400000.0 -12616900000.0 -12559900000.0 -12569900000.0 -12567200000.0 -12710100000.0 -12595700000.0 -12690300000.0 -12551800000.0 -12671400000.0 -12606500000.0 -12600400000.0 -12720800000.0 -12632000000.0 -12563500000.0 -12593100000.0 -12550400000.0 -12630400000.0 -12656700000.0 -12623400000.0 -12652300000.0 -12549800000.0 -12720000000.0 -12558900000.0 -12616300000.0 -12633600000.0 -12783000000.0 -12569800000.0 -12558700000.0 -12586600000.0 -12611300000.0 -12624300000.0 -12558800000.0 -12589900000.0 -12565500000.0 -12597300000.0 -12735800000.0 -12731100000.0 -12561800000.0 -12863700000.0 -12709000000.0 -12665500000.0 -12898300000.0 -12666800000.0 -12591400000.0 -12816800000.0 -12656500000.0 -12571400000.0 -12674000000.0 -12708700000.0 -12754800000.0 -12553200000.0 -13101400000.0 -12595700000.0 -12748100000.0 -12644200000.0 -12644300000.0 -12963700000.0 -12616000000.0 -13062200000.0 -12636500000.0 -13155200000.0 -12696900000.0 -12654900000.0 -12590900000.0 -13279800000.0 -12711800000.0 -12912900000.0 -12861900000.0 -13102800000.0 -13162600000.0 -12642100000.0 -12648800000.0 -12700800000.0 -12801700000.0 -12650800000.0 -12667000000.0 -12549700000.0 -12689300000.0 -12598900000.0 -12583100000.0 -12860600000.0 -12562500000.0 -12692600000.0 -12704900000.0 -13255600000.0 -12697900000.0 -13032700000.0 -12704400000.0 -12900300000.0 -12802800000.0 -12574700000.0 -12752200000.0 -12770700000.0 -12549900000.0 -12669700000.0 -12573600000.0 -12582100000.0 -12659000000.0 -12605000000.0 -12554100000.0 -12618600000.0 -12613000000.0 -12636900000.0 -12659200000.0 -12550300000.0 -12558500000.0 -12600900000.0 -12695700000.0 -12672200000.0 -12643200000.0 -12681000000.0 -12593400000.0 -12570500000.0 -12576200000.0 -12593600000.0 -12555200000.0 -12608500000.0 -12587100000.0 -12569300000.0 -12639500000.0 -12684700000.0 -12681800000.0 -12623300000.0 -12643500000.0 -12641200000.0 -12564400000.0 -12589300000.0 -12650800000.0 -12626500000.0 -12653400000.0 -12681000000.0 -12893500000.0 -12673900000.0 -12697100000.0 -12768000000.0 -12575400000.0 -12667000000.0 -12638100000.0 -12549700000.0 -12608700000.0 -12589800000.0 -12979200000.0 -12619500000.0 -12648800000.0 -12639600000.0 -12656400000.0 -12929900000.0 -12965700000.0 -12659400000.0 -12553600000.0 -12948400000.0 -12899000000.0 -12884000000.0 -13013400000.0 -13081900000.0 -13179600000.0 -13228000000.0 -13065100000.0 -12932000000.0 -12850900000.0 -13422300000.0 -12560200000.0 -12695900000.0 -12724400000.0 -12682400000.0 -12675100000.0 -12726400000.0 -12654500000.0 -12582000000.0 -12714700000.0 -12549700000.0 -12905300000.0 -12847900000.0 -12563200000.0 -12569600000.0 -12553500000.0 -12551200000.0 -12659200000.0 -12549700000.0 -12549700000.0 -12549700000.0 -13208600000.0 -13215300000.0 -13185500000.0 -12701300000.0 -12917800000.0 -12577900000.0 -12838200000.0 -12894200000.0 -12876900000.0 -12860400000.0 -12907300000.0 -12683200000.0 -12683300000.0 -12749800000.0 -12711900000.0 -12558100000.0 -12701400000.0 -12623300000.0 -12572700000.0 -12614600000.0 -12657700000.0 -12573100000.0 -12617400000.0 -12562700000.0 -12626500000.0 -12588300000.0 -12589700000.0 -12584800000.0 -12569500000.0 -12641800000.0 -12682300000.0 -12732700000.0 -12751500000.0 -12661400000.0 -12587800000.0 -12702100000.0 -12576300000.0 -12589600000.0 -12624000000.0 -12674000000.0 -12590600000.0 -12770100000.0 -12578800000.0 -12601200000.0 -12590700000.0 -12589100000.0 -12821800000.0 -12559600000.0 -12767000000.0 -12833300000.0 -13007400000.0 -12892000000.0 -12956800000.0 -12904600000.0 -13102500000.0 -12957300000.0 -12927300000.0 -12649900000.0 -12560000000.0 -12628500000.0 -12573600000.0 -12824700000.0 -12549700000.0 -12773200000.0 -12785300000.0 -13122700000.0 -12872000000.0 -12556500000.0 -12595200000.0 -12705000000.0 -12549700000.0 -12726100000.0 -12665500000.0 -12772700000.0 -12720000000.0 -12776300000.0 -12668300000.0 -12608700000.0 -12730400000.0 -12878900000.0 -12739500000.0 -13038600000.0 -12788000000.0 -12778000000.0 -12669400000.0 -12899300000.0 -12716000000.0 -12874300000.0 -12700000000.0 -12761200000.0 -12552100000.0 -13506600000.0 -12549700000.0 -12897800000.0 -12676400000.0 -12551600000.0 -12827500000.0 -12663600000.0 -12680800000.0 -12755300000.0 -12850400000.0 -12550100000.0 -12607900000.0 -12694500000.0 -12728300000.0 -12943100000.0 -13059800000.0 -13074800000.0 -12554000000.0 -12800300000.0 -12633900000.0 -12572900000.0 -12594400000.0 -12549700000.0 -12658700000.0 -12693100000.0 -12552500000.0 -12551000000.0 -12665000000.0 -12613900000.0 -12564100000.0 -12564200000.0 -12589500000.0 -12573600000.0 -12549700000.0 -12619800000.0 -12620500000.0 -12554500000.0 -12649700000.0 -12617900000.0 -12635500000.0 -12613100000.0 -12579600000.0 -12631600000.0 -12657400000.0 -12622900000.0 -12651900000.0 -12643100000.0 -12549700000.0 -12666900000.0 -12692900000.0 -12744300000.0 -12659800000.0 -12768700000.0 -12824100000.0 -12806800000.0 -12551200000.0 -12734600000.0 -12780900000.0 -12549700000.0 -12778700000.0 -12549900000.0 -12560800000.0 -12837600000.0 -12746300000.0 -12549700000.0 -12749600000.0 -12758300000.0 -12757700000.0 -12969000000.0 -12562300000.0 -12579300000.0 -12939100000.0 -12770000000.0 -12884900000.0 -13012800000.0 -12906400000.0 -12571200000.0 -12647000000.0 -12574800000.0 -12701900000.0 -12853100000.0 -12879300000.0 -12608100000.0 -12626900000.0 -12551900000.0 -12752300000.0 -12909400000.0 -12875100000.0 -13083500000.0 -12833000000.0 -12611000000.0 -12549700000.0 -12900900000.0 -13150300000.0 -12824900000.0 -13119600000.0 -13161400000.0 -12640300000.0 -12740500000.0 -13279000000.0 -12828500000.0 -12740200000.0 -13683500000.0 -12848900000.0 -12897900000.0 -12733400000.0 -12566100000.0 -12738100000.0 -12897100000.0 -12888600000.0 -12658000000.0 -12553400000.0 -12633200000.0 -12842300000.0 -12681500000.0 -12730200000.0 -12741100000.0 -12579000000.0 -12591600000.0 -12589400000.0 -12636700000.0 -12648800000.0 -12976400000.0 -12577700000.0 -13040100000.0 -12568800000.0 -12553300000.0 -12560800000.0 -12608200000.0 -12880700000.0 -12549700000.0 -12631900000.0 -12569700000.0 -12581600000.0 -12577200000.0 -12632700000.0 -12589100000.0 -12554900000.0 -12587800000.0 -12629100000.0 -12575300000.0 -12638400000.0 -12713700000.0 -12553400000.0 -12628400000.0 -12601400000.0 -12608500000.0 -12550100000.0 -12550800000.0 -12560700000.0 -12575200000.0 -12552300000.0 -12571900000.0 -12558600000.0 -12550000000.0 -12730600000.0 -12549700000.0 -12687700000.0 -12683100000.0 -12560600000.0 -12681900000.0 -12551300000.0 -12549700000.0 -12549800000.0 -12553700000.0 -12638700000.0 -12634800000.0 -12693000000.0 -12564100000.0 -12609100000.0 -12682500000.0 -12656600000.0 -12686400000.0 -12625100000.0 -12942700000.0 -13021400000.0 -12549700000.0 -12746800000.0 -12591900000.0 -13150200000.0 -12740300000.0 -13097700000.0 -12628000000.0 -12862100000.0 -12723200000.0 -12752500000.0 -12742300000.0 -12563500000.0 -12722400000.0 -13090100000.0 -12740900000.0 -12636800000.0 -12711300000.0 -12755800000.0 -12837500000.0 -13267100000.0 -12766800000.0 -12684400000.0 -13071100000.0 -13041400000.0 -12577900000.0 -13010900000.0 -12878000000.0 -12839200000.0 -12606700000.0 -13230100000.0 -12612200000.0 -13542000000.0 -13205400000.0 -13158900000.0 -13847400000.0 -13279300000.0 -13089500000.0 -12979300000.0 -13100600000.0 -12587500000.0 -12671700000.0 -12814500000.0 -12561700000.0 -12554200000.0 -12825400000.0 -12550500000.0 -12680600000.0 -12777100000.0 -12591500000.0 -12835500000.0 -12670700000.0 -12590100000.0 -12647800000.0 -12685800000.0 -12838700000.0 -12794800000.0 -12613500000.0 -12629700000.0 -12851900000.0 -12713500000.0 -12640700000.0 -12706100000.0 -12755500000.0 -12561300000.0 -12704700000.0 -12552500000.0 -12641800000.0 -12594900000.0 -12665800000.0 -12556500000.0 -12760900000.0 -12603200000.0 -12571400000.0 -12694300000.0 -12657500000.0 -12577300000.0 -12666800000.0 -12580000000.0 -12579300000.0 -12585300000.0 -12578900000.0 -12557500000.0 -12551600000.0 -12558900000.0 -12641300000.0 -12625500000.0 -12724700000.0 -12703900000.0 -12719100000.0 -12631700000.0 -12638900000.0 -12556100000.0 -12760100000.0 -12549700000.0 -12568700000.0 -12551000000.0 -12599200000.0 -12611800000.0 -12694800000.0 -12733900000.0 -12661700000.0 -12629700000.0 -12897600000.0 -12549700000.0 -12932100000.0 -12895100000.0 -12968300000.0 -13165900000.0 -13412700000.0 -12608900000.0 -13184000000.0 -12949100000.0 -12875700000.0 -12800500000.0 -12590200000.0 -12738300000.0 -12643300000.0 -12605000000.0 -12812800000.0 -12957200000.0 -12623800000.0 -12986000000.0 -13034800000.0 -12996400000.0 -12594700000.0 -12549700000.0 -13020200000.0 -12705500000.0 -12819300000.0 -12572900000.0 -13219500000.0 -12652800000.0 -12937200000.0 -12665800000.0 -12560700000.0 -12659300000.0 -13133900000.0 -12693700000.0 -13037600000.0 -12549700000.0 -12963300000.0 -12549700000.0 -13199100000.0 -13696100000.0 -13778100000.0 -13631600000.0 -13556900000.0 -13693700000.0 -12590000000.0 -13648100000.0 -13722100000.0 -13661400000.0 -13248400000.0 -12568700000.0 -12692800000.0 -13182900000.0 -13140900000.0 -12953000000.0 -12815100000.0 -12923900000.0 -12552300000.0 -12861300000.0 -12916000000.0 -12681100000.0 -12608200000.0 -12601200000.0 -12565400000.0 -12693900000.0 -12708600000.0 -12609000000.0 -12641600000.0 -12725500000.0 -12636100000.0 -12644100000.0 -12627700000.0 -12549700000.0 -12663900000.0 -12591500000.0 -12666900000.0 -12549700000.0 -12741400000.0 -12739800000.0 -12793100000.0 -12754300000.0 -12683000000.0 -12594600000.0 -12593300000.0 -12684100000.0 -12767600000.0 -12655100000.0 -12672700000.0 -12618800000.0 -12598600000.0 -12630100000.0 -12746300000.0 -12690000000.0 -12776000000.0 -12730200000.0 -12948500000.0 -12657500000.0 -12723500000.0 -12952300000.0 -12549700000.0 -12549700000.0 -13385100000.0 -13412300000.0 -12923600000.0 -13112400000.0 -12876300000.0 -12988100000.0 -12608800000.0 -12823700000.0 -12874200000.0 -12656700000.0 -12833600000.0 -12810800000.0 -12549700000.0 -12954100000.0 -13108700000.0 -12637000000.0 -12619900000.0 -13263700000.0 -13434200000.0 -12780900000.0 -12551700000.0 -12549900000.0 -12877100000.0 -13012200000.0 -13586300000.0 -12708000000.0 -12894600000.0 -12653800000.0 -12611400000.0 -12695300000.0 -12585500000.0 -13356100000.0 -12627800000.0 -13443300000.0 -13340400000.0 -12914700000.0 -12984400000.0 -12620100000.0 -12587000000.0 -13319400000.0 -12561800000.0 -12652500000.0 -12606700000.0 -12743600000.0 -12945900000.0 -12816900000.0 -12875600000.0 -12795600000.0 -12890800000.0 -12551900000.0 -12552400000.0 -13216800000.0 -13456100000.0 -13034500000.0 -12644500000.0 -12700900000.0 -12624400000.0 -12637600000.0 -12638200000.0 -12571400000.0 -12616100000.0 -12565200000.0 -12560100000.0 -12572400000.0 -12554200000.0 -12701000000.0 -12621800000.0 -12655900000.0 -12647800000.0 -12573800000.0 -12595400000.0 -12614600000.0 -12863900000.0 -12770700000.0 -12573100000.0 -12608300000.0 -12741400000.0 -12709500000.0 -12563900000.0 -12724400000.0 -12741900000.0 -12605700000.0 -12621000000.0 -12560200000.0 -12750400000.0 -12648200000.0 -12697900000.0 -12714900000.0 -12557200000.0 -12762900000.0 -12578100000.0 -12552700000.0 -12615200000.0 -12590100000.0 -12560000000.0 -12833500000.0 -12575300000.0 -12734800000.0 -12678200000.0 -12979800000.0 -12602100000.0 -12610500000.0 -12966000000.0 -13145300000.0 -13500800000.0 -13333000000.0 -13104500000.0 -12625000000.0 -12742400000.0 -12639000000.0 -12560500000.0 -12573600000.0 -12979000000.0 -12574900000.0 -12604400000.0 -12655200000.0 -13243800000.0 -13178000000.0 -12554700000.0 -12656700000.0 -13099800000.0 -12925900000.0 -12671700000.0 -12931600000.0 -12598900000.0 -13222300000.0 -12854500000.0 -13053900000.0 -12889900000.0 -12992500000.0 -12880600000.0 -12786800000.0 -12699400000.0 -12555900000.0 -12632900000.0 -12990800000.0 -13139000000.0 -12762300000.0 -13175600000.0 -12796000000.0 -12981000000.0 -12740000000.0 -12685800000.0 -12567600000.0 -12979800000.0 -12952400000.0 -12721200000.0 -12623300000.0 -12876700000.0 -12614800000.0 -12558800000.0 -12552500000.0 -12562500000.0 -12549700000.0 -13106900000.0 -13136200000.0 -12559100000.0 -12926100000.0 -12626900000.0 -12674200000.0 -12649300000.0 -12606800000.0 -12722300000.0 -12600500000.0 -12662000000.0 -12590300000.0 -12584200000.0 -12629400000.0 -12573300000.0 -12555800000.0 -12577900000.0 -12550900000.0 -12574600000.0 -12596000000.0 -12549700000.0 -12715000000.0 -12721100000.0 -12681100000.0 -12551900000.0 -12584500000.0 -12698400000.0 -12586700000.0 -12651400000.0 -12649600000.0 -12601200000.0 -12920500000.0 -12590000000.0 -12552200000.0 -12739700000.0 -12574900000.0 -12612900000.0 -12555500000.0 -12609800000.0 -12590200000.0 -12867200000.0 -12594800000.0 -12675700000.0 -12630700000.0 -12553200000.0 -12867500000.0 -13259600000.0 -13138000000.0 -12597900000.0 -13132900000.0 -13024400000.0 -13213400000.0 -13431500000.0 -12558900000.0 -12562200000.0 -13529900000.0 -13008200000.0 -12753200000.0 -12559300000.0 -12685200000.0 -12593400000.0 -12676600000.0 -12634100000.0 -12621500000.0 -13298600000.0 -12826600000.0 -13335800000.0 -12733500000.0 -12828300000.0 -12930200000.0 -13093400000.0 -12580400000.0 -12818400000.0 -12551400000.0 -12950000000.0 -12940400000.0 -12814600000.0 -12786200000.0 -13046400000.0 -12723800000.0 -13039300000.0 -12737100000.0 -12790800000.0 -12576900000.0 -12951500000.0 -12881000000.0 -13168700000.0 -12979300000.0 -13149800000.0 -12761900000.0 -12670600000.0 -12934700000.0 -13068900000.0 -12716400000.0 -13180000000.0 -12836900000.0 -12881300000.0 -12881000000.0 -12875900000.0 -12609800000.0 -12561800000.0 -12570200000.0 -12560900000.0 -12573900000.0 -12552700000.0 -12628200000.0 -12646200000.0 -12922000000.0 -12628400000.0 -12600800000.0 -12695900000.0 -12653500000.0 -12613300000.0 -12660900000.0 -12564000000.0 -12638600000.0 -12643900000.0 -12651200000.0 -12651000000.0 -12569500000.0 -12598000000.0 -12566500000.0 -12558400000.0 -12550400000.0 -12590700000.0 -12553100000.0 -12579300000.0 -12550600000.0 -12549700000.0 -12624400000.0 -12604800000.0 -12609600000.0 -12779200000.0 -12706100000.0 -12633200000.0 -12557700000.0 -12637100000.0 -12754000000.0 -12592000000.0 -12610000000.0 -12649800000.0 -12607400000.0 -12570800000.0 -12555800000.0 -12564900000.0 -12952400000.0 -12681900000.0 -12730400000.0 -12870700000.0 -12554200000.0 -12835300000.0 -12604800000.0 -12663400000.0 -13242900000.0 -13656500000.0 -13588400000.0 -12575500000.0 -12551300000.0 -12552700000.0 -12550300000.0 -13153000000.0 -13442000000.0 -12572600000.0 -12586900000.0 -12861700000.0 -12601600000.0 -12685700000.0 -12580700000.0 -12564100000.0 -12726500000.0 -13311400000.0 -12906800000.0 -12549700000.0 -12573600000.0 -12791600000.0 -12852000000.0 -12552100000.0 -12672500000.0 -12714900000.0 -12755200000.0 -12598100000.0 -12585600000.0 -12692000000.0 -12698600000.0 -12557400000.0 -12690700000.0 -12623400000.0 -12989500000.0 -12670700000.0 -12686500000.0 -12753100000.0 -12981900000.0 -12835000000.0 -13033400000.0 -13021000000.0 -12963300000.0 -12843800000.0 -12622800000.0 -13112100000.0 -12797800000.0 -12549700000.0 -12692200000.0 -12663100000.0 -12763900000.0 -12816900000.0 -12788400000.0 -12598200000.0 -12560300000.0 -12571000000.0 -12552500000.0 -12556200000.0 -12597900000.0 -12968700000.0 -12878200000.0 -12550300000.0 -12549700000.0 -12602500000.0 -12576600000.0 -12635700000.0 -12600000000.0 -12560800000.0 -12588500000.0 -12565000000.0 -12568500000.0 -12577300000.0 -12605600000.0 -12741100000.0 -12549700000.0 -12612200000.0 -12558400000.0 -12655900000.0 -12666300000.0 -12690100000.0 -12705800000.0 -12629200000.0 -12582700000.0 -12574000000.0 -12588700000.0 -12602200000.0 -12709600000.0 -12621600000.0 -12768100000.0 -12700000000.0 -12658100000.0 -12594100000.0 -12671100000.0 -12594900000.0 -13066900000.0 -12573700000.0 -12792600000.0 -12872000000.0 -12897300000.0 -12748600000.0 -12803400000.0 -12659100000.0 -12761100000.0 -14455700000.0 -12954700000.0 -13180500000.0 -12981300000.0 -12954300000.0 -13425600000.0 -12563000000.0 -12618900000.0 -12981300000.0 -12709400000.0 -12823400000.0 -13494500000.0 -13425500000.0 -12789200000.0 -12728400000.0 -12763300000.0 -12869700000.0 -12759300000.0 -12687600000.0 -13082200000.0 -12676600000.0 -12580300000.0 -12928500000.0 -12753400000.0 -12832100000.0 -12967200000.0 -12549700000.0 -12855800000.0 -12765900000.0 -12685800000.0 -12944300000.0 -12802000000.0 -12718500000.0 -12935800000.0 -12710900000.0 -12775500000.0 -12550600000.0 -13004000000.0 -12852100000.0 -12794100000.0 -12555800000.0 -12553000000.0 -13030300000.0 -12995400000.0 -12549700000.0 -12602300000.0 -12714500000.0 -12799200000.0 -12596800000.0 -12576000000.0 -12754300000.0 -12587900000.0 -12577600000.0 -12560500000.0 -12574400000.0 -12570100000.0 -12565300000.0 -12571300000.0 -12753400000.0 -12716700000.0 -12814500000.0 -12623300000.0 -12685900000.0 -12584000000.0 -12575700000.0 -12595200000.0 -12572100000.0 -12601900000.0 -12581100000.0 -12620900000.0 -12605600000.0 -12555400000.0 -12669900000.0 -12622000000.0 -12659600000.0 -12549800000.0 -12553000000.0 -12568300000.0 -12694500000.0 -12575600000.0 -12648100000.0 -12680600000.0 -12679000000.0 -12549700000.0 -12704500000.0 -12683100000.0 -12648700000.0 -12597500000.0 -12592900000.0 -12549700000.0 -12801000000.0 -12810100000.0 -12716200000.0 -12549700000.0 -12816900000.0 -12556800000.0 -12662300000.0 -12632700000.0 -12842600000.0 -12897200000.0 -12990200000.0 -12810800000.0 -14822200000.0 -12975700000.0 -13161000000.0 -12933000000.0 -14004400000.0 -12751500000.0 -13440200000.0 -13146400000.0 -13150700000.0 -13554800000.0 -12554100000.0 -12964100000.0 -12580100000.0 -12584800000.0 -12549700000.0 -12986000000.0 -12676900000.0 -12778500000.0 -12686000000.0 -12959200000.0 -12651800000.0 -12801300000.0 -12848800000.0 -12647100000.0 -12564500000.0 -12549700000.0 -12551200000.0 -12551200000.0 -12554300000.0 -12659400000.0 -12803200000.0 -12719500000.0 -12643100000.0 -12854800000.0 -12561900000.0 -12689100000.0 -12836900000.0 -12718700000.0 -12557600000.0 -12837700000.0 -12634500000.0 -13055800000.0 -12556800000.0 -12992200000.0 -13055400000.0 -13028200000.0 -13087300000.0 -12847400000.0 -12563900000.0 -12549700000.0 -12566200000.0 -12553700000.0 -12582900000.0 -12552700000.0 -12556600000.0 -12656900000.0 -12554900000.0 -12715300000.0 -12768800000.0 -12688000000.0 -12623300000.0 -12557300000.0 -12557300000.0 -12572100000.0 -12571200000.0 -12555300000.0 -12600200000.0 -12560700000.0 -12604500000.0 -12554400000.0 -12619800000.0 -12567700000.0 -12567800000.0 -12560200000.0 -12580000000.0 -12552800000.0 -12550500000.0 -12550800000.0 -12566200000.0 -12549700000.0 -12550700000.0 -12618700000.0 -12674700000.0 -12551500000.0 -12556700000.0 -12787300000.0 -12654400000.0 -12804900000.0 -12741800000.0 -12845800000.0 -12670400000.0 -12614600000.0 -12753900000.0 -12635500000.0 -12631300000.0 -12912400000.0 -13101700000.0 -13034900000.0 -12706500000.0 -12550800000.0 -12631700000.0 -12642500000.0 -12550900000.0 -12920900000.0 -12664200000.0 -13161900000.0 -13330400000.0 -14030900000.0 -12558200000.0 -13612400000.0 -13785500000.0 -13372500000.0 -12899200000.0 -13521300000.0 -13206300000.0 -12922800000.0 -12950800000.0 -13182200000.0 -12906500000.0 -12998000000.0 -12660300000.0 -12617000000.0 -12958400000.0 -12585400000.0 -12575300000.0 -12614700000.0 -12664900000.0 -12716600000.0 -12672400000.0 -12549700000.0 -12585100000.0 -12654400000.0 -12589900000.0 -12591300000.0 -12747900000.0 -12787700000.0 -12593500000.0 -12549700000.0 -12763100000.0 -12619600000.0 -12604500000.0 -12633000000.0 -12685200000.0 -12678000000.0 -12587400000.0 -12659200000.0 -12677200000.0 -12721700000.0 -12731100000.0 -12741200000.0 -13234800000.0 -12764500000.0 -12560100000.0 -12549700000.0 -12566300000.0 -12554000000.0 -12552600000.0 -12576600000.0 -12566800000.0 -12552400000.0 -12619300000.0 -12581900000.0 -12688000000.0 -12558600000.0 -12549700000.0 -12630400000.0 -12607600000.0 -12552700000.0 -12560500000.0 -12550100000.0 -12570600000.0 -12602700000.0 -12554600000.0 -12553000000.0 -12559600000.0 -12559100000.0 -12550200000.0 -12552500000.0 -12558800000.0 -12549700000.0 -12550500000.0 -12550000000.0 -12552000000.0 -12579600000.0 -12620800000.0 -12577200000.0 -12667100000.0 -12664300000.0 -12697100000.0 -12607100000.0 -12580300000.0 -13035300000.0 -12932500000.0 -12917000000.0 -12879100000.0 -12946100000.0 -13046000000.0 -12550400000.0 -12980400000.0 -12744200000.0 -12788600000.0 -12881900000.0 -12718400000.0 -13395000000.0 -12567400000.0 -12975500000.0 -13670500000.0 -13515800000.0 -13450600000.0 -13537400000.0 -12603300000.0 -13139500000.0 -13049500000.0 -13255000000.0 -12742900000.0 -12855400000.0 -12549700000.0 -13497000000.0 -13030400000.0 -13146600000.0 -13063700000.0 -12935500000.0 -12580500000.0 -12564100000.0 -12620500000.0 -12600800000.0 -12636600000.0 -12643600000.0 -12653600000.0 -12675500000.0 -12676600000.0 -12549900000.0 -12636600000.0 -12551500000.0 -12577900000.0 -12576700000.0 -12670500000.0 -12562500000.0 -12811800000.0 -12590500000.0 -12763000000.0 -12619700000.0 -12737100000.0 -12703600000.0 -12586500000.0 -12609700000.0 -12628300000.0 -12634300000.0 -12628100000.0 -12679800000.0 -12657400000.0 -12622400000.0 -12908500000.0 -12550600000.0 -12549900000.0 -12828200000.0 -12951100000.0 -12655800000.0 -12567800000.0 -12596000000.0 -12599200000.0 -12595700000.0 -12595500000.0 -12584700000.0 -12586200000.0 -12585700000.0 -12666000000.0 -12636000000.0 -12593200000.0 -12646700000.0 -12633900000.0 -12567200000.0 -12592800000.0 -12596300000.0 -12596400000.0 -12587300000.0 -12575500000.0 -12550100000.0 -12549700000.0 -12552800000.0 -12550000000.0 -12558300000.0 -12563200000.0 -12553400000.0 -12552700000.0 -12559200000.0 -12552400000.0 -12550100000.0 -12552300000.0 -12564000000.0 -12556800000.0 -12643500000.0 -12550700000.0 -12553400000.0 -12808400000.0 -12635500000.0 -12822300000.0 -12754500000.0 -12597900000.0 -12811400000.0 -12970600000.0 -12652100000.0 -12568100000.0 -12686000000.0 -12656100000.0 -13454800000.0 -12942800000.0 -13195000000.0 -13186000000.0 -13242100000.0 -12846400000.0 -13238800000.0 -12576000000.0 -12764600000.0 -13851600000.0 -14809400000.0 -12653400000.0 -12633800000.0 -13625700000.0 -12728600000.0 -13398200000.0 -12593100000.0 -12742700000.0 -12549700000.0 -13610500000.0 -12762100000.0 -12568100000.0 -12736200000.0 -12986800000.0 -12570700000.0 -12689800000.0 -12696100000.0 -12672200000.0 -12670100000.0 -12603300000.0 -12676200000.0 -12662900000.0 -12591900000.0 -12645500000.0 -12551100000.0 -12568800000.0 -12605000000.0 -12560400000.0 -12565700000.0 -12694100000.0 -12640600000.0 -12636400000.0 -12549700000.0 -12659000000.0 -12638600000.0 -12706300000.0 -12549700000.0 -12616800000.0 -12604700000.0 -12554200000.0 -12551400000.0 -12550100000.0 -12628900000.0 -12563300000.0 -12697300000.0 -12710000000.0 -12737100000.0 -12668800000.0 -12863900000.0 -12622000000.0 -12567600000.0 -12549800000.0 -12549700000.0 -12560700000.0 -12557000000.0 -12554100000.0 -12559200000.0 -12557400000.0 -12556500000.0 -12554400000.0 -12558100000.0 -12580300000.0 -12557200000.0 -12560700000.0 -12562000000.0 -12565400000.0 -12575300000.0 -12582700000.0 -12565000000.0 -12564100000.0 -12568300000.0 -12571800000.0 -12580900000.0 -12574400000.0 -12578600000.0 -12579400000.0 -12568900000.0 -12586600000.0 -12602000000.0 -12620800000.0 -12739400000.0 -12688800000.0 -12691200000.0 -12779600000.0 -12575800000.0 -12649500000.0 -12557500000.0 -12974700000.0 -12842600000.0 -12684200000.0 -12573500000.0 -12615600000.0 -13183400000.0 -12749000000.0 -12596700000.0 -12617000000.0 -13474700000.0 -12549700000.0 -13065700000.0 -12843700000.0 -12734300000.0 -12550800000.0 -13949900000.0 -12623000000.0 -12574300000.0 -12553500000.0 -13549300000.0 -12570800000.0 -13461100000.0 -12933300000.0 -12990100000.0 -13285000000.0 -13321500000.0 -13001700000.0 -12628000000.0 -13067500000.0 -13013200000.0 -12720700000.0 -12672900000.0 -12681300000.0 -12682900000.0 -12785900000.0 -12792700000.0 -12678300000.0 -12643500000.0 -12668700000.0 -12645900000.0 -12614900000.0 -12603500000.0 -12597900000.0 -12687700000.0 -12589600000.0 -12586000000.0 -12593000000.0 -12585400000.0 -12620100000.0 -12634400000.0 -12787000000.0 -12583600000.0 -12693600000.0 -12656400000.0 -12582200000.0 -12629900000.0 -12632200000.0 -12628000000.0 -12573000000.0 -12601000000.0 -12583000000.0 -12551200000.0 -12582800000.0 -12649100000.0 -12590100000.0 -12612100000.0 -12551800000.0 -12557200000.0 -12549700000.0 -12550100000.0 -12555400000.0 -12552500000.0 -12550200000.0 -12549700000.0 -12556900000.0 -12575000000.0 -12550000000.0 -12549700000.0 -12549700000.0 -12549900000.0 -12549700000.0 -12583000000.0 -12558800000.0 -12576100000.0 -12574600000.0 -12572400000.0 -12571400000.0 -12566900000.0 -12570700000.0 -12564400000.0 -12576100000.0 -12591900000.0 -12617300000.0 -12643000000.0 -12723800000.0 -12577400000.0 -12611100000.0 -12596300000.0 -12748300000.0 -12657900000.0 -12872700000.0 -12552100000.0 -12919700000.0 -12762200000.0 -12796700000.0 -12919500000.0 -13007200000.0 -12560600000.0 -12635200000.0 -13569500000.0 -13179000000.0 -12731100000.0 -12897500000.0 -13976000000.0 -12637800000.0 -12748200000.0 -14164000000.0 -12552800000.0 -12568900000.0 -14140900000.0 -13494800000.0 -12672500000.0 -13004400000.0 -12818400000.0 -13027400000.0 -12843100000.0 -12559500000.0 -12549700000.0 -12688700000.0 -12759200000.0 -12766300000.0 -12785200000.0 -12683300000.0 -12719700000.0 -12563600000.0 -12592300000.0 -12557200000.0 -12549700000.0 -12552300000.0 -12549700000.0 -12631100000.0 -12571400000.0 -12578900000.0 -12578600000.0 -12589100000.0 -12703800000.0 -12592800000.0 -12584000000.0 -12583900000.0 -12568100000.0 -12585000000.0 -12622500000.0 -12549900000.0 -12557500000.0 -12589700000.0 -12551500000.0 -12676100000.0 -12763500000.0 -12647400000.0 -12560500000.0 -12551300000.0 -12554000000.0 -12549700000.0 -12549700000.0 -12549800000.0 -12550300000.0 -12553800000.0 -12551400000.0 -12549700000.0 -12549700000.0 -12549700000.0 -12561100000.0 -12555400000.0 -12549800000.0 -12549700000.0 -12550800000.0 -12550000000.0 -12558200000.0 -12552500000.0 -12552400000.0 -12550000000.0 -12558000000.0 -12557000000.0 -12567900000.0 -12574800000.0 -12574100000.0 -12570000000.0 -12606300000.0 -12627800000.0 -12635200000.0 -12657700000.0 -12688700000.0 -12706100000.0 -12637100000.0 -12726900000.0 -12696500000.0 -12725500000.0 -12896400000.0 -13027100000.0 -12551300000.0 -12966100000.0 -13163300000.0 -13326500000.0 -13502700000.0 -13618700000.0 -14196300000.0 -13574000000.0 -13383500000.0 -14152900000.0 -14591300000.0 -12561800000.0 -13518700000.0 -14266600000.0 -13379900000.0 -13685600000.0 -13357000000.0 -12891900000.0 -13538800000.0 -13079700000.0 -12896700000.0 -12677800000.0 -12581200000.0 -12594600000.0 -12649900000.0 -12707500000.0 -12558500000.0 -12572900000.0 -12566400000.0 -12827500000.0 -12649200000.0 -12678500000.0 -12588800000.0 -12581300000.0 -12569300000.0 -12577500000.0 -12569700000.0 -12609900000.0 -12554600000.0 -12550900000.0 -12554000000.0 -12555100000.0 -12551900000.0 -12589000000.0 -12549700000.0 -12556800000.0 -12558300000.0 -12646300000.0 -12627700000.0 -12664700000.0 -12683800000.0 -12567800000.0 -12612000000.0 -12582800000.0 -12603500000.0 -12552500000.0 -12552800000.0 -12550500000.0 -12549700000.0 -12549700000.0 -12549700000.0 -12549800000.0 -12551000000.0 -12550200000.0 -12549700000.0 -12549700000.0 -12549700000.0 -12551800000.0 -12549700000.0 -12549700000.0 -12549700000.0 -12549700000.0 -12549700000.0 -12550300000.0 -12555300000.0 -12553600000.0 -12553300000.0 -12553100000.0 -12551100000.0 -12551800000.0 -12557500000.0 -12552300000.0 -12556100000.0 -12566400000.0 -12577200000.0 -12555800000.0 -12573600000.0 -12563100000.0 -12576400000.0 -12781300000.0 -12607800000.0 -13180500000.0 -12978600000.0 -13187100000.0 -12565700000.0 -12740900000.0 -13248800000.0 -12714700000.0 -13827600000.0 -13002000000.0 -13841300000.0 -13427500000.0 -13051900000.0 -12625000000.0 -12710400000.0 -12813200000.0 -12745200000.0 -13562700000.0 -12991500000.0 -12661100000.0 -12671300000.0 -12656000000.0 -12647500000.0 -12579700000.0 -12646600000.0 -12559100000.0 -12552300000.0 -12551300000.0 -12553100000.0 -12581500000.0 -12560500000.0 -12557600000.0 -12634700000.0 -12598000000.0 -12585400000.0 -12597700000.0 -12559100000.0 -12556700000.0 -12564600000.0 -12565200000.0 -12549900000.0 -12563700000.0 -12568200000.0 -12576400000.0 -12638700000.0 -12583100000.0 -12576400000.0 -12583600000.0 -12560400000.0 -12564000000.0 -12553500000.0 -12554600000.0 -12624400000.0 -12602500000.0 -12576300000.0 -12550900000.0 -12553500000.0 -12550600000.0 -12554900000.0 -12560300000.0 -12554500000.0 -12596600000.0 -12605200000.0 -12568100000.0 -12605000000.0 -12712300000.0 -12876200000.0 -12695600000.0 -12663900000.0 -13143700000.0 -12765000000.0 -12838600000.0 -13246700000.0 -13275600000.0 -12800800000.0 -13017700000.0 -13449600000.0 -12959300000.0 -12550900000.0 -12974200000.0 -13126600000.0 -13627700000.0 -12934700000.0 -12811100000.0 -12814400000.0 -13321100000.0 -12572700000.0 -12558800000.0 -12612500000.0 -12559700000.0 -12552500000.0 -12549700000.0 -12556800000.0 -12567000000.0 -12549700000.0 -12552700000.0 -12553500000.0 -12556000000.0 -12564900000.0 -12552400000.0 -12605600000.0 -12684500000.0 -12683800000.0 -12605600000.0 -13009500000.0 -12659700000.0 -12578200000.0 -13223900000.0 -13066900000.0 -13009500000.0 -13035000000.0 -12549700000.0 -12867700000.0 -12700000000.0 -13879400000.0 -12968500000.0 -13472900000.0 -13230700000.0 -12737300000.0 -12834000000.0 -12773500000.0 -13265700000.0 -12615900000.0 -12710100000.0 -12768600000.0 -12860900000.0 -12762500000.0 -12704000000.0 -13229400000.0 -13740200000.0 -13064500000.0 -13188300000.0 -12894300000.0 -12623300000.0 -14467500000.0 -13271200000.0 -13563000000.0 -12924400000.0 -12735900000.0 -12760700000.0 -12549700000.0 -13432000000.0 -12575100000.0 -12593600000.0 -12707700000.0 -12656900000.0 -12779500000.0 -12751600000.0 -13097900000.0 -12553300000.0 -13000000000.0 -12613200000.0 -12605100000.0 -13547800000.0 -14233500000.0 -12549700000.0 -12902400000.0 -13216600000.0 -12549700000.0 -12814600000.0 -12783300000.0 -13220500000.0 -12576300000.0 -12580800000.0 -12549700000.0 -12814700000.0 -12796000000.0 -13239000000.0 -13128400000.0 -12665400000.0 -12988700000.0 -12603800000.0 -12618300000.0 -14114500000.0 -12786900000.0 -12632000000.0 -13199700000.0 -12659900000.0 -12769800000.0 -12703500000.0 -12971600000.0 -12616700000.0 -12577800000.0 -12576600000.0 -12549700000.0 -12549700000.0 -12549700000.0 -12588200000.0 -12737300000.0 -12740200000.0 -12730200000.0 -12875800000.0 -12682100000.0 -13075400000.0 -12846900000.0 -12851300000.0 -14129500000.0 -12625900000.0 -12745700000.0 -12713200000.0 -13020900000.0 -12690800000.0 -12981200000.0 -12771200000.0 -12642300000.0 -12549700000.0 -12549700000.0 -12549700000.0 -12549700000.0 -12549700000.0 -12549700000.0 -12549700000.0 -12549700000.0 -12549700000.0 -12549700000.0 -12549700000.0 -12549700000.0 -12549700000.0 -12549700000.0 -12549700000.0 -12549700000.0 -12549700000.0 -12549700000.0 -12576900000.0 -12708500000.0 -12641000000.0 -12629900000.0 -12769400000.0 -12872300000.0 -12924300000.0 -12690200000.0 -12918000000.0 -14186500000.0 -12704600000.0 -12662400000.0 -12585100000.0 -13127900000.0 -13167400000.0 -13156800000.0 -12703400000.0 -12676100000.0 -12592400000.0 -12569000000.0 -12549700000.0 -12549700000.0 -12549700000.0 -12549700000.0 -12549700000.0 -12549700000.0 -12549700000.0 -12549700000.0 -12549700000.0 -12549700000.0 -12549700000.0 -12549700000.0 -12549700000.0 -12549700000.0 -12549700000.0 -12549700000.0 -12549700000.0 -12549700000.0 -12549700000.0 -12549700000.0 -12549700000.0 -12549700000.0 -12549700000.0 -12549700000.0 -12549700000.0 -12549700000.0 -12549700000.0 -12549700000.0 -12549800000.0 -12549700000.0 -12549700000.0 -12562600000.0 -12677200000.0 -12611600000.0 -12555900000.0 -12616700000.0 -12826700000.0 -13223000000.0 -13126400000.0 -12966300000.0 -12790400000.0 -12930200000.0 -13564200000.0 -12583800000.0 -12678000000.0 -12569900000.0 -12996600000.0 -12828100000.0 -12562300000.0 -12553000000.0 -12551000000.0 -12785700000.0 -12583200000.0 -12554000000.0 -12549700000.0 -12549700000.0 -12549700000.0 -12549700000.0 -12549700000.0 -12549700000.0 -12549700000.0 -12549700000.0 -12549700000.0 -12549700000.0 -12549700000.0 -12549700000.0 -12549700000.0 -12549700000.0 -12549700000.0 -12549700000.0 -12549700000.0 -12549700000.0 -12549700000.0 -12549700000.0 -12549700000.0 -12549700000.0 -12549700000.0 -12549700000.0 -12549700000.0 -12549700000.0 -12549700000.0 -12549700000.0 -12549700000.0 -12549700000.0 -12549700000.0 -12549700000.0 -12549700000.0 -12549700000.0 -12549700000.0 -12549700000.0 -12549700000.0 -12552200000.0 -12568400000.0 -12590300000.0 -12721400000.0 -12616700000.0 -12638700000.0 -12769000000.0 -12863600000.0 -12906000000.0 -12763500000.0 -12624300000.0 -12705500000.0 -12813300000.0 -13628800000.0 -12740900000.0 -12802900000.0 -13068100000.0 -12918000000.0 -12588800000.0 -12590600000.0 -12793100000.0 -12555900000.0 -12561400000.0 -12576200000.0 -12591700000.0 -12562700000.0 -12554000000.0 -12550200000.0 -12549900000.0 -12549700000.0 -12549700000.0 -12549700000.0 -12549700000.0 -12549700000.0 -12549700000.0 -12549700000.0 -12549700000.0 -12549700000.0 -12549700000.0 -12549700000.0 -12549700000.0 -12549700000.0 -12549700000.0 -12549700000.0 -12549700000.0 -12549700000.0 -12549700000.0 -12549700000.0 -12549700000.0 -12549700000.0 -12549700000.0 -12549700000.0 -12549700000.0 -12549700000.0 -12549700000.0 -12549700000.0 -12549700000.0 -12549700000.0 -12549700000.0 -12549700000.0 -12549700000.0 -12549700000.0 -12549700000.0 -12549700000.0 -12549700000.0 -12549700000.0 -12549700000.0 -12549700000.0 -12549700000.0 -12549700000.0 -12549800000.0 -12562100000.0 -12578600000.0 -12634300000.0 -12628400000.0 -12716200000.0 -12747600000.0 -12717000000.0 -12702100000.0 -12852700000.0 -12770500000.0 -12857200000.0 -13162700000.0 -13046800000.0 -13342800000.0 -13243300000.0 -13034700000.0 -12574900000.0 -12718700000.0 -12735200000.0 -12550600000.0 -12578400000.0 -12551900000.0 -12549700000.0 -12549700000.0 -12549700000.0 -12549700000.0 -12549700000.0 -12549700000.0 -12549700000.0 -12549700000.0 -12549700000.0 -12549700000.0 -12549700000.0 -12549700000.0 -12549700000.0 -12549700000.0 -12549700000.0 -12549700000.0 -12549700000.0 -12549700000.0 -12549700000.0 -12549700000.0 -12549700000.0 -12549700000.0 -12549700000.0 -12549700000.0 -12549700000.0 -12549700000.0 -12549700000.0 -12549700000.0 -12549700000.0 -12549700000.0 -12549700000.0 -12549700000.0 -12549700000.0 -12549700000.0 -12549700000.0 -12549700000.0 -12549700000.0 -12549700000.0 -12549700000.0 -12549700000.0 -12549700000.0 -12549700000.0 -12549700000.0 -12550100000.0 -12549700000.0 -12554100000.0 -12597100000.0 -12575400000.0 -12608600000.0 -12573900000.0 -12771800000.0 -12550500000.0 -12726300000.0 -12681100000.0 -12670200000.0 -12946800000.0 -12738300000.0 -13218900000.0 -12549700000.0 -12867000000.0 -12991500000.0 -13340100000.0 -12732000000.0 -12676100000.0 -12618700000.0 -12625000000.0 -12557600000.0 -12552900000.0 -12550600000.0 -12550200000.0 -12549900000.0 -12549700000.0 -12549700000.0 -12549700000.0 -12549700000.0 -12549700000.0 -12549700000.0 -12549700000.0 -12549700000.0 -12549700000.0 -12549700000.0 -12549700000.0 -12549700000.0 -12549700000.0 -12549700000.0 -12549700000.0 -12549700000.0 -12549700000.0 -12549700000.0 -12549700000.0 -12549700000.0 -12549700000.0 -12549700000.0 -12549700000.0 -12549700000.0 -12549700000.0 -12549700000.0 -12549700000.0 -12549700000.0 -12549700000.0 -12549700000.0 -12549700000.0 -12549700000.0 -12549700000.0 -12549700000.0 -12549700000.0 -12549700000.0 -12549700000.0 -12549700000.0 -12549700000.0 -12549700000.0 -12549700000.0 -12549700000.0 -12549700000.0 -12549700000.0 -12549700000.0 -12549700000.0 -12549700000.0 -12549700000.0 -12550200000.0 -12554400000.0 -12556700000.0 -12578500000.0 -12620500000.0 -12589100000.0 -12557500000.0 -12897900000.0 -12834200000.0 -12730500000.0 -12901400000.0 -12938600000.0 -12693900000.0 -12672600000.0 -13090600000.0 -12557200000.0 -12982800000.0 -12882300000.0 -12567600000.0 -12967800000.0 -12973700000.0 -12756000000.0 -12597500000.0 -12552900000.0 -12549700000.0 -12549700000.0 -12549800000.0 -12549700000.0 -12549700000.0 -12549700000.0 -12549700000.0 -12549700000.0 -12549700000.0 -12549700000.0 -12549700000.0 -12549700000.0 -12549700000.0 -12549700000.0 -12549700000.0 -12549700000.0 -12549700000.0 -12549700000.0 -12549700000.0 -12549700000.0 -12549700000.0 -12549700000.0 -12549700000.0 -12549700000.0 -12549700000.0 -12549700000.0 -12549700000.0 -12549700000.0 -12549700000.0 -12549700000.0 -12549700000.0 -12549700000.0 -12549700000.0 -12549700000.0 -12549700000.0 -12549700000.0 -12549700000.0 -12549700000.0 -12549700000.0 -12549700000.0 -12549700000.0 -12549700000.0 -12549700000.0 -12549700000.0 -12549700000.0 -12549700000.0 -12549700000.0 -12549700000.0 -12549700000.0 -12561500000.0 -12549700000.0 -12669000000.0 -12792400000.0 -12796100000.0 -12550100000.0 -12564100000.0 -12611500000.0 -12688200000.0 -12611600000.0 -12553800000.0 -12806700000.0 -12609500000.0 -12593600000.0 -12586600000.0 -12801400000.0 -12766200000.0 -12882600000.0 -12724200000.0 -12744500000.0 -12603700000.0 -12558200000.0 -12575800000.0 -12556600000.0 -12567300000.0 -12551300000.0 -12549700000.0 -12549700000.0 -12549700000.0 -12549700000.0 -12549700000.0 -12549700000.0 -12549700000.0 -12549700000.0 -12549700000.0 -12549700000.0 -12549700000.0 -12549700000.0 -12549700000.0 -12549700000.0 -12549700000.0 -12549700000.0 -12549700000.0 -12549700000.0 -12549700000.0 -12549700000.0 -12549700000.0 -12549700000.0 -12549700000.0 -12549700000.0 -12549700000.0 -12549700000.0 -12549700000.0 -12549700000.0 -12549700000.0 -12549700000.0 -12549700000.0 -12549700000.0 -12549700000.0 -12549700000.0 -12549700000.0 -12549700000.0 -12549700000.0 -12549700000.0 -12549700000.0 -12549700000.0 -12556400000.0 -12713100000.0 -12568000000.0 -12584300000.0 -12583100000.0 -12627300000.0 -12555700000.0 -12596800000.0 -12756700000.0 -12586300000.0 -12579500000.0 -12549700000.0 -13030600000.0 -12967500000.0 -12549700000.0 -12549700000.0 -12559500000.0 -12681100000.0 -12568100000.0 -12549700000.0 -12549700000.0 -12549700000.0 -12549700000.0 -12549700000.0 -12549700000.0 -12549700000.0 -12549700000.0 -12549700000.0 -12549700000.0 -12549700000.0 -12549700000.0 -12549700000.0 -12549700000.0 -12549700000.0 -12549700000.0 -12549700000.0 -12549700000.0 -12549700000.0 -12549700000.0 -12549700000.0 -12549700000.0 -12549700000.0 -12549700000.0 -12549700000.0 -12549700000.0 -12549700000.0 -12549700000.0 -12549700000.0 -12549700000.0 -12549700000.0 -12549700000.0 -12549700000.0 -12549700000.0 -12549700000.0 -12549700000.0 -12549700000.0 -12549700000.0 -12549700000.0 -12549700000.0 -12549700000.0 -12549700000.0 -12549700000.0 -12549700000.0 -12549700000.0 -12549700000.0 -12549700000.0 -12560800000.0 -12643100000.0 -12664400000.0 -12571000000.0 -12575800000.0 -12574700000.0 -12577400000.0 -12550200000.0 -12648100000.0 -12661900000.0 -12558000000.0 -12569100000.0 -12554700000.0 -12887700000.0 -12566800000.0 -12928800000.0 -12673400000.0 -12687800000.0 -12565900000.0 -12549700000.0 -12549700000.0 -12549700000.0 -12549700000.0 -12549700000.0 -12549700000.0 -12549700000.0 -12549700000.0 -12549700000.0 -12549700000.0 -12549700000.0 -12549700000.0 -12549700000.0 -12549700000.0 -12549700000.0 -12549700000.0 -12549700000.0 -12549700000.0 -12549700000.0 -12549700000.0 -12549700000.0 -12549700000.0 -12549700000.0 -12549700000.0 -12549700000.0 -12549700000.0 -12549700000.0 -12549700000.0 -12549700000.0 -12549700000.0 -12549700000.0 -12549700000.0 -12549700000.0 -12549700000.0 -12549700000.0 -12549700000.0 -12549700000.0 -12549700000.0 -12567400000.0 -12590400000.0 -12617800000.0 -12583600000.0 -12575100000.0 -12587400000.0 -12598200000.0 -12640600000.0 -12656400000.0 -12756100000.0 -12675900000.0 -12819600000.0 -12986900000.0 -12595100000.0 -12707900000.0 -12702500000.0 -12612100000.0 -12647700000.0 -12573900000.0 -12560200000.0 -12549700000.0 -12549700000.0 -12549700000.0 -12549700000.0 -12549700000.0 -12549700000.0 -12549700000.0 -12549700000.0 -12549700000.0 -12549700000.0 -12549700000.0 -12549700000.0 -12549700000.0 -12549700000.0 -12549700000.0 -12549700000.0 -12549700000.0 -12549700000.0 -12549700000.0 -12549700000.0 -12549700000.0 -12549700000.0 -12549700000.0 -12549700000.0 -12549700000.0 -12549700000.0 -12549700000.0 -12549700000.0 -12549700000.0 -12549700000.0 -12549700000.0 -12549700000.0 -12549700000.0 -12551300000.0 -12549800000.0 -12587900000.0 -12556300000.0 -12607600000.0 -12550700000.0 -12574100000.0 -12592400000.0 -12693400000.0 -12632700000.0 -12591500000.0 -12697000000.0 -12558900000.0 -12725200000.0 -12549700000.0 -12750700000.0 -12682200000.0 -12574300000.0 -12607500000.0 -12550500000.0 -12552900000.0 -12549700000.0 -12549700000.0 -12549700000.0 -12549700000.0 -12549700000.0 -12549700000.0 -12549700000.0 -12549700000.0 -12549700000.0 -12549700000.0 -12549700000.0 -12549700000.0 -12549700000.0 -12549700000.0 -12549700000.0 -12549700000.0 -12549700000.0 -12549700000.0 -12549700000.0 -12549700000.0 -12549700000.0 -12549700000.0 -12549700000.0 -12549700000.0 -12549700000.0 -12549700000.0 -12549700000.0 -12549700000.0 -12549700000.0 -12549700000.0 -12553800000.0 -12585500000.0 -12554400000.0 -12603700000.0 -12556500000.0 -12575000000.0 -12602000000.0 -12623600000.0 -12609900000.0 -12550900000.0 -12644200000.0 -12558000000.0 -12592400000.0 -12756000000.0 -12582400000.0 -12643000000.0 -12604500000.0 -12614200000.0 -12578600000.0 -12593300000.0 -12554400000.0 -12549700000.0 -12549700000.0 -12549700000.0 -12549700000.0 -12549700000.0 -12549700000.0 -12549700000.0 -12549700000.0 -12549700000.0 -12549700000.0 -12549700000.0 -12549700000.0 -12549700000.0 -12549700000.0 -12549700000.0 -12549700000.0 -12549700000.0 -12549700000.0 -12549700000.0 -12549700000.0 -12549700000.0 -12549700000.0 -12549700000.0 -12549700000.0 -12549700000.0 -12608700000.0 -12616200000.0 -12621600000.0 -12628900000.0 -12649300000.0 -12704800000.0 -12649700000.0 -12673000000.0 -12701400000.0 -12713600000.0 -12712400000.0 -12775300000.0 -12559900000.0 -12626300000.0 -12551100000.0 -12550100000.0 -12581800000.0 -12575000000.0 -12567800000.0 -12549700000.0 -12549700000.0 -12549700000.0 -12549700000.0 -12549700000.0 -12549700000.0 -12549700000.0 -12549700000.0 -12549700000.0 -12549700000.0 -12549700000.0 -12549700000.0 -12549700000.0 -12549700000.0 -12549700000.0 -12549700000.0 -12554600000.0 -12583100000.0 -12565400000.0 -12561200000.0 -12568500000.0 -12561200000.0 -12572400000.0 -12613400000.0 -12610500000.0 -12664800000.0 -12626600000.0 -12556400000.0 -12549700000.0 -12552600000.0 -12713400000.0 -12616700000.0 -12604100000.0 -12549700000.0 -12549700000.0 -12566800000.0 -12558700000.0 -12555300000.0 -12549700000.0 -12549700000.0 -12549700000.0 -12549700000.0 -12549700000.0 -12549700000.0 -12549700000.0 -12549700000.0 -12549700000.0 -12549700000.0 -12549700000.0 -12549700000.0 -12549700000.0 -12549700000.0 -12549700000.0 -12551900000.0 -12570100000.0 -12572100000.0 -12571000000.0 -12568200000.0 -12566600000.0 -12570400000.0 -12601200000.0 -12561800000.0 -12572500000.0 -12579200000.0 -12559000000.0 -12581500000.0 -12557700000.0 -12668200000.0 -12549700000.0 -12604500000.0 -12572600000.0 -12556800000.0 -12553100000.0 -12549700000.0 -12549700000.0 -12549700000.0 -12549700000.0 -12549700000.0 -12549700000.0 -12549700000.0 -12549700000.0 -12549700000.0 -12549700000.0 -12549700000.0 -12549700000.0 -12549700000.0 -12549700000.0 -12549700000.0 -12549700000.0 -12550000000.0 -12550900000.0 -12556300000.0 -12550700000.0 -12553000000.0 -12551100000.0 -12555500000.0 -12574800000.0 -12552800000.0 -12563200000.0 -12572500000.0 -12550200000.0 -12581900000.0 -12573500000.0 -12600200000.0 -12602000000.0 -12549700000.0 -12611300000.0 -12549700000.0 -12549700000.0 -12552700000.0 -12549700000.0 -12549700000.0 -12549700000.0 -12549700000.0 -12549700000.0 -12549700000.0 -12549700000.0 -12549700000.0 -12550200000.0 -12562300000.0 -12549900000.0 -12554800000.0 -12549700000.0 -12549700000.0 -12550600000.0 -12565000000.0 -12553100000.0 -12549700000.0 -12550800000.0 -12574200000.0 -12563500000.0 -12562300000.0 -12556700000.0 -12564600000.0 -12557200000.0 -12551800000.0 -12550200000.0 -12588900000.0 -12575500000.0 -12556800000.0 -12549700000.0 -12549700000.0 -12549700000.0 -12549700000.0 -12549700000.0 -12549700000.0 -12549700000.0 -12549700000.0 -12550600000.0 -12553100000.0 -12551300000.0 -12550500000.0 -12550100000.0 -12558600000.0 -12549700000.0 -12570900000.0 -12560800000.0 -12549700000.0 -12549700000.0 -12549700000.0 -12552700000.0 -12551100000.0 -12550600000.0 -12550000000.0 -12553900000.0 -12549700000.0 -12549700000.0 -12549700000.0 -12549700000.0 -12549700000.0 -12549700000.0 -12549700000.0 -12549700000.0 -12549700000.0 -12549700000.0 -12549700000.0 -12549700000.0 -12550000000.0 -12550200000.0 -12551600000.0 -12551300000.0 -12551700000.0 -12552400000.0 -12557700000.0 -12556400000.0 -12560800000.0 -12549800000.0 -12550600000.0 -12551500000.0 -12550600000.0 -12550500000.0 -12550500000.0 -12549800000.0 -12549800000.0 -12549700000.0 -12550500000.0 -12549700000.0 -12549700000.0 -12549700000.0 -12549700000.0 -12549700000.0 -12549700000.0 -12549700000.0 -12549700000.0 -12549700000.0 -12549700000.0 -12549700000.0 -12549700000.0 -12549700000.0 -12549700000.0 -12549700000.0 -12549700000.0 -12549700000.0 -12549700000.0 -12549700000.0 -12549700000.0 -12549700000.0 -12549700000.0 -12549700000.0 -12549700000.0 -12549700000.0 -12549700000.0 -2.66655e+12 -4.12259e+12 -3.67981e+12 -4.85725e+12 -4.04243e+12 -4.10362e+12 -3.92926e+12 -3.78242e+12 -3.53841e+12 -3.19385e+12 -5.80417e+12 -3.00758e+12 -3.50813e+12 -5.10943e+12 -4.78825e+12 -6.34407e+12 -4.41114e+12 -3.20708e+12 -3.93867e+12 -3.03062e+12 -4.30441e+12 -5.18486e+12 -5.40513e+12 -4.94185e+12 -4.91077e+12 -3.7068e+12 -3.62774e+12 -3.89653e+12 -4.38488e+12 -4.03458e+12 -5.41627e+12 -5.32359e+12 -3.32476e+12 -2.68362e+12 -2.96995e+12 -3.8086e+12 -4.61151e+12 -6.31711e+12 -3.61869e+12 -4.58985e+12 -4.63645e+12 -3.84741e+12 -3.64768e+12 -3.21248e+12 -3.9093e+12 -3.76654e+12 -2.38588e+12 -2.90764e+12 -3.38102e+12 -2.00811e+12 -3.63045e+12 -2.89756e+12 -1.64784e+12 -3.4657e+12 -4.84397e+12 -5.36924e+12 -4.0245e+12 -6.64874e+12 -4.47565e+12 -3.00655e+12 -4.71671e+12 -4.49367e+12 -4.23047e+12 -3.9188e+12 -5.92853e+12 -6.55127e+12 -5.31758e+12 -3.74257e+12 -5.31587e+12 -7.37587e+12 -4.56073e+12 -5.01811e+12 -5.72889e+12 -4.62746e+12 -4.44503e+12 -6.65766e+12 -5.99283e+12 -2.57186e+12 -4.09086e+12 -3.82338e+12 -3.75213e+12 -4.66743e+12 -4.04566e+12 -3.91895e+12 -5.22151e+12 -4.622e+12 -3.89761e+12 -4.40226e+12 -4.55507e+12 -2.69157e+12 -5.22047e+12 -4.10786e+12 -5.74385e+12 -6.44591e+12 -6.12188e+12 -5.75773e+12 -5.20252e+12 -4.95254e+12 -6.68574e+12 -4.34164e+12 -4.88457e+12 -6.31279e+12 -4.23712e+12 -4.89388e+12 -2.84779e+12 -2.597e+12 -6.62167e+12 -5.44447e+12 -8.60525e+12 -6.14818e+12 -6.10487e+12 -7.72977e+12 -1.11384e+13 -5.47784e+12 -7.2595e+12 -4.07474e+12 -5.71665e+12 -4.73256e+12 -7.2034e+12 -7.03956e+12 -1.87007e+12 -5.20277e+12 -6.89733e+12 -4.28399e+12 -4.77106e+12 -6.09916e+12 -2.51945e+12 -5.83747e+12 -5.47881e+12 -6.84496e+12 -7.17332e+12 -1.11988e+13 -5.35585e+12 -6.23428e+12 -6.3512e+12 -5.45991e+12 -9.09591e+12 -7.70093e+12 -8.76591e+12 -5.62461e+12 -5.78447e+12 -8.91617e+12 -9.29884e+12 -8.03888e+12 -5.47647e+12 -5.22632e+12 -7.45818e+12 -6.33128e+12 -7.71259e+12 -7.10104e+12 -6.64372e+12 -6.99235e+12 -4.74124e+12 -8.26726e+12 -7.45102e+12 -1.08316e+13 -2.73698e+12 -4.02792e+12 -3.20377e+12 -5.08459e+12 -7.70258e+12 -9.97527e+12 -5.99113e+12 -8.17304e+12 -5.29812e+12 -6.8727e+12 -6.58564e+12 -2.93972e+12 -4.31853e+12 -4.13632e+12 -4.94372e+12 -4.67462e+12 -5.85129e+12 -5.05519e+12 -6.47302e+12 -9.25298e+12 -4.93966e+12 -3.9934e+12 -6.02281e+12 -3.7745e+12 -6.86818e+12 -7.1457e+12 -3.57087e+12 -4.28019e+12 -4.60145e+12 -3.91268e+12 -2.45354e+12 -5.42424e+12 -4.30612e+12 -8.67731e+12 -8.10015e+12 -2.27496e+12 -5.23212e+12 -1.01664e+13 -3.2628e+12 -4.98471e+12 -3.96332e+12 -2.36335e+12 -7.15107e+12 -7.54641e+12 -4.29612e+12 -4.23419e+12 -6.27915e+12 -6.15491e+12 -1.06557e+13 -6.55767e+12 -1.03213e+13 -7.24374e+12 -5.23389e+12 -9.00107e+12 -7.80904e+12 -5.33506e+12 -6.56395e+12 -7.65214e+12 -7.35771e+12 -4.62258e+12 -6.74029e+12 -8.83012e+12 -1.0346e+13 -5.10877e+12 -7.64187e+12 -7.79532e+12 -4.61078e+12 -5.65336e+12 -4.93367e+12 -8.34287e+12 -6.44378e+12 -6.8381e+12 -8.39414e+12 -6.81893e+12 -6.27833e+12 -6.22431e+12 -7.09518e+12 -5.48887e+12 -1.49844e+12 -2.93804e+12 -5.61302e+12 -4.98461e+12 -4.29869e+12 -5.56458e+12 -6.4469e+12 -8.50814e+12 -1.02057e+13 -6.88152e+12 -5.64611e+12 -4.94581e+12 -6.33159e+12 -7.19948e+12 -3.77851e+12 -6.4148e+12 -8.16543e+12 -5.66941e+12 -6.97782e+12 -4.78504e+12 -6.01722e+12 -7.66815e+12 -6.02923e+12 -5.93605e+12 -9.60462e+12 -5.61578e+12 -6.94373e+12 -7.49391e+12 -8.49553e+12 -4.11547e+12 -5.48422e+12 -4.70534e+12 -6.52615e+12 -7.27609e+12 -6.95873e+12 -5.09229e+12 -7.80129e+12 -6.07606e+12 -5.41611e+12 -5.11458e+12 -7.44119e+12 -9.09422e+12 -4.72514e+12 -6.39127e+12 -1.74935e+12 -3.56185e+12 -4.63112e+12 -6.72237e+12 -6.87927e+12 -4.23668e+12 -5.93895e+12 -2.25716e+12 -5.604e+12 -7.28149e+12 -5.66741e+12 -5.97261e+12 -4.97634e+12 -5.74521e+12 -6.98438e+12 -6.62258e+12 -6.71036e+12 -6.90246e+12 -5.00921e+12 -8.65561e+12 -7.63777e+12 -6.17386e+12 -5.76806e+12 -5.42901e+12 -8.41437e+12 -6.51951e+12 -4.96679e+12 -7.61782e+12 -6.5507e+12 -6.45514e+12 -8.37278e+12 -5.80961e+12 -3.91002e+12 -9.06811e+12 -4.8141e+12 -6.03823e+12 -4.77902e+12 -9.55107e+12 -4.14825e+12 -7.46727e+12 -5.40589e+12 -5.38133e+12 -6.20099e+12 -7.14398e+12 -3.89762e+12 -1.06325e+13 -7.9974e+12 -4.5542e+12 -6.52699e+12 -7.46001e+12 -3.9984e+12 -4.83853e+12 -6.91461e+12 -4.92053e+12 -4.76994e+12 -4.06306e+12 -5.11515e+12 -3.10204e+12 -4.78971e+12 -4.53535e+12 -4.42032e+12 -6.16536e+12 -6.55102e+12 -1.09431e+13 -5.19369e+12 -8.0926e+12 -9.39764e+12 -6.7835e+12 -2.96146e+12 -6.72701e+12 -5.78669e+12 -2.65487e+12 -4.45281e+12 -3.83299e+12 -5.89453e+12 -4.25607e+12 -3.83052e+12 -7.52447e+12 -5.63653e+12 -5.46664e+12 -4.05367e+12 -5.77097e+12 -1.03567e+13 -6.6161e+12 -6.1015e+12 -3.86031e+12 -9.33505e+12 -9.61863e+12 -7.61335e+12 -3.74512e+12 -7.9541e+12 -4.59909e+12 -6.11161e+12 -4.86026e+12 -6.40123e+12 -5.1079e+12 -6.13725e+12 -6.51028e+12 -6.51679e+12 -6.10287e+12 -4.47016e+12 -7.28239e+12 -8.07638e+12 -4.95293e+12 -5.82742e+12 -8.35209e+12 -3.7787e+12 -3.86279e+12 -3.6552e+12 -5.9812e+12 -4.01495e+12 -5.83798e+12 -3.84486e+12 -4.73628e+12 -4.71049e+12 -7.08251e+12 -7.6245e+12 -8.82545e+12 -4.53094e+12 -4.1308e+12 -3.06989e+12 -2.14382e+12 -6.60009e+12 -4.42192e+12 -8.96195e+12 -7.3547e+12 -6.20826e+12 -1.01572e+13 -5.11082e+12 -3.78096e+12 -4.61363e+12 -5.92278e+12 -4.82825e+12 -4.99361e+12 -6.31538e+12 -4.85441e+12 -6.16677e+12 -4.96574e+12 -5.00445e+12 -4.17344e+12 -5.22291e+12 -4.1486e+12 -4.68268e+12 -4.18422e+12 -7.34557e+12 -7.38548e+12 -8.23237e+12 -7.22771e+12 -4.06447e+12 -4.87843e+12 -4.32785e+12 -3.56168e+12 -2.3131e+12 -6.15975e+12 -4.48392e+12 -4.46181e+12 -5.18752e+12 -8.05713e+12 -6.64274e+12 -7.40302e+12 -6.04388e+12 -4.23884e+12 -5.42429e+12 -5.43884e+12 -3.27572e+12 -5.93918e+12 -3.86491e+12 -5.63709e+12 -7.59236e+12 -5.35429e+12 -4.57994e+12 -6.07579e+12 -6.22167e+12 -6.17112e+12 -6.75219e+12 -5.55832e+12 -4.0553e+12 -5.16108e+12 -3.21765e+12 -4.55108e+12 -5.89735e+12 -4.41678e+12 -5.26331e+12 -3.83032e+12 -7.91775e+12 -4.78169e+12 -7.79869e+12 -5.30023e+12 -4.43336e+12 -5.86994e+12 -4.32597e+12 -5.96091e+12 -5.7279e+12 -7.32688e+12 -4.22958e+12 -8.26054e+12 -4.32983e+12 -8.60033e+12 -3.43308e+12 -3.5189e+12 -3.00914e+12 -2.92258e+12 -2.29749e+12 -3.76057e+12 -3.78053e+12 -8.53612e+12 -2.91665e+12 -3.62659e+12 -3.0221e+12 -5.12492e+12 -5.43914e+12 -5.53468e+12 -4.67539e+12 -2.55986e+12 -5.00657e+12 -7.53759e+12 -6.79178e+12 -7.67207e+12 -6.3298e+12 -6.7929e+12 -3.56541e+12 -4.02863e+12 -5.74026e+12 -6.26419e+12 -6.01033e+12 -7.57434e+12 -4.38566e+12 -5.88167e+12 -5.50434e+12 -5.76438e+12 -3.2939e+12 -3.58893e+12 -4.28498e+12 -5.52417e+12 -5.35242e+12 -3.51352e+12 -4.47037e+12 -4.39733e+12 -7.51071e+12 -6.26187e+12 -3.20901e+12 -4.11141e+12 -2.88255e+12 -7.19683e+12 -4.30555e+12 -5.71771e+12 -3.77889e+12 -4.22641e+12 -4.94559e+12 -2.97679e+12 -4.44129e+12 -1.00832e+13 -4.38141e+12 -6.90443e+12 -6.67725e+12 -7.98009e+12 -4.16455e+12 -4.50439e+12 -649500000000.0 -5.97724e+12 -4.1366e+12 -9.72278e+12 -4.2199e+12 -5.01594e+12 -5.31733e+12 -4.94809e+12 -4.19802e+12 -3.79569e+12 -4.61583e+12 -2.96443e+12 -4.90199e+12 -4.22424e+12 -7.02821e+12 -6.1406e+12 -4.70537e+12 -2.74761e+12 -6.78318e+12 -6.68419e+12 -4.11585e+12 -8.13663e+12 -6.07897e+12 -5.18412e+12 -7.5518e+12 -7.51751e+12 -4.19056e+12 -7.22225e+12 -2.81394e+12 -6.0478e+12 -6.76028e+12 -5.83047e+12 -3.42023e+12 -3.76427e+12 -6.7699e+12 -5.16781e+12 -7.59689e+12 -7.2533e+12 -6.01113e+12 -7.52086e+12 -3.12609e+12 -4.39699e+12 -4.97129e+12 -3.51203e+12 -4.65746e+12 -5.39617e+12 -5.57274e+12 -3.63068e+12 -2.22041e+12 -2.27455e+12 -2.89011e+12 -2.04264e+12 -5.02781e+12 -7.22217e+12 -4.4264e+12 -3.70658e+12 -3.66467e+12 -3.74688e+12 -2.78979e+12 -7.35035e+12 -4.64443e+12 -4.05962e+12 -3.90757e+12 -5.24897e+12 -6.41131e+12 -5.42517e+12 -3.05544e+12 -3.97399e+12 -3.68532e+12 -4.43883e+12 -3.72838e+12 -5.32315e+12 -4.90662e+12 -5.34622e+12 -3.17919e+12 -3.4215e+12 -6.27122e+12 -5.0025e+12 -4.24827e+12 -5.13813e+12 -3.36212e+12 -1.9795e+12 -3.65221e+12 -4.58864e+12 -5.65416e+12 -5.90511e+12 -7.25939e+12 -2.59225e+12 -2.90047e+12 -4.45139e+12 -3.43398e+12 -4.40361e+12 -5.86159e+12 -2.21099e+12 -6.06232e+12 -4.50006e+12 -4.97091e+12 -6.1814e+12 -5.27579e+12 -4.46251e+12 -3.28757e+12 -2.80124e+12 -5.23965e+12 -3.69872e+12 -6.50813e+12 -7.69962e+12 -5.66667e+12 -5.69251e+12 -3.30852e+12 -6.97815e+12 -5.44843e+12 -2.01878e+12 -5.72069e+12 -2.44363e+12 -6.28664e+12 -6.16493e+12 -4.36544e+12 -5.75925e+12 -3.91761e+12 -4.67137e+12 -6.12168e+12 -5.4444e+12 -5.83431e+12 -6.01723e+12 -5.82794e+12 -5.70619e+12 -6.18449e+12 -5.20777e+12 -2.51997e+12 -6.35072e+12 -1.69241e+12 -5.3158e+12 -4.76566e+12 -3.59633e+12 -1.45546e+12 -4.8259e+12 -5.28393e+12 -4.27135e+12 -5.68003e+12 -3.6982e+12 -4.81986e+12 -8.59252e+12 -3.35694e+12 -5.49429e+12 -3.19337e+12 -6.65544e+12 -3.21657e+12 -5.51568e+12 -4.19337e+12 -3.88963e+12 -4.98511e+12 -3.94564e+12 -3.5083e+12 -5.95553e+12 -5.39986e+12 -2.00266e+12 -6.50571e+12 -2.5439e+12 -3.85298e+12 -3.74372e+12 -4.3528e+12 -3.85218e+12 -3.01743e+12 -4.34572e+12 -4.26273e+12 -6.24368e+12 -1.82392e+12 -4.72722e+12 -4.25851e+12 -5.56246e+12 -5.95963e+12 -6.8208e+12 -3.61738e+12 -4.884e+12 -4.55267e+12 -3.8136e+12 -2.59406e+12 -4.38792e+12 -3.96501e+12 -3.93645e+12 -4.27572e+12 -6.79591e+12 -6.84863e+12 -4.0419e+12 -8.41785e+12 -2.74597e+12 -5.96908e+12 -2.85896e+12 -3.96584e+12 -3.41071e+12 -3.6767e+12 -2.49696e+12 -3.61386e+12 -6.01744e+12 -3.90621e+12 -4.87353e+12 -5.82389e+12 -5.79228e+12 -3.67298e+12 -6.50081e+12 -3.10274e+12 -2.31165e+12 -5.9598e+12 -4.60302e+12 -5.26841e+12 -4.29783e+12 -2.78385e+12 -1.98042e+12 -6.70649e+12 -2.77563e+12 -4.12422e+12 -3.99285e+12 -6.63868e+12 -4.02595e+12 -5.69679e+12 -2.96068e+12 -4.52067e+12 -4.92622e+12 -3.87548e+12 -5.0301e+12 -3.04313e+12 -5.89263e+12 -4.91561e+12 -4.43227e+12 -5.3872e+12 -2.93577e+12 -3.69271e+12 -2.77876e+12 -3.83784e+12 -4.01776e+12 -4.58646e+12 -2.40648e+12 -3.82747e+12 -3.03205e+12 -4.6043e+12 -5.32767e+12 -2.66477e+12 -4.99465e+12 -4.32021e+12 -3.497e+12 -2.73043e+12 -4.29629e+12 -3.0655e+12 -3.52459e+12 -3.73583e+12 -3.52389e+12 -5.59988e+12 -3.28369e+12 -2.90753e+12 -4.16425e+12 -3.46927e+12 -3.05617e+12 -2.81806e+12 -3.00431e+12 -2.21766e+12 -3.89684e+12 -2.48107e+12 -4.2561e+12 -3.79412e+12 -4.68084e+12 -2.76956e+12 -3.42166e+12 -2.87796e+12 -4.56667e+12 -2.65744e+12 -4.24655e+12 -2.14969e+12 -3.42602e+12 -4.06149e+12 -3.80066e+12 -2.69081e+12 -2.6266e+12 -4.19485e+12 -5.41395e+12 -2.52007e+12 -3.04735e+12 -5.10285e+12 -5.21435e+12 -4.30012e+12 -2.32051e+12 -3.28681e+12 -2.75149e+12 -1.93009e+12 -4.38848e+12 -3.53978e+12 -4.08027e+12 -1.72275e+12 -3.10069e+12 -5.55696e+12 -3.06541e+12 -4.74157e+12 -2.3626e+12 -5.67687e+12 -2.72327e+12 -6.19077e+12 -6.97402e+12 -5.03812e+12 -5.59338e+12 -2.98067e+12 -2.30379e+12 -3.22761e+12 -2.7779e+12 -2.2417e+12 -4.52877e+12 -2.66991e+12 -2.88894e+12 -3.22971e+12 -1.09178e+12 -3.16722e+12 -789267000000.0 -3.89409e+12 -1.46277e+12 -4.50574e+12 -2.88329e+12 -4.30451e+12 -2.99589e+12 -3.0634e+12 -3.94161e+12 -2.23566e+12 -3.36917e+12 -2.25732e+12 -4.54373e+12 -5.56795e+12 -1.62579e+12 -3.07752e+12 -4.35786e+12 -3.02876e+12 -3.88648e+12 -5.5171e+12 -4.06977e+12 -5.19879e+12 -2.51716e+12 -2.56854e+12 -3.18537e+12 -6.80972e+12 -2.73083e+12 -2.20457e+12 -3.03486e+12 -2.0697e+12 -2.00273e+12 -2.21509e+12 -2.84869e+12 -4.62199e+12 -1.98366e+12 -3.05017e+12 -2.69047e+12 -3.80663e+12 -2.03739e+12 -4.5858e+12 -2.52768e+12 -2.14471e+12 -1.62545e+12 -4.0112e+12 -2.74497e+12 -3.08828e+12 -2.46385e+12 -3.21784e+12 -4.36774e+12 -3.44028e+12 -1.83407e+12 -2.93869e+12 -3.70079e+12 -2.38144e+12 -2.68344e+12 -3.18906e+12 -3.55908e+12 -2.80341e+12 -2.7265e+12 -2.86491e+12 -1.94345e+12 -3.85383e+12 -5.17181e+12 -2.07591e+12 -4.19955e+12 -4.86481e+12 -3.51495e+12 -2.61443e+12 -3.37384e+12 -3.08908e+12 -1.4708e+12 -2.98129e+12 -2.96644e+12 -1.35168e+12 -2.87292e+12 -3.01796e+12 -2.77534e+12 -1.13394e+12 -3.27072e+12 -4.27343e+12 -2.94112e+12 -3.30453e+12 -3.03871e+12 -4.24532e+12 -2.88157e+12 -2.86734e+12 -1.69902e+12 -1.73008e+12 -3.26994e+12 -2.94761e+12 -5.76903e+12 -2.01111e+12 -3.72048e+12 -3.7082e+12 -2.13253e+12 -2.20496e+12 -2.90708e+12 -3.21084e+12 -1.56845e+12 -3.59572e+12 -5.31323e+12 -3.15691e+12 -1.65161e+12 -2.20963e+12 -3.02074e+12 -2.61391e+12 -2.6005e+12 -2.49046e+12 -3.03162e+12 -2.51228e+12 -1.98681e+12 -4.24316e+12 -3.23068e+12 -2.18316e+12 -5.10037e+12 -2.86874e+12 -3.63133e+12 -4.09825e+12 -4.89457e+12 -1.74698e+12 -2.71884e+12 -3.45835e+12 -3.05779e+12 -3.04722e+12 -3.71409e+12 -4.8183e+12 -2.59146e+12 -3.01875e+12 -1.96674e+12 -5.05958e+12 -3.41924e+12 -1.93425e+12 -2.48956e+12 -3.43211e+12 -4.58863e+12 -3.48024e+12 -3.2849e+12 -2.1136e+12 -2.64961e+12 -2.29529e+12 -2.07504e+12 -2.33868e+12 -203197000000.0 -2.44629e+12 -2.46532e+12 -1.68798e+12 -3.53778e+12 -2.58307e+12 -2.21359e+12 -1.91523e+12 -2.13017e+12 -1.42242e+12 -1.64006e+12 -1.02994e+12 -2.91424e+12 -2.8115e+12 -2.14092e+12 -4.28947e+12 -3.12034e+12 -2.84517e+12 -3.50453e+12 -1.77548e+12 -1.41631e+12 -2.91599e+12 -4.45826e+12 -2.35596e+12 -4.18726e+12 -3.18349e+12 -1.58765e+12 -2.51605e+12 -3.91193e+12 -4.40546e+12 -5.67299e+12 -2.05277e+12 -1.80619e+12 -2.67248e+12 -1.66744e+12 -2.68013e+12 -1.74212e+12 -1.72348e+12 -1.52362e+12 -2.0664e+12 -2.45917e+12 -1.79601e+12 -3.73891e+12 -1.25257e+12 -2.22377e+12 -3.7579e+12 -2.20329e+12 -1.26038e+12 -1.99853e+12 -941287000000.0 -1.18793e+12 -4.0377e+12 -2.76778e+12 -1.89467e+12 -2.17133e+12 -3.33041e+12 -1.70255e+12 -3.26781e+12 -1.73459e+12 -2.58842e+12 -3.0756e+12 -3.63433e+12 -2.30608e+12 -2.02812e+12 -2.01475e+12 -2.18202e+12 -1.72423e+12 -1.51042e+12 -3.11667e+12 -4.14933e+12 -5.00348e+12 -2.95748e+12 -4.36503e+12 -3.06503e+12 -3.38899e+12 -1.46147e+12 -3.98656e+12 -1.13857e+12 -1.54798e+12 -2.34248e+12 -1.34873e+12 -1.96949e+12 -1.93381e+12 -2.49977e+12 -3.31436e+12 -3.27763e+12 -3.04804e+12 -1.10855e+12 -1.93577e+12 -3.58324e+12 -2.92031e+12 -2.55812e+12 -1.13927e+12 -2.66582e+12 -1.65044e+12 -2.87878e+12 -1.04559e+12 -2.55335e+12 -1.30752e+12 -1.33194e+12 -1.94282e+12 -1.33965e+12 -831561000000.0 -1.80228e+12 -2.13243e+12 -1.46301e+12 -1.37424e+12 -1.25544e+12 -2.26929e+12 -1.66826e+12 -1.80962e+12 -1.3626e+12 -2.07235e+12 -2.10986e+12 -2.40796e+12 -2.00763e+12 -1.71469e+12 -1.78804e+12 -2.68775e+12 -1.12897e+12 -2.39707e+12 -2.47433e+12 -2.30522e+12 -1.36121e+12 -3.58245e+12 -1.43707e+12 -2.21873e+12 -2.22124e+12 -1.53676e+12 -2.75764e+12 -1.506e+12 -2.54857e+12 -1.03921e+12 -396042000000.0 -1.70834e+12 -2.16001e+12 -3.30285e+12 -2.92516e+12 -2.64041e+12 -1.62012e+12 -1.66723e+12 -1.89718e+12 -2.98837e+12 -1.29413e+12 -2.8755e+12 -1.22864e+12 -2.15012e+12 -1.36769e+12 -761584000000.0 -1.92853e+12 -2.33218e+12 -667964000000.0 -1.87913e+12 -2.52395e+12 -1.88018e+12 -2.8463e+12 -1.72383e+12 -3.19283e+12 -1.22065e+12 -1.73804e+12 -2.38976e+12 -952540000000.0 -1.73181e+12 -1.4176e+12 -3.60092e+12 -2.58225e+12 -1.96385e+12 -2.49227e+12 -896199000000.0 -2.67046e+12 -893601000000.0 -2.20266e+12 -2.86892e+12 -2.17511e+12 -1.45793e+12 -2.01902e+12 -1.42098e+12 -1.49578e+12 -1.12958e+12 -1.87496e+12 -1.17034e+12 -1.62466e+12 -2.46252e+12 -3.00467e+12 -3.19221e+12 -2.83938e+12 -1.2946e+12 -1.54122e+12 -1.93905e+12 -1.77748e+12 -1.90041e+12 -3.00756e+12 -1.64153e+12 -1.89991e+12 -1.21675e+12 -2.06273e+12 -327368000000.0 -2.21761e+12 -459375000000.0 -1.28585e+12 -2.10734e+12 -2.0934e+12 -891837000000.0 -992042000000.0 -1.51533e+12 -943606000000.0 -1.31733e+12 -1.44176e+12 -1.11848e+12 -939226000000.0 -2.23917e+12 -1.58235e+12 -1.84228e+12 -975636000000.0 -1.6223e+12 -1.32951e+12 -2.31516e+12 -863619000000.0 -1.26649e+12 -1.31428e+12 -1.93121e+12 -581408000000.0 -1.14289e+12 -1.19227e+12 -1.08254e+12 -1.1575e+12 -848286000000.0 -2.2088e+12 -1.05257e+12 -1.10848e+12 -1.33855e+12 -451635000000.0 -684897000000.0 -2.05131e+12 -640866000000.0 -1.14485e+12 -1.8246e+12 -1.09241e+12 -1.96339e+12 -490668000000.0 -990843000000.0 -2.41255e+12 -1.03601e+12 -1.72728e+12 -973783000000.0 -1.17613e+12 -603411000000.0 -1.57715e+12 -567308000000.0 -1.23906e+12 -2.25774e+12 -2.10297e+12 -2.46954e+12 -908334000000.0 -653140000000.0 -1.53384e+12 -738103000000.0 -1.48922e+12 -1.67841e+12 -1.46382e+12 -1.00081e+12 -1.74682e+12 -2.03529e+12 -1.14662e+12 -1.12446e+12 -663045000000.0 -1.27342e+12 -1.03068e+12 -1.54582e+12 -583443000000.0 -1.10808e+12 -1.94254e+12 -987173000000.0 -1.44633e+12 -1.32551e+12 -1.38474e+12 -2.48777e+12 -2.4684e+12 -1.65418e+12 -1.04189e+12 -1.6727e+12 -1.07941e+12 -2.14373e+12 -1.06415e+12 -1.60924e+12 -1.96896e+12 -945556000000.0 -484861000000.0 -651983000000.0 -974392000000.0 -839754000000.0 -196001000000.0 -82008800000.0 -1.15267e+12 -358938000000.0 -797620000000.0 -515905000000.0 -707454000000.0 -1.16997e+12 -943911000000.0 -288452000000.0 -667131000000.0 -504401000000.0 -687099000000.0 -244540000000.0 -466538000000.0 -159454000000.0 -361269000000.0 -1.09798e+12 -72712500000.0 -616693000000.0 -251376000000.0 -1.1482e+12 -901550000000.0 -914522000000.0 -758831000000.0 -238869000000.0 -611642000000.0 -178662000000.0 -167702000000.0 -154048000000.0 -666339000000.0 -1.31132e+12 -446620000000.0 -527385000000.0 -966281000000.0 -864048000000.0 -431474000000.0 -449552000000.0 -586821000000.0 -215729000000.0 -327106000000.0 -390375000000.0 -214681000000.0 -532914000000.0 -238332000000.0 -307096000000.0 -433991000000.0 -252402000000.0 -702150000000.0 -499774000000.0 -303637000000.0 -661280000000.0 -149870000000.0 -881978000000.0 -927048000000.0 -686308000000.0 -287111000000.0 -593251000000.0 -437750000000.0 -763050000000.0 -167731000000.0 -431013000000.0 -87135200000.0 -798339000000.0 -182415000000.0 -400423000000.0 -398426000000.0 -370087000000.0 -238929000000.0 -179843000000.0 -267091000000.0 -747829000000.0 -476006000000.0 -1.3283e+12 -296047000000.0 -1.37444e+12 -976575000000.0 -217596000000.0 -1.29037e+12 -579742000000.0 -409427000000.0 -456396000000.0 -349037000000.0 -1.01491e+12 -271552000000.0 -546455000000.0 -546176000000.0 -646568000000.0 -1.04967e+12 -583097000000.0 -644036000000.0 -446816000000.0 -258722000000.0 -262090000000.0 -197221000000.0 -270942000000.0 -368983000000.0 -251002000000.0 -102473000000.0 -231944000000.0 -269163000000.0 -274318000000.0 -300653000000.0 -130656000000.0 -198668000000.0 -149146000000.0 -176886000000.0 