# vtk DataFile Version 2.0
Time step 14
ASCII
DATASET UNSTRUCTURED_GRID
POINTS 5000 float
16750.2 201671.0 0
27680.8 200051.0 0
57008.7 202287.0 0
171833.0 201567.0 0
177738.0 201603.0 0
182943.0 200792.0 0
252674.0 202299.0 0
278879.0 201718.0 0
297321.0 201687.0 0
361823.0 202097.0 0
372011.0 200151.0 0
377026.0 202131.0 0
388125.0 202257.0 0
394012.0 201581.0 0
403637.0 200545.0 0
408577.0 201747.0 0
422725.0 201555.0 0
432491.0 201058.0 0
446269.0 201900.0 0
471635.0 202125.0 0
477071.0 200936.0 0
485847.0 200830.0 0
497601.0 200872.0 0
2397.83 203123.0 0
8485.29 202504.0 0
6040.62 205844.0 0
12438.1 202331.0 0
11070.4 206844.0 0
22243.6 203272.0 0
28495.0 206407.0 0
33170.6 202730.0 0
38159.4 203308.0 0
42678.8 203431.0 0
47482.8 203364.0 0
48250.9 207366.0 0
52137.1 203437.0 0
62763.5 203352.0 0
67994.7 203486.0 0
72699.2 202633.0 0
77500.0 203365.0 0
82500.0 203355.0 0
87409.3 202661.0 0
92500.0 203393.0 0
97201.8 203414.0 0
101302.0 203330.0 0
105958.0 202745.0 0
111930.0 203216.0 0
108249.0 207339.0 0
117844.0 203385.0 0
123324.0 203462.0 0
128339.0 203582.0 0
133421.0 202832.0 0
138118.0 203515.0 0
142500.0 203436.0 0
147500.0 203370.0 0
152501.0 203339.0 0
157585.0 202978.0 0
156886.0 207032.0 0
162555.0 203134.0 0
167016.0 202694.0 0
166534.0 207368.0 0
172956.0 207140.0 0
178360.0 207017.0 0
183517.0 205862.0 0
187400.0 202639.0 0
188588.0 207091.0 0
192500.0 203788.0 0
196091.0 202962.0 0
198240.0 207318.0 0
201752.0 202317.0 0
207653.0 203075.0 0
212989.0 202434.0 0
213693.0 206984.0 0
218130.0 203496.0 0
222482.0 203508.0 0
225807.0 202783.0 0
226818.0 207017.0 0
230431.0 202638.0 0
235810.0 203616.0 0
241170.0 202321.0 0
246500.0 204327.0 0
259043.0 202791.0 0
263770.0 203859.0 0
268745.0 202796.0 0
273939.0 203089.0 0
271645.0 206980.0 0
277023.0 207385.0 0
282031.0 205048.0 0
286327.0 203357.0 0
291719.0 203819.0 0
298234.0 207200.0 0
303657.0 202505.0 0
307742.0 205065.0 0
312124.0 202892.0 0
317925.0 203527.0 0
323241.0 203436.0 0
327578.0 203682.0 0
332204.0 203282.0 0
337221.0 202993.0 0
341017.0 204205.0 0
345898.0 202553.0 0
343297.0 207236.0 0
350699.0 204449.0 0
355283.0 203489.0 0
365139.0 207157.0 0
367954.0 203467.0 0
372931.0 206950.0 0
382607.0 202983.0 0
378832.0 206673.0 0
388361.0 207345.0 0
399183.0 203280.0 0
402975.0 206742.0 0
412480.0 203382.0 0
408362.0 206026.0 0
412841.0 207327.0 0
417500.0 203398.0 0
422131.0 206193.0 0
427274.0 203225.0 0
433391.0 206300.0 0
437537.0 203376.0 0
442108.0 202338.0 0
443203.0 206628.0 0
447586.0 205908.0 0
450679.0 202685.0 0
451925.0 207172.0 0
455223.0 202656.0 0
460246.0 202534.0 0
465801.0 202864.0 0
481327.0 203777.0 0
486604.0 207045.0 0
491674.0 202380.0 0
496838.0 206381.0 0
2280.68 208191.0 0
6749.75 210885.0 0
17310.5 207575.0 0
22981.8 208827.0 0
34947.2 208000.0 0
40319.1 208328.0 0
44442.3 208663.0 0
47565.5 212087.0 0
52500.0 208397.0 0
57985.0 207731.0 0
62841.7 208451.0 0
67505.2 208124.0 0
72134.0 207755.0 0
77500.0 208523.0 0
82116.1 208170.0 0
87903.7 207419.0 0
92500.0 208532.0 0
97188.7 208194.0 0
102467.0 208066.0 0
107926.0 212117.0 0
112500.0 208469.0 0
117500.0 208550.0 0
122500.0 208473.0 0
125872.0 212393.0 0
127726.0 208021.0 0
132492.0 208367.0 0
137520.0 208382.0 0
142772.0 207861.0 0
141007.0 211989.0 0
146949.0 208210.0 0
151960.0 208088.0 0
156259.0 211591.0 0
161321.0 207856.0 0
170010.0 211942.0 0
182193.0 211006.0 0
193557.0 207936.0 0
203921.0 207938.0 0
199982.0 212415.0 0
209357.0 208164.0 0
213296.0 211794.0 0
217613.0 208563.0 0
222046.0 208364.0 0
226879.0 212020.0 0
232223.0 208044.0 0
237705.0 208860.0 0
243303.0 208726.0 0
248445.0 208408.0 0
246866.0 212492.0 0
252662.0 208870.0 0
257248.0 207427.0 0
257712.0 212180.0 0
262325.0 208038.0 0
267104.0 207652.0 0
267459.0 212112.0 0
273016.0 212237.0 0
279895.0 211399.0 0
282827.0 208734.0 0
287500.0 208447.0 0
292887.0 208317.0 0
296762.0 212257.0 0
303098.0 208174.0 0
307460.0 208358.0 0
312501.0 208641.0 0
317499.0 208405.0 0
322449.0 207907.0 0
322516.0 211912.0 0
327500.0 208427.0 0
332500.0 208499.0 0
337702.0 207855.0 0
341401.0 211440.0 0
346827.0 212065.0 0
347729.0 207678.0 0
352665.0 208347.0 0
356023.0 211766.0 0
361463.0 207410.0 0
357782.0 207907.0 0
361249.0 212110.0 0
366512.0 211245.0 0
382019.0 207804.0 0
384370.0 211140.0 0
393540.0 207718.0 0
397215.0 212497.0 0
398123.0 208145.0 0
409232.0 211668.0 0
417501.0 207905.0 0
428259.0 208182.0 0
424082.0 211026.0 0
432226.0 211925.0 0
437500.0 208441.0 0
442314.0 211858.0 0
448227.0 210981.0 0
457154.0 207398.0 0
462424.0 208818.0 0
466603.0 207433.0 0
470200.0 208598.0 0
472368.0 211927.0 0
475192.0 207415.0 0
480809.0 209051.0 0
492089.0 209295.0 0
2238.62 214036.0 0
8046.08 216727.0 0
11848.3 212713.0 0
13465.6 217332.0 0
16325.9 212784.0 0
17745.8 216628.0 0
20504.4 212803.0 0
22407.7 217180.0 0
27016.7 213238.0 0
32600.3 213084.0 0
32034.5 217368.0 0
38231.8 212836.0 0
42940.3 213189.0 0
49063.6 216871.0 0
51785.1 213831.0 0
56537.8 213349.0 0
62098.0 213350.0 0
67677.8 212968.0 0
73691.7 213303.0 0
78215.0 213720.0 0
81958.5 212896.0 0
86964.2 212936.0 0
92531.5 213283.0 0
97547.3 212713.0 0
102630.0 213828.0 0
112498.0 213382.0 0
116737.0 213162.0 0
120857.0 213004.0 0
123409.0 216990.0 0
131167.0 214089.0 0
136454.0 214030.0 0
146321.0 213100.0 0
151847.0 214707.0 0
156817.0 217021.0 0
161714.0 213547.0 0
166534.0 215378.0 0
176306.0 212784.0 0
182232.0 216484.0 0
188059.0 213254.0 0
194270.0 212959.0 0
203046.0 217565.0 0
208107.0 213054.0 0
204286.0 213423.0 0
217709.0 213501.0 0
214360.0 217463.0 0
222570.0 212639.0 0
222077.0 216902.0 0
227560.0 217563.0 0
232456.0 213509.0 0
237446.0 213286.0 0
237809.0 216621.0 0
241806.0 213936.0 0
251812.0 213769.0 0
255889.0 216911.0 0
262695.0 212819.0 0
260353.0 216579.0 0
266379.0 216807.0 0
278361.0 216896.0 0
283580.0 213669.0 0
287240.0 213751.0 0
288765.0 216913.0 0
291047.0 212647.0 0
302257.0 213414.0 0
307719.0 212787.0 0
313221.0 213924.0 0
318205.0 212936.0 0
321044.0 217208.0 0
326816.0 213798.0 0
329892.0 217377.0 0
336504.0 212521.0 0
331860.0 213554.0 0
339786.0 216836.0 0
351884.0 213193.0 0
357352.0 215720.0 0
366578.0 215936.0 0
371108.0 213092.0 0
377675.0 212604.0 0
382814.0 216651.0 0
392423.0 212544.0 0
388351.0 214331.0 0
402852.0 212980.0 0
408062.0 217041.0 0
414383.0 214251.0 0
419089.0 212606.0 0
427661.0 214040.0 0
437310.0 212710.0 0
437147.0 216907.0 0
441852.0 217450.0 0
446564.0 216008.0 0
450878.0 216583.0 0
454120.0 212588.0 0
458943.0 213591.0 0
463098.0 213368.0 0
467505.0 213526.0 0
472646.0 216882.0 0
477771.0 212919.0 0
482612.0 213753.0 0
487502.0 214823.0 0
491512.0 213355.0 0
492128.0 217219.0 0
496595.0 212972.0 0
2182.12 218451.0 0
11872.5 221060.0 0
17127.5 221801.0 0
23015.8 222564.0 0
26954.8 219182.0 0
30198.0 221910.0 0
34851.1 222689.0 0
37551.5 218037.0 0
39738.5 222090.0 0
43171.8 218252.0 0
48504.6 222086.0 0
53807.2 218519.0 0
59211.8 218024.0 0
57192.1 222410.0 0
63607.6 217678.0 0
63066.0 222454.0 0
68062.6 218642.0 0
72601.8 218179.0 0
73356.8 222244.0 0
77066.9 217661.0 0
82134.8 217916.0 0
87331.9 218109.0 0
92268.3 218607.0 0
97734.9 218065.0 0
102767.0 219326.0 0
107693.0 217614.0 0
111309.0 222305.0 0
113098.0 217714.0 0
118129.0 217643.0 0
122099.0 222183.0 0
127500.0 218548.0 0
126924.0 222675.0 0
132684.0 218922.0 0
137733.0 217949.0 0
136578.0 222501.0 0
142522.0 218108.0 0
147009.0 221992.0 0
147998.0 217714.0 0
153392.0 219374.0 0
160407.0 218357.0 0
164428.0 219077.0 0
167058.0 221939.0 0
170842.0 217971.0 0
177034.0 219352.0 0
186627.0 218885.0 0
191646.0 218386.0 0
193683.0 222474.0 0
197217.0 217696.0 0
203170.0 222665.0 0
208743.0 219399.0 0
218732.0 218709.0 0
216336.0 222073.0 0
221194.0 222354.0 0
234276.0 217916.0 0
231993.0 222448.0 0
237942.0 221355.0 0
241813.0 218535.0 0
246283.0 217681.0 0
251534.0 219030.0 0
257740.0 222092.0 0
262648.0 220157.0 0
271775.0 218513.0 0
284358.0 218412.0 0
288841.0 222232.0 0
292988.0 218628.0 0
298946.0 218564.0 0
303985.0 218767.0 0
307500.0 218591.0 0
312166.0 218410.0 0
316221.0 217665.0 0
317017.0 222085.0 0
325839.0 218727.0 0
334371.0 219334.0 0
341467.0 222311.0 0
346083.0 218320.0 0
352838.0 218767.0 0
361680.0 218102.0 0
357887.0 222275.0 0
367124.0 220841.0 0
371936.0 218710.0 0
377882.0 220040.0 0
387359.0 218510.0 0
383268.0 222678.0 0
388176.0 222691.0 0
393036.0 219167.0 0
399505.0 218145.0 0
404309.0 218138.0 0
403067.0 222124.0 0
412365.0 218735.0 0
408169.0 221890.0 0
416956.0 218026.0 0
414637.0 222353.0 0
421356.0 219313.0 0
425629.0 217663.0 0
427471.0 222139.0 0
431033.0 218114.0 0
436065.0 221869.0 0
448274.0 221547.0 0
455474.0 218332.0 0
461269.0 218081.0 0
467041.0 217861.0 0
473830.0 222117.0 0
478884.0 218415.0 0
484743.0 218890.0 0
489145.0 219618.0 0
496759.0 219613.0 0
1498.25 223181.0 0
2745.35 227225.0 0
7123.08 223026.0 0
12636.4 225565.0 0
18074.8 227564.0 0
28626.7 225955.0 0
39083.3 226924.0 0
43629.2 223977.0 0
53089.7 224472.0 0
59679.7 227430.0 0
68321.0 223817.0 0
72201.1 226131.0 0
76342.4 227744.0 0
78257.1 222822.0 0
83548.5 222858.0 0
88358.4 222934.0 0
92500.0 223456.0 0
97253.1 223480.0 0
101212.0 223512.0 0
105604.0 223133.0 0
111050.0 227154.0 0
116644.0 222905.0 0
115390.0 227620.0 0
131221.0 223305.0 0
133301.0 227759.0 0
142211.0 223802.0 0
151790.0 223945.0 0
157926.0 222915.0 0
161423.0 227391.0 0
163676.0 223564.0 0
166776.0 227288.0 0
171003.0 223976.0 0
176731.0 225640.0 0
182923.0 223380.0 0
189193.0 223299.0 0
198243.0 223585.0 0
202608.0 227221.0 0
207331.0 224775.0 0
212122.0 223638.0 0
226327.0 224180.0 0
236060.0 226356.0 0
242856.0 223164.0 0
248049.0 222776.0 0
252909.0 223059.0 0
250948.0 227224.0 0
262864.0 225734.0 0
267621.0 222733.0 0
272714.0 224394.0 0
278485.0 223550.0 0
283577.0 222998.0 0
282092.0 226930.0 0
293491.0 223226.0 0
293043.0 227631.0 0
297510.0 224606.0 0
302639.0 223072.0 0
301886.0 226996.0 0
307153.0 223431.0 0
311978.0 223145.0 0
316894.0 227207.0 0
322344.0 222783.0 0
330999.0 222898.0 0
327203.0 223591.0 0
333905.0 227157.0 0
337085.0 223265.0 0
346773.0 224234.0 0
351690.0 224442.0 0
355649.0 226591.0 0
362974.0 223073.0 0
370222.0 224251.0 0
374594.0 224297.0 0
378591.0 227649.0 0
383470.0 226813.0 0
387289.0 227176.0 0
392185.0 225416.0 0
397925.0 224093.0 0
405315.0 227365.0 0
411951.0 226489.0 0
417905.0 223542.0 0
422447.0 224180.0 0
427239.0 226390.0 0
431193.0 223543.0 0
437048.0 227191.0 0
441937.0 223111.0 0
447090.0 227715.0 0
453993.0 223463.0 0
459406.0 223656.0 0
464937.0 222922.0 0
466534.0 227595.0 0
469595.0 223800.0 0
477642.0 225141.0 0
481999.0 223378.0 0
486783.0 223237.0 0
492183.0 223793.0 0
497461.0 225346.0 0
7839.1 229507.0 0
13597.8 231404.0 0
23725.0 228316.0 0
28752.7 231295.0 0
33589.2 228241.0 0
38504.1 232109.0 0
43676.8 228185.0 0
43225.9 232440.0 0
48622.5 228055.0 0
54122.8 229172.0 0
64833.6 228516.0 0
63404.8 232473.0 0
68262.4 228080.0 0
66998.2 232912.0 0
71714.0 231467.0 0
81966.5 228295.0 0
87909.5 228008.0 0
92656.4 228420.0 0
96922.7 228051.0 0
101506.0 228161.0 0
97987.8 232526.0 0
106448.0 228468.0 0
105806.0 232902.0 0
110787.0 232490.0 0
116663.0 232394.0 0
120874.0 228201.0 0
127445.0 227937.0 0
131247.0 232477.0 0
138724.0 228246.0 0
143740.0 228409.0 0
148385.0 228033.0 0
152800.0 228507.0 0
157001.0 228616.0 0
162052.0 232047.0 0
167191.0 232384.0 0
172250.0 229752.0 0
177054.0 229967.0 0
181338.0 230015.0 0
186858.0 228287.0 0
192388.0 227814.0 0
197825.0 229292.0 0
202627.0 232664.0 0
206599.0 229379.0 0
210633.0 228182.0 0
212125.0 232566.0 0
216372.0 227955.0 0
222673.0 228045.0 0
228326.0 229723.0 0
233994.0 230873.0 0
240978.0 228782.0 0
246458.0 229320.0 0
252329.0 231548.0 0
256801.0 228301.0 0
268283.0 228139.0 0
272902.0 229285.0 0
277862.0 229556.0 0
282801.0 232319.0 0
287112.0 228316.0 0
297890.0 229923.0 0
302619.0 232828.0 0
306190.0 228902.0 0
311446.0 228848.0 0
322360.0 228699.0 0
325938.0 232401.0 0
328018.0 228209.0 0
337629.0 230478.0 0
342296.0 228271.0 0
348068.0 228990.0 0
352378.0 228722.0 0
356079.0 231187.0 0
360568.0 227842.0 0
366562.0 227929.0 0
372566.0 229222.0 0
383548.0 231260.0 0
390831.0 230073.0 0
396058.0 229909.0 0
400401.0 228340.0 0
409450.0 232069.0 0
417745.0 228374.0 0
414415.0 232402.0 0
417710.0 232507.0 0
422933.0 229043.0 0
420897.0 232836.0 0
427640.0 232854.0 0
432197.0 228111.0 0
433312.0 232463.0 0
437895.0 232158.0 0
441828.0 228712.0 0
452630.0 228656.0 0
458094.0 229020.0 0
462539.0 228580.0 0
467764.0 232576.0 0
471797.0 228348.0 0
476950.0 229862.0 0
482265.0 228731.0 0
487741.0 228085.0 0
492489.0 229580.0 0
497464.0 230425.0 0
3045.7 233020.0 0
8741.77 235408.0 0
18357.6 235145.0 0
23857.2 234013.0 0
33693.9 233938.0 0
49640.3 232939.0 0
46370.2 236765.0 0
53668.7 233921.0 0
58556.2 233303.0 0
63614.5 237642.0 0
68651.4 236215.0 0
77990.4 233020.0 0
83414.8 234355.0 0
88040.4 233040.0 0
90112.3 237536.0 0
93059.7 233041.0 0
98548.0 236706.0 0
102087.0 234123.0 0
105610.0 237406.0 0
118246.0 237956.0 0
126515.0 233128.0 0
122681.0 233727.0 0
128406.0 236542.0 0
135270.0 234296.0 0
139791.0 233789.0 0
137800.0 237712.0 0
145140.0 232989.0 0
150880.0 233064.0 0
156907.0 233973.0 0
161811.0 237614.0 0
167166.0 237353.0 0
171467.0 235068.0 0
176193.0 233698.0 0
180982.0 235619.0 0
185798.0 233576.0 0
191579.0 233697.0 0
197326.0 234823.0 0
207595.0 233396.0 0
217205.0 234341.0 0
223338.0 234013.0 0
228968.0 235708.0 0
233399.0 235337.0 0
238445.0 234520.0 0
243828.0 233859.0 0
248928.0 233477.0 0
246521.0 237854.0 0
251474.0 237395.0 0
255548.0 234393.0 0
262547.0 232928.0 0
268734.0 233108.0 0
273489.0 233826.0 0
278392.0 234946.0 0
287963.0 234341.0 0
293199.0 232965.0 0
293275.0 237465.0 0
297716.0 235171.0 0
308399.0 233797.0 0
313173.0 233421.0 0
312014.0 237576.0 0
317434.0 232920.0 0
316752.0 237514.0 0
322170.0 234265.0 0
326408.0 237861.0 0
330087.0 233327.0 0
335148.0 233887.0 0
340413.0 234281.0 0
346012.0 235091.0 0
351149.0 233176.0 0
356424.0 236690.0 0
360878.0 233717.0 0
366492.0 233671.0 0
371187.0 234157.0 0
377265.0 234851.0 0
387812.0 234484.0 0
392745.0 234446.0 0
398339.0 235436.0 0
403839.0 233388.0 0
411601.0 237572.0 0
417000.0 236242.0 0
422655.0 237799.0 0
432970.0 237103.0 0
438688.0 237802.0 0
442667.0 233595.0 0
448499.0 233595.0 0
453974.0 233523.0 0
458507.0 233987.0 0
455612.0 237928.0 0
462953.0 233707.0 0
468720.0 237794.0 0
472958.0 234060.0 0
479925.0 233806.0 0
484251.0 233634.0 0
488494.0 233222.0 0
486621.0 237414.0 0
492591.0 233737.0 0
490670.0 237792.0 0
497775.0 235180.0 0
2142.5 238867.0 0
7216.54 241469.0 0
13678.8 238997.0 0
18592.4 240081.0 0
22328.2 238492.0 0
27477.7 238844.0 0
32322.2 238192.0 0
32581.3 241665.0 0
37261.9 238720.0 0
42423.9 240039.0 0
51392.9 239164.0 0
57377.9 239429.0 0
62175.5 243035.0 0
67940.0 243093.0 0
73525.8 239267.0 0
79788.6 238513.0 0
85093.6 239258.0 0
95006.1 239425.0 0
101266.0 240038.0 0
97835.7 242767.0 0
105727.0 242895.0 0
111310.0 238831.0 0
121633.0 243068.0 0
123850.0 238251.0 0
128136.0 242592.0 0
133284.0 238620.0 0
137503.0 241692.0 0
141893.0 238604.0 0
147412.0 238304.0 0
152982.0 238287.0 0
157257.0 239847.0 0
153555.0 243103.0 0
170778.0 239093.0 0
173371.0 242332.0 0
168455.0 242621.0 0
176906.0 238689.0 0
182352.0 240430.0 0
186913.0 238596.0 0
191559.0 239000.0 0
196375.0 240274.0 0
201684.0 238166.0 0
207213.0 238370.0 0
213051.0 238143.0 0
212113.0 243065.0 0
219817.0 239446.0 0
224926.0 239326.0 0
228667.0 239803.0 0
232668.0 239095.0 0
237000.0 239765.0 0
242061.0 238073.0 0
241273.0 242986.0 0
246717.0 242788.0 0
252414.0 242906.0 0
257755.0 239667.0 0
262728.0 238996.0 0
268237.0 238722.0 0
274051.0 238782.0 0
279355.0 240465.0 0
284579.0 238423.0 0
283964.0 242872.0 0
289648.0 239293.0 0
292606.0 242723.0 0
296633.0 240115.0 0
302359.0 238635.0 0
307427.0 239093.0 0
312235.0 242807.0 0
321308.0 239390.0 0
317503.0 242474.0 0
328017.0 242515.0 0
331716.0 238325.0 0
337292.0 239512.0 0
342892.0 239630.0 0
346853.0 239666.0 0
351235.0 238351.0 0
349596.0 242546.0 0
355403.0 242916.0 0
361747.0 239816.0 0
367037.0 238538.0 0
371717.0 238635.0 0
382248.0 238758.0 0
378404.0 241461.0 0
386923.0 239206.0 0
391471.0 238957.0 0
395537.0 239747.0 0
400532.0 240532.0 0
405864.0 239203.0 0
412551.0 242805.0 0
417221.0 241365.0 0
428237.0 238938.0 0
425379.0 242985.0 0
431956.0 242743.0 0
444658.0 238494.0 0
450466.0 240243.0 0
461304.0 238871.0 0
465793.0 240429.0 0
473165.0 239638.0 0
477811.0 238340.0 0
482455.0 238461.0 0
486687.0 241616.0 0
495020.0 239161.0 0
2233.44 243439.0 0
2122.94 247802.0 0
6948.52 247315.0 0
12429.5 245053.0 0
18035.8 244527.0 0
23265.1 243340.0 0
29029.0 244849.0 0
35986.7 244503.0 0
41028.3 244274.0 0
46977.1 243236.0 0
52812.1 243863.0 0
57587.4 245586.0 0
73630.4 245971.0 0
78097.0 243118.0 0
82817.0 243995.0 0
88762.1 243780.0 0
93950.1 244275.0 0
101253.0 244321.0 0
97470.1 247158.0 0
110250.0 244243.0 0
107199.0 247642.0 0
115527.0 243818.0 0
127776.0 247977.0 0
133711.0 243454.0 0
142032.0 243870.0 0
138533.0 247801.0 0
148124.0 244880.0 0
158000.0 244024.0 0
163119.0 243451.0 0
166884.0 247490.0 0
177765.0 243133.0 0
181602.0 244996.0 0
186464.0 243860.0 0
191580.0 243511.0 0
195899.0 246028.0 0
201133.0 243754.0 0
207154.0 244454.0 0
212770.0 247682.0 0
216834.0 244235.0 0
221599.0 245095.0 0
226054.0 243861.0 0
231003.0 243172.0 0
232480.0 247968.0 0
235862.0 244396.0 0
246812.0 247621.0 0
257588.0 244883.0 0
263758.0 244485.0 0
269651.0 244370.0 0
274625.0 243751.0 0
271786.0 248147.0 0
279887.0 245810.0 0
284232.0 247283.0 0
288546.0 244311.0 0
293538.0 247267.0 0
298660.0 244902.0 0
303590.0 243620.0 0
307732.0 243481.0 0
306709.0 247375.0 0
316875.0 247322.0 0
323371.0 244359.0 0
324924.0 248233.0 0
328746.0 247220.0 0
332728.0 243429.0 0
337372.0 244825.0 0
342003.0 243556.0 0
345572.0 243401.0 0
344248.0 247615.0 0
350207.0 248197.0 0
360731.0 245000.0 0
366568.0 243258.0 0
369464.0 248049.0 0
373501.0 243775.0 0
378326.0 245955.0 0
383175.0 244410.0 0
388101.0 243603.0 0
392605.0 243325.0 0
388171.0 248093.0 0
397134.0 243593.0 0
397992.0 247754.0 0
408100.0 243940.0 0
403396.0 244649.0 0
421047.0 243449.0 0
418469.0 246825.0 0
423600.0 248098.0 0
428763.0 246737.0 0
437659.0 244034.0 0
443638.0 244068.0 0
450699.0 246671.0 0
454467.0 243181.0 0
458751.0 244141.0 0
463897.0 243964.0 0
463185.0 248004.0 0
469245.0 243215.0 0
474314.0 244162.0 0
479034.0 243237.0 0
483672.0 244826.0 0
487562.0 248070.0 0
491483.0 243684.0 0
497411.0 243785.0 0
3066.0 252908.0 0
8508.48 251825.0 0
12533.4 250459.0 0
16006.9 248477.0 0
20032.2 248795.0 0
16374.2 252653.0 0
24878.5 248585.0 0
32183.6 249202.0 0
32659.9 253131.0 0
37654.5 250118.0 0
43294.7 248726.0 0
48666.3 249223.0 0
53550.6 248374.0 0
57416.4 250493.0 0
62541.9 248282.0 0
62509.8 252704.0 0
67216.3 248372.0 0
71124.1 250744.0 0
66939.7 252809.0 0
79041.4 248661.0 0
84465.9 248625.0 0
82302.5 252246.0 0
86344.4 252552.0 0
88533.4 248813.0 0
92508.1 248307.0 0
96573.8 252270.0 0
102459.0 248739.0 0
106457.0 252808.0 0
111845.0 248404.0 0
117997.0 249326.0 0
123259.0 248297.0 0
128398.0 252478.0 0
132829.0 248523.0 0
143150.0 248684.0 0
143919.0 252722.0 0
151873.0 248672.0 0
147985.0 250853.0 0
152608.0 253136.0 0
156560.0 248850.0 0
161570.0 248388.0 0
162822.0 252524.0 0
168100.0 252939.0 0
173239.0 248548.0 0
178597.0 248697.0 0
183576.0 249623.0 0
189469.0 248703.0 0
193915.0 249848.0 0
199741.0 248734.0 0
203873.0 249318.0 0
202918.0 253303.0 0
208379.0 249588.0 0
212066.0 252628.0 0
219037.0 249001.0 0
223358.0 248533.0 0
222465.0 252772.0 0
227639.0 248560.0 0
232483.0 252673.0 0
237866.0 248784.0 0
237130.0 253081.0 0
242409.0 249347.0 0
246151.0 252628.0 0
251995.0 249161.0 0
257453.0 249180.0 0
262275.0 250693.0 0
267716.0 248549.0 0
272487.0 252044.0 0
276122.0 248579.0 0
283090.0 252660.0 0
288518.0 249552.0 0
292641.0 252855.0 0
298751.0 249662.0 0
302564.0 248444.0 0
306808.0 252103.0 0
311726.0 248487.0 0
316057.0 252211.0 0
321372.0 249221.0 0
326155.0 253020.0 0
334216.0 249039.0 0
339660.0 248668.0 0
343356.0 252544.0 0
356807.0 249778.0 0
363336.0 249648.0 0
372391.0 253213.0 0
374972.0 249099.0 0
379778.0 249923.0 0
382149.0 253020.0 0
384051.0 249879.0 0
387226.0 252671.0 0
391693.0 253025.0 0
393233.0 248387.0 0
396291.0 252392.0 0
402042.0 248977.0 0
406627.0 248558.0 0
412756.0 248696.0 0
417760.0 252620.0 0
427998.0 252999.0 0
433877.0 249267.0 0
440187.0 250179.0 0
445483.0 248769.0 0
448661.0 251284.0 0
453261.0 253073.0 0
456120.0 248297.0 0
458532.0 252111.0 0
460037.0 248695.0 0
463230.0 252191.0 0
467436.0 248490.0 0
472522.0 248474.0 0
477844.0 248568.0 0
482731.0 249076.0 0
485511.0 252607.0 0
492470.0 248886.0 0
490390.0 252792.0 0
497812.0 248545.0 0
495383.0 252827.0 0
7506.32 256254.0 0
12197.1 255007.0 0
17075.5 258196.0 0
21256.8 253700.0 0
27408.3 253957.0 0
32826.2 257243.0 0
37667.7 255485.0 0
42190.9 253858.0 0
47931.1 254724.0 0
53255.7 253348.0 0
51645.3 257834.0 0
58923.9 254365.0 0
56196.6 257894.0 0
61462.4 258358.0 0
67323.5 258313.0 0
76212.9 253810.0 0
71415.4 254919.0 0
80906.4 256523.0 0
91212.3 253348.0 0
86748.2 258160.0 0
101334.0 253398.0 0
98395.1 257621.0 0
103694.0 257599.0 0
108546.0 258192.0 0
112406.0 253914.0 0
118088.0 254741.0 0
123242.0 253545.0 0
128458.0 257651.0 0
133254.0 254004.0 0
138715.0 253530.0 0
146846.0 255099.0 0
143107.0 256847.0 0
150637.0 257088.0 0
157924.0 253358.0 0
155608.0 257172.0 0
161150.0 257409.0 0
172581.0 254249.0 0
177263.0 253959.0 0
182442.0 254571.0 0
187106.0 253592.0 0
192281.0 253871.0 0
189257.0 258334.0 0
197945.0 253455.0 0
194196.0 258396.0 0
203773.0 257497.0 0
207325.0 254286.0 0
213112.0 257881.0 0
217212.0 254076.0 0
227451.0 254094.0 0
231632.0 256859.0 0
235621.0 257210.0 0
241415.0 253798.0 0
241056.0 258186.0 0
250397.0 254187.0 0
254575.0 253665.0 0
258861.0 254325.0 0
257745.0 258033.0 0
262642.0 257275.0 0
267420.0 253876.0 0
272408.0 256695.0 0
277156.0 253873.0 0
288097.0 254099.0 0
293318.0 258320.0 0
297252.0 253588.0 0
297993.0 257438.0 0
301970.0 253484.0 0
306713.0 256976.0 0
311365.0 253925.0 0
320418.0 253630.0 0
317204.0 257937.0 0
322918.0 258208.0 0
326742.0 257963.0 0
332589.0 255076.0 0
338285.0 254058.0 0
345177.0 256965.0 0
348104.0 253620.0 0
349876.0 258233.0 0
353212.0 254194.0 0
358614.0 255264.0 0
363215.0 255129.0 0
367650.0 253672.0 0
377394.0 254560.0 0
372552.0 258125.0 0
382851.0 257703.0 0
388990.0 257604.0 0
397182.0 257458.0 0
401336.0 253849.0 0
406487.0 253418.0 0
407479.0 258118.0 0
411875.0 255046.0 0
416949.0 258308.0 0
422231.0 255570.0 0
432098.0 258317.0 0
435900.0 254502.0 0
440095.0 255108.0 0
444901.0 253901.0 0
448955.0 254425.0 0
447851.0 258052.0 0
457782.0 256969.0 0
463152.0 257360.0 0
468268.0 253541.0 0
473579.0 253649.0 0
478493.0 253468.0 0
478131.0 258301.0 0
482011.0 253744.0 0
487732.0 257565.0 0
493275.0 257551.0 0
497802.0 257132.0 0
2829.9 258800.0 0
9596.2 260138.0 0
12439.5 258651.0 0
23490.5 259141.0 0
28415.9 259050.0 0
32616.2 261869.0 0
37927.9 261140.0 0
44141.7 259180.0 0
48930.7 260866.0 0
58153.9 262681.0 0
73070.3 259324.0 0
71426.4 262918.0 0
77976.1 260316.0 0
92900.1 259362.0 0
96737.5 263437.0 0
101911.0 261940.0 0
113682.0 259291.0 0
118735.0 260031.0 0
123595.0 258575.0 0
128614.0 262813.0 0
133110.0 258522.0 0
137618.0 258906.0 0
133591.0 263053.0 0
141672.0 261414.0 0
146707.0 259145.0 0
150763.0 262797.0 0
156844.0 262390.0 0
162686.0 263481.0 0
167136.0 259011.0 0
172930.0 258536.0 0
170968.0 263391.0 0
178063.0 259468.0 0
183569.0 259359.0 0
183113.0 263313.0 0
187185.0 263386.0 0
192562.0 262982.0 0
199079.0 259091.0 0
202898.0 262548.0 0
208265.0 259332.0 0
211014.0 263392.0 0
217829.0 259379.0 0
222500.0 258508.0 0
227501.0 258672.0 0
231668.0 261050.0 0
237674.0 262976.0 0
246268.0 258495.0 0
248973.0 263450.0 0
252709.0 258938.0 0
257368.0 261372.0 0
260306.0 263410.0 0
268556.0 258600.0 0
265507.0 262441.0 0
272389.0 263013.0 0
276579.0 258917.0 0
282697.0 258455.0 0
285557.0 262652.0 0
287793.0 258501.0 0
290195.0 262390.0 0
297296.0 262675.0 0
302113.0 259525.0 0
306795.0 262427.0 0
311421.0 259146.0 0
323499.0 263151.0 0
331445.0 259481.0 0
328140.0 261480.0 0
335584.0 260003.0 0
340735.0 258786.0 0
341031.0 263356.0 0
345786.0 262194.0 0
355445.0 260386.0 0
361537.0 259831.0 0
367138.0 258994.0 0
373334.0 262989.0 0
377573.0 260292.0 0
393370.0 259782.0 0
402307.0 259472.0 0
398494.0 263045.0 0
407710.0 263495.0 0
411938.0 260350.0 0
421533.0 260139.0 0
426068.0 259096.0 0
424584.0 263136.0 0
437879.0 259426.0 0
434111.0 263328.0 0
443228.0 258932.0 0
442758.0 263276.0 0
447688.0 263313.0 0
452703.0 258944.0 0
458290.0 262781.0 0
463579.0 262179.0 0
468233.0 258645.0 0
473114.0 258735.0 0
473577.0 263152.0 0
478164.0 263455.0 0
482766.0 258624.0 0
482824.0 262821.0 0
487509.0 263139.0 0
492504.0 262498.0 0
497559.0 261775.0 0
2493.97 264137.0 0
7227.04 263588.0 0
7679.74 268594.0 0
12053.2 263916.0 0
12006.9 268103.0 0
17512.8 264470.0 0
23312.8 265187.0 0
28715.1 263554.0 0
34029.1 267193.0 0
39370.2 266113.0 0
43240.9 264605.0 0
47674.6 264678.0 0
48701.2 268392.0 0
52838.6 263562.0 0
59439.0 267778.0 0
64105.1 263974.0 0
69205.0 264852.0 0
67581.0 268314.0 0
75172.2 264746.0 0
71666.7 268284.0 0
81050.2 264436.0 0
78366.7 268214.0 0
87048.4 264807.0 0
92009.4 263937.0 0
92030.2 268576.0 0
97029.9 268548.0 0
102159.0 267820.0 0
107424.0 264277.0 0
111105.0 268596.0 0
113360.0 264284.0 0
118418.0 265289.0 0
123404.0 263637.0 0
126572.0 268341.0 0
132450.0 268026.0 0
137995.0 264651.0 0
142287.0 268250.0 0
145505.0 264000.0 0
147726.0 267766.0 0
152613.0 268467.0 0
157503.0 267474.0 0
167212.0 267503.0 0
172470.0 268550.0 0
175318.0 265108.0 0
179576.0 264169.0 0
183438.0 267229.0 0
190350.0 267987.0 0
197913.0 264729.0 0
203305.0 267908.0 0
206846.0 264781.0 0
212427.0 267970.0 0
215672.0 263723.0 0
217643.0 268444.0 0
221152.0 263815.0 0
223409.0 268593.0 0
227098.0 263993.0 0
232865.0 268298.0 0
243925.0 263738.0 0
242374.0 267947.0 0
246700.0 267791.0 0
254222.0 265051.0 0
262664.0 267628.0 0
268091.0 267718.0 0
279487.0 263640.0 0
283965.0 266873.0 0
289031.0 267481.0 0
293543.0 265759.0 0
298745.0 268463.0 0
302238.0 264678.0 0
302740.0 268284.0 0
307513.0 268031.0 0
312358.0 265204.0 0
318343.0 263764.0 0
316367.0 268596.0 0
327580.0 267342.0 0
332375.0 264001.0 0
337131.0 264545.0 0
340763.0 267483.0 0
351058.0 264360.0 0
359250.0 264615.0 0
364362.0 264312.0 0
362700.0 268179.0 0
368947.0 263652.0 0
377209.0 265374.0 0
373248.0 268097.0 0
381325.0 263551.0 0
386947.0 263748.0 0
393328.0 264634.0 0
397585.0 267464.0 0
402847.0 264406.0 0
415813.0 264159.0 0
417759.0 268280.0 0
421124.0 265402.0 0
428952.0 263643.0 0
432069.0 268098.0 0
438709.0 264612.0 0
436729.0 268460.0 0
442719.0 268290.0 0
453008.0 263966.0 0
453384.0 268129.0 0
463548.0 266716.0 0
468161.0 263969.0 0
471795.0 266851.0 0
476402.0 268460.0 0
481049.0 266779.0 0
485595.0 267767.0 0
495982.0 267042.0 0
2475.07 269128.0 0
8238.89 273696.0 0
12743.9 273333.0 0
15775.1 269534.0 0
20838.9 270232.0 0
26801.8 269469.0 0
30890.7 272794.0 0
39999.6 270359.0 0
35863.4 272938.0 0
44650.6 269076.0 0
43598.4 273066.0 0
47720.7 272429.0 0
53000.9 268734.0 0
51769.8 272795.0 0
56790.4 272984.0 0
63872.5 269111.0 0
62536.6 273113.0 0
67128.0 273516.0 0
72476.2 273473.0 0
77951.9 272295.0 0
82509.4 269415.0 0
87172.1 270395.0 0
90180.1 273719.0 0
95242.5 273566.0 0
101145.0 273486.0 0
106970.0 270171.0 0
111814.0 273448.0 0
115807.0 269925.0 0
121085.0 269916.0 0
127607.0 273464.0 0
132196.0 273343.0 0
137140.0 269121.0 0
137217.0 273719.0 0
146417.0 272748.0 0
156134.0 272416.0 0
162019.0 269045.0 0
178160.0 269433.0 0
186096.0 271623.0 0
190938.0 273282.0 0
195339.0 269416.0 0
199707.0 270037.0 0
208030.0 268833.0 0
204860.0 272447.0 0
211806.0 272600.0 0
221872.0 273060.0 0
227813.0 268962.0 0
226875.0 273466.0 0
232070.0 272556.0 0
238186.0 268972.0 0
241599.0 272445.0 0
246922.0 272899.0 0
251505.0 269496.0 0
251581.0 273747.0 0
257663.0 269370.0 0
261541.0 272951.0 0
266349.0 272166.0 0
273486.0 269665.0 0
279503.0 269823.0 0
284956.0 271979.0 0
290095.0 272344.0 0
293769.0 269977.0 0
297279.0 272911.0 0
302542.0 271437.0 0
307401.0 271963.0 0
312849.0 271015.0 0
321271.0 268789.0 0
316927.0 272900.0 0
326186.0 272722.0 0
333541.0 268992.0 0
337857.0 270390.0 0
341725.0 273346.0 0
346463.0 268756.0 0
350381.0 273155.0 0
352469.0 269225.0 0
358061.0 270204.0 0
363442.0 273497.0 0
367620.0 268890.0 0
372676.0 272787.0 0
377766.0 270104.0 0
381302.0 273499.0 0
383137.0 268990.0 0
388885.0 269612.0 0
393913.0 269907.0 0
397829.0 273527.0 0
401984.0 269028.0 0
407540.0 269298.0 0
413340.0 269377.0 0
417341.0 273006.0 0
420767.0 269551.0 0
422301.0 273305.0 0
426091.0 269022.0 0
438877.0 272521.0 0
448764.0 270391.0 0
453677.0 273074.0 0
458469.0 269343.0 0
467778.0 269285.0 0
472202.0 271959.0 0
476470.0 273488.0 0
481528.0 272052.0 0
487337.0 272675.0 0
490662.0 268713.0 0
497273.0 272679.0 0
3188.43 274257.0 0
8049.62 278719.0 0
14952.9 278563.0 0
17387.1 274301.0 0
21988.1 274825.0 0
26197.3 274246.0 0
39939.6 276051.0 0
47186.5 277705.0 0
52656.5 276985.0 0
63749.9 278460.0 0
69573.2 278836.0 0
78849.2 277036.0 0
82577.1 273840.0 0
86339.6 274464.0 0
82760.1 278666.0 0
98818.2 278829.0 0
106581.0 275190.0 0
118301.0 274604.0 0
123248.0 274350.0 0
124130.0 278675.0 0
128429.0 278080.0 0
132894.0 277671.0 0
136882.0 278411.0 0
141683.0 275025.0 0
146509.0 278711.0 0
151532.0 275184.0 0
156632.0 278788.0 0
161849.0 275345.0 0
169299.0 273875.0 0
175990.0 275219.0 0
181627.0 274292.0 0
189265.0 277793.0 0
193628.0 278635.0 0
195698.0 274089.0 0
197477.0 278428.0 0
200455.0 275313.0 0
208491.0 274482.0 0
206445.0 276930.0 0
212412.0 278336.0 0
216680.0 273801.0 0
216964.0 278321.0 0
221122.0 277889.0 0
225892.0 278509.0 0
231120.0 276915.0 0
236193.0 273796.0 0
235756.0 278715.0 0
240649.0 277676.0 0
248470.0 277696.0 0
252721.0 277392.0 0
256280.0 274506.0 0
260090.0 277569.0 0
265426.0 277397.0 0
270525.0 274520.0 0
272856.0 277959.0 0
276608.0 274559.0 0
275597.0 278517.0 0
281970.0 277482.0 0
288366.0 277138.0 0
293694.0 274570.0 0
298775.0 277309.0 0
304651.0 276062.0 0
310239.0 274373.0 0
309249.0 278034.0 0
313958.0 276016.0 0
317754.0 277875.0 0
321548.0 274763.0 0
327724.0 277252.0 0
331772.0 273963.0 0
336623.0 274342.0 0
332500.0 278572.0 0
346563.0 274565.0 0
351670.0 277838.0 0
354446.0 274284.0 0
357616.0 277881.0 0
368546.0 274112.0 0
368507.0 278374.0 0
377008.0 275251.0 0
382605.0 277495.0 0
385791.0 274090.0 0
391589.0 274640.0 0
395874.0 278236.0 0
400730.0 278679.0 0
403456.0 273988.0 0
405917.0 278339.0 0
408205.0 274411.0 0
412661.0 274463.0 0
422170.0 278198.0 0
427063.0 275715.0 0
433127.0 274034.0 0
437984.0 277937.0 0
443920.0 273869.0 0
448488.0 276237.0 0
453556.0 278302.0 0
457835.0 275174.0 0
462980.0 273812.0 0
462254.0 278811.0 0
468048.0 274074.0 0
472251.0 277114.0 0
478254.0 278220.0 0
483452.0 277162.0 0
487735.0 277337.0 0
492214.0 275121.0 0
497032.0 278269.0 0
2743.04 279685.0 0
6662.3 283653.0 0
11772.4 281199.0 0
19943.5 279112.0 0
16458.0 283764.0 0
25363.0 279098.0 0
22179.6 283914.0 0
26846.8 283669.0 0
32695.6 279558.0 0
42483.8 281007.0 0
47182.2 282835.0 0
52162.2 282386.0 0
57754.9 279215.0 0
62688.8 283837.0 0
74689.2 279334.0 0
72719.7 283873.0 0
77860.0 283298.0 0
83347.4 283379.0 0
87406.3 278908.0 0
88713.3 283871.0 0
93067.2 278975.0 0
93474.3 283833.0 0
97418.4 283463.0 0
103879.0 279348.0 0
107206.0 279203.0 0
111620.0 279312.0 0
107419.0 282451.0 0
116374.0 282031.0 0
120337.0 279343.0 0
125897.0 283013.0 0
131780.0 282398.0 0
137412.0 283289.0 0
141100.0 279211.0 0
151895.0 280570.0 0
148491.0 283660.0 0
157358.0 283779.0 0
160758.0 280902.0 0
166706.0 280135.0 0
163297.0 283307.0 0
172248.0 278864.0 0
170858.0 282298.0 0
175905.0 282863.0 0
179226.0 278847.0 0
184112.0 279512.0 0
189109.0 283037.0 0
194237.0 283454.0 0
202898.0 279149.0 0
199444.0 282770.0 0
207370.0 281760.0 0
216169.0 283816.0 0
221731.0 282161.0 0
226464.0 283801.0 0
232411.0 282935.0 0
238395.0 282730.0 0
244846.0 281993.0 0
251468.0 282458.0 0
256171.0 279499.0 0
261814.0 282186.0 0
270061.0 281355.0 0
277963.0 281537.0 0
283337.0 283829.0 0
288885.0 282471.0 0
293512.0 279246.0 0
297150.0 282168.0 0
302935.0 282514.0 0
308741.0 283359.0 0
312923.0 280744.0 0
318332.0 283161.0 0
323290.0 279972.0 0
328781.0 282455.0 0
336859.0 278949.0 0
339545.0 283583.0 0
342157.0 278918.0 0
344881.0 283383.0 0
347163.0 278932.0 0
349932.0 282916.0 0
354389.0 281491.0 0
363232.0 279843.0 0
368152.0 283079.0 0
373400.0 279598.0 0
379138.0 279643.0 0
382491.0 283148.0 0
387098.0 279690.0 0
392335.0 280827.0 0
396161.0 283638.0 0
406707.0 283490.0 0
411211.0 279630.0 0
416952.0 278854.0 0
415507.0 283900.0 0
421169.0 283779.0 0
426381.0 281269.0 0
431413.0 279741.0 0
443856.0 279729.0 0
449049.0 280587.0 0
458350.0 279361.0 0
456115.0 283043.0 0
461516.0 283860.0 0
467287.0 279085.0 0
472915.0 282312.0 0
478074.0 283687.0 0
482507.0 281620.0 0
487841.0 282464.0 0
492396.0 280110.0 0
498094.0 282921.0 0
2121.61 284508.0 0
8178.43 288587.0 0
10905.7 284857.0 0
12940.9 287955.0 0
16380.0 288592.0 0
20432.2 288492.0 0
31212.0 287359.0 0
37994.0 285036.0 0
43998.5 285516.0 0
53043.3 288791.0 0
57342.0 285308.0 0
63555.1 288990.0 0
67621.0 284165.0 0
68257.8 288561.0 0
72444.4 288720.0 0
77179.3 288404.0 0
82028.3 288488.0 0
86313.9 287498.0 0
91297.7 288400.0 0
96810.8 287863.0 0
102455.0 284559.0 0
111819.0 285672.0 0
116490.0 288387.0 0
120448.0 285168.0 0
132154.0 288781.0 0
137852.0 288929.0 0
143342.0 284119.0 0
147563.0 288214.0 0
152932.0 285085.0 0
157602.0 288768.0 0
162768.0 287806.0 0
168092.0 285549.0 0
172608.0 288036.0 0
177966.0 288107.0 0
181650.0 284714.0 0
186454.0 287432.0 0
192198.0 288011.0 0
196755.0 288565.0 0
203612.0 284678.0 0
201255.0 288196.0 0
206908.0 288128.0 0
210857.0 285402.0 0
212749.0 288548.0 0
221828.0 286822.0 0
226859.0 288878.0 0
231609.0 288573.0 0
236479.0 287760.0 0
241274.0 287128.0 0
245833.0 287347.0 0
250498.0 288338.0 0
256926.0 284024.0 0
255241.0 288161.0 0
260805.0 288355.0 0
266241.0 285462.0 0
274181.0 284085.0 0
271151.0 287748.0 0
278053.0 287446.0 0
288345.0 287755.0 0
293142.0 284774.0 0
298305.0 287378.0 0
303362.0 288064.0 0
308090.0 288359.0 0
314246.0 288427.0 0
319161.0 288029.0 0
324040.0 285410.0 0
328932.0 288086.0 0
334034.0 284242.0 0
333112.0 288448.0 0
336742.0 288357.0 0
342540.0 288746.0 0
347848.0 288036.0 0
353166.0 287588.0 0
358627.0 284569.0 0
363883.0 285430.0 0
372334.0 284202.0 0
367745.0 288748.0 0
376982.0 284162.0 0
373516.0 288892.0 0
382604.0 288400.0 0
378291.0 288715.0 0
387497.0 284184.0 0
387500.0 288721.0 0
392142.0 284934.0 0
390890.0 288517.0 0
394262.0 288125.0 0
401242.0 284144.0 0
398042.0 288078.0 0
411229.0 284500.0 0
417924.0 288664.0 0
423049.0 289027.0 0
428480.0 284817.0 0
427917.0 288720.0 0
430911.0 284192.0 0
435869.0 283957.0 0
442086.0 285670.0 0
446697.0 284077.0 0
447160.0 288383.0 0
451318.0 285292.0 0
456275.0 287992.0 0
466955.0 284488.0 0
470961.0 287274.0 0
476146.0 288699.0 0
482642.0 287620.0 0
488888.0 288025.0 0
493635.0 283995.0 0
497017.0 287694.0 0
2821.9 289298.0 0
2379.83 293744.0 0
7488.63 293437.0 0
11915.8 291914.0 0
17736.0 292846.0 0
25326.2 289679.0 0
22206.2 293443.0 0
33501.4 292950.0 0
37244.1 290387.0 0
41745.9 289376.0 0
47393.6 289499.0 0
51596.5 294139.0 0
58678.0 290598.0 0
67527.3 293292.0 0
72518.0 293330.0 0
81279.3 293612.0 0
87024.0 292515.0 0
92325.8 293663.0 0
101403.0 290454.0 0
97272.2 293691.0 0
107506.0 290631.0 0
113037.0 290494.0 0
121265.0 289907.0 0
117617.0 293936.0 0
126001.0 289157.0 0
123411.0 293695.0 0
134061.0 293827.0 0
137961.0 293552.0 0
142169.0 293483.0 0
142870.0 289486.0 0
147577.0 294011.0 0
152669.0 289724.0 0
158956.0 293169.0 0
162904.0 293220.0 0
167370.0 290586.0 0
172092.0 292420.0 0
177823.0 293638.0 0
182390.0 289791.0 0
188312.0 292409.0 0
193968.0 293256.0 0
199124.0 292976.0 0
204229.0 293359.0 0
209572.0 293222.0 0
214079.0 292020.0 0
217671.0 289718.0 0
217543.0 294092.0 0
222170.0 292311.0 0
226322.0 292783.0 0
230548.0 294082.0 0
235775.0 292495.0 0
240078.0 290485.0 0
243663.0 291479.0 0
250421.0 293724.0 0
256523.0 293646.0 0
262592.0 293993.0 0
266679.0 290962.0 0
272494.0 293383.0 0
278291.0 293251.0 0
283180.0 290595.0 0
289889.0 293240.0 0
293362.0 289672.0 0
294813.0 294113.0 0
299262.0 292737.0 0
303534.0 292059.0 0
307704.0 293510.0 0
317793.0 292848.0 0
322756.0 291119.0 0
327791.0 293089.0 0
332993.0 292728.0 0
338824.0 293949.0 0
346939.0 291585.0 0
344147.0 294029.0 0
351194.0 293707.0 0
357717.0 290222.0 0
362457.0 290228.0 0
367595.0 294109.0 0
377591.0 293393.0 0
383032.0 293560.0 0
387670.0 293238.0 0
390599.0 294068.0 0
394684.0 292747.0 0
400660.0 292479.0 0
405864.0 289516.0 0
412295.0 289123.0 0
432831.0 289107.0 0
428624.0 293505.0 0
433400.0 293920.0 0
437716.0 289598.0 0
441813.0 290337.0 0
448824.0 293268.0 0
444224.0 294158.0 0
452069.0 290466.0 0
461189.0 289508.0 0
462852.0 293943.0 0
466193.0 289070.0 0
470815.0 292462.0 0
488682.0 293469.0 0
492858.0 290817.0 0
497145.0 293544.0 0
2835.66 297589.0 0
7660.86 297898.0 0
13267.9 296326.0 0
17493.8 297736.0 0
22056.1 297729.0 0
25735.0 294208.0 0
29656.0 295974.0 0
25997.7 298147.0 0
33846.0 298906.0 0
36841.7 295350.0 0
38554.8 298819.0 0
41277.8 294605.0 0
46290.4 294744.0 0
47500.0 298534.0 0
56825.7 294842.0 0
62245.4 294433.0 0
68955.0 298389.0 0
73808.6 297823.0 0
76631.6 294410.0 0
77214.8 298260.0 0
80669.5 298710.0 0
86299.2 298816.0 0
92820.7 298671.0 0
98251.6 298953.0 0
102434.0 295605.0 0
106771.0 295774.0 0
111803.0 294460.0 0
108980.0 298985.0 0
113133.0 298597.0 0
122444.0 298489.0 0
126565.0 299101.0 0
128785.0 294209.0 0
131871.0 298557.0 0
136852.0 298102.0 0
144062.0 298764.0 0
152948.0 294653.0 0
150526.0 298546.0 0
157116.0 298398.0 0
163034.0 297605.0 0
167192.0 295215.0 0
173121.0 298041.0 0
183331.0 294465.0 0
183106.0 299110.0 0
186742.0 297782.0 0
191892.0 298137.0 0
196836.0 297302.0 0
201819.0 298394.0 0
207340.0 298293.0 0
213736.0 296294.0 0
216959.0 299215.0 0
220548.0 297160.0 0
225439.0 296649.0 0
229438.0 299129.0 0
235860.0 297972.0 0
240008.0 294586.0 0
245208.0 297523.0 0
252614.0 298691.0 0
257327.0 299080.0 0
262262.0 298751.0 0
267367.0 296479.0 0
277757.0 298255.0 0
282888.0 296144.0 0
289688.0 298009.0 0
293330.0 297694.0 0
297784.0 298582.0 0
303681.0 297189.0 0
309222.0 299029.0 0
312909.0 294606.0 0
320054.0 297235.0 0
324346.0 295730.0 0
328689.0 298658.0 0
334584.0 297998.0 0
342792.0 299221.0 0
348315.0 298489.0 0
354584.0 298429.0 0
358171.0 294596.0 0
358842.0 298595.0 0
362904.0 295131.0 0
362330.0 299196.0 0
366757.0 299159.0 0
372838.0 294519.0 0
376900.0 297216.0 0
380657.0 297849.0 0
386669.0 298365.0 0
391401.0 297451.0 0
396459.0 298447.0 0
400524.0 296854.0 0
404244.0 295770.0 0
409752.0 294960.0 0
416391.0 294473.0 0
422843.0 294677.0 0
426915.0 298273.0 0
431457.0 298208.0 0
438586.0 294855.0 0
447570.0 298400.0 0
452124.0 294455.0 0
452823.0 298643.0 0
457250.0 294319.0 0
461631.0 298165.0 0
466817.0 295200.0 0
470863.0 298237.0 0
476428.0 295073.0 0
482911.0 294352.0 0
480554.0 298774.0 0
492901.0 294532.0 0
497367.0 299033.0 0
2103.15 301753.0 0
6790.41 303382.0 0
12524.4 301690.0 0
18523.2 302768.0 0
24346.5 302491.0 0
30113.2 302878.0 0
35415.7 304304.0 0
39842.6 302886.0 0
43310.5 299669.0 0
47436.2 302689.0 0
51950.2 299783.0 0
58855.4 299398.0 0
64441.2 299646.0 0
66613.5 304126.0 0
71669.7 302730.0 0
77168.7 301882.0 0
82271.5 303684.0 0
93308.8 302779.0 0
97500.0 303568.0 0
103086.0 299570.0 0
102243.0 303368.0 0
107101.0 303149.0 0
112333.0 302872.0 0
117545.0 299646.0 0
117490.0 304259.0 0
122472.0 302602.0 0
132621.0 303359.0 0
127694.0 304061.0 0
137665.0 303042.0 0
140244.0 300361.0 0
142141.0 303435.0 0
147683.0 303266.0 0
153094.0 302596.0 0
157516.0 304284.0 0
161605.0 302448.0 0
167726.0 299862.0 0
165713.0 304089.0 0
171347.0 303942.0 0
176344.0 303959.0 0
178901.0 299708.0 0
180433.0 304354.0 0
185087.0 302872.0 0
190290.0 302417.0 0
195444.0 302920.0 0
201360.0 303848.0 0
206628.0 304212.0 0
212390.0 302096.0 0
218159.0 303665.0 0
222910.0 301622.0 0
232575.0 302778.0 0
238114.0 303497.0 0
240292.0 299579.0 0
243735.0 303820.0 0
248596.0 302503.0 0
255135.0 302816.0 0
259913.0 303043.0 0
266640.0 303511.0 0
272568.0 299481.0 0
276467.0 302989.0 0
281543.0 301928.0 0
285950.0 299696.0 0
287002.0 304279.0 0
292769.0 302508.0 0
303479.0 302483.0 0
307680.0 303690.0 0
315159.0 300069.0 0
319039.0 304248.0 0
323599.0 300597.0 0
328120.0 304298.0 0
332591.0 302624.0 0
338186.0 300181.0 0
337141.0 303950.0 0
346952.0 303940.0 0
352954.0 303701.0 0
358281.0 302430.0 0
363831.0 303603.0 0
372023.0 299915.0 0
368650.0 303248.0 0
377276.0 301492.0 0
372500.0 303829.0 0
383141.0 302825.0 0
392813.0 302188.0 0
388498.0 304046.0 0
396735.0 303920.0 0
401673.0 301919.0 0
407506.0 300424.0 0
413231.0 300261.0 0
418135.0 299554.0 0
417500.0 303466.0 0
422141.0 299827.0 0
423622.0 303750.0 0
429107.0 302483.0 0
432842.0 303726.0 0
436314.0 300206.0 0
442124.0 299498.0 0
439552.0 303919.0 0
445083.0 303514.0 0
449563.0 303184.0 0
453921.0 303529.0 0
457515.0 300311.0 0
461737.0 302785.0 0
465887.0 299266.0 0
466255.0 303976.0 0
472028.0 304263.0 0
476651.0 300996.0 0
481387.0 303397.0 0
485122.0 299403.0 0
491131.0 299316.0 0
497597.0 304065.0 0
3506.09 308834.0 0
8912.7 308661.0 0
12818.9 307107.0 0
18048.7 308978.0 0
23736.7 307857.0 0
29009.0 308667.0 0
33720.8 308465.0 0
38523.8 308786.0 0
43473.3 304976.0 0
47737.0 307449.0 0
51726.5 304621.0 0
52028.1 309174.0 0
56687.3 304442.0 0
61943.5 304463.0 0
61811.3 309172.0 0
66412.9 308720.0 0
71646.7 308615.0 0
78223.3 309091.0 0
84132.1 308415.0 0
88456.1 305121.0 0
94100.4 307005.0 0
99297.6 308268.0 0
108333.0 308112.0 0
113650.0 307721.0 0
122431.0 306994.0 0
118204.0 308738.0 0
126947.0 309009.0 0
131388.0 308140.0 0
135470.0 306832.0 0
140040.0 307737.0 0
145268.0 308413.0 0
151754.0 308708.0 0
157536.0 309398.0 0
162313.0 307867.0 0
167929.0 308381.0 0
178727.0 308308.0 0
183572.0 308416.0 0
188933.0 306545.0 0
193491.0 309184.0 0
198236.0 307610.0 0
202310.0 309154.0 0
207090.0 309377.0 0
212461.0 308477.0 0
217397.0 308131.0 0
222013.0 306955.0 0
227499.0 304320.0 0
226346.0 309060.0 0
231278.0 308184.0 0
236066.0 308663.0 0
240745.0 308500.0 0
247356.0 307767.0 0
251774.0 305739.0 0
256835.0 308005.0 0
262206.0 308227.0 0
272616.0 304388.0 0
272573.0 309134.0 0
277763.0 307613.0 0
282659.0 307405.0 0
294129.0 309140.0 0
298699.0 304434.0 0
299590.0 309270.0 0
304074.0 307507.0 0
308879.0 308831.0 0
312556.0 305349.0 0
320328.0 309253.0 0
323713.0 304878.0 0
333089.0 308782.0 0
341663.0 304444.0 0
339075.0 309325.0 0
343369.0 308457.0 0
347303.0 308744.0 0
351747.0 309231.0 0
357514.0 307776.0 0
362979.0 308634.0 0
368173.0 308078.0 0
373356.0 307550.0 0
378027.0 306598.0 0
382771.0 308972.0 0
392137.0 307143.0 0
397083.0 308294.0 0
402897.0 308592.0 0
407583.0 308553.0 0
408673.0 305011.0 0
412986.0 305224.0 0
416304.0 308410.0 0
421528.0 308197.0 0
427083.0 307535.0 0
436295.0 307435.0 0
442648.0 308790.0 0
449583.0 308812.0 0
457986.0 304882.0 0
454965.0 308209.0 0
459059.0 309208.0 0
462527.0 306971.0 0
466495.0 308841.0 0
470846.0 309435.0 0
477068.0 305677.0 0
475102.0 309226.0 0
487086.0 304557.0 0
492806.0 305211.0 0
491405.0 309423.0 0
7869.66 312727.0 0
13207.6 313016.0 0
22913.6 313499.0 0
28302.9 313811.0 0
33681.7 313374.0 0
38740.3 313724.0 0
43678.9 309728.0 0
42466.8 313561.0 0
47500.0 313343.0 0
52536.4 313575.0 0
56993.5 309847.0 0
62772.8 313641.0 0
67038.8 313542.0 0
82589.4 313488.0 0
87696.1 310195.0 0
87058.9 314108.0 0
92061.7 312319.0 0
97667.7 313546.0 0
103857.0 309679.0 0
102290.0 313347.0 0
107400.0 313940.0 0
113338.0 313137.0 0
121258.0 312246.0 0
117549.0 314481.0 0
129884.0 312426.0 0
135604.0 312611.0 0
141857.0 312614.0 0
152869.0 314061.0 0
157010.0 313871.0 0
162611.0 313979.0 0
168659.0 313901.0 0
173546.0 309583.0 0
178575.0 313390.0 0
188085.0 312422.0 0
193474.0 313928.0 0
197974.0 312636.0 0
202808.0 313346.0 0
206623.0 313767.0 0
210496.0 313043.0 0
215967.0 312631.0 0
222111.0 312997.0 0
227961.0 313512.0 0
232940.0 312617.0 0
237641.0 313175.0 0
243175.0 313030.0 0
248558.0 313260.0 0
251792.0 309747.0 0
254330.0 313442.0 0
259180.0 312990.0 0
262962.0 314343.0 0
266601.0 310821.0 0
270795.0 313380.0 0
276862.0 312180.0 0
282630.0 313539.0 0
287482.0 309726.0 0
298161.0 313572.0 0
305870.0 313106.0 0
310063.0 314551.0 0
315322.0 310142.0 0
311341.0 311788.0 0
318404.0 313427.0 0
326030.0 309605.0 0
322500.0 313629.0 0
328884.0 314234.0 0
336969.0 313150.0 0
341072.0 313103.0 0
346129.0 313271.0 0
357123.0 313096.0 0
361932.0 313550.0 0
372160.0 312169.0 0
377858.0 312616.0 0
387973.0 309713.0 0
389038.0 314550.0 0
392973.0 312363.0 0
398548.0 313735.0 0
404601.0 313760.0 0
411399.0 309555.0 0
408301.0 313794.0 0
411597.0 313848.0 0
415644.0 313204.0 0
420771.0 313684.0 0
427258.0 314082.0 0
431809.0 309847.0 0
432709.0 313909.0 0
437829.0 313971.0 0
453731.0 313035.0 0
458604.0 313297.0 0
462390.0 311438.0 0
466472.0 313721.0 0
471684.0 314096.0 0
476772.0 313784.0 0
479846.0 309699.0 0
482184.0 314550.0 0
485494.0 310221.0 0
489746.0 313552.0 0
496514.0 309537.0 0
3164.6 315496.0 0
11598.9 319129.0 0
18016.6 314960.0 0
17536.7 319423.0 0
22464.9 319171.0 0
27691.2 318871.0 0
32847.3 318754.0 0
37852.4 318259.0 0
42860.5 318365.0 0
47500.0 318426.0 0
52500.0 318346.0 0
57785.7 315165.0 0
57476.9 319627.0 0
62274.1 318698.0 0
67614.2 317928.0 0
72935.3 314664.0 0
78321.2 314890.0 0
77012.6 318781.0 0
81638.8 318393.0 0
86249.4 318231.0 0
91742.9 318731.0 0
97810.7 318933.0 0
102675.0 317922.0 0
111196.0 318005.0 0
115542.0 318794.0 0
120821.0 318123.0 0
125819.0 314884.0 0
131580.0 318407.0 0
137609.0 318799.0 0
147676.0 314731.0 0
143056.0 319178.0 0
152411.0 317986.0 0
156849.0 318551.0 0
165959.0 318457.0 0
170906.0 318868.0 0
173724.0 314932.0 0
176391.0 319476.0 0
183171.0 315027.0 0
181242.0 318577.0 0
190906.0 317290.0 0
196070.0 318286.0 0
202300.0 317018.0 0
207204.0 318766.0 0
212864.0 317195.0 0
217528.0 316995.0 0
221488.0 318493.0 0
226259.0 318370.0 0
232010.0 317660.0 0
240946.0 317323.0 0
246432.0 319264.0 0
252581.0 318723.0 0
257683.0 316951.0 0
262311.0 319482.0 0
267311.0 316558.0 0
272623.0 317493.0 0
277757.0 316888.0 0
287892.0 314939.0 0
289776.0 319485.0 0
292217.0 314676.0 0
295926.0 318733.0 0
301979.0 317786.0 0
308338.0 318586.0 0
313943.0 315143.0 0
318359.0 317994.0 0
325771.0 317946.0 0
333223.0 315174.0 0
336297.0 318843.0 0
342211.0 318497.0 0
347978.0 319438.0 0
352101.0 315339.0 0
357676.0 318895.0 0
363331.0 318481.0 0
367454.0 314899.0 0
372103.0 318286.0 0
377569.0 318578.0 0
383973.0 315010.0 0
388174.0 319423.0 0
393832.0 318044.0 0
403555.0 319559.0 0
413396.0 318038.0 0
417999.0 318676.0 0
422314.0 318730.0 0
432985.0 318166.0 0
437051.0 318896.0 0
443871.0 315038.0 0
448912.0 314923.0 0
447415.0 318307.0 0
451707.0 318885.0 0
455871.0 317309.0 0
461840.0 318593.0 0
468611.0 319308.0 0
474676.0 319187.0 0
480001.0 318615.0 0
486630.0 318778.0 0
493005.0 315562.0 0
497152.0 315528.0 0
2175.02 320743.0 0
6288.8 319696.0 0
6704.61 323577.0 0
17237.7 323920.0 0
21689.8 324045.0 0
26626.0 324074.0 0
32271.0 324209.0 0
37800.8 323329.0 0
42911.0 323480.0 0
48373.5 323299.0 0
53049.3 323528.0 0
57491.5 323912.0 0
62500.0 323513.0 0
67351.0 323536.0 0
72220.4 320385.0 0
72974.1 324722.0 0
77097.3 323709.0 0
80952.6 323696.0 0
86604.5 323403.0 0
98143.5 323978.0 0
106907.0 320085.0 0
102895.0 322935.0 0
112147.0 323314.0 0
117793.0 323183.0 0
126034.0 319716.0 0
127512.0 323438.0 0
135072.0 322296.0 0
148609.0 320530.0 0
153496.0 323837.0 0
161330.0 319734.0 0
159488.0 324265.0 0
165991.0 323671.0 0
171488.0 324105.0 0
186310.0 320491.0 0
191983.0 322018.0 0
201415.0 322002.0 0
212065.0 322957.0 0
217798.0 321703.0 0
222981.0 323175.0 0
228686.0 323398.0 0
233696.0 322662.0 0
236988.0 319896.0 0
237058.0 324131.0 0
241259.0 322649.0 0
251883.0 324169.0 0
257083.0 321442.0 0
268739.0 322523.0 0
275983.0 321028.0 0
278922.0 323941.0 0
283331.0 320548.0 0
288394.0 324242.0 0
293439.0 324370.0 0
299916.0 323882.0 0
304947.0 322081.0 0
308562.0 324305.0 0
313599.0 320273.0 0
316605.0 323252.0 0
320492.0 324725.0 0
322098.0 320599.0 0
330982.0 319732.0 0
326607.0 324372.0 0
333847.0 324677.0 0
338659.0 323246.0 0
342794.0 323978.0 0
347410.0 324410.0 0
352466.0 320993.0 0
357811.0 324679.0 0
362645.0 323310.0 0
367576.0 320976.0 0
371823.0 323702.0 0
377395.0 324475.0 0
382643.0 321306.0 0
391986.0 324219.0 0
397819.0 321869.0 0
406997.0 324505.0 0
409209.0 320332.0 0
411821.0 324027.0 0
417034.0 323222.0 0
422596.0 324439.0 0
427436.0 320831.0 0
432164.0 324737.0 0
437961.0 324117.0 0
442550.0 320520.0 0
448183.0 323349.0 0
455991.0 323205.0 0
466242.0 323821.0 0
477554.0 324019.0 0
481994.0 322586.0 0
493182.0 319937.0 0
498364.0 319848.0 0
497016.0 324637.0 0
2645.65 325025.0 0
11883.3 325915.0 0
92664.0 325326.0 0
107108.0 325436.0 0
123046.0 324843.0 0
131660.0 325199.0 0
139828.0 324876.0 0
146678.0 325740.0 0
162838.0 327307.0 0
177312.0 325702.0 0
183237.0 325718.0 0
188878.0 326118.0 0
196071.0 325832.0 0
201323.0 327434.0 0
206597.0 325434.0 0
210956.0 328609.0 0
216583.0 327428.0 0
222619.0 328914.0 0
228100.0 328809.0 0
234215.0 327451.0 0
240480.0 328421.0 0
246346.0 325690.0 0
253424.0 328994.0 0
258246.0 326421.0 0
263277.0 325070.0 0
261177.0 329365.0 0
270393.0 328072.0 0
274163.0 325209.0 0
278347.0 329403.0 0
284306.0 326925.0 0
289658.0 328773.0 0
296766.0 329169.0 0
304749.0 326168.0 0
302017.0 329671.0 0
313159.0 325208.0 0
352854.0 325818.0 0
367030.0 325329.0 0
382625.0 325661.0 0
386620.0 324927.0 0
396556.0 325987.0 0
401657.0 326282.0 0
427265.0 326621.0 0
442927.0 326074.0 0
452076.0 326500.0 0
461577.0 325150.0 0
471923.0 325510.0 0
481357.0 326431.0 0
486490.0 326059.0 0
491856.0 325040.0 0
199974.0 332445.0 0
204614.0 329938.0 0
204905.0 334058.0 0
209970.0 333670.0 0
215987.0 333531.0 0
221385.0 334313.0 0
226883.0 334239.0 0
231748.0 331966.0 0
236755.0 330841.0 0
235553.0 334012.0 0
244598.0 331653.0 0
240469.0 334468.0 0
248936.0 330356.0 0
252284.0 333903.0 0
257796.0 331958.0 0
262042.0 332630.0 0
265549.0 330022.0 0
271139.0 333184.0 0
276107.0 334743.0 0
280615.0 334594.0 0
283197.0 331530.0 0
287010.0 333015.0 0
292952.0 333728.0 0
299207.0 334526.0 0
200957.0 338732.0 0
207211.0 338582.0 0
212748.0 337954.0 0
218436.0 339216.0 0
223580.0 338239.0 0
231952.0 337255.0 0
236826.0 337710.0 0
246063.0 336723.0 0
250842.0 338315.0 0
256675.0 338315.0 0
262732.0 336699.0 0
267822.0 337390.0 0
273141.0 339515.0 0
278626.0 338604.0 0
284261.0 335822.0 0
283131.0 339670.0 0
288468.0 338320.0 0
293941.0 339259.0 0
297995.0 339211.0 0
202706.0 345068.0 0
208646.0 344097.0 0
213901.0 343045.0 0
218981.0 344580.0 0
224012.0 344303.0 0
227546.0 340322.0 0
228492.0 344888.0 0
231901.0 342621.0 0
236334.0 341752.0 0
241137.0 340162.0 0
240771.0 344241.0 0
246436.0 342606.0 0
252239.0 343097.0 0
257245.0 344241.0 0
261537.0 341513.0 0
266550.0 342626.0 0
271840.0 344310.0 0
280728.0 342545.0 0
276579.0 343587.0 0
285541.0 343464.0 0
291258.0 343180.0 0
297177.0 343864.0 0
10310.7 348469.0 0
206605.0 349614.0 0
210748.0 348037.0 0
215587.0 348543.0 0
221171.0 348910.0 0
226851.0 349855.0 0
231515.0 347223.0 0
237116.0 347203.0 0
243213.0 347123.0 0
248837.0 347983.0 0
254599.0 348259.0 0
261739.0 346825.0 0
268230.0 349092.0 0
274429.0 347710.0 0
279351.0 346294.0 0
283369.0 348442.0 0
288949.0 347879.0 0
293715.0 347355.0 0
297276.0 350207.0 0
309756.0 349999.0 0
341742.0 346133.0 0
174681.0 354918.0 0
202318.0 352267.0 0
206684.0 354924.0 0
211877.0 353083.0 0
217437.0 354039.0 0
222674.0 353722.0 0
228262.0 354428.0 0
232525.0 352271.0 0
237434.0 352569.0 0
242278.0 352623.0 0
248017.0 353878.0 0
253598.0 353494.0 0
258711.0 351709.0 0
262755.0 354311.0 0
272820.0 354095.0 0
278585.0 350383.0 0
282324.0 352580.0 0
286462.0 354531.0 0
292276.0 352764.0 0
389098.0 354990.0 0
404603.0 353256.0 0
421499.0 354527.0 0
443009.0 354174.0 0
455114.0 354556.0 0
472319.0 355299.0 0
497243.0 354123.0 0
6878.9 358279.0 0
48261.5 355894.0 0
56374.4 359807.0 0
63868.7 359817.0 0
96187.4 360083.0 0
100416.0 359531.0 0
126005.0 359251.0 0
167796.0 358141.0 0
177365.0 359082.0 0
191569.0 360124.0 0
202075.0 357056.0 0
205835.0 359876.0 0
210971.0 358755.0 0
216041.0 358913.0 0
220575.0 358194.0 0
225745.0 357922.0 0
231641.0 358376.0 0
237748.0 357485.0 0
248170.0 359891.0 0
253903.0 358834.0 0
258816.0 356890.0 0
263544.0 359464.0 0
267374.0 355365.0 0
269146.0 360462.0 0
274189.0 359298.0 0
278899.0 356099.0 0
283649.0 359792.0 0
288112.0 359119.0 0
292046.0 358040.0 0
297111.0 356639.0 0
317421.0 358219.0 0
322450.0 359609.0 0
357807.0 357726.0 0
362467.0 356143.0 0
368610.0 355925.0 0
374583.0 358567.0 0
437044.0 357816.0 0
461586.0 358416.0 0
476569.0 358542.0 0
481239.0 359635.0 0
492537.0 356275.0 0
14254.8 362832.0 0
22442.4 364148.0 0
30429.6 364206.0 0
36537.1 364586.0 0
68827.6 360836.0 0
75161.9 362872.0 0
79658.9 361570.0 0
85031.3 362268.0 0
107589.0 361268.0 0
111005.0 363112.0 0
115161.0 361569.0 0
121008.0 361462.0 0
131856.0 363574.0 0
137504.0 362587.0 0
142261.0 364839.0 0
154054.0 361872.0 0
158565.0 361267.0 0
178552.0 362543.0 0
196244.0 361052.0 0
201595.0 361451.0 0
204803.0 364527.0 0
208724.0 362915.0 0
213490.0 363808.0 0
218003.0 362784.0 0
222534.0 362481.0 0
227664.0 363188.0 0
233215.0 364110.0 0
238329.0 363543.0 0
242468.0 360591.0 0
241883.0 365390.0 0
245482.0 364375.0 0
251074.0 364764.0 0
258958.0 361298.0 0
255573.0 363359.0 0
261698.0 363732.0 0
267160.0 365452.0 0
272982.0 363552.0 0
277695.0 363168.0 0
281984.0 363788.0 0
287295.0 363315.0 0
292486.0 363024.0 0
296979.0 361612.0 0
309917.0 361505.0 0
322451.0 364321.0 0
326631.0 365080.0 0
391310.0 361669.0 0
396056.0 363107.0 0
423600.0 362478.0 0
449230.0 364188.0 0
462790.0 364865.0 0
466760.0 363678.0 0
471850.0 362275.0 0
497839.0 363575.0 0
2168.07 372663.0 0
6517.21 368958.0 0
9470.26 375068.0 0
15173.9 369818.0 0
17655.4 366149.0 0
18736.0 372796.0 0
27011.1 375107.0 0
23328.7 375051.0 0
30143.7 370362.0 0
35045.5 375530.0 0
40627.6 369407.0 0
38254.0 373325.0 0
45625.4 370344.0 0
48302.9 366855.0 0
52981.4 366794.0 0
52892.9 375227.0 0
57084.7 375100.0 0
61516.7 375578.0 0
65542.2 375315.0 0
69787.2 375342.0 0
75169.8 375139.0 0
80249.6 375247.0 0
89579.9 373296.0 0
85871.1 375269.0 0
88294.8 369858.0 0
92453.9 371384.0 0
93252.0 366830.0 0
95943.8 372419.0 0
98245.7 368743.0 0
104810.0 375091.0 0
102115.0 371505.0 0
108559.0 375056.0 0
113050.0 370474.0 0
119174.0 368453.0 0
124524.0 366619.0 0
122915.0 375262.0 0
126326.0 370837.0 0
131268.0 375297.0 0
135127.0 375035.0 0
138351.0 376084.0 0
142076.0 375069.0 0
146000.0 368291.0 0
150902.0 366162.0 0
155278.0 369528.0 0
163202.0 375131.0 0
159605.0 375195.0 0
167508.0 375173.0 0
169986.0 369254.0 0
173297.0 364039.0 0
178033.0 366025.0 0
179224.0 369926.0 0
183820.0 372768.0 0
189207.0 370881.0 0
200153.0 369919.0 0
195003.0 371118.0 0
204903.0 369678.0 0
209726.0 367352.0 0
215431.0 369264.0 0
220449.0 366618.0 0
226499.0 368219.0 0
231258.0 369023.0 0
236629.0 368544.0 0
241624.0 369152.0 0
247392.0 369814.0 0
253420.0 369252.0 0
257875.0 367246.0 0
262758.0 367934.0 0
271606.0 367956.0 0
280330.0 367910.0 0
275845.0 369842.0 0
284207.0 366081.0 0
287626.0 368222.0 0
292249.0 367888.0 0
296471.0 365928.0 0
299841.0 368676.0 0
304035.0 369583.0 0
306740.0 372359.0 0
309141.0 369400.0 0
312745.0 371568.0 0
316855.0 368718.0 0
321224.0 375458.0 0
325553.0 375235.0 0
330913.0 365355.0 0
329833.0 375732.0 0
335045.0 368014.0 0
339605.0 364698.0 0
345114.0 366891.0 0
348024.0 370446.0 0
351341.0 375076.0 0
355519.0 375211.0 0
360640.0 375012.0 0
365959.0 374066.0 0
369523.0 375238.0 0
373769.0 375308.0 0
378021.0 372440.0 0
383129.0 369786.0 0
386738.0 375833.0 0
387852.0 366505.0 0
390562.0 369980.0 0
393946.0 367995.0 0
396303.0 375019.0 0
398503.0 371489.0 0
402979.0 371681.0 0
407412.0 368123.0 0
413132.0 370328.0 0
416829.0 364426.0 0
414593.0 375030.0 0
422291.0 367906.0 0
426593.0 366051.0 0
423536.0 375242.0 0
427451.0 375109.0 0
431907.0 366750.0 0
436080.0 368587.0 0
439714.0 365038.0 0
444222.0 367296.0 0
445709.0 375292.0 0
453405.0 375295.0 0
449593.0 375161.0 0
458451.0 367054.0 0
460240.0 376025.0 0
463565.0 375100.0 0
468003.0 375424.0 0
471751.0 375151.0 0
474604.0 371793.0 0
479870.0 370827.0 0
480477.0 364878.0 0
483774.0 375120.0 0
485118.0 365351.0 0
489876.0 368152.0 0
494100.0 370627.0 0
497951.0 372580.0 0
855.353 376081.0 0
3788.01 377286.0 0
5873.23 375079.0 0
11809.2 377459.0 0
7820.79 378508.0 0
13833.4 375189.0 0
13917.0 380178.0 0
16583.6 376786.0 0
18624.7 380385.0 0
24432.6 377899.0 0
20773.6 377134.0 0
28639.6 378425.0 0
31768.1 375587.0 0
36448.4 377477.0 0
32865.9 379989.0 0
39699.9 377046.0 0
36623.0 380705.0 0
42094.0 375228.0 0
43052.5 378624.0 0
39926.9 380162.0 0
45786.0 376008.0 0
49485.8 375167.0 0
45569.5 380707.0 0
48586.9 379123.0 0
51429.0 377721.0 0
54819.0 378102.0 0
58669.8 378968.0 0
56398.1 380614.0 0
61984.6 378792.0 0
65517.7 378660.0 0
63090.0 381746.0 0
68876.9 378912.0 0
72607.7 377082.0 0
76199.3 378476.0 0
80462.1 379900.0 0
84534.7 378570.0 0
89124.6 377190.0 0
91901.7 375490.0 0
95069.3 377594.0 0
97137.0 375119.0 0
100030.0 375733.0 0
99269.6 380311.0 0
102762.0 376895.0 0
106940.0 377468.0 0
108072.0 379887.0 0
104141.0 380114.0 0
111458.0 376893.0 0
115634.0 376087.0 0
119626.0 375362.0 0
119382.0 378766.0 0
124698.0 376496.0 0
122405.0 378434.0 0
125874.0 379725.0 0
127361.0 375609.0 0
130022.0 378655.0 0
134405.0 378610.0 0
132158.0 381473.0 0
139129.0 379254.0 0
146554.0 375903.0 0
143337.0 379192.0 0
147266.0 379125.0 0
150394.0 375385.0 0
154067.0 375667.0 0
154433.0 378350.0 0
157107.0 375983.0 0
160736.0 377622.0 0
157760.0 379068.0 0
162729.0 379442.0 0
165383.0 377935.0 0
169304.0 378141.0 0
166793.0 380947.0 0
171481.0 375531.0 0
175381.0 375361.0 0
173478.0 378679.0 0
181476.0 376720.0 0
179011.0 375471.0 0
180189.0 378956.0 0
177096.0 378770.0 0
187169.0 376740.0 0
183656.0 377722.0 0
191394.0 376448.0 0
195681.0 377044.0 0
198967.0 375834.0 0
199341.0 379834.0 0
209263.0 372585.0 0
204645.0 375157.0 0
213518.0 375697.0 0
218878.0 374234.0 0
222635.0 370762.0 0
223213.0 374632.0 0
227036.0 373037.0 0
232212.0 374258.0 0
237560.0 373946.0 0
242695.0 373775.0 0
252285.0 374190.0 0
257608.0 372670.0 0
262640.0 372597.0 0
267175.0 370837.0 0
272276.0 373834.0 0
278408.0 373689.0 0
283972.0 372558.0 0
290476.0 373402.0 0
295745.0 370856.0 0
301108.0 375831.0 0
304503.0 375734.0 0
304348.0 378879.0 0
301146.0 379568.0 0
307147.0 376674.0 0
309957.0 375018.0 0
307136.0 379737.0 0
311130.0 379022.0 0
313282.0 375665.0 0
315376.0 379021.0 0
316895.0 375494.0 0
319652.0 379632.0 0
322552.0 378339.0 0
325238.0 378951.0 0
327871.0 378173.0 0
330482.0 379265.0 0
334379.0 375554.0 0
339598.0 375250.0 0
340615.0 379481.0 0
342094.0 370328.0 0
342101.0 377544.0 0
344003.0 375177.0 0
345002.0 378240.0 0
347404.0 375603.0 0
348183.0 378754.0 0
351633.0 378566.0 0
355313.0 377887.0 0
358532.0 379146.0 0
365053.0 377358.0 0
362407.0 379835.0 0
366026.0 381151.0 0
368929.0 378496.0 0
372901.0 378756.0 0
377244.0 378163.0 0
373552.0 381562.0 0
380965.0 376685.0 0
383836.0 375104.0 0
389831.0 375395.0 0
384996.0 379893.0 0
393093.0 377739.0 0
389731.0 378446.0 0
392892.0 375268.0 0
396985.0 377984.0 0
393412.0 381188.0 0
400074.0 375286.0 0
400869.0 378767.0 0
403369.0 376420.0 0
404166.0 379843.0 0
406690.0 375459.0 0
410626.0 375525.0 0
410682.0 379477.0 0
418668.0 375479.0 0
413871.0 377588.0 0
421596.0 378149.0 0
420100.0 380399.0 0
425147.0 378422.0 0
429172.0 377849.0 0
432214.0 374112.0 0
431945.0 379458.0 0
434734.0 377477.0 0
438976.0 378565.0 0
437622.0 375071.0 0
441823.0 375554.0 0
442533.0 379185.0 0
446127.0 378497.0 0
449667.0 378063.0 0
453115.0 378380.0 0
457144.0 375430.0 0
456648.0 378906.0 0
460306.0 379414.0 0
463795.0 378385.0 0
467329.0 379144.0 0
474003.0 376070.0 0
471324.0 378189.0 0
474308.0 379527.0 0
477275.0 376493.0 0
480716.0 376774.0 0
485341.0 378421.0 0
487924.0 375224.0 0
488985.0 377709.0 0
488518.0 380477.0 0
491569.0 375612.0 0
495034.0 376532.0 0
498811.0 376383.0 0
498072.0 379723.0 0
1439.01 379626.0 0
4949.69 381253.0 0
1832.29 383247.0 0
9699.49 382199.0 0
13379.3 384282.0 0
16554.6 383132.0 0
20006.0 383766.0 0
22482.0 380930.0 0
25514.6 380942.0 0
23133.0 384100.0 0
26203.0 383839.0 0
29204.0 382409.0 0
32185.2 384254.0 0
34963.6 383056.0 0
38783.5 384095.0 0
42501.8 382371.0 0
42486.3 386048.0 0
49214.3 383239.0 0
45570.7 384608.0 0
52864.7 381087.0 0
53137.4 385175.0 0
59763.5 382134.0 0
56494.0 383322.0 0
59403.5 385397.0 0
62950.3 385163.0 0
66884.0 382482.0 0
66424.2 386014.0 0
70303.7 384961.0 0
72363.7 380859.0 0
75090.0 384818.0 0
76617.6 381819.0 0
79542.5 384856.0 0
82794.3 382992.0 0
83790.3 385682.0 0
86995.6 381961.0 0
91639.7 380480.0 0
95116.0 383153.0 0
102617.0 383753.0 0
106630.0 383974.0 0
113647.0 380053.0 0
110298.0 381589.0 0
109719.0 384857.0 0
113334.0 384558.0 0
116692.0 381083.0 0
122166.0 380582.0 0
120157.0 382192.0 0
121267.0 385418.0 0
124019.0 382963.0 0
127340.0 384645.0 0
129102.0 381855.0 0
130921.0 384527.0 0
134579.0 381589.0 0
137130.0 381734.0 0
134134.0 383831.0 0
137585.0 385135.0 0
141305.0 383140.0 0
146554.0 382668.0 0
150566.0 379324.0 0
151249.0 383585.0 0
154563.0 381212.0 0
156796.0 384486.0 0
160129.0 381849.0 0
163894.0 382502.0 0
164822.0 385404.0 0
166813.0 383793.0 0
171029.0 382087.0 0
175416.0 382237.0 0
178781.0 382175.0 0
182338.0 380996.0 0
181855.0 385282.0 0
185723.0 380087.0 0
184941.0 383090.0 0
189511.0 382161.0 0
193671.0 380740.0 0
196645.0 381131.0 0
194380.0 384816.0 0
208926.0 377839.0 0
204381.0 380755.0 0
212418.0 380521.0 0
217263.0 380742.0 0
221956.0 378488.0 0
226735.0 377915.0 0
231356.0 379576.0 0
237261.0 379884.0 0
242916.0 378798.0 0
247398.0 376189.0 0
247617.0 380618.0 0
251271.0 379270.0 0
255876.0 377948.0 0
261779.0 378448.0 0
265910.0 376350.0 0
269881.0 380152.0 0
276152.0 379457.0 0
281436.0 377162.0 0
286319.0 378134.0 0
295694.0 377068.0 0
291323.0 380617.0 0
304926.0 382022.0 0
300965.0 383817.0 0
309017.0 383358.0 0
313555.0 382945.0 0
317278.0 382170.0 0
316764.0 385513.0 0
320623.0 384206.0 0
323489.0 382011.0 0
326706.0 384380.0 0
327587.0 380901.0 0
330755.0 382791.0 0
333274.0 379681.0 0
337403.0 379400.0 0
334764.0 383242.0 0
340156.0 383946.0 0
343097.0 380992.0 0
346113.0 381298.0 0
345005.0 383918.0 0
349373.0 382685.0 0
354576.0 382487.0 0
359845.0 382769.0 0
363399.0 383505.0 0
367300.0 383985.0 0
370325.0 382443.0 0
376445.0 382614.0 0
373397.0 384307.0 0
380529.0 380594.0 0
382733.0 383543.0 0
379756.0 383396.0 0
386672.0 383759.0 0
389699.0 381817.0 0
393269.0 384513.0 0
397970.0 382238.0 0
402153.0 382081.0 0
407321.0 379154.0 0
405924.0 383678.0 0
413490.0 381535.0 0
409796.0 382809.0 0
417036.0 379372.0 0
416158.0 383031.0 0
423608.0 381660.0 0
419525.0 383973.0 0
427420.0 381143.0 0
426657.0 384478.0 0
430829.0 382838.0 0
435862.0 381558.0 0
437622.0 384013.0 0
440281.0 382620.0 0
445244.0 382796.0 0
448203.0 385223.0 0
449633.0 381803.0 0
453748.0 382081.0 0
451269.0 384903.0 0
457486.0 382812.0 0
461131.0 382706.0 0
464156.0 381528.0 0
463882.0 385388.0 0
467346.0 382981.0 0
470812.0 381501.0 0
470542.0 384903.0 0
474569.0 383720.0 0
478202.0 380991.0 0
482012.0 379786.0 0
481262.0 383112.0 0
485392.0 382786.0 0
491671.0 379203.0 0
494410.0 380485.0 0
490700.0 383390.0 0
494678.0 383800.0 0
498449.0 383072.0 0
2295.48 387245.0 0
6308.51 385085.0 0
6639.1 389455.0 0
10899.5 387233.0 0
16560.3 387039.0 0
21139.4 387533.0 0
25116.7 387223.0 0
28885.1 386320.0 0
27654.0 390115.0 0
32027.6 388784.0 0
35322.8 386228.0 0
39589.8 387962.0 0
36453.1 389690.0 0
45272.7 388257.0 0
42345.0 389135.0 0
49249.1 387715.0 0
53165.1 388677.0 0
56553.6 387087.0 0
60243.1 389363.0 0
64448.4 388327.0 0
68200.2 389209.0 0
73159.9 389132.0 0
77087.8 387667.0 0
79474.9 388523.0 0
77488.5 390911.0 0
81791.8 387752.0 0
85266.4 389299.0 0
91131.1 385204.0 0
87664.3 386453.0 0
90169.1 389851.0 0
94443.5 387673.0 0
99051.1 385460.0 0
98597.0 389511.0 0
103646.0 387688.0 0
108923.0 388528.0 0
117522.0 385353.0 0
113752.0 388463.0 0
116953.0 388619.0 0
120311.0 388708.0 0
124810.0 387975.0 0
129681.0 387890.0 0
133797.0 387508.0 0
137364.0 388859.0 0
140456.0 387019.0 0
141591.0 390385.0 0
144169.0 386479.0 0
146354.0 389630.0 0
148506.0 386584.0 0
153194.0 387669.0 0
150166.0 389953.0 0
158002.0 389640.0 0
161354.0 385875.0 0
162709.0 389254.0 0
165902.0 388225.0 0
168867.0 385975.0 0
173695.0 386126.0 0
171101.0 388067.0 0
169070.0 390043.0 0
172893.0 390232.0 0
177571.0 385776.0 0
176491.0 389835.0 0
180170.0 389188.0 0
186565.0 385813.0 0
183871.0 388035.0 0
187507.0 389596.0 0
191073.0 387178.0 0
198717.0 384643.0 0
195568.0 388933.0 0
199165.0 388686.0 0
208879.0 383403.0 0
213623.0 385143.0 0
222610.0 383609.0 0
228048.0 383873.0 0
233425.0 384457.0 0
244375.0 384172.0 0
249725.0 383965.0 0
254124.0 384846.0 0
259195.0 382745.0 0
263931.0 385019.0 0
265330.0 381205.0 0
268025.0 384592.0 0
272618.0 384533.0 0
277768.0 385778.0 0
282133.0 382096.0 0
287291.0 384217.0 0
292328.0 385770.0 0
295827.0 382506.0 0
305125.0 385887.0 0
301553.0 388498.0 0
305589.0 389310.0 0
309102.0 387664.0 0
312963.0 386723.0 0
319257.0 387203.0 0
316601.0 389551.0 0
321423.0 388757.0 0
323431.0 386164.0 0
326294.0 388900.0 0
330745.0 386951.0 0
334103.0 386754.0 0
336864.0 386670.0 0
340075.0 388988.0 0
344056.0 387106.0 0
347480.0 385596.0 0
347831.0 388890.0 0
351814.0 386797.0 0
351731.0 390593.0 0
355814.0 389719.0 0
357684.0 386351.0 0
361429.0 386448.0 0
360951.0 390082.0 0
365542.0 387472.0 0
370720.0 386695.0 0
369470.0 390228.0 0
375602.0 386838.0 0
373632.0 390069.0 0
377580.0 390224.0 0
379534.0 386937.0 0
380977.0 390024.0 0
384417.0 387050.0 0
389779.0 385373.0 0
388737.0 388896.0 0
393156.0 388685.0 0
396796.0 386103.0 0
398562.0 390055.0 0
401546.0 385843.0 0
402240.0 389268.0 0
405231.0 388307.0 0
412816.0 385128.0 0
409156.0 386793.0 0
412263.0 389380.0 0
416110.0 386934.0 0
423206.0 385323.0 0
420496.0 388711.0 0
425526.0 388634.0 0
429967.0 387062.0 0
433765.0 389613.0 0
434230.0 385281.0 0
438431.0 387185.0 0
442918.0 385743.0 0
442840.0 389731.0 0
446169.0 387105.0 0
449933.0 387546.0 0
452550.0 390131.0 0
454772.0 386395.0 0
458032.0 390286.0 0
459607.0 386215.0 0
463215.0 389882.0 0
467740.0 387188.0 0
472186.0 388354.0 0
478842.0 385805.0 0
475692.0 387420.0 0
483138.0 386290.0 0
480744.0 389166.0 0
484646.0 389983.0 0
487866.0 386906.0 0
492817.0 388345.0 0
497779.0 387230.0 0
1601.18 390565.0 0
4499.42 391863.0 0
1591.4 393655.0 0
7811.73 393981.0 0
10336.6 391194.0 0
14495.1 390851.0 0
12296.2 394613.0 0
19151.5 391329.0 0
16617.2 394831.0 0
23614.2 390951.0 0
26551.3 393763.0 0
30363.0 392610.0 0
33815.8 392073.0 0
33325.6 395194.0 0
40290.3 391207.0 0
37197.8 393279.0 0
43884.1 391573.0 0
41527.3 395108.0 0
47455.1 391267.0 0
49194.1 393735.0 0
46296.6 395132.0 0
51424.9 391680.0 0
56039.8 391093.0 0
54226.7 394686.0 0
58913.1 394521.0 0
63922.9 392910.0 0
68535.5 393071.0 0
71514.0 392592.0 0
75040.0 393705.0 0
81537.2 391499.0 0
78747.3 394480.0 0
86502.1 393223.0 0
83240.0 394944.0 0
90349.9 395103.0 0
94340.0 392105.0 0
98751.3 393943.0 0
102189.0 391623.0 0
105814.0 391447.0 0
111995.0 392225.0 0
108402.0 393923.0 0
115458.0 391286.0 0
115560.0 394695.0 0
118595.0 391739.0 0
123004.0 391952.0 0
127944.0 391747.0 0
133070.0 391711.0 0
130785.0 395173.0 0
137717.0 392600.0 0
141236.0 394656.0 0
144490.0 392859.0 0
149299.0 393780.0 0
153657.0 392013.0 0
157250.0 394185.0 0
161857.0 393069.0 0
165971.0 391871.0 0
166373.0 395305.0 0
170756.0 393932.0 0
175069.0 393266.0 0
183210.0 391400.0 0
178941.0 393500.0 0
183365.0 395207.0 0
187551.0 393500.0 0
191961.0 391680.0 0
195847.0 392464.0 0
198834.0 391613.0 0
198334.0 395123.0 0
204199.0 386460.0 0
202575.0 390938.0 0
209331.0 388839.0 0
214614.0 390465.0 0
218579.0 387018.0 0
223563.0 388649.0 0
220400.0 390886.0 0
229439.0 388886.0 0
234318.0 389617.0 0
238706.0 386243.0 0
242814.0 389757.0 0
247943.0 388826.0 0
252229.0 388204.0 0
256151.0 389439.0 0
260976.0 388355.0 0
265542.0 388935.0 0
270009.0 388605.0 0
274776.0 390589.0 0
282787.0 387454.0 0
287697.0 389991.0 0
293116.0 390610.0 0
300610.0 392430.0 0
296731.0 386462.0 0
297239.0 390135.0 0
304324.0 392223.0 0
308382.0 391351.0 0
307192.0 394807.0 0
310792.0 393657.0 0
312328.0 390734.0 0
315361.0 394538.0 0
319720.0 392454.0 0
323367.0 391330.0 0
322744.0 394445.0 0
330252.0 391261.0 0
326525.0 393704.0 0
335283.0 390906.0 0
334916.0 395012.0 0
340284.0 392635.0 0
338352.0 395114.0 0
343963.0 391174.0 0
348576.0 393503.0 0
354194.0 393734.0 0
358311.0 392988.0 0
361847.0 394815.0 0
365613.0 392178.0 0
371020.0 393478.0 0
375646.0 393197.0 0
379963.0 393045.0 0
385085.0 392173.0 0
390498.0 392493.0 0
394712.0 392351.0 0
398034.0 394074.0 0
403119.0 393007.0 0
408250.0 391280.0 0
408001.0 395174.0 0
411896.0 393256.0 0
415725.0 390997.0 0
415609.0 395063.0 0
419492.0 392732.0 0
424056.0 392773.0 0
428485.0 394834.0 0
429113.0 391242.0 0
433056.0 393433.0 0
438142.0 392238.0 0
443195.0 393756.0 0
447548.0 390842.0 0
446868.0 394960.0 0
450863.0 393947.0 0
454703.0 393084.0 0
458361.0 394959.0 0
461596.0 393483.0 0
468047.0 391329.0 0
465128.0 394524.0 0
471971.0 392069.0 0
474095.0 394732.0 0
476801.0 391185.0 0
481450.0 392959.0 0
489146.0 391445.0 0
485659.0 393399.0 0
493421.0 393341.0 0
497703.0 391638.0 0
1648.25 396964.0 0
4707.09 395198.0 0
1336.4 399709.0 0
9783.96 397296.0 0
5798.09 399315.0 0
13839.6 398558.0 0
18378.7 399259.0 0
21964.1 395411.0 0
29417.1 396260.0 0
26151.1 397449.0 0
32173.1 399184.0 0
36770.1 397113.0 0
40590.9 399245.0 0
44522.5 398762.0 0
50881.3 395791.0 0
48758.0 398596.0 0
53537.5 399067.0 0
56263.3 396872.0 0
58197.4 399222.0 0
62368.6 397867.0 0
65581.0 400934.0 0
71277.5 396005.0 0
67011.1 396933.0 0
70213.7 399760.0 0
75345.5 398283.0 0
80898.7 398005.0 0
86179.2 397841.0 0
90540.9 399769.0 0
95069.7 397177.0 0
100306.0 397241.0 0
103956.0 395408.0 0
103079.0 400048.0 0
112017.0 396576.0 0
107553.0 398040.0 0
116498.0 399137.0 0
120032.0 395609.0 0
121741.0 399866.0 0
125620.0 396291.0 0
132838.0 397505.0 0
129536.0 398415.0 0
134732.0 395457.0 0
138095.0 396131.0 0
136258.0 399480.0 0
140914.0 398292.0 0
144888.0 396436.0 0
149292.0 398313.0 0
153583.0 396152.0 0
157336.0 398256.0 0
159688.0 396405.0 0
162678.0 396568.0 0
160750.0 399481.0 0
165223.0 399308.0 0
169850.0 398445.0 0
175242.0 397960.0 0
179874.0 397106.0 0
183063.0 398687.0 0
187622.0 397638.0 0
190842.0 395488.0 0
191961.0 398415.0 0
194202.0 395373.0 0
195582.0 398549.0 0
199111.0 398294.0 0
207695.0 394023.0 0
212436.0 394850.0 0
217993.0 394658.0 0
223152.0 393792.0 0
226927.0 392137.0 0
231050.0 393704.0 0
238602.0 391236.0 0
235906.0 394559.0 0
240711.0 394835.0 0
245950.0 394300.0 0
251936.0 392585.0 0
256814.0 394461.0 0
262109.0 393302.0 0
267601.0 393533.0 0
272667.0 395552.0 0
277882.0 395114.0 0
281496.0 392066.0 0
285097.0 394826.0 0
290526.0 395241.0 0
296277.0 394852.0 0
302107.0 396064.0 0
306170.0 398640.0 0
311292.0 397353.0 0
319915.0 396592.0 0
316425.0 400136.0 0
323600.0 397017.0 0
324300.0 399388.0 0
321629.0 399960.0 0
331099.0 395460.0 0
327283.0 397806.0 0
330514.0 400110.0 0
334759.0 398954.0 0
339808.0 398508.0 0
343363.0 395731.0 0
348254.0 398596.0 0
352610.0 396801.0 0
357474.0 397118.0 0
367420.0 396947.0 0
362459.0 399234.0 0
370977.0 399651.0 0
373323.0 396844.0 0
378000.0 396819.0 0
382968.0 396391.0 0
381019.0 400218.0 0
388206.0 396520.0 0
385418.0 399465.0 0
393683.0 396624.0 0
399622.0 397327.0 0
402947.0 399871.0 0
404284.0 396785.0 0
407348.0 399663.0 0
411696.0 397160.0 0
416201.0 399567.0 0
420136.0 396318.0 0
421417.0 400150.0 0
424630.0 397017.0 0
428696.0 399095.0 0
432075.0 396821.0 0
436297.0 395989.0 0
434516.0 398116.0 0
436112.0 399373.0 0
440296.0 395742.0 0
439359.0 398781.0 0
444059.0 398204.0 0
449608.0 398683.0 0
454252.0 396626.0 0
458287.0 398847.0 0
454386.0 400214.0 0
462100.0 396985.0 0
469746.0 395759.0 0
465873.0 398500.0 0
474560.0 398519.0 0
470223.0 399305.0 0
478449.0 395825.0 0
479449.0 399589.0 0
483555.0 397055.0 0
488969.0 395865.0 0
493261.0 397751.0 0
497902.0 395599.0 0
497785.0 399401.0 0
2200.38 402941.0 0
6702.46 404714.0 0
10411.5 401292.0 0
14998.0 403209.0 0
19908.0 403181.0 0
23625.7 400594.0 0
28276.6 400205.0 0
26866.5 403432.0 0
31304.6 404005.0 0
36181.3 401718.0 0
40124.0 401985.0 0
39710.7 405250.0 0
43080.4 402141.0 0
42827.3 405271.0 0
46631.7 401327.0 0
50701.0 402575.0 0
45984.7 405063.0 0
56186.6 403083.0 0
61211.3 402355.0 0
64960.5 405718.0 0
68808.8 403312.0 0
73301.4 403138.0 0
78339.4 401949.0 0
77004.4 405437.0 0
81146.4 405130.0 0
83430.0 401652.0 0
85624.6 405359.0 0
87271.8 401806.0 0
94643.5 402262.0 0
98596.0 399956.0 0
99354.1 403509.0 0
103549.0 404189.0 0
107359.0 402425.0 0
111630.0 400579.0 0
110917.0 404880.0 0
114743.0 402748.0 0
119225.0 403619.0 0
126788.0 401751.0 0
122988.0 402934.0 0
131809.0 400506.0 0
130356.0 403013.0 0
134428.0 404293.0 0
140096.0 403346.0 0
144896.0 400466.0 0
145151.0 404309.0 0
149033.0 402558.0 0
152315.0 405155.0 0
153800.0 400963.0 0
158432.0 402333.0 0
162897.0 402768.0 0
168050.0 402558.0 0
172111.0 401740.0 0
175380.0 403479.0 0
179893.0 401483.0 0
185503.0 401436.0 0
188574.0 404203.0 0
189727.0 400866.0 0
193373.0 402447.0 0
198324.0 401977.0 0
203274.0 396474.0 0
208482.0 399198.0 0
214454.0 399967.0 0
219954.0 399317.0 0
223838.0 400980.0 0
226941.0 397326.0 0
231977.0 398763.0 0
237305.0 399562.0 0
242910.0 398492.0 0
247883.0 400158.0 0
251901.0 397168.0 0
255781.0 399538.0 0
260185.0 397645.0 0
264884.0 398341.0 0
269491.0 398812.0 0
275497.0 400244.0 0
281895.0 399780.0 0
288163.0 400418.0 0
293932.0 400025.0 0
301275.0 400632.0 0
305124.0 402358.0 0
310214.0 402003.0 0
306478.0 404919.0 0
314002.0 403322.0 0
320793.0 403684.0 0
316472.0 404961.0 0
326394.0 403115.0 0
332758.0 404047.0 0
337877.0 402088.0 0
340393.0 404039.0 0
343762.0 401559.0 0
349338.0 403043.0 0
353920.0 400989.0 0
353127.0 405694.0 0
358866.0 401082.0 0
362092.0 403892.0 0
366687.0 402209.0 0
371308.0 402875.0 0
375677.0 401088.0 0
379622.0 404110.0 0
384615.0 402921.0 0
389916.0 401346.0 0
395717.0 400824.0 0
393949.0 405492.0 0
399831.0 401342.0 0
398514.0 403891.0 0
403072.0 403998.0 0
407731.0 403416.0 0
411797.0 401427.0 0
415201.0 404316.0 0
419102.0 403271.0 0
425288.0 401041.0 0
428586.0 403695.0 0
432775.0 400962.0 0
433361.0 404926.0 0
437492.0 402595.0 0
441791.0 401315.0 0
446412.0 402917.0 0
451953.0 403086.0 0
457628.0 403587.0 0
461816.0 400357.0 0
464513.0 402054.0 0
468132.0 402218.0 0
472654.0 402698.0 0
476800.0 401769.0 0
476039.0 404864.0 0
483361.0 401310.0 0
480381.0 404033.0 0
488148.0 400545.0 0
485215.0 404441.0 0
488875.0 404725.0 0
493160.0 402619.0 0
497967.0 403515.0 0
2162.24 406940.0 0
9558.43 407942.0 0
6175.79 409734.0 0
11060.1 405248.0 0
13388.1 407885.0 0
18170.3 407627.0 0
23351.1 405454.0 0
27665.4 407493.0 0
32889.3 409658.0 0
35585.6 406002.0 0
38341.8 409331.0 0
42522.6 408163.0 0
49442.5 407011.0 0
46006.0 409756.0 0
53101.9 405949.0 0
59883.6 406283.0 0
56101.4 407751.0 0
62773.4 409240.0 0
69631.6 406961.0 0
66992.1 410570.0 0
70863.2 410334.0 0
73774.8 407620.0 0
78683.4 409353.0 0
83432.7 408106.0 0
90378.4 405401.0 0
87250.5 409397.0 0
95833.7 407209.0 0
101107.0 407953.0 0
106779.0 407698.0 0
110939.0 408847.0 0
115214.0 406893.0 0
120225.0 408005.0 0
124065.0 405976.0 0
126624.0 409383.0 0
129430.0 406261.0 0
137531.0 408102.0 0
133256.0 408419.0 0
143194.0 408416.0 0
148362.0 406569.0 0
152116.0 408604.0 0
155931.0 405486.0 0
156126.0 409557.0 0
160313.0 406586.0 0
165620.0 406266.0 0
163815.0 409435.0 0
171244.0 406387.0 0
168160.0 410392.0 0
178984.0 406339.0 0
175309.0 407813.0 0
183698.0 405306.0 0
182170.0 410118.0 0
187121.0 408421.0 0
191851.0 406815.0 0
197392.0 406819.0 0
194115.0 410074.0 0
203977.0 402564.0 0
208686.0 404375.0 0
213250.0 405708.0 0
218572.0 403667.0 0
223064.0 405454.0 0
228224.0 403234.0 0
233302.0 403164.0 0
237449.0 404991.0 0
241505.0 402628.0 0
245347.0 405130.0 0
249675.0 404956.0 0
254517.0 404921.0 0
260811.0 403387.0 0
267522.0 403487.0 0
273022.0 405285.0 0
278515.0 405121.0 0
282797.0 404736.0 0
286412.0 404966.0 0
291103.0 404769.0 0
296938.0 404606.0 0
302116.0 405448.0 0
301577.0 409791.0 0
309250.0 406192.0 0
306101.0 408443.0 0
310520.0 409167.0 0
312827.0 406046.0 0
315154.0 409597.0 0
319106.0 407473.0 0
323762.0 408364.0 0
329462.0 408117.0 0
334341.0 409376.0 0
337180.0 406035.0 0
342146.0 406648.0 0
346297.0 405549.0 0
345032.0 408132.0 0
349775.0 406464.0 0
347975.0 409742.0 0
351917.0 408863.0 0
357574.0 405098.0 0
360847.0 409102.0 0
365176.0 406633.0 0
369141.0 405615.0 0
368802.0 409994.0 0
374457.0 406630.0 0
379779.0 408407.0 0
383048.0 406378.0 0
383723.0 409854.0 0
387798.0 406673.0 0
396314.0 409595.0 0
399128.0 407220.0 0
402780.0 408838.0 0
406540.0 406918.0 0
405746.0 410072.0 0
411052.0 405792.0 0
414744.0 409229.0 0
418907.0 407353.0 0
423537.0 404772.0 0
422834.0 409517.0 0
426736.0 407791.0 0
430046.0 407296.0 0
433288.0 409411.0 0
437315.0 407002.0 0
441911.0 405194.0 0
440951.0 409299.0 0
445761.0 408730.0 0
449442.0 406264.0 0
453825.0 406996.0 0
457815.0 408032.0 0
461972.0 403945.0 0
461455.0 407518.0 0
465520.0 406087.0 0
468944.0 408961.0 0
469800.0 405408.0 0
473107.0 407072.0 0
478048.0 408815.0 0
482668.0 407278.0 0
486811.0 408428.0 0
492254.0 407355.0 0
497561.0 407455.0 0
1645.59 410565.0 0
3166.45 414725.0 0
8228.37 413568.0 0
10914.7 410850.0 0
14888.4 411576.0 0
12055.1 414701.0 0
19330.3 412001.0 0
23224.3 410093.0 0
27680.2 412454.0 0
37347.5 413419.0 0
39864.4 414894.0 0
41730.4 412198.0 0
45965.5 413658.0 0
51862.8 411708.0 0
58568.2 411224.0 0
63120.7 412879.0 0
70500.3 414064.0 0
74348.6 411458.0 0
74171.3 414352.0 0
78164.2 414451.0 0
83283.9 412378.0 0
91927.9 410835.0 0
87717.4 413819.0 0
94610.3 413674.0 0
97985.0 412112.0 0
103782.0 412331.0 0
109017.0 412174.0 0
113411.0 411481.0 0
117194.0 410582.0 0
117056.0 414119.0 0
119995.0 411679.0 0
123115.0 410761.0 0
126759.0 413626.0 0
130371.0 411044.0 0
130393.0 414950.0 0
134792.0 412866.0 0
139768.0 412039.0 0
144358.0 414243.0 0
148186.0 410805.0 0
152608.0 412571.0 0
148977.0 414512.0 0
156828.0 414539.0 0
160370.0 411550.0 0
164682.0 412659.0 0
177804.0 410174.0 0
173412.0 412518.0 0
178825.0 413668.0 0
182823.0 414348.0 0
186209.0 412820.0 0
190565.0 411400.0 0
194030.0 413457.0 0
196431.0 411416.0 0
198049.0 414408.0 0
199199.0 410818.0 0
202344.0 409164.0 0
205263.0 407105.0 0
209106.0 408968.0 0
213455.0 410556.0 0
217765.0 408430.0 0
222266.0 410151.0 0
227083.0 408759.0 0
232005.0 407889.0 0
236540.0 410066.0 0
241399.0 408028.0 0
246309.0 410243.0 0
251277.0 408958.0 0
256588.0 410767.0 0
263164.0 409968.0 0
268404.0 408611.0 0
272578.0 410426.0 0
277363.0 410170.0 0
282486.0 409189.0 0
286832.0 408575.0 0
289875.0 411033.0 0
294049.0 408615.0 0
298026.0 409193.0 0
305190.0 412269.0 0
301782.0 414868.0 0
308505.0 411938.0 0
311963.0 412958.0 0
319656.0 411619.0 0
316223.0 414029.0 0
323126.0 413187.0 0
326650.0 412279.0 0
331408.0 413456.0 0
339197.0 410055.0 0
336539.0 413608.0 0
341395.0 414029.0 0
343650.0 410630.0 0
346473.0 413975.0 0
355623.0 409407.0 0
351899.0 413093.0 0
357022.0 413268.0 0
360591.0 413483.0 0
364158.0 412061.0 0
367240.0 414814.0 0
371677.0 414100.0 0
373455.0 411135.0 0
377096.0 411041.0 0
375276.0 413436.0 0
380697.0 411710.0 0
378746.0 414179.0 0
386981.0 411416.0 0
383632.0 414575.0 0
391720.0 410697.0 0
388810.0 414738.0 0
396046.0 412579.0 0
393495.0 415123.0 0
399784.0 411957.0 0
397577.0 415664.0 0
404395.0 413312.0 0
409527.0 410667.0 0
413511.0 414179.0 0
418978.0 412982.0 0
423602.0 413569.0 0
426087.0 411325.0 0
427423.0 414898.0 0
429203.0 410805.0 0
432210.0 413679.0 0
437251.0 411874.0 0
442808.0 412929.0 0
439552.0 414641.0 0
447542.0 413505.0 0
450609.0 410339.0 0
452554.0 414698.0 0
455410.0 411206.0 0
459807.0 411345.0 0
461922.0 414134.0 0
464492.0 410860.0 0
468605.0 412976.0 0
473273.0 411522.0 0
478162.0 414450.0 0
482534.0 411241.0 0
486197.0 412936.0 0
490296.0 412141.0 0
495138.0 411365.0 0
498780.0 411036.0 0
498156.0 414378.0 0
8505.44 417897.0 0
12876.8 420450.0 0
17341.3 416435.0 0
22997.7 414914.0 0
22619.5 419597.0 0
27234.9 417358.0 0
32622.8 415362.0 0
37402.0 418258.0 0
42673.9 416933.0 0
48372.5 416131.0 0
52292.7 417975.0 0
56254.0 415205.0 0
60398.4 415708.0 0
57626.7 419753.0 0
66266.0 415243.0 0
63327.2 419471.0 0
69222.6 419362.0 0
74057.9 417731.0 0
78502.0 419093.0 0
82608.1 416930.0 0
87065.6 418648.0 0
91804.4 416437.0 0
96356.5 416293.0 0
100855.0 417259.0 0
106627.0 416510.0 0
112441.0 415997.0 0
122108.0 415487.0 0
117747.0 418198.0 0
127334.0 418793.0 0
133439.0 418395.0 0
139050.0 416826.0 0
143974.0 419360.0 0
147764.0 417641.0 0
152338.0 417447.0 0
157674.0 419711.0 0
162225.0 416494.0 0
165716.0 418873.0 0
168171.0 415652.0 0
172274.0 417515.0 0
176394.0 417340.0 0
181097.0 417662.0 0
185424.0 417128.0 0
189702.0 415699.0 0
188690.0 420311.0 0
194252.0 417931.0 0
198906.0 417992.0 0
203544.0 413464.0 0
209289.0 414424.0 0
214763.0 414772.0 0
218655.0 413003.0 0
222505.0 414397.0 0
226665.0 413621.0 0
232004.0 413718.0 0
237694.0 414340.0 0
241745.0 413086.0 0
247144.0 415220.0 0
251697.0 413479.0 0
257579.0 415594.0 0
261090.0 414850.0 0
268244.0 413740.0 0
273198.0 414883.0 0
279593.0 414468.0 0
284410.0 414060.0 0
288534.0 415124.0 0
293039.0 414591.0 0
296977.0 412249.0 0
302631.0 419629.0 0
307818.0 416762.0 0
313114.0 416509.0 0
320046.0 415737.0 0
316872.0 418186.0 0
321102.0 419730.0 0
323832.0 416789.0 0
327244.0 416055.0 0
330129.0 418410.0 0
334457.0 417377.0 0
338977.0 417316.0 0
343838.0 417882.0 0
349404.0 418049.0 0
354466.0 417088.0 0
358905.0 416775.0 0
361753.0 419758.0 0
363021.0 415906.0 0
365922.0 419045.0 0
370255.0 417939.0 0
375187.0 417193.0 0
379833.0 417869.0 0
383243.0 419044.0 0
386782.0 418482.0 0
391342.0 418976.0 0
395420.0 418342.0 0
401325.0 416140.0 0
398999.0 420018.0 0
408509.0 415020.0 0
405247.0 418562.0 0
411053.0 419035.0 0
416903.0 417784.0 0
422335.0 417646.0 0
427133.0 419276.0 0
431052.0 417490.0 0
430180.0 420282.0 0
436142.0 417229.0 0
440918.0 416817.0 0
444544.0 417187.0 0
449323.0 418221.0 0
457592.0 415754.0 0
454270.0 419373.0 0
461785.0 418093.0 0
465298.0 415234.0 0
469086.0 416644.0 0
473245.0 416102.0 0
475934.0 419030.0 0
483557.0 415891.0 0
480081.0 419268.0 0
488512.0 416670.0 0
493734.0 415830.0 0
492162.0 419568.0 0
497631.0 418273.0 0
3144.25 420587.0 0
8471.0 423389.0 0
18178.8 422283.0 0
23009.1 424671.0 0
26735.8 421876.0 0
31892.8 420777.0 0
36593.8 423613.0 0
41453.5 421967.0 0
47069.0 420351.0 0
53205.2 422464.0 0
56748.9 424041.0 0
60542.9 423390.0 0
66043.8 422836.0 0
74862.8 422473.0 0
78970.0 422332.0 0
82660.5 421472.0 0
86886.9 423417.0 0
91568.9 421201.0 0
90508.8 425001.0 0
95357.3 424694.0 0
96460.4 420244.0 0
100421.0 423678.0 0
104173.0 420784.0 0
109651.0 421314.0 0
114649.0 420134.0 0
114469.0 423936.0 0
121890.0 420777.0 0
117761.0 422027.0 0
130502.0 422586.0 0
135087.0 423306.0 0
139647.0 421427.0 0
144019.0 423960.0 0
148764.0 421845.0 0
153357.0 421600.0 0
158291.0 425040.0 0
163189.0 422030.0 0
167024.0 424679.0 0
169094.0 421053.0 0
174130.0 421427.0 0
179016.0 421346.0 0
183994.0 421361.0 0
192951.0 423392.0 0
198029.0 421475.0 0
201898.0 420012.0 0
205445.0 418219.0 0
212577.0 419036.0 0
216878.0 418124.0 0
221128.0 418720.0 0
226588.0 418781.0 0
231523.0 418818.0 0
236801.0 419259.0 0
243037.0 418452.0 0
247848.0 419256.0 0
251828.0 418019.0 0
256350.0 419481.0 0
261085.0 419140.0 0
266044.0 418975.0 0
271097.0 418611.0 0
276306.0 418577.0 0
282381.0 418585.0 0
286886.0 418663.0 0
291514.0 419367.0 0
296913.0 416981.0 0
302058.0 424479.0 0
307417.0 422784.0 0
312392.0 420591.0 0
317232.0 422884.0 0
322359.0 424178.0 0
326111.0 420807.0 0
332585.0 421952.0 0
336764.0 420509.0 0
337033.0 424437.0 0
340809.0 421311.0 0
346024.0 422218.0 0
351095.0 422633.0 0
356649.0 421674.0 0
360958.0 423027.0 0
364964.0 423838.0 0
368745.0 421683.0 0
372739.0 421609.0 0
375100.0 425286.0 0
377185.0 421303.0 0
381215.0 421973.0 0
378963.0 424882.0 0
385390.0 422794.0 0
389778.0 423251.0 0
394631.0 422755.0 0
402944.0 422803.0 0
407788.0 423725.0 0
412181.0 423440.0 0
415046.0 421432.0 0
415296.0 424663.0 0
419217.0 422562.0 0
424354.0 422706.0 0
433027.0 421147.0 0
429432.0 423673.0 0
436795.0 422025.0 0
439079.0 425007.0 0
440906.0 420621.0 0
442723.0 424288.0 0
445673.0 421622.0 0
450968.0 423573.0 0
458261.0 420720.0 0
455400.0 423068.0 0
462369.0 422739.0 0
466117.0 419849.0 0
471481.0 421188.0 0
476716.0 423870.0 0
481636.0 423121.0 0
485253.0 420500.0 0
488957.0 420415.0 0
495018.0 421702.0 0
490587.0 425117.0 0
498447.0 421832.0 0
3382.01 426478.0 0
8676.24 428229.0 0
13688.9 425931.0 0
18806.5 426444.0 0
21453.9 428427.0 0
25379.5 429105.0 0
27989.5 425801.0 0
32229.0 425638.0 0
35388.0 427963.0 0
40173.2 427721.0 0
45119.5 425454.0 0
44611.5 429980.0 0
49771.6 424485.0 0
48813.4 428660.0 0
53684.9 427175.0 0
58627.7 427179.0 0
63950.6 426827.0 0
70109.4 425129.0 0
74752.1 426895.0 0
78297.9 425414.0 0
79206.6 429285.0 0
82897.5 426136.0 0
87438.3 428502.0 0
92527.6 428277.0 0
98488.5 427879.0 0
105577.0 425202.0 0
102532.0 428215.0 0
107119.0 428971.0 0
110638.0 426787.0 0
116158.0 428475.0 0
120045.0 424981.0 0
121440.0 428766.0 0
125651.0 425074.0 0
131214.0 427215.0 0
135837.0 427450.0 0
139645.0 425799.0 0
138815.0 429983.0 0
143318.0 428667.0 0
147689.0 426606.0 0
151067.0 429328.0 0
152796.0 425361.0 0
155699.0 429722.0 0
160264.0 429256.0 0
163771.0 427104.0 0
172771.0 425952.0 0
168758.0 428673.0 0
176783.0 424769.0 0
176733.0 428977.0 0
181488.0 425860.0 0
187474.0 425560.0 0
184678.0 429426.0 0
193255.0 428729.0 0
197908.0 426012.0 0
202459.0 423614.0 0
208213.0 423690.0 0
213505.0 425206.0 0
215922.0 422319.0 0
220293.0 423690.0 0
225440.0 424256.0 0
230764.0 423477.0 0
235593.0 424670.0 0
240195.0 424033.0 0
245997.0 424213.0 0
252961.0 424456.0 0
259338.0 423975.0 0
264267.0 424332.0 0
269386.0 423558.0 0
273791.0 423144.0 0
278615.0 423638.0 0
283537.0 423027.0 0
287369.0 423139.0 0
291638.0 424843.0 0
296438.0 421861.0 0
301927.0 429337.0 0
305791.0 427266.0 0
308873.0 428643.0 0
312272.0 425937.0 0
317257.0 427787.0 0
325444.0 426602.0 0
322144.0 429031.0 0
328874.0 425078.0 0
331228.0 429723.0 0
333135.0 425879.0 0
336023.0 428671.0 0
342066.0 426299.0 0
348141.0 427306.0 0
353880.0 426794.0 0
360086.0 427375.0 0
365801.0 429323.0 0
370078.0 425993.0 0
373634.0 428853.0 0
378247.0 428970.0 0
382442.0 426347.0 0
387333.0 427686.0 0
391774.0 426332.0 0
391620.0 429734.0 0
394939.0 426737.0 0
398859.0 425281.0 0
400717.0 428250.0 0
403951.0 427179.0 0
408491.0 427039.0 0
412009.0 427418.0 0
417423.0 428305.0 0
421683.0 426392.0 0
426246.0 427711.0 0
430790.0 427775.0 0
434187.0 425547.0 0
437333.0 429207.0 0
442435.0 428621.0 0
446340.0 425980.0 0
449465.0 428611.0 0
454359.0 427892.0 0
458631.0 425220.0 0
459382.0 429553.0 0
462987.0 427018.0 0
466851.0 424630.0 0
471239.0 426046.0 0
474203.0 427584.0 0
477281.0 429001.0 0
481194.0 427139.0 0
485116.0 425057.0 0
485749.0 429751.0 0
494091.0 429407.0 0
497211.0 425693.0 0
1658.91 430770.0 0
2596.98 434969.0 0
5535.3 431230.0 0
8859.08 433066.0 0
12440.3 431145.0 0
17489.7 430621.0 0
19870.8 433949.0 0
22190.1 431895.0 0
25979.1 433326.0 0
29004.5 434217.0 0
30688.1 430431.0 0
36570.6 432500.0 0
41788.8 432581.0 0
47230.8 432468.0 0
49397.1 435279.0 0
51853.5 431743.0 0
56520.2 431154.0 0
60787.0 430558.0 0
64410.6 432837.0 0
67963.2 429951.0 0
72202.8 429752.0 0
75541.2 432026.0 0
80416.9 434106.0 0
83352.4 430384.0 0
86312.0 434117.0 0
90870.8 432061.0 0
95740.9 431052.0 0
100234.0 431854.0 0
105107.0 432268.0 0
110917.0 431966.0 0
116433.0 434016.0 0
121484.0 432879.0 0
125426.0 430618.0 0
130028.0 432572.0 0
134626.0 430825.0 0
140292.0 433826.0 0
143434.0 432092.0 0
147191.0 431620.0 0
144449.0 435441.0 0
152142.0 433268.0 0
156076.0 434052.0 0
160075.0 433178.0 0
164582.0 431889.0 0
168576.0 433183.0 0
172875.0 432349.0 0
180923.0 430603.0 0
184104.0 434352.0 0
188917.0 431141.0 0
194194.0 432687.0 0
197849.0 430920.0 0
203173.0 428432.0 0
208931.0 430715.0 0
213573.0 428675.0 0
217345.0 428345.0 0
221975.0 428546.0 0
227095.0 429187.0 0
232563.0 428872.0 0
238306.0 428819.0 0
242790.0 428505.0 0
247952.0 429847.0 0
251894.0 429321.0 0
255900.0 429893.0 0
260945.0 429061.0 0
266031.0 428301.0 0
271869.0 429284.0 0
276927.0 428061.0 0
282108.0 428598.0 0
287623.0 427975.0 0
291888.0 430193.0 0
296735.0 427519.0 0
302154.0 433601.0 0
305868.0 431257.0 0
309779.0 432083.0 0
313488.0 430575.0 0
318283.0 433237.0 0
324124.0 433688.0 0
326655.0 430132.0 0
334782.0 433413.0 0
340002.0 431518.0 0
344481.0 430305.0 0
347663.0 432720.0 0
351525.0 430727.0 0
356275.0 431801.0 0
361865.0 433134.0 0
370318.0 430752.0 0
366570.0 433700.0 0
370366.0 434607.0 0
374568.0 432828.0 0
379338.0 433006.0 0
383030.0 430692.0 0
387464.0 432641.0 0
392924.0 434489.0 0
397200.0 430277.0 0
402167.0 431180.0 0
407701.0 431015.0 0
413495.0 432363.0 0
418578.0 433667.0 0
422130.0 430604.0 0
427939.0 432281.0 0
432872.0 431669.0 0
437123.0 433133.0 0
440286.0 432565.0 0
446089.0 432174.0 0
451293.0 432901.0 0
456096.0 432481.0 0
463224.0 431062.0 0
460312.0 434897.0 0
468211.0 429980.0 0
473533.0 431302.0 0
477174.0 432443.0 0
480885.0 431636.0 0
484260.0 434207.0 0
490370.0 431402.0 0
494254.0 433436.0 0
497983.0 430392.0 0
498044.0 434282.0 0
2701.04 440167.0 0
7362.97 437287.0 0
12191.2 435888.0 0
14874.5 439608.0 0
16951.3 435626.0 0
22526.4 436009.0 0
23427.2 439502.0 0
27525.7 438114.0 0
32185.9 435552.0 0
35968.6 437436.0 0
40217.4 436634.0 0
45025.1 435963.0 0
50365.0 438540.0 0
54470.7 436104.0 0
59789.5 434737.0 0
63801.9 437743.0 0
70147.6 435442.0 0
75947.0 436544.0 0
79244.9 438279.0 0
83057.1 437839.0 0
91730.9 437052.0 0
96928.0 435351.0 0
102171.0 437127.0 0
108002.0 436507.0 0
112426.0 436528.0 0
115665.0 439104.0 0
120541.0 437610.0 0
125580.0 435751.0 0
135059.0 436166.0 0
140738.0 438938.0 0
145853.0 439657.0 0
148938.0 436315.0 0
153756.0 438009.0 0
158595.0 437148.0 0
162937.0 435942.0 0
166473.0 435850.0 0
170616.0 436752.0 0
178058.0 434613.0 0
174264.0 437374.0 0
181467.0 438624.0 0
186346.0 439559.0 0
188715.0 435653.0 0
191872.0 434383.0 0
192023.0 438949.0 0
197184.0 436170.0 0
202359.0 433312.0 0
206396.0 436378.0 0
214394.0 433003.0 0
218787.0 433660.0 0
222500.0 433738.0 0
226796.0 434863.0 0
232308.0 433968.0 0
237221.0 434006.0 0
242365.0 433284.0 0
247096.0 434664.0 0
252500.0 433742.0 0
256073.0 434620.0 0
260901.0 434292.0 0
266577.0 434011.0 0
272017.0 435144.0 0
276696.0 432690.0 0
281290.0 435240.0 0
286419.0 432975.0 0
291089.0 435576.0 0
296457.0 433661.0 0
301707.0 437458.0 0
306901.0 436541.0 0
312693.0 435393.0 0
316628.0 438978.0 0
321734.0 437550.0 0
329302.0 435195.0 0
334545.0 437764.0 0
338709.0 436298.0 0
343506.0 435303.0 0
343602.0 439884.0 0
347789.0 437575.0 0
352089.0 435102.0 0
357492.0 437399.0 0
362717.0 437764.0 0
367410.0 437872.0 0
372598.0 438904.0 0
377381.0 436656.0 0
382901.0 435461.0 0
380730.0 439391.0 0
387708.0 437762.0 0
397324.0 438275.0 0
399325.0 434466.0 0
404161.0 436045.0 0
410006.0 436517.0 0
415206.0 437427.0 0
419781.0 438662.0 0
423876.0 435710.0 0
430075.0 436863.0 0
435293.0 436185.0 0
442507.0 436029.0 0
447841.0 437192.0 0
454414.0 436871.0 0
458113.0 439697.0 0
463149.0 439470.0 0
465755.0 434932.0 0
468292.0 439244.0 0
470801.0 435017.0 0
473153.0 439384.0 0
475481.0 435522.0 0
477565.0 439400.0 0
480180.0 436055.0 0
484391.0 438759.0 0
488481.0 435599.0 0
492903.0 437042.0 0
494027.0 440506.0 0
497441.0 438306.0 0
1018.34 443693.0 0
6933.09 441834.0 0
10742.9 440831.0 0
14198.0 444376.0 0
19534.5 439723.0 0
18785.6 444031.0 0
23146.1 443313.0 0
28567.9 443917.0 0
32584.6 440242.0 0
38463.5 441621.0 0
42945.7 439780.0 0
46980.8 440359.0 0
53624.8 441720.0 0
58947.0 439661.0 0
63082.3 442690.0 0
67241.7 440379.0 0
71226.8 441259.0 0
76157.2 441256.0 0
81093.7 441529.0 0
86886.0 439833.0 0
91109.8 442755.0 0
96754.4 440946.0 0
101757.0 442223.0 0
106151.0 441256.0 0
111088.0 440662.0 0
109044.0 444774.0 0
114746.0 443165.0 0
119241.0 442533.0 0
124065.0 441212.0 0
129651.0 440206.0 0
135699.0 442636.0 0
139987.0 442754.0 0
143592.0 443684.0 0
149838.0 440481.0 0
153336.0 443404.0 0
157618.0 441065.0 0
162004.0 439897.0 0
163762.0 443974.0 0
167174.0 440296.0 0
172669.0 441521.0 0
177297.0 439646.0 0
177577.0 443943.0 0
182529.0 443297.0 0
189401.0 443039.0 0
193692.0 443929.0 0
197740.0 441444.0 0
202500.0 438615.0 0
208513.0 440858.0 0
212971.0 438465.0 0
217500.0 438571.0 0
222500.0 438439.0 0
228082.0 440146.0 0
232846.0 438642.0 0
237841.0 438902.0 0
242668.0 437828.0 0
247542.0 439037.0 0
251754.0 438094.0 0
256073.0 438852.0 0
260494.0 439328.0 0
265276.0 439269.0 0
270451.0 440328.0 0
276535.0 439077.0 0
281334.0 440962.0 0
285616.0 438807.0 0
290918.0 440992.0 0
296962.0 440232.0 0
302797.0 441690.0 0
307607.0 441844.0 0
311745.0 440173.0 0
316395.0 443602.0 0
320688.0 442034.0 0
325993.0 440068.0 0
331183.0 440440.0 0
328594.0 444655.0 0
338211.0 441437.0 0
347842.0 442416.0 0
352323.0 440030.0 0
356344.0 442647.0 0
360547.0 441592.0 0
364624.0 441240.0 0
368792.0 442923.0 0
376912.0 440716.0 0
379821.0 443918.0 0
384451.0 441876.0 0
392668.0 440737.0 0
397592.0 443336.0 0
401500.0 440535.0 0
407015.0 440980.0 0
403471.0 444866.0 0
411907.0 441216.0 0
416911.0 442396.0 0
422115.0 442552.0 0
426283.0 440372.0 0
430267.0 442044.0 0
433815.0 439934.0 0
438623.0 439819.0 0
434767.0 444582.0 0
443846.0 440882.0 0
448655.0 442446.0 0
451693.0 439539.0 0
454257.0 443865.0 0
460849.0 444809.0 0
465808.0 443184.0 0
470594.0 444010.0 0
475977.0 443623.0 0
480917.0 442478.0 0
485441.0 443233.0 0
489631.0 440677.0 0
493556.0 444223.0 0
497802.0 442686.0 0
4194.53 445590.0 0
1289.62 448414.0 0
9272.05 445298.0 0
12124.1 449188.0 0
17801.7 449101.0 0
23435.3 448229.0 0
28105.9 449194.0 0
34019.6 445068.0 0
38615.1 446824.0 0
43560.0 444374.0 0
49052.5 444939.0 0
46051.2 448869.0 0
53757.8 446667.0 0
58273.5 444901.0 0
62587.6 447855.0 0
66588.1 449857.0 0
67872.9 445175.0 0
70806.7 449733.0 0
73418.1 445609.0 0
78802.3 445878.0 0
85091.1 445424.0 0
90176.2 447305.0 0
94695.9 446289.0 0
99368.3 445622.0 0
104324.0 446111.0 0
108489.0 449646.0 0
116892.0 446115.0 0
112896.0 447100.0 0
120761.0 447054.0 0
126794.0 446833.0 0
132445.0 446375.0 0
136384.0 448466.0 0
139729.0 445757.0 0
141166.0 449549.0 0
144441.0 447658.0 0
146476.0 449648.0 0
148411.0 445855.0 0
153177.0 449058.0 0
158742.0 446223.0 0
164123.0 448825.0 0
168329.0 445511.0 0
173674.0 447724.0 0
178228.0 447448.0 0
181829.0 448540.0 0
186800.0 446772.0 0
197855.0 445891.0 0
198094.0 449950.0 0
202520.0 443383.0 0
206893.0 444971.0 0
212257.0 443831.0 0
217524.0 443339.0 0
222404.0 443457.0 0
226491.0 444623.0 0
231479.0 443397.0 0
236432.0 443601.0 0
241649.0 442463.0 0
247279.0 444178.0 0
253447.0 443507.0 0
258661.0 443734.0 0
262637.0 443242.0 0
266930.0 444356.0 0
273644.0 444294.0 0
278085.0 444440.0 0
283093.0 444042.0 0
287195.0 444228.0 0
291835.0 445681.0 0
296855.0 446740.0 0
303100.0 446237.0 0
301580.0 449825.0 0
307343.0 445922.0 0
305826.0 450053.0 0
310160.0 449442.0 0
312063.0 445256.0 0
319634.0 447227.0 0
324133.0 444755.0 0
330625.0 449156.0 0
333699.0 445051.0 0
338253.0 446780.0 0
343074.0 445162.0 0
352230.0 445148.0 0
347881.0 447284.0 0
357178.0 447864.0 0
363440.0 446228.0 0
369332.0 448881.0 0
374182.0 444813.0 0
383849.0 446740.0 0
388817.0 445053.0 0
393654.0 445611.0 0
394519.0 449865.0 0
399466.0 448289.0 0
404395.0 448595.0 0
408097.0 445571.0 0
412917.0 446236.0 0
417974.0 447209.0 0
422571.0 447483.0 0
426595.0 444913.0 0
430399.0 446925.0 0
437218.0 449188.0 0
440626.0 445221.0 0
446062.0 447050.0 0
457014.0 449014.0 0
466353.0 448106.0 0
473770.0 449197.0 0
479538.0 447437.0 0
484086.0 446903.0 0
489097.0 445747.0 0
493030.0 449583.0 0
497688.0 446994.0 0
2396.5 451762.0 0
7049.9 450052.0 0
5492.77 454077.0 0
10698.5 454861.0 0
21947.2 452806.0 0
26829.0 454239.0 0
32889.7 450133.0 0
37485.3 451147.0 0
41762.6 450033.0 0
50766.9 450063.0 0
57009.0 450214.0 0
63399.6 453205.0 0
68285.8 453496.0 0
75859.5 449932.0 0
72934.4 453900.0 0
81524.6 451172.0 0
87300.2 450509.0 0
89333.3 454386.0 0
92827.6 451051.0 0
98012.4 450271.0 0
103298.0 451612.0 0
108155.0 454874.0 0
112678.0 451744.0 0
115101.0 455201.0 0
117188.0 450600.0 0
119480.0 454646.0 0
122383.0 451471.0 0
127801.0 452710.0 0
131893.0 450763.0 0
138116.0 453226.0 0
144356.0 453622.0 0
149080.0 451915.0 0
158100.0 452331.0 0
163528.0 453652.0 0
168773.0 450439.0 0
167833.0 454830.0 0
172596.0 453552.0 0
177919.0 451577.0 0
182957.0 453308.0 0
186744.0 451348.0 0
192346.0 449535.0 0
196480.0 454606.0 0
202854.0 448329.0 0
207879.0 449468.0 0
212907.0 449010.0 0
217756.0 448426.0 0
221876.0 448420.0 0
225693.0 448878.0 0
230683.0 448863.0 0
236499.0 448821.0 0
242350.0 448441.0 0
247992.0 449731.0 0
252265.0 448659.0 0
256743.0 448299.0 0
261624.0 448439.0 0
266908.0 450160.0 0
272475.0 448868.0 0
277928.0 449745.0 0
283442.0 448397.0 0
288828.0 449602.0 0
293649.0 450807.0 0
297854.0 451878.0 0
302701.0 454238.0 0
309248.0 455003.0 0
314743.0 450058.0 0
319982.0 452336.0 0
325083.0 449937.0 0
335305.0 449904.0 0
332436.0 453657.0 0
341595.0 451400.0 0
351788.0 450455.0 0
347112.0 451347.0 0
356238.0 453552.0 0
361486.0 452020.0 0
369090.0 453859.0 0
373420.0 453120.0 0
378770.0 449937.0 0
384756.0 451375.0 0
381841.0 454172.0 0
389618.0 450341.0 0
388059.0 455228.0 0
393264.0 454676.0 0
398304.0 453481.0 0
403066.0 451902.0 0
407923.0 450397.0 0
415032.0 450970.0 0
419837.0 451384.0 0
423803.0 454388.0 0
426988.0 450070.0 0
432574.0 451176.0 0
437399.0 454033.0 0
441829.0 450803.0 0
446552.0 452080.0 0
451443.0 449851.0 0
457714.0 453508.0 0
461564.0 450339.0 0
466803.0 453312.0 0
477279.0 454072.0 0
481819.0 451925.0 0
487062.0 450830.0 0
490916.0 454510.0 0
497940.0 451420.0 0
495092.0 454220.0 0
17212.6 455462.0 0
32280.8 455458.0 0
37625.5 455932.0 0
41674.3 454169.0 0
46883.4 454572.0 0
53438.8 454374.0 0
58504.9 455358.0 0
77365.9 455024.0 0
85615.0 453958.0 0
94054.9 456002.0 0
99377.0 455570.0 0
104020.0 456216.0 0
124702.0 455217.0 0
132119.0 456397.0 0
152975.0 454715.0 0
160395.0 457205.0 0
189491.0 454883.0 0
315195.0 455127.0 0
319699.0 457301.0 0
323357.0 454677.0 0
327697.0 455084.0 0
337170.0 456094.0 0
342979.0 457152.0 0
346948.0 455246.0 0
351546.0 455801.0 0
359852.0 456810.0 0
365342.0 455474.0 0
370973.0 456868.0 0
377411.0 455263.0 0
406329.0 455145.0 0
411357.0 454628.0 0
416975.0 455969.0 0
428852.0 454913.0 0
443615.0 455747.0 0
448618.0 455814.0 0
453352.0 455377.0 0
462232.0 455323.0 0
471683.0 455074.0 0
486877.0 455911.0 0
POINT_DATA 5000
SCALARS Radius float 1
LOOKUP_TABLE default
5253.55 5782.6 5379.87 6044.04 5415.48 5120.0 7513.1 5580.89 6810.52 7613.27 5529.52 5255.32 5096.78 6756.95 6324.23 3843.58 4270.53 5191.63 4216.92 6268.1 4861.06 5320.28 4797.52 4796.58 3979.26 4298.67 3471.03 5960.66 5820.48 7034.11 4862.21 5113.21 3929.19 4107.03 4043.57 4478.15 5925.6 4501.51 4792.73 4736.58 4931.38 3485.26 4329.05 4151.94 4049.23 5337.48 6124.89 4929.8 5708.81 5252.48 4780.03 5495.39 3996.0 3856.1 4665.12 3383.4 4133.88 4094.62 4834.9 3850.77 5546.39 5325.36 5484.83 5085.53 3863.18 5351.6 2356.98 4998.37 4715.55 6182.6 5492.18 5258.36 3951.75 5061.3 3642.12 3163.97 5542.27 5812.43 5122.66 5906.14 5484.19 5254.28 4436.4 5733.48 4672.91 4182.53 5903.42 3588.44 5645.7 5176.86 4366.19 5840.26 3672.51 6110.27 5561.06 5073.35 3615.22 5670.04 4380.59 3589.27 6716.79 3997.1 3607.45 5759.91 4333.2 4951.03 7199.21 6037.08 4523.7 5091.39 4129.43 6142.94 3320.52 4727.24 4602.25 4194.5 5082.47 5344.25 5445.87 4593.7 4150.99 4704.72 4177.94 4742.68 4571.7 4344.58 5634.83 5495.84 5374.51 7042.12 6739.08 6326.39 4569.12 5873.69 6608.73 5011.84 6261.42 4502.5 3771.48 5499.11 4271.69 5681.38 4138.42 3708.04 5513.6 3240.09 4556.36 6082.81 3191.99 4685.34 5601.05 4651.28 3586.91 3103.0 3554.9 5481.78 4015.92 5542.21 4487.31 3936.02 5043.05 4044.71 5980.74 5109.54 4927.02 5945.65 5538.89 4730.36 5867.73 6059.59 5013.56 5701.86 4499.64 4375.68 4468.59 5054.98 6030.06 5170.02 3557.27 5200.76 4927.31 4688.68 4862.64 4402.52 4517.56 4432.58 6684.56 3968.64 3955.56 3761.32 4118.05 6166.5 5553.16 2938.66 4940.78 4231.61 4008.92 4003.05 3942.53 3379.84 4827.82 5227.21 5697.78 3260.67 5123.52 4091.31 3038.33 4392.68 6372.62 4295.38 2240.39 5923.5 5293.9 4973.83 3912.37 6691.39 4790.08 4763.45 5344.0 6045.46 3815.26 5908.1 6048.7 5896.46 5022.8 3784.5 3780.23 4166.08 6481.79 5224.12 4819.73 4471.58 6098.14 4962.09 4472.17 3999.48 4203.26 4359.62 5188.81 6946.21 2586.12 6057.22 5433.8 4011.77 4527.08 3633.87 5922.5 5198.77 5987.17 6013.14 2765.2 4901.41 5110.37 5664.98 4382.74 5927.43 4384.42 3693.63 4516.43 4948.92 5637.59 4937.14 5816.2 5693.81 4174.52 6483.19 3829.13 6759.9 5418.62 7021.47 5416.38 5926.61 4955.55 2720.68 3563.63 5836.15 4238.81 4345.55 6704.06 5885.03 2837.58 3871.88 5325.02 5017.13 5279.39 5185.34 3673.74 5205.43 7447.37 4688.67 2635.86 4385.06 5292.64 5065.13 5936.02 5305.17 4861.08 5399.73 5390.22 3888.21 4805.87 4712.33 6038.78 4667.36 4254.17 5090.24 5615.42 7565.34 5530.87 4612.68 4281.49 6342.25 4187.56 4840.84 5135.69 4020.32 4245.72 4156.38 5316.75 4541.21 4164.68 6133.92 3719.84 4178.4 3095.48 5762.59 4123.6 4850.14 5163.55 3382.7 3954.91 6817.32 4319.79 3637.61 6222.42 5654.31 4730.41 3745.84 5690.26 5062.71 4156.2 6125.34 5965.78 5347.48 4850.01 4810.12 3970.25 5643.58 5147.67 3979.82 4292.06 5011.31 5138.31 5264.06 4659.59 6327.9 4048.37 6355.42 5492.26 4362.19 5690.56 5762.84 3115.91 3937.74 4493.48 3307.12 6084.86 5924.89 4778.34 4002.16 4138.16 3486.22 4684.5 3091.3 6230.49 6458.82 4601.27 5493.32 3641.64 5740.68 4277.89 6051.14 3261.21 4195.44 5539.32 3653.41 6496.85 5600.93 3856.01 5246.2 4390.66 5728.85 4827.23 6116.18 4924.6 6257.19 4733.32 7184.19 2899.43 2924.37 3867.67 4290.3 4695.45 4660.72 5891.05 5308.1 6902.81 6644.76 5629.19 5655.21 4786.6 5740.84 6445.94 4310.18 5542.14 4218.06 7134.64 5978.9 3629.62 4716.19 4997.27 5514.76 4301.06 3456.98 4877.67 4290.14 3066.13 6562.18 6006.16 7055.53 5669.65 5934.22 5624.49 4970.88 7092.87 4666.81 3703.1 6471.55 2965.01 5499.39 6643.85 5501.93 5463.38 4938.74 5607.14 4497.59 4374.35 6396.74 5215.05 3821.72 4986.77 5577.04 5006.58 4602.86 3688.8 4548.16 3369.23 5449.18 4220.88 5244.78 4515.71 4749.8 5082.6 5478.92 5551.36 6894.71 4467.94 4414.54 4850.81 5789.98 6138.47 7054.71 5489.43 5747.75 4727.62 5054.25 4796.33 5360.19 4794.96 4874.39 5541.59 4124.71 5083.08 6337.56 4911.47 5803.39 5863.59 4381.97 4024.3 3255.82 5555.28 5242.73 2812.98 4737.14 4065.69 5603.15 5556.96 6052.7 3921.18 3798.62 6392.01 3666.57 4907.89 4937.02 4073.93 4645.41 4433.59 4320.28 6122.55 2739.94 4931.53 5480.13 6308.71 6695.82 6405.76 3498.2 5105.16 5448.61 4302.5 4827.33 6009.88 5513.57 5013.67 5826.04 5339.78 4538.95 4143.78 4763.66 4636.5 4940.42 5923.4 5085.71 5644.82 6343.14 5945.21 5750.71 5696.88 4831.47 3923.03 4643.85 5975.63 5252.34 4138.46 4274.61 2775.04 2965.79 6898.19 6318.18 5586.81 3948.17 4621.75 4551.24 4581.13 5358.59 3610.4 6387.01 5367.52 6519.71 6640.13 5210.03 5810.84 4230.54 5094.44 3748.24 4655.49 4933.21 5375.47 6038.14 2540.31 6029.66 5527.54 5573.7 5697.4 6038.2 4270.95 4055.8 5206.78 7325.81 5280.17 6425.26 5143.58 6186.19 4839.34 2980.99 6834.49 5525.39 3998.5 5938.34 5380.13 6394.38 5169.36 5932.23 4686.65 5834.74 5788.23 3043.85 5581.75 3599.45 6730.19 4907.06 3735.44 5163.9 6043.3 5952.75 6332.36 6155.31 4223.33 5911.67 3323.28 5835.78 5794.24 4127.74 2476.04 4678.38 3942.07 7443.72 5050.65 3937.08 5260.34 5206.48 5729.23 5226.0 3365.82 5724.64 5965.15 4780.2 6090.91 4946.42 5019.93 5081.78 6116.33 6263.44 5774.97 5462.21 5470.77 4004.04 6062.05 4289.17 5564.02 6072.45 4410.55 6035.6 5137.34 4481.53 5423.0 5330.45 3856.59 4219.07 5413.79 6202.55 3092.35 4322.15 4714.54 3629.96 5478.47 3320.11 5351.39 6142.37 6061.47 6163.38 4566.18 4723.12 5120.49 5201.36 5262.61 6302.8 5409.61 4005.44 5555.88 6732.43 5028.96 3866.16 6362.12 4484.76 4840.01 5152.36 4511.82 5611.2 7933.0 4455.12 5173.87 4894.16 5711.87 5118.27 3372.79 4941.22 5791.61 3369.13 4669.66 4479.66 4808.52 5367.2 5607.24 5461.13 4726.76 5839.13 5495.68 5489.34 5002.48 5708.14 5537.72 3920.42 8332.24 4553.56 5329.64 6049.55 5709.62 5991.09 5133.97 6600.94 5371.02 6155.1 4709.35 6586.45 4373.3 4750.78 5029.78 4163.5 4888.6 5078.86 5100.1 3561.29 4963.34 4219.78 3295.83 3885.86 4459.28 4260.92 6250.23 5960.56 4118.84 4020.95 6313.06 3474.39 3493.7 6470.3 4200.03 5082.74 6915.83 5092.37 6444.77 7099.43 5526.14 5198.29 5077.33 4746.52 3689.45 5572.95 6338.89 5584.06 5025.39 7111.16 5893.5 4547.19 5030.91 6022.17 5119.37 3982.23 4583.31 3459.9 4853.39 4997.27 4964.09 4809.42 5024.9 4306.53 5659.17 5094.81 5972.06 5713.22 4312.67 5861.71 4359.04 3183.98 3794.63 4524.28 3778.1 6175.81 4727.24 6677.09 5826.64 4220.65 6820.42 4816.2 6321.41 4896.52 4089.76 4751.02 3192.41 5184.56 5282.64 4715.72 5804.71 5046.33 4764.96 4242.52 5053.92 6352.26 3847.38 3818.59 4863.72 4143.08 7500.97 6623.85 4262.82 5102.36 4342.9 5065.11 5069.84 4051.44 4241.89 5054.74 5941.72 4656.78 5126.91 4788.58 5131.24 5196.67 5876.71 6262.72 6515.84 2990.77 4739.14 4918.77 4371.99 4188.3 5235.29 4479.94 4255.31 5453.3 6413.02 4863.27 5862.86 6049.79 5374.98 4719.7 6939.12 4735.33 5411.85 6314.07 4287.63 5315.4 6449.45 3975.31 3824.16 5125.78 3868.18 4373.47 6723.16 3686.21 3817.13 5507.24 5023.15 6851.54 4503.89 5806.08 5243.29 4093.08 4449.22 5543.27 4717.05 5287.2 6135.57 5998.38 5013.13 5423.8 4270.24 4989.15 5017.78 4164.13 5015.69 4947.52 4305.57 6959.81 4829.35 5201.67 3791.79 4424.7 4754.05 5526.55 6084.93 5215.15 4987.87 3315.57 4739.42 5020.12 5727.3 2631.9 5281.28 5356.51 4277.88 3057.03 4087.15 4758.21 7228.46 3948.23 5228.18 5978.82 5787.31 3927.99 5868.82 4050.9 4978.31 4948.98 4099.77 4414.48 4537.32 4981.9 3600.43 4906.82 5687.83 5004.23 6496.67 5474.8 6607.87 3664.11 5117.47 4925.63 3293.56 5882.65 4434.19 5187.7 4623.61 5511.6 6261.75 5177.64 6134.99 4094.73 4407.9 3492.19 4584.5 4440.57 5122.63 4703.08 2315.64 6345.13 5274.19 5516.95 4406.4 4413.85 4844.57 3999.94 4027.46 4470.98 4864.22 5776.37 4516.28 3921.08 4190.31 3627.82 4044.45 5262.19 5344.43 6070.58 5045.38 5350.88 5372.61 5402.24 6480.17 4377.07 3844.9 3813.22 5101.59 3963.86 5570.3 4336.42 4306.11 5935.47 7589.94 3130.65 5628.24 5856.11 3327.49 4109.88 4234.94 3960.8 4562.29 4980.85 5080.66 3417.33 5110.45 4926.42 5248.77 4642.34 4083.97 4520.1 5153.74 5874.89 4293.03 5813.4 4389.21 4128.98 4925.44 6246.22 4951.47 5246.61 4307.28 3697.96 4723.48 5538.93 4899.11 4745.45 7267.18 6255.18 4668.71 5269.18 6362.14 6719.88 4454.63 5266.5 4523.88 3279.1 4066.38 4403.98 4560.84 5227.52 4729.43 4092.24 5163.02 7144.24 5598.74 7493.3 6442.69 6320.71 4648.04 3464.83 6413.11 4721.32 4305.16 3163.78 5092.28 5274.14 4903.82 5746.28 4082.47 4453.64 4338.08 4517.73 4378.3 5469.47 4989.56 4718.54 6736.03 5548.29 6766.43 5916.16 4390.41 5226.56 5599.49 5313.22 4097.57 3905.51 5017.5 5563.79 6171.13 5759.46 3901.8 5083.41 5678.96 7055.42 4244.9 6048.86 4285.32 5490.43 6034.41 5452.83 5130.91 4948.5 4519.22 6445.22 3695.36 4564.34 4871.44 3848.93 5076.35 6020.48 3402.32 5903.66 4528.49 5004.67 5365.89 5419.37 5992.26 4466.03 4511.54 5070.39 4923.9 5714.58 5208.32 3296.27 4713.25 4607.02 4204.84 3895.51 4528.09 4165.81 3556.85 5441.96 6291.51 5174.89 5882.89 4188.32 5774.81 4100.38 3746.31 5344.77 5027.98 5097.87 4278.07 6475.1 4969.21 2691.29 6256.02 5320.92 4305.43 4406.1 5450.44 5034.59 4942.77 4263.33 5080.18 5912.61 5381.16 6193.35 6086.96 5233.78 5776.57 4562.74 5046.21 5683.26 5894.61 5139.5 5944.09 4814.55 3527.05 5698.77 2477.07 4497.31 5529.42 5257.12 4965.89 5659.95 4152.85 5551.9 2908.7 6415.61 4687.64 4419.71 5660.16 3838.47 2588.37 6235.57 3623.87 3087.09 6934.37 6113.95 4050.08 5328.22 5511.88 2395.5 4512.11 5486.68 5683.61 5100.25 5022.28 5197.52 4959.34 5383.07 4527.02 4531.14 4591.87 5013.42 3838.56 6552.22 5651.07 6248.81 6375.99 5200.05 5273.35 5234.29 5313.66 2651.49 5512.23 5275.32 5409.33 4898.94 5196.0 4613.31 4973.78 3329.99 3947.47 5091.68 7531.29 6243.0 5048.89 6673.96 3161.47 3991.03 3435.9 6390.78 7435.25 4288.3 5370.52 4788.87 4652.29 4495.87 6022.72 5498.32 5527.33 5346.27 4989.09 2845.98 4880.14 5289.52 5314.85 3848.54 5941.4 6510.17 5742.65 5592.32 4470.61 5565.13 3701.27 5653.9 4806.34 5612.21 4929.14 3979.54 5304.13 3306.14 5833.06 4863.79 4923.41 3830.46 6031.67 5384.76 6138.12 4428.78 5243.43 4537.14 4345.67 4765.72 3757.34 4642.66 4752.14 5329.59 4888.12 5037.06 4541.8 5512.16 5175.29 3197.63 5842.56 5887.15 5412.31 7480.41 3423.15 4890.5 3981.07 3731.84 5452.42 5186.3 6853.85 3497.9 4151.76 5941.61 4020.4 5782.48 3493.47 6248.6 3836.45 5443.58 4558.46 5805.86 6894.26 4470.4 4986.51 5339.38 5178.99 6169.11 5615.35 4790.78 6422.84 4247.15 4502.18 5379.09 4602.85 5872.05 4853.02 4091.8 4645.58 5181.4 5670.2 5985.29 4247.23 4178.15 4694.83 4733.04 5509.42 6119.09 4354.08 5788.66 5936.36 5069.25 3903.75 4755.47 5935.03 5475.8 5314.69 6826.57 4249.46 5965.81 3702.37 5660.85 4643.31 2330.66 4177.19 6917.52 5402.21 3587.05 6718.19 4982.31 4307.48 4425.84 5331.02 4871.96 4863.23 3555.86 4402.67 4631.83 4996.99 4384.88 6887.27 6008.49 4220.46 4287.53 5945.08 3169.67 4968.03 5490.58 5395.14 4702.06 3967.48 6213.04 4689.15 3685.13 4655.16 5409.66 3867.19 5857.79 4039.91 5276.7 6119.63 4950.97 4752.9 4287.16 4863.96 5191.08 5203.08 5374.07 5163.77 4588.7 4488.85 3766.55 4579.69 4901.07 3554.48 6496.52 3436.15 5005.85 4216.17 6484.17 4721.02 4596.75 4933.65 4031.78 6098.1 5708.99 4049.02 5346.68 5311.03 5255.12 4285.66 4896.11 4027.09 5172.53 5801.99 5210.48 4962.77 6259.23 5088.44 4998.21 4711.62 4114.24 4268.65 5349.31 4649.22 5094.52 4256.43 4946.74 2682.24 4520.62 5229.48 5475.7 4485.99 4016.18 5127.16 5435.74 4244.99 6050.81 5543.46 6185.89 3997.96 4750.17 3460.94 3990.25 3691.0 4752.51 6229.37 4236.14 4407.87 5282.91 3797.33 5945.89 7256.35 4105.55 4800.69 6566.1 6065.22 6386.78 4456.39 4896.39 3633.79 6081.14 5480.83 4607.85 6070.3 5128.57 6000.7 5604.21 5204.04 3361.92 4750.58 6710.88 5235.11 6622.11 4590.55 6790.73 5251.4 5097.69 3988.3 6543.13 5149.72 5036.58 5464.25 5411.02 5301.47 4617.55 5199.44 4062.5 4435.51 5683.95 6027.62 5010.2 5966.61 5711.11 4938.72 4254.37 3374.08 3546.71 5950.04 5687.85 5296.29 4611.53 2681.29 5094.48 3872.61 4238.4 4135.62 6132.95 5534.94 4860.33 7644.38 7552.94 6101.92 5323.3 4635.6 4256.67 4662.56 3457.48 5166.79 2976.22 3405.98 5417.15 5394.55 3688.16 4681.72 4945.39 5996.33 5928.32 3950.63 5415.19 4612.62 3619.07 5526.75 4275.57 6385.23 5327.45 2983.99 5560.26 2614.4 6363.92 6205.93 4439.35 5830.72 6184.4 3758.07 3828.81 4373.45 4082.57 5733.62 5169.9 5282.51 4460.92 3004.16 4042.28 4421.12 4340.76 5254.49 4221.28 4303.19 5514.84 3914.2 5421.53 5937.08 4135.08 5620.74 5233.29 4778.82 4312.56 4612.06 5053.95 5926.11 6667.68 5767.9 5211.38 5089.62 5869.4 4741.26 5920.32 4186.6 4255.85 4732.09 6136.49 4356.25 4216.95 5776.96 5742.74 5486.48 4947.24 3645.12 5424.88 6200.54 5415.85 5148.58 4199.45 8659.64 5469.13 4233.8 5765.42 6123.03 4997.83 4575.94 5325.44 5021.88 5956.65 5768.57 4498.25 5564.23 4188.87 3735.24 4231.83 2435.33 6401.43 4074.48 4558.47 5020.71 5997.88 5839.71 5576.92 4318.48 5266.22 3930.79 5226.97 3685.13 6004.68 3312.06 4051.34 3361.26 6799.4 3627.55 6239.84 5865.39 4427.28 3931.07 6079.11 6430.39 7440.72 3949.6 5703.6 6326.18 5661.62 6631.19 6648.68 4467.04 5626.61 5817.25 5061.98 6632.99 4537.6 4923.24 4419.61 7177.44 4563.46 5309.98 6553.94 5255.18 5460.65 4767.78 5463.41 5235.17 5225.33 4779.5 4929.75 4435.36 6649.96 5134.39 5784.3 4256.57 5442.32 6088.68 4643.56 4863.01 5657.36 6124.08 5467.84 5029.47 6306.21 5266.01 5253.37 6515.8 3685.65 3701.16 4916.22 6022.7 5895.77 5750.07 4809.67 4757.74 6045.67 4209.49 3821.94 4244.21 5367.73 3875.05 3540.11 3456.47 4652.01 7234.66 6599.66 4055.54 4976.12 6098.95 5453.98 4893.49 3991.42 4388.63 5102.75 4597.29 4200.09 5931.77 5151.21 6574.95 6333.29 4477.04 5731.57 5662.55 5737.92 6408.83 5365.24 4004.35 4763.96 5754.18 5180.76 3418.99 4480.95 5278.36 4409.63 5521.25 3661.9 3082.32 5370.85 5949.46 3658.37 3178.54 5376.71 4448.13 5070.29 4807.28 4867.08 4266.03 5280.69 4713.74 4220.03 6923.84 5407.78 4084.49 5449.46 6179.96 6113.54 5147.36 6260.79 3963.76 5528.53 6799.88 3062.43 5726.66 5426.78 5652.0 2967.38 4159.35 6477.91 4237.98 6439.37 6045.22 4614.3 3532.3 5580.92 5769.98 5973.33 5067.46 3583.21 2221.99 2511.46 3580.58 4011.37 2775.69 5356.79 4785.25 3619.79 5424.46 4857.84 2978.76 4908.49 2040.66 7016.27 5884.9 3876.21 4673.35 5689.26 4992.42 4940.84 4833.46 5933.7 7248.4 5280.12 3946.28 5984.81 5439.9 3498.16 4409.27 4640.06 5471.74 5421.64 3548.39 4858.51 4207.54 4886.12 6419.12 6107.89 4817.16 5148.08 4834.87 5760.22 5938.17 4795.43 5398.64 5097.95 6817.57 3614.96 3886.68 6853.04 5703.74 4745.43 4747.55 3056.7 3755.95 4360.23 6234.32 5293.51 4446.06 3450.93 5008.63 5132.68 6595.03 4993.35 6218.95 5222.16 5107.23 5136.08 5558.68 3776.94 4765.02 4010.57 5629.39 2684.03 6157.04 4768.61 2261.36 5075.55 5506.19 6719.94 4950.67 5227.59 6166.29 5453.6 5703.07 5294.77 4662.43 4709.05 4630.82 4043.66 4813.08 4540.86 5990.52 4835.83 5604.35 6316.56 3091.67 4332.87 6420.81 4081.97 5401.99 5151.52 4347.74 5291.9 4009.62 2081.58 6505.78 5461.55 6519.43 5876.64 4962.21 4684.44 4749.59 4858.44 3468.42 3809.69 5571.72 4771.13 5297.19 4184.23 4351.38 5550.75 5466.33 4444.97 5721.05 4247.69 4514.39 4588.99 4321.21 4344.34 3673.28 4928.27 3583.49 5052.84 3375.28 4366.74 5625.65 4301.61 3184.64 4446.84 5660.55 3718.69 4514.79 3672.21 2216.82 4509.89 6752.75 5269.38 5607.3 5108.06 3573.73 4693.52 4222.4 4000.43 3420.08 4912.04 5831.96 4539.07 5464.68 5591.76 4586.19 4585.31 6625.18 5323.91 4270.74 6293.89 4558.15 2761.07 4983.39 5366.52 4690.55 5533.72 5533.42 4802.32 3678.08 4599.38 5246.47 4187.31 6191.29 4522.21 7422.36 5161.01 4298.15 4628.4 5832.37 4642.93 5409.63 4263.16 3077.84 6024.75 6109.49 5567.93 5860.67 5332.65 3764.1 6451.33 5413.31 6400.08 4743.59 5208.14 4715.58 3317.83 4450.7 3763.05 5092.24 5369.08 3101.75 4518.04 4766.06 4874.18 5435.19 3298.2 4270.15 6865.76 6449.64 6464.8 4406.05 4680.94 5799.69 5236.43 3208.96 5285.07 7051.9 4608.41 4144.57 5980.59 6834.41 6226.14 3796.15 3000.29 5271.02 4209.31 5718.28 6242.79 5950.45 5713.03 5849.65 5134.67 4165.21 5297.16 4936.96 5206.33 5530.49 5653.03 4304.41 6192.0 4940.28 5885.28 3004.34 3022.6 2928.82 4811.76 4914.45 4698.87 4568.41 4661.03 3624.7 4691.91 5262.35 4475.83 2685.81 4510.8 5889.35 5010.04 4394.56 4570.98 5097.45 4275.07 5825.38 4185.61 5737.75 4047.87 5742.47 3778.02 6552.21 5417.8 5146.37 7132.12 4836.16 5518.57 5463.48 5730.33 3240.51 5545.46 4527.99 4376.7 5190.61 8325.01 6051.83 4440.81 5941.9 3973.12 5434.47 6642.76 4497.78 4243.79 5987.42 5433.65 4442.22 4887.76 4669.06 3012.99 4811.32 6184.88 5829.32 4396.25 5551.95 5549.49 3918.87 5423.42 2275.45 6605.86 5012.5 4383.56 3562.79 7093.13 4953.1 5818.95 4093.99 3604.14 3940.49 4452.54 5089.1 2711.19 5828.35 5876.72 4028.32 4099.92 4884.59 3858.06 4680.14 4083.79 4187.94 5263.27 6300.92 5021.77 5599.29 4801.8 7216.98 4807.4 7013.17 3805.67 4601.74 6506.86 5088.57 5580.34 3852.6 5775.31 4215.0 4603.5 4481.76 4647.67 5452.78 5065.26 4356.36 4892.44 5578.94 7610.49 4286.17 6579.31 5323.55 5375.1 5313.12 5351.56 5160.59 3984.88 4732.09 4320.42 4255.34 5064.79 5480.3 7509.24 4146.81 5896.26 5388.78 4573.72 5099.21 4917.99 5636.4 4367.78 4350.12 5227.02 5670.0 4232.16 5300.96 5151.11 4344.51 5680.94 3781.77 5581.55 5193.01 4543.1 6550.44 3860.83 3764.06 5732.27 4523.39 5278.56 6917.62 5829.22 4013.38 5631.14 4343.78 5811.18 4909.65 4008.15 7693.4 4286.49 4326.48 4437.07 3449.37 5491.9 6405.0 4659.16 5789.55 4633.05 4901.2 5711.62 4990.79 5166.79 6479.39 2895.63 4516.53 4122.92 5079.22 5381.54 5810.77 5474.15 7519.2 6355.68 4511.7 4478.6 3953.55 4304.63 4469.54 4314.56 4173.54 3928.53 6038.68 5046.12 3834.47 4590.01 6101.86 5993.0 4803.57 5966.42 4110.59 4706.5 3332.49 5354.66 4214.44 5375.12 4787.97 3746.36 4777.03 3684.56 4246.61 6028.09 5452.36 4172.6 3804.5 6486.37 5498.42 5318.53 3344.57 4281.98 7165.9 5344.83 3427.63 4863.97 6342.48 5756.75 6101.13 5599.7 6969.28 3665.95 5698.96 4095.75 3603.51 4298.45 5222.51 6609.84 5135.96 3834.43 5658.37 4707.06 6074.94 3474.5 5491.37 4250.88 3783.54 6348.03 3475.67 4792.39 7038.89 5146.37 5067.56 6137.8 2735.53 5263.3 3352.35 3747.03 6523.86 2783.85 4356.49 3994.07 4219.94 5907.46 4264.91 5399.29 4909.31 6522.59 4798.17 3568.28 5425.98 5996.66 4405.42 4997.91 2995.67 3598.08 4599.81 5698.23 7300.58 4714.83 3608.06 6633.61 5484.36 4277.24 4063.9 5291.05 5161.1 4619.2 5606.51 5166.41 5740.65 5067.56 6349.67 6329.53 6541.45 4227.41 4750.49 5078.31 5391.48 4923.43 5131.15 4847.14 3950.27 5116.66 5378.23 3566.79 5374.67 4981.43 6789.23 3989.7 4215.2 5069.89 4157.29 6813.72 5327.75 4609.02 4638.18 4196.37 6448.66 5220.76 6945.98 5138.2 7046.11 5783.48 4449.98 4504.35 4840.44 5093.82 4587.67 5951.81 4163.74 3924.14 4296.69 6238.32 3319.67 6471.42 5283.8 4076.59 4428.14 5164.1 6464.15 4972.17 6685.4 5699.53 4222.77 6332.01 5268.38 5527.23 4805.33 3863.67 5980.95 4814.12 6193.08 6069.3 5887.01 5116.6 5388.39 5335.47 4526.81 5048.19 6799.23 4888.27 6740.71 6487.56 4854.11 5971.22 5533.19 5417.21 6602.43 5583.61 6063.64 7382.3 5522.21 3772.3 4855.01 4923.57 3340.09 5217.95 4867.7 2279.05 4829.35 4075.28 8137.11 5484.32 6650.77 4067.96 7104.73 2596.96 5701.75 4350.15 4139.3 3516.27 4263.78 4643.9 5228.75 6047.14 5009.83 5210.38 5717.8 3629.44 5003.78 3299.24 6246.56 4741.28 4061.6 2603.64 5107.0 6212.15 4783.07 4896.65 4946.23 6083.28 5211.6 4453.97 3556.79 3503.41 4701.5 7001.83 4771.65 5012.97 5589.37 5439.49 6918.35 4834.3 6804.79 6372.13 5369.5 5404.01 6016.19 4124.49 4479.11 3230.13 5714.25 5325.96 4850.06 7044.29 4234.18 4049.16 7085.01 3936.95 6153.94 6836.82 3862.77 4631.99 5168.35 3185.39 5128.77 3728.18 5633.61 7122.87 5797.36 4243.26 4153.84 5119.86 4592.15 5084.17 4901.44 4998.22 5096.43 6156.21 6104.26 6171.71 4986.71 4668.88 4022.56 5027.43 5522.75 5867.64 6208.9 6059.93 5602.53 6061.63 6545.43 6760.92 4711.04 4506.18 4824.12 6162.3 3272.75 5971.21 4264.54 7043.44 6502.97 4852.58 5806.31 5456.71 7317.04 6412.67 4036.91 6639.64 5212.43 5454.12 6348.54 4066.57 5642.35 5156.76 6357.47 6101.57 4891.38 5535.91 5955.86 6176.67 4848.46 5412.24 5016.02 2779.99 4581.37 4920.21 6942.34 5851.61 5478.11 5526.31 3858.17 5030.15 4740.98 5089.26 3776.8 2460.79 4653.83 3628.89 6589.82 4438.58 5073.02 3472.91 4989.2 7144.05 2970.9 6542.5 4383.47 6318.23 4206.98 4058.87 5174.75 5932.07 4984.46 5948.71 4793.65 2949.12 3856.53 4532.89 5460.89 4533.37 5260.85 5742.09 2884.65 5887.38 5807.46 4648.21 4393.16 3658.05 4549.69 6423.81 6192.77 6413.15 6103.11 5048.55 6459.51 4024.31 5844.72 3992.97 6040.74 4054.22 7228.94 5393.65 4961.99 6551.93 4595.12 3311.29 3110.13 6484.43 4625.67 3485.54 6735.97 5305.59 5416.45 4330.58 5754.6 4955.16 3288.01 4904.51 4147.31 5989.05 2202.77 5751.15 5950.88 4149.55 4441.22 5853.89 3380.69 4386.8 4140.4 5446.4 4725.01 5966.75 3104.96 5244.78 3636.15 6114.89 5135.63 6384.7 4355.83 6870.97 5351.86 6056.87 5474.01 6201.86 7554.58 5166.89 3639.44 5491.63 5725.37 3868.62 5138.33 3477.1 4729.42 5216.26 4844.83 5377.37 5652.87 5483.7 5018.69 3152.86 5952.38 3896.27 5807.52 5963.36 5230.02 5307.35 4342.18 6016.08 4731.21 3124.7 6064.71 6102.98 5096.24 5769.14 3381.82 4831.93 4023.93 5494.28 5493.89 5261.19 4811.22 4918.76 4208.41 3758.22 4268.19 4788.08 6379.14 3687.65 5478.95 4749.96 4658.24 5869.67 4311.48 4899.73 5457.66 6394.19 5973.89 6193.73 5518.11 5087.14 5712.35 5169.48 5701.52 4743.9 6776.22 5321.17 3719.11 4467.13 6060.17 5934.82 4501.78 5415.45 4385.81 6592.93 6350.71 7107.63 5868.89 4099.26 5206.47 4834.39 3831.52 6106.43 6761.81 5467.63 5826.78 2856.55 6214.73 4553.68 4532.7 3205.68 5561.74 6100.73 4908.75 6556.26 3971.08 4593.7 4349.13 3634.5 3851.85 4019.34 4869.48 3623.19 4906.11 4387.39 4564.1 5825.55 5509.51 4848.14 5366.22 3199.4 4316.5 5254.24 3742.11 4192.21 3597.43 5144.56 4158.91 5311.55 3360.86 4869.25 5545.21 3877.8 6418.11 4922.49 3572.94 5039.12 4824.81 5135.5 5788.97 3274.85 5007.21 5545.59 4057.17 5262.47 7066.96 4991.35 4587.7 4263.65 5196.92 4807.35 4258.98 5644.81 3903.91 5666.95 4568.64 4642.2 4127.53 5210.75 3683.86 6555.44 5293.75 5658.14 5730.61 5473.72 7124.45 2205.51 6358.93 5175.89 3894.64 5361.87 3703.49 5232.85 4757.2 4374.74 4504.86 5975.23 6816.66 4473.29 4198.94 4745.79 5470.04 4211.82 5212.37 6003.78 6204.65 4482.9 6550.4 5110.11 3766.69 4891.67 5513.8 6818.91 3503.65 4887.52 6631.28 5350.88 4392.65 6571.31 5429.3 5510.96 6653.07 4745.16 4584.81 5071.98 5719.79 4371.08 7261.51 4968.14 4914.03 5086.29 5139.18 5551.43 4278.57 3034.16 5049.99 4201.03 4333.87 4458.64 4312.15 3644.78 3657.69 4078.93 6015.02 5244.22 5832.29 5001.58 5585.14 4820.17 6456.58 5244.98 3886.72 5792.98 4983.3 7778.01 4034.05 5127.82 5690.96 5798.38 6436.74 4456.11 5366.11 3419.87 4384.28 4456.26 3908.98 5113.6 5944.3 6328.42 7307.21 3563.14 5640.72 3619.72 5347.9 4646.51 4565.93 4504.52 5615.84 4464.73 5043.14 4928.85 4717.73 6440.38 3904.07 5556.0 5748.9 3742.31 4954.81 5610.53 4580.06 5755.15 4835.97 6419.64 3926.11 5464.83 2781.96 5414.58 3512.94 4431.23 5577.41 4467.0 5917.34 4994.65 5740.98 3787.08 5601.55 6545.99 5334.36 4728.55 5630.9 4929.6 4554.68 3919.62 4368.28 4140.92 5750.35 4489.99 4692.32 4945.0 4474.83 4548.45 4658.11 3127.83 4551.26 5114.07 4212.15 4385.49 4508.18 4263.18 7142.95 4559.74 5064.67 4383.68 6618.21 2617.39 5144.44 6666.67 4062.56 3717.47 4051.18 6063.44 6200.63 5969.37 5034.69 4928.35 3217.67 3844.54 5849.53 5079.64 4509.46 6163.54 3538.53 4680.69 5684.25 6500.49 2628.22 5438.92 5058.51 3352.34 4244.49 4050.03 4901.29 4124.76 5036.98 4120.07 4775.04 5188.53 4882.66 4813.33 4027.63 4521.75 3429.57 4952.52 5569.2 3840.21 6746.66 5410.33 5420.67 4642.74 4944.51 5603.68 5610.95 5532.72 4697.91 3220.8 5179.17 5579.39 5270.51 5148.1 5224.64 5949.73 4312.48 5527.13 6370.33 5081.08 6318.25 6864.06 5001.87 5510.9 4583.52 3743.76 5153.18 4505.28 4883.63 3425.69 6711.21 3492.83 4971.29 6280.13 5510.45 3684.15 4730.14 2606.51 4438.76 7039.98 6006.89 2955.36 3814.65 4128.1 4159.81 3965.3 4960.64 4446.58 5372.82 4402.17 5401.4 5053.15 4775.49 4681.29 5910.86 5124.17 6239.68 3220.29 5805.1 3862.91 4125.9 7320.78 4064.58 4834.44 4234.88 5782.43 5667.51 4027.33 4708.31 4810.98 3873.92 5026.76 5091.22 4833.67 6282.38 5023.41 4092.07 4213.05 4546.44 5657.55 5851.63 4184.21 5727.79 4700.07 5212.92 5188.82 5235.87 5273.37 4732.37 4985.3 5072.5 4966.07 5713.36 4749.18 5553.94 3663.0 4546.96 4316.0 6304.49 5134.72 4921.1 4608.34 3814.16 4271.07 4420.6 5695.79 3622.8 5287.25 4770.51 4184.47 4920.88 6511.37 4216.44 3999.5 4012.92 4346.07 4462.87 4013.86 4177.47 4218.16 4933.49 2918.64 6139.64 4512.07 3990.94 5984.8 4896.43 5236.24 5463.06 4585.04 4639.8 3986.41 5260.52 5678.58 3185.09 6102.49 6570.35 5114.23 4242.63 5495.0 3269.54 4489.29 7407.91 5836.26 6015.22 4454.74 5512.44 4583.94 4826.52 2904.46 6449.06 5046.31 1937.5 4337.32 4685.4 5241.75 4731.53 4651.99 3763.9 996.652 4420.11 4788.7 4577.73 5863.0 6127.39 5965.58 5640.12 4972.18 6638.25 5329.76 4607.18 3899.7 2403.72 7200.89 4147.49 4802.98 4833.55 5760.98 4081.34 3646.95 7224.99 4954.76 3908.56 5384.86 4526.34 5635.32 4316.45 5409.08 5042.75 4598.92 5241.22 6647.08 4979.52 5490.75 3422.29 4407.79 5214.63 3495.68 5783.94 5352.24 7362.42 4202.77 5836.14 6008.81 5473.05 4763.4 6273.6 5902.67 5454.11 4236.86 4708.17 5393.76 4941.02 5806.61 3994.39 4983.1 3864.92 6119.99 6010.59 7123.04 4618.73 4009.24 3668.93 5906.57 7541.76 4932.29 4990.23 3784.94 5499.59 5749.6 3125.13 3845.9 4141.21 4506.66 4174.44 4439.71 4564.41 6331.74 4198.9 5431.29 5951.86 4659.88 4252.18 5325.91 3791.41 5157.38 5853.12 4224.3 4841.7 5702.4 6203.03 952.938 5473.89 6089.45 3450.07 5810.17 5265.21 3306.84 4657.24 4400.14 3669.32 5866.42 4762.1 4704.92 3987.69 6502.99 5424.55 4392.75 4287.25 6219.34 4191.01 4475.38 5674.63 5340.05 4589.06 5995.4 5890.25 5322.11 5700.79 6710.14 5759.79 4598.54 5218.42 4816.51 5345.73 4770.63 4841.23 5188.22 4756.8 2804.54 5477.8 4176.32 4462.35 6069.78 4241.68 5532.75 6949.65 3469.18 3372.95 4095.83 2945.34 5676.61 5064.23 4301.93 5846.95 5268.15 6061.85 5701.63 5819.0 6347.72 5120.92 4924.07 3200.6 4629.02 6240.42 5146.0 5721.14 4608.62 4288.45 5407.96 5084.5 4987.28 4918.64 6206.98 4071.75 6562.03 5078.59 4815.47 4759.99 5134.33 5419.57 2646.13 4368.12 4365.58 5162.67 5214.4 4636.53 4705.68 3629.49 5766.05 5469.35 6334.53 5117.64 3835.81 4827.61 5285.75 5481.64 5673.75 5360.67 6263.3 4501.05 4537.03 6548.29 4114.2 3990.96 4326.06 5034.46 5757.29 5793.12 5469.17 5061.75 4373.2 5136.87 5684.05 3667.93 5638.7 5024.32 2741.2 5813.79 4644.88 3779.45 5790.42 5784.37 3142.09 3682.35 5591.77 5182.13 3756.96 5003.3 6110.48 4168.52 5800.81 6245.52 3954.77 5106.46 6793.1 6016.87 4068.31 5077.29 5166.05 3671.06 5515.73 3612.44 6715.73 5209.55 4850.5 5866.91 5426.4 6405.69 5763.05 2820.07 5129.68 5076.84 5357.39 4825.73 5247.01 4208.37 6296.54 5797.21 5685.74 6019.35 5069.9 6740.35 4678.7 6028.63 3673.6 4550.92 5146.1 6215.87 6485.77 5191.26 6060.06 5544.27 5393.43 5308.33 3484.81 4666.12 4685.65 5377.01 6023.07 6470.23 6506.63 4140.04 3495.3 4668.8 5125.17 4697.49 5735.08 4859.01 4726.2 5524.45 5034.05 4426.02 4711.15 3825.48 4474.39 3810.68 4658.59 4196.62 6478.35 4357.11 2809.19 5453.77 5005.6 5486.89 4916.7 5589.53 7208.19 4549.51 3587.93 4975.85 5695.25 4517.29 5323.95 4495.75 6171.01 5716.42 5796.26 4603.04 4620.95 5368.93 4870.94 3460.93 4488.39 5124.86 4927.73 5914.5 6006.16 4602.57 5710.33 3622.48 5344.44 6432.8 4626.72 5131.77 5549.71 4410.82 4967.51 6443.99 3889.98 5399.43 5193.58 5490.64 5034.34 5695.44 3422.21 3916.42 5036.14 5661.6 3242.31 6099.28 5372.25 5385.03 4169.15 3234.26 4778.37 5134.17 5968.54 4904.35 5592.54 3247.97 5124.34 4904.37 4358.81 4651.64 5729.92 5016.46 6224.13 4761.84 4493.79 3769.24 3661.67 4932.56 4279.44 5192.49 3487.31 4899.19 6643.4 5058.34 4028.22 3918.94 5293.13 5575.11 7350.26 3852.82 3768.46 4507.36 5167.53 7145.73 5403.97 4795.08 5648.78 6562.92 5501.73 4697.24 4983.43 7035.54 5233.76 4683.28 4217.36 6549.8 5679.74 4851.18 4165.36 5288.33 5368.52 4871.77 5811.26 5205.38 5062.77 4884.93 6075.99 5262.79 5927.2 4494.15 5035.71 4419.79 5407.69 3869.39 5960.5 5152.78 4117.9 4753.76 6896.55 4638.09 5330.26 4441.91 5828.25 5939.22 4215.05 4271.93 3626.86 4604.1 6371.96 5076.11 5990.75 7133.44 4750.81 3953.26 5467.51 5459.92 4625.53 4096.47 4104.04 5114.67 5353.66 2638.82 5030.33 5593.79 5234.2 5196.08 5025.42 4965.24 6379.38 6257.79 4849.5 5353.23 6229.83 4468.26 5578.18 5106.33 5271.88 5293.37 5933.54 6121.56 5559.79 7168.2 3419.07 3763.85 3565.32 4096.86 5740.78 4796.12 5001.51 5385.86 5115.42 4082.4 3186.07 4369.86 4209.0 5482.76 5173.82 7212.97 3720.7 4211.36 5698.53 3769.2 3604.31 4507.46 4450.49 3468.45 4898.29 4431.06 5730.2 4830.13 3494.16 5370.9 4074.16 4529.77 4325.13 6172.27 5390.33 5078.73 5278.54 5729.0 5192.92 5275.57 4179.87 4786.66 5891.25 5370.1 5537.34 5884.99 5726.42 4674.9 7025.09 3392.26 2549.95 4433.12 5487.63 5461.72 4361.24 6599.28 5138.93 6224.85 6406.8 4556.19 5368.66 6875.73 6170.9 4436.48 5226.42 6081.3 5117.52 5615.35 6311.89 3967.76 6734.39 5942.45 4228.53 4150.76 6123.46 5005.72 6142.88 5155.28 5111.26 5388.73 4949.55 4764.83 4600.71 1969.87 3132.34 3957.38 4841.28 5507.38 6889.5 4710.88 5300.17 4416.87 4057.4 5534.23 4896.67 6025.77 3934.11 4781.9 4466.22 6815.96 5339.6 5917.08 4725.11 5483.37 5418.12 5934.05 5322.07 5770.07 5101.6 5600.21 4282.11 4656.01 5781.62 6589.13 2347.41 5602.62 4542.16 2030.03 3543.37 5628.97 5714.51 5527.27 5104.39 5847.91 4612.13 5846.6 5327.05 4109.44 4903.84 5438.55 4290.49 4434.65 5977.66 4523.81 5209.5 5065.74 5791.25 5198.94 4873.23 4028.35 5464.05 5879.24 2980.31 4571.74 3148.79 6348.93 6824.53 5997.91 4332.64 4742.82 4422.23 6791.86 4820.68 4930.72 5728.58 3745.02 4887.73 6297.99 5378.24 4538.89 3856.73 5817.74 5887.71 5265.63 5684.88 6523.78 4645.86 4045.67 5620.88 4941.52 5900.0 4262.74 6241.77 3783.79 5317.19 4248.14 5279.19 4016.6 5821.49 7050.08 5580.44 5998.13 6022.78 4087.32 6647.85 4009.68 2569.12 5161.74 4161.32 7336.37 5932.28 5099.9 2960.5 6945.69 5118.86 7086.69 4183.4 4304.64 4733.79 5833.78 4823.06 5758.98 5254.49 5288.64 6213.24 5987.88 6883.86 3579.59 3350.99 6161.94 4065.28 5057.59 4461.14 5285.6 4574.54 5615.06 5490.54 5061.74 5203.54 4047.95 6142.94 5001.69 6581.56 4052.43 3980.46 5383.9 5158.44 3886.56 4288.5 4496.51 5715.51 6153.71 4511.05 3456.3 6561.94 5259.21 5092.93 2803.01 5881.93 4714.66 4444.0 6771.18 4984.17 5327.39 7415.84 4037.86 4981.81 4138.59 4938.33 4970.55 4484.78 5157.73 4621.33 4541.22 4934.66 4946.08 3539.68 4984.01 6217.33 4557.1 6688.53 4605.39 5927.1 6175.27 5876.51 4103.76 6731.89 4733.41 5410.6 5264.83 5453.2 5136.51 3901.53 6815.51 5232.16 4457.05 3989.26 5189.91 6031.22 5485.84 3618.64 6424.77 5703.84 5453.69 4335.79 5918.95 5797.32 5432.04 5689.56 6556.86 3921.27 5764.52 4390.64 5150.84 4608.01 5087.97 6005.95 4308.49 4930.17 4581.1 4745.44 4085.96 5762.82 7360.12 6223.98 5462.6 5617.29 3035.06 4262.19 4597.88 5095.52 5517.65 5129.4 3303.49 5114.51 4655.37 4622.73 5585.25 5256.75 6351.89 6530.78 5059.37 5560.23 4975.32 4298.7 3043.77 3902.48 5237.55 3909.94 6030.39 6589.8 4905.53 3799.01 6920.92 7392.65 5319.1 3757.23 4181.93 6828.8 3820.19 4979.5 4586.82 4745.37 3133.28 5939.29 6200.05 5418.98 5575.11 5859.17 4034.41 4052.49 5522.34 5326.03 6189.67 4420.35 5717.45 4948.96 5256.82 4013.86 4061.87 4645.93 5165.31 5448.64 3798.09 4585.37 6417.61 3721.69 5783.69 6074.39 5317.83 4256.08 6738.9 4460.89 4399.52 4554.24 4157.1 3939.96 6182.19 5910.66 4637.3 1458.87 5141.03 4840.44 8123.59 5765.14 4767.54 5121.08 4696.03 2927.84 5688.77 6177.68 6270.59 4698.7 2848.44 6045.26 6500.45 4907.55 4094.63 4286.61 5084.76 2932.52 4603.66 4757.87 4969.68 3557.46 6636.43 5431.14 6298.8 5313.86 5178.07 3689.24 5151.19 5777.26 4171.02 3530.82 7012.36 5028.06 4002.99 4886.99 5159.67 3572.73 3161.1 4864.38 3702.45 3402.44 3770.22 4848.98 4491.96 5184.98 4467.51 5339.82 4519.03 5460.57 5110.27 5703.34 4612.68 6668.98 6649.52 4232.33 4939.56 4747.68 5770.92 3093.38 4845.91 4878.93 2002.78 4746.15 6275.25 3720.38 4758.84 5023.61 4731.37 3976.0 4672.86 6463.71 5783.38 4742.35 5394.79 4139.39 5645.54 5088.64 6264.03 4526.87 3562.8 4151.74 5192.82 4174.22 3729.16 3783.36 3573.84 3038.91 4067.89 3922.28 6294.09 6570.43 4571.57 3445.92 5131.07 5236.69 4121.07 5524.28 6026.04 5731.43 6353.81 3414.67 3518.14 5444.36 4150.44 5044.68 5771.98 5899.78 2649.69 5000.74 5117.83 5772.57 5268.27 4813.81 3882.37 5244.95 4634.25 5901.8 6351.48 5395.12 3830.7 6210.0 5350.9 3483.61 4262.52 5992.06 5545.68 8052.53 4867.12 4970.12 6044.01 6520.19 5973.57 5734.07 3997.68 6033.28 4819.83 4801.16 5957.82 5071.38 6286.27 6327.54 5616.66 4802.36 5368.28 5466.13 6229.64 4220.43 6263.87 5743.8 6666.34 6605.11 4645.91 6834.92 6379.33 5971.95 5652.73 3979.46 6321.97 6412.84 6509.54 2589.19 6119.0 3792.06 5128.59 4993.49 4293.3 5587.3 5310.33 6583.37 3688.83 5537.61 6084.88 4397.06 4199.44 4053.12 4479.5 6261.67 3435.13 5065.78 4431.46 4521.42 3207.84 3977.98 6043.34 4128.93 4959.72 4712.17 3808.04 4723.71 4461.67 5631.32 6892.33 4505.3 4452.36 4491.26 4609.65 4511.34 4068.41 4832.21 5009.21 4574.03 5290.37 5850.38 5264.08 4227.66 4730.97 4691.01 4594.89 5245.95 5821.42 4515.02 3463.53 4924.52 6126.03 2970.24 4197.87 6044.69 5105.54 5658.05 6593.1 5462.1 6032.45 5011.37 4026.03 2827.92 6908.32 3467.11 4817.75 6153.26 5637.53 4848.15 5523.81 4095.4 4718.61 5188.57 3873.79 5357.33 5717.67 5252.37 5432.4 4499.54 5037.58 7430.48 5640.67 6080.69 5555.89 4967.93 6369.66 5678.08 5922.62 6241.48 5125.45 3784.68 4188.16 3717.22 5507.07 2943.17 5327.71 4880.78 5257.38 4322.56 5509.09 5075.23 5625.02 4975.56 7282.36 3826.01 4829.77 5581.01 3928.99 4125.75 5749.53 5130.57 5090.48 5402.45 3985.93 5945.25 6071.59 3856.4 6079.55 5485.61 4937.36 5308.4 6581.13 4569.32 3228.27 4721.98 5252.82 3543.98 5056.26 5878.55 4014.44 6604.72 6002.77 3794.47 4610.55 4967.02 4614.49 5400.69 4462.5 5573.31 5004.68 4023.88 5348.11 4405.61 6126.5 6322.0 5793.14 6345.2 5488.96 5704.61 5410.73 4379.91 5087.3 4942.63 6139.74 4975.57 7066.26 3057.3 6150.31 3677.85 5214.71 4996.91 4677.84 4811.11 3920.44 5379.52 4866.8 5314.67 5563.47 5651.46 4066.36 4000.51 3162.27 6033.93 5516.37 4441.44 5092.44 4232.44 4612.4 5336.61 3312.3 5563.09 6381.58 4439.09 3282.57 4798.13 5648.59 6697.45 6296.36 4432.32 5515.59 3224.81 3775.38 7885.41 4046.22 6457.89 4844.2 6572.17 3751.73 3374.62 4926.62 4766.47 4871.1 3917.09 6009.93 5872.45 4083.1 4414.09 5270.1 5191.29 4947.64 6305.9 6649.21 3470.69 4654.92 4859.95 5286.55 5522.18 5223.1 3873.72 5212.05 4592.49 3625.98 5479.86 6474.5 4444.92 4702.32 6959.88 5971.9 3746.62 5247.73 4532.67 4876.37 5034.02 4769.62 5582.28 5260.13 4649.5 5181.31 4696.06 5985.75 4137.16 5475.83 6189.29 5984.55 4329.8 5672.46 5803.3 3956.24 7558.99 3393.59 4142.1 5043.14 5333.04 5445.91 4521.99 4812.59 6842.54 7115.67 5675.45 3361.11 6038.56 2807.46 5599.16 4179.8 3488.34 5658.35 5428.24 5108.84 4034.88 3511.5 6007.1 5067.92 3188.21 5357.14 5128.03 5919.27 3720.92 4793.06 6637.38 6188.33 6111.23 6916.18 5786.06 5873.62 3868.69 5447.74 4450.51 6033.72 3768.62 3692.99 3851.47 4966.74 2329.93 4959.94 1635.31 5639.4 6185.73 4083.24 6520.96 3771.91 5432.2 5217.62 6178.19 4746.19 4616.81 5715.25 5212.2 4362.94 4611.21 5108.42 4630.5 3354.94 4404.87 5237.27 4451.76 5767.65 4750.76 5782.25 4104.97 5497.27 4575.72 4081.77 5114.61 6118.13 2181.29 4420.3 4202.12 2694.25 6332.64 6492.44 4613.32 3482.73 3996.93 5130.56 4957.99 4063.26 5345.05 4997.89 4542.62 5093.28 6131.52 4132.08 6009.88 4699.77 4850.49 4981.55 5144.23 6188.62 6153.07 4414.06 4763.04 5944.52 4413.56 5050.2 2513.38 5316.05 4821.41 4908.32 3995.08 5019.84 4810.74 3900.93 5784.38 4149.17 6260.58 5728.27 3074.49 5202.33 5580.95 6598.99 3549.92 4032.06 5246.81 5089.1 5888.95 5394.78 3463.34 5122.38 2853.68 5262.85 4998.37 5329.84 6559.82 3879.83 6565.95 4577.98 5043.34 5886.81 4487.51 4582.12 4295.25 4520.14 7394.47 4729.45 4850.95 5374.09 6271.22 3421.81 5378.75 3920.64 6186.24 5822.7 4137.41 3780.07 4159.89 5466.49 4038.17 5007.41 4907.48 6818.23 6213.74 4369.87 6938.87 5412.07 5512.57 4806.99 4813.55 5856.43 3465.03 3839.0 5349.85 5799.86 5172.1 4469.82 6052.22 6545.78 4870.14 2932.2 5105.72 4082.01 5003.49 3964.03 4907.03 4216.33 5832.72 5617.91 4948.21 4721.2 4987.01 4706.31 3124.49 6265.48 4735.99 4203.68 4739.56 5145.39 3352.46 6351.95 5195.09 5200.1 7679.2 4881.51 2626.41 4311.92 6729.99 5093.41 6842.35 5464.34 3621.63 4777.96 5801.89 5908.57 7296.47 5742.39 4780.16 4924.53 5616.11 4499.52 3874.12 4028.13 4457.73 6476.35 3113.64 4304.75 5480.86 4067.24 3053.19 6139.9 6571.26 4313.38 5827.3 5250.56 3633.58 2468.16 6294.14 4339.97 5203.75 5169.09 4691.15 2459.88 4210.24 5470.67 5901.71 5225.11 5342.9 5252.22 5733.12 4962.35 6436.29 4246.24 6805.02 5354.48 5640.63 4900.26 6261.13 4167.55 4720.34 5244.47 4865.11 4731.16 5510.89 6470.87 4495.33 5282.67 5747.9 5178.55 5146.69 4287.93 6203.24 5081.65 4488.41 6679.12 5652.19 5806.74 3878.8 6578.62 6284.12 4796.04 5229.56 6011.4 4672.34 5056.32 5533.52 5376.41 5410.33 5003.63 4747.24 4695.7 4380.86 4944.08 5576.16 5269.39 4305.35 3308.75 5210.22 2451.27 3903.9 4444.95 5606.22 5161.02 3943.77 5242.38 6081.35 5003.81 6262.18 3818.37 4701.03 6225.05 5434.04 5125.53 3997.52 4444.54 5779.9 4909.74 5310.33 5299.03 6664.54 3922.98 5161.73 5259.48 4025.08 4008.67 5254.93 4803.4 6833.5 6608.94 2613.78 5417.07 3834.01 5738.37 4433.23 4813.24 4739.41 5759.19 5847.27 4490.2 4706.59 5734.84 3982.31 4950.07 4720.22 2832.83 4084.87 6036.99 3010.1 3825.98 4589.22 5087.03 4667.84 3906.41 4123.08 4512.6 4260.38 4636.45 4932.27 5638.51 6793.49 3563.33 6060.19 5536.0 6786.37 5402.81 4600.81 4919.13 4124.33 5168.97 5783.88 5002.38 5093.51 6705.93 5449.09 5502.14 4605.61 4465.56 4131.08 5386.95 3864.19 5332.11 5315.71 6158.93 5373.78 4823.14 5438.5 5345.65 4621.32 5699.4 5237.76 4698.94 4286.84 3948.21 5669.15 6423.96 5296.05 5263.86 3330.85 6988.4 6635.51 4060.17 6051.35 5302.53 4909.13 4287.61 5648.02 4604.34 4439.17 5677.42 2701.42 4929.35 5051.39 6673.92 5151.68 4884.94 5459.52 4609.98 5566.5 5663.36 4752.31 4276.59 5579.04 5405.6 3929.35 5994.21 4884.93 5403.81 5082.25 6964.78 4374.05 5036.84 4565.36 5813.68 5732.11 3618.53 5040.9 4770.21 8013.28 3846.55 5283.65 3796.73 4644.68 3082.16 2892.36 5656.84 5981.54 6789.66 5416.41 5312.2 6760.64 2515.5 5177.88 5551.79 4582.24 3916.15 4474.96 4758.76 4790.63 5259.29 3584.05 4916.75 4818.53 5097.85 5584.64 6189.04 6224.64 4221.03 3799.55 5082.66 4550.77 4337.93 3550.88 4345.51 4048.73 6223.33 4333.23 3860.8 4328.76 5145.13 3747.96 5561.63 5940.5 4358.06 5004.22 5647.93 4280.92 6201.49 5154.74 4696.92 6437.99 6898.8 6632.04 6540.57 4893.72 6004.72 4072.4 4983.56 5699.51 2489.44 4489.18 5863.36 4632.75 4752.94 4994.98 3950.53 4501.1 6058.13 5894.69 4987.01 6094.34 6779.82 5543.67 3999.81 4867.13 6377.45 4863.27 4502.12 5442.79 3255.93 6853.07 4633.59 5733.59 5362.15 4455.61 4738.72 5240.97 5569.85 5523.96 4223.53 4759.38 4733.37 6960.97 4287.15 4523.9 5282.51 5504.65 5669.41 4951.02 3919.47 4602.7 5596.68 3783.35 4868.66 4004.39 5159.9 4987.48 5943.61 4248.58 5911.29 4542.25 4694.27 4414.23 5233.88 4849.21 4785.55 3793.83 6981.47 6189.81 5367.05 4449.73 5647.11 4088.72 3945.62 3743.85 6236.46 5342.17 6379.3 5015.67 3795.63 5189.4 4576.71 6538.04 4894.15 6157.59 5201.3 5848.41 4090.28 4246.83 5438.6 7370.52 5611.29 4521.88 6568.45 4601.54 4963.88 7263.57 5705.96 3832.09 5267.65 5739.69 3509.34 5360.88 7360.62 4977.64 3166.37 4985.45 5369.42 5207.08 5205.53 4714.52 5499.37 4883.13 4836.76 5333.16 5551.09 5755.98 5392.85 5581.47 4384.91 6550.61 4277.54 4713.56 4531.46 5448.68 4739.5 6210.48 4491.62 4182.05 3865.5 6327.61 5575.8 5268.93 3695.72 6874.6 5106.9 5306.31 4535.94 3037.72 5126.08 5604.0 3760.4 4037.16 6395.63 5479.17 5020.37 5245.4 4726.5 5467.05 3724.23 5103.3 5888.94 4727.98 4122.2 5175.88 4516.26 4790.16 3647.26 3731.58 4587.19 5543.05 6028.89 4888.17 5077.2 4274.05 5275.27 5529.09 5925.82 4072.95 
SCALARS Velocity float 1
LOOKUP_TABLE default
1.19589 1.19429 1.19256 1.1928 1.19267 1.19309 1.19183 1.19184 1.1922 1.19291 1.1946 1.195 1.19236 1.19289 1.1952 1.19455 1.19574 1.19355 1.19193 1.19379 1.19428 1.19181 1.19244 1.19342 1.19358 1.19472 1.19315 1.1929 1.19178 1.19443 1.19394 1.19339 1.19176 1.19327 1.19367 1.19178 1.19178 1.19178 1.19243 1.19178 1.19178 1.19249 1.19178 1.19177 1.19171 1.19332 1.19282 1.19348 1.19176 1.19178 1.1917 1.19184 1.19175 1.19178 1.19178 1.19178 1.19239 1.19269 1.19243 1.19374 1.19384 1.19306 1.19282 1.19324 1.19276 1.19323 1.19178 1.19252 1.19334 1.19215 1.19177 1.19325 1.19327 1.19178 1.19173 1.19448 1.1944 1.19349 1.1923 1.19231 1.19258 1.19299 1.19173 1.19326 1.19303 1.19481 1.19493 1.1917 1.1918 1.19216 1.19235 1.19394 1.19326 1.19186 1.19177 1.19307 1.19172 1.19178 1.19185 1.19195 1.19271 1.19229 1.1911 1.19427 1.19555 1.19504 1.19412 1.19381 1.19455 1.19238 1.19487 1.19505 1.19373 1.19449 1.19387 1.19178 1.19587 1.19202 1.194 1.19178 1.19355 1.19412 1.19189 1.19295 1.1935 1.19509 1.19709 1.19348 1.19274 1.19353 1.19255 1.19244 1.19575 1.19414 1.19595 1.19389 1.19376 1.19475 1.19335 1.1937 1.19178 1.19274 1.19173 1.19178 1.19252 1.19178 1.19178 1.19254 1.19178 1.1938 1.19178 1.19337 1.19178 1.19178 1.19178 1.19228 1.19203 1.19177 1.19178 1.1919 1.19228 1.19198 1.19195 1.19259 1.1929 1.19429 1.19377 1.19203 1.19218 1.1927 1.19295 1.19321 1.19151 1.19363 1.1943 1.1923 1.1919 1.19415 1.19295 1.19381 1.19245 1.19292 1.19295 1.19178 1.19392 1.19416 1.19559 1.19263 1.19173 1.19178 1.19259 1.19299 1.19383 1.19329 1.19178 1.19178 1.19323 1.19323 1.19178 1.19178 1.193 1.19229 1.19446 1.19441 1.19158 1.19353 1.19289 1.19419 1.1928 1.19579 1.19425 1.19427 1.1922 1.19199 1.19174 1.19433 1.19118 1.1929 1.19663 1.19417 1.19178 1.19385 1.19199 1.19592 1.19161 1.19346 1.19255 1.19293 1.19358 1.19265 1.19344 1.19178 1.19415 1.19472 1.19471 1.19592 1.19586 1.19438 1.19465 1.1942 1.19456 1.1944 1.19426 1.19121 1.1932 1.19242 1.1927 1.19384 1.19181 1.19316 1.19174 1.19179 1.19263 1.19178 1.1938 1.19178 1.19231 1.19243 1.19178 1.19179 1.19232 1.19154 1.1919 1.19229 1.19425 1.19291 1.19377 1.19356 1.1937 1.19337 1.19175 1.19342 1.19179 1.19357 1.19178 1.19307 1.19365 1.19392 1.19387 1.19231 1.1919 1.19246 1.19167 1.19286 1.19376 1.19176 1.19302 1.19468 1.19234 1.19193 1.19268 1.19313 1.19388 1.19413 1.19328 1.19439 1.19514 1.19631 1.19304 1.19503 1.19309 1.195 1.19253 1.19197 1.19333 1.19569 1.19406 1.19434 1.19395 1.1924 1.19439 1.19481 1.19591 1.19545 1.19181 1.19487 1.19733 1.1974 1.19418 1.19365 1.19818 1.19441 1.1915 1.19236 1.19441 1.1926 1.19487 1.19289 1.19153 1.19334 1.19359 1.19383 1.19178 1.19495 1.19541 1.19452 1.19408 1.19415 1.19386 1.194 1.19308 1.19112 1.1926 1.19178 1.19249 1.19212 1.19369 1.19357 1.19138 1.19345 1.19383 1.19209 1.19174 1.19262 1.19141 1.19374 1.19506 1.19327 1.19314 1.19248 1.19263 1.19197 1.19178 1.1973 1.19255 1.19179 1.19192 1.19247 1.19241 1.19234 1.19294 1.19267 1.19349 1.19301 1.19425 1.19355 1.19309 1.19332 1.19379 1.19244 1.19338 1.19154 1.18944 1.1927 1.18927 1.1939 1.19575 1.19232 1.19143 1.19404 1.19317 1.19373 1.19334 1.19586 1.19213 1.19306 1.19314 1.19338 1.19178 1.19178 1.19178 1.19573 1.19488 1.19293 1.19352 1.19159 1.1945 1.19193 1.19254 1.19169 1.19563 1.19389 1.19333 1.19401 1.19337 1.19386 1.18965 1.19405 1.19178 1.19211 1.19596 1.19584 1.19457 1.19476 1.19482 1.19501 1.19521 1.19423 1.19615 1.19529 1.19268 1.19599 1.19486 1.19419 1.19465 1.19291 1.19287 1.1937 1.19347 1.19388 1.19379 1.19511 1.1949 1.19424 1.19263 1.19625 1.18889 1.19264 1.19139 1.19382 1.19535 1.19376 1.19205 1.19302 1.19178 1.19376 1.19159 1.19352 1.1931 1.19284 1.19284 1.19277 1.19263 1.19246 1.19322 1.19221 1.1925 1.19361 1.19239 1.19402 1.19331 1.19176 1.19277 1.19215 1.19212 1.1911 1.19089 1.19221 1.19302 1.18992 1.19502 1.19333 1.19405 1.19321 1.19341 1.19559 1.19231 1.19212 1.19213 1.19284 1.19195 1.19316 1.19178 1.19177 1.19171 1.19146 1.19473 1.19527 1.19576 1.1931 1.19722 1.19518 1.1919 1.19303 1.19428 1.19269 1.19405 1.19441 1.19465 1.19322 1.19447 1.18983 1.19534 1.19249 1.19599 1.19156 1.19501 1.19511 1.1942 1.19555 1.1941 1.19551 1.19094 1.19374 1.19198 1.19138 1.19535 1.18982 1.19502 1.19342 1.19367 1.19355 1.19178 1.19452 1.19423 1.19411 1.19375 1.19246 1.19604 1.19579 1.19258 1.189 1.19152 1.19215 1.19613 1.19121 1.19393 1.19327 1.19329 1.19361 1.19364 1.1923 1.19404 1.19335 1.1931 1.19183 1.19259 1.19199 1.19714 1.19407 1.19262 1.19231 1.19358 1.19189 1.19221 1.19209 1.19234 1.19344 1.19338 1.19374 1.19238 1.19328 1.19204 1.19066 1.19089 1.19193 1.19216 1.19138 1.19176 1.19208 1.19171 1.19305 1.19224 1.1951 1.19369 1.19516 1.19525 1.19181 1.19233 1.19286 1.19078 1.19014 1.1908 1.19011 1.195 1.20345 1.19345 1.19221 1.19058 1.19051 1.19315 1.19439 1.19353 1.19301 1.19402 1.19322 1.19097 1.19442 1.192 1.19434 1.19625 1.19807 1.19605 1.19491 1.19314 1.19215 1.19362 1.19299 1.19492 1.19368 1.19124 1.19395 1.19178 1.19166 1.19373 1.18995 1.19476 1.19333 1.1896 1.19327 1.19363 1.19242 1.19451 1.19411 1.19305 1.19201 1.19296 1.18922 1.19287 1.19218 1.19219 1.19229 1.19109 1.19316 1.19397 1.19379 1.19419 1.18998 1.19265 1.19204 1.19238 1.19468 1.192 1.19414 1.19213 1.19093 1.1916 1.19266 1.19223 1.19175 1.1922 1.19279 1.19378 1.19381 1.19261 1.19346 1.19214 1.19091 1.19125 1.19165 1.19164 1.19153 1.19165 1.19461 1.19457 1.19528 1.19291 1.19308 1.19467 1.19512 1.19488 1.19178 1.19311 1.19193 1.19581 1.18961 1.18978 1.19178 1.19136 1.19244 1.19219 1.19454 1.19643 1.19098 1.19157 1.19098 1.19565 1.19155 1.19113 1.19326 1.19283 1.1941 1.19269 1.19578 1.19355 1.19501 1.19177 1.1934 1.19635 1.19145 1.19266 1.1949 1.19289 1.19549 1.19155 1.19383 1.19229 1.18964 1.1904 1.19142 1.1924 1.19176 1.19467 1.19658 1.18968 1.19194 1.19292 1.19178 1.1914 1.18973 1.1941 1.19405 1.18873 1.19364 1.19352 1.19046 1.19292 1.19277 1.19252 1.19231 1.19188 1.19126 1.19285 1.19058 1.19609 1.19267 1.1943 1.19237 1.19249 1.19327 1.19439 1.19328 1.19265 1.19405 1.1936 1.19181 1.19359 1.19026 1.1934 1.19223 1.19167 1.19164 1.1936 1.19328 1.19222 1.19341 1.19228 1.19387 1.19118 1.19467 1.19414 1.19261 1.19129 1.19168 1.19048 1.1918 1.19248 1.19263 1.19509 1.19257 1.1929 1.19435 1.19503 1.19449 1.19143 1.19477 1.1943 1.19294 1.19385 1.19065 1.19469 1.19178 1.19151 1.1938 1.18776 1.19567 1.19349 1.18689 1.19178 1.19634 1.19152 1.19144 1.19193 1.193 1.19262 1.19381 1.19156 1.19208 1.19587 1.19377 1.19613 1.19472 1.19616 1.19216 1.19589 1.19215 1.19187 1.19178 1.19385 1.19325 1.19505 1.18446 1.19574 1.19349 1.19149 1.19643 1.19272 1.19138 1.19113 1.19125 1.18939 1.19349 1.19387 1.19246 1.1905 1.19357 1.1928 1.19188 1.19218 1.19115 1.19341 1.19136 1.18988 1.19532 1.19248 1.19414 1.19097 1.19207 1.19068 1.19313 1.19257 1.19352 1.19385 1.19192 1.19024 1.19169 1.19137 1.19382 1.19276 1.19203 1.19337 1.1926 1.19356 1.18977 1.19469 1.19289 1.19442 1.19149 1.1924 1.1964 1.19136 1.19482 1.1918 1.19351 1.19426 1.19376 1.19422 1.19132 1.19411 1.19252 1.19426 1.19435 1.196 1.19561 1.19773 1.18894 1.19273 1.19147 1.19504 1.19288 1.18678 1.19168 1.1982 1.19825 1.19098 1.19279 1.19255 1.19239 1.19311 1.192 1.19178 1.19579 1.19373 1.19532 1.19603 1.19503 1.19401 1.19148 1.20028 1.2006 1.19155 1.18818 1.19463 1.19333 1.19286 1.19258 1.19258 1.19419 1.19396 1.18843 1.19056 1.1945 1.18835 1.18785 1.19565 1.19308 1.19085 1.19112 1.18911 1.18809 1.19248 1.19063 1.19344 1.19167 1.19605 1.1912 1.19482 1.19244 1.19197 1.19183 1.19299 1.19297 1.19309 1.19122 1.19317 1.19478 1.1932 1.1946 1.19174 1.18968 1.19178 1.19372 1.19198 1.19191 1.19082 1.19078 1.19314 1.19295 1.19251 1.19307 1.19299 1.19232 1.1918 1.19332 1.18987 1.19197 1.19215 1.19119 1.19127 1.19176 1.19115 1.19181 1.19238 1.19178 1.1923 1.19238 1.19088 1.1952 1.19354 1.19178 1.19235 1.19178 1.19637 1.18795 1.18719 1.19441 1.19434 1.19255 1.19182 1.19271 1.19392 1.19462 1.19322 1.19365 1.19656 1.19371 1.19431 1.19234 1.19767 1.19114 1.1883 1.19134 1.19196 1.19173 1.18336 1.19707 1.19449 1.19183 1.19205 1.19319 1.1919 1.18798 1.18438 1.19299 1.18899 1.19303 1.1972 1.1911 1.19308 1.19179 1.19074 1.19416 1.19289 1.19231 1.19264 1.19189 1.19313 1.19245 1.19166 1.19125 1.19364 1.18899 1.1916 1.19467 1.18846 1.19218 1.19597 1.19651 1.19302 1.19472 1.19094 1.189 1.19088 1.19256 1.19433 1.19625 1.19099 1.19371 1.19196 1.19178 1.19162 1.1908 1.18941 1.19148 1.19329 1.19258 1.19078 1.19553 1.18938 1.19135 1.19173 1.19243 1.1946 1.1913 1.1907 1.18989 1.19303 1.19275 1.19221 1.19368 1.19223 1.1932 1.19419 1.19142 1.19481 1.19234 1.19295 1.18993 1.19053 1.19219 1.19262 1.19216 1.19186 1.1929 1.19077 1.19192 1.19248 1.19391 1.19125 1.19851 1.19086 1.19347 1.1932 1.19128 1.19328 1.19423 1.19178 1.1952 1.1936 1.1946 1.19343 1.19627 1.19305 1.19365 1.19303 1.18915 1.1974 1.18789 1.19061 1.19115 1.19196 1.19133 1.19022 1.19048 1.19834 1.18907 1.18917 1.19077 1.19176 1.19148 1.19448 1.19161 1.19186 1.18912 1.19102 1.19065 1.18959 1.19283 1.19268 1.19073 1.19032 1.19169 1.19108 1.19059 1.19178 1.1916 1.19169 1.18872 1.19167 1.19332 1.18848 1.19117 1.19351 1.19301 1.18314 1.19483 1.19607 1.19592 1.19066 1.19205 1.18915 1.19281 1.19462 1.19294 1.1905 1.19177 1.19149 1.19008 1.19309 1.19565 1.19255 1.19096 1.19224 1.194 1.19041 1.18926 1.19287 1.19271 1.19199 1.19341 1.19206 1.19269 1.19178 1.19406 1.19428 1.19184 1.19081 1.19285 1.1922 1.18982 1.1918 1.1919 1.19024 1.19162 1.1909 1.19338 1.19216 1.19014 1.19398 1.19178 1.19125 1.19848 1.19423 1.19428 1.19337 1.19217 1.19178 1.19178 1.19389 1.19513 1.1933 1.19295 1.19397 1.19758 1.19572 1.19256 1.1942 1.19499 1.19551 1.1879 1.19167 1.18964 1.19457 1.19202 1.19187 1.19128 1.19401 1.1857 1.19083 1.19176 1.19164 1.19154 1.19136 1.18905 1.19168 1.1913 1.1905 1.19108 1.19297 1.19333 1.18887 1.19296 1.1921 1.19071 1.18853 1.1932 1.19189 1.19312 1.18834 1.18952 1.18972 1.19273 1.19381 1.19386 1.19447 1.19574 1.19555 1.19038 1.19203 1.19182 1.19237 1.19178 1.1908 1.19218 1.19443 1.18922 1.1907 1.19157 1.19122 1.1914 1.19343 1.19035 1.19225 1.1878 1.18834 1.19604 1.19099 1.18993 1.19357 1.19062 1.19039 1.19031 1.19202 1.19337 1.19085 1.19162 1.19019 1.18909 1.19271 1.19285 1.1922 1.1896 1.18825 1.19067 1.19204 1.19523 1.19472 1.19346 1.19312 1.19188 1.19078 1.19202 1.19104 1.19074 1.19358 1.187 1.19395 1.19512 1.19628 1.1954 1.19285 1.18918 1.19193 1.19696 1.19816 1.19485 1.19146 1.19522 1.19616 1.1917 1.19629 1.19146 1.19074 1.19605 1.19538 1.2018 1.19718 1.18802 1.19133 1.18689 1.19128 1.19514 1.18964 1.19105 1.19438 1.18896 1.19029 1.19037 1.19146 1.1914 1.19105 1.19036 1.19094 1.19133 1.19147 1.18879 1.19111 1.18816 1.1896 1.19135 1.18861 1.18882 1.19013 1.18988 1.19297 1.19245 1.19273 1.1882 1.18959 1.19225 1.19325 1.1933 1.19506 1.19008 1.19194 1.19229 1.19178 1.19178 1.18665 1.18818 1.19077 1.18952 1.19181 1.19201 1.19159 1.19327 1.19345 1.19185 1.19218 1.19164 1.19063 1.191 1.19244 1.18928 1.19049 1.19102 1.19179 1.19314 1.19178 1.19087 1.18853 1.18887 1.19306 1.19237 1.19011 1.19005 1.19095 1.19481 1.19149 1.19121 1.19181 1.19062 1.18985 1.1899 1.18992 1.19403 1.19611 1.19541 1.18891 1.19083 1.19233 1.19303 1.19818 1.19471 1.19043 1.19033 1.19392 1.19473 1.19732 1.19374 1.19141 1.19458 1.19114 1.19054 1.19551 1.20143 1.19716 1.18741 1.19117 1.19569 1.19118 1.19601 1.1898 1.19179 1.19428 1.19711 1.19668 1.18972 1.18942 1.18986 1.1909 1.19117 1.19198 1.19183 1.18982 1.19087 1.18892 1.18948 1.1914 1.19382 1.19532 1.18986 1.19005 1.19333 1.19128 1.18544 1.19081 1.19128 1.18821 1.1924 1.19121 1.19401 1.1928 1.18745 1.19416 1.18997 1.19201 1.19354 1.19212 1.19149 1.18629 1.18933 1.19163 1.19316 1.19099 1.19194 1.19171 1.18925 1.19059 1.1923 1.19183 1.19139 1.18888 1.18912 1.19207 1.19275 1.19205 1.19013 1.19159 1.19058 1.18962 1.19054 1.19142 1.19287 1.19172 1.19383 1.19074 1.18776 1.18957 1.1972 1.19511 1.18401 1.19047 1.19178 1.19758 1.19708 1.19529 1.19237 1.1915 1.18948 1.18962 1.19725 1.19549 1.1933 1.19491 1.1955 1.19662 1.19559 1.1956 1.1905 1.18989 1.19338 1.19278 1.19042 1.19595 1.19747 1.18936 1.18859 1.19829 1.19439 1.1909 1.19272 1.19584 1.18779 1.19178 1.19059 1.19178 1.19105 1.19491 1.18992 1.18983 1.19086 1.18905 1.19065 1.19051 1.18763 1.18882 1.1898 1.1908 1.19161 1.19065 1.18945 1.1914 1.18926 1.19109 1.18866 1.18537 1.19085 1.18586 1.193 1.19323 1.18718 1.19178 1.19001 1.1919 1.19247 1.1891 1.19336 1.18985 1.19205 1.19228 1.19208 1.19136 1.18675 1.19222 1.18659 1.18641 1.18864 1.19163 1.19178 1.19125 1.19067 1.18996 1.18928 1.1925 1.19225 1.19135 1.19137 1.19073 1.19065 1.19179 1.18929 1.19187 1.19032 1.19178 1.1917 1.18971 1.19333 1.19223 1.19001 1.19177 1.18924 1.1914 1.19009 1.19208 1.19224 1.19463 1.19279 1.19266 1.19199 1.19224 1.19447 1.19083 1.19009 1.19428 1.19649 1.19231 1.19569 1.19623 1.19309 1.19283 1.19501 1.19583 1.19508 1.19478 1.19686 1.1965 1.19055 1.19394 1.19282 1.19036 1.1949 1.19628 1.19585 1.19712 1.19501 1.19246 1.19166 1.18768 1.19188 1.19178 1.19116 1.19085 1.19053 1.19447 1.18915 1.18974 1.19023 1.18937 1.19064 1.191 1.1904 1.19035 1.19031 1.19027 1.19256 1.19325 1.18932 1.19173 1.19045 1.1884 1.1856 1.18533 1.18823 1.19352 1.18737 1.19178 1.18987 1.19144 1.19242 1.1891 1.19137 1.18968 1.19175 1.19264 1.19199 1.1911 1.1925 1.18635 1.18841 1.18837 1.18679 1.19084 1.19061 1.1911 1.19104 1.18919 1.19187 1.19238 1.19172 1.19087 1.19175 1.18942 1.18993 1.18884 1.18783 1.19179 1.19004 1.19156 1.19139 1.18834 1.19011 1.19452 1.19213 1.19178 1.18997 1.19396 1.19292 1.19533 1.18916 1.19178 1.19423 1.19909 1.19092 1.19178 1.19606 1.19172 1.19303 1.19666 1.19238 1.19597 1.1947 1.19463 1.19344 1.19723 1.19547 1.19432 1.19195 1.19809 1.19231 1.19112 1.19495 1.19614 1.19542 1.19133 1.19199 1.19172 1.19135 1.1937 1.19379 1.19178 1.19146 1.19773 1.1899 1.19287 1.18899 1.1846 1.18977 1.18767 1.18499 1.19062 1.19171 1.19178 1.19178 1.19032 1.19035 1.19223 1.18865 1.18973 1.19008 1.19045 1.18818 1.19389 1.19447 1.19202 1.19016 1.18807 1.18842 1.19027 1.18832 1.18824 1.18734 1.19012 1.18918 1.19132 1.19194 1.1884 1.1906 1.18951 1.18978 1.19178 1.19147 1.19176 1.18983 1.19195 1.18695 1.18882 1.188 1.18888 1.18725 1.19068 1.19228 1.18908 1.19249 1.19146 1.19063 1.19047 1.1911 1.189 1.18963 1.18802 1.18924 1.19202 1.19152 1.19209 1.19178 1.19108 1.19145 1.19126 1.18812 1.19073 1.1961 1.19242 1.18912 1.18975 1.19316 1.19286 1.1907 1.19259 1.19079 1.20026 1.19685 1.1952 1.19468 1.19593 1.19492 1.19237 1.19656 1.19177 1.19382 1.19471 1.1992 1.19828 1.1941 1.19089 1.19797 1.19309 1.19146 1.19107 1.19025 1.19487 1.19576 1.19523 1.19166 1.18956 1.18957 1.19334 1.18778 1.19763 1.1911 1.1911 1.18855 1.18848 1.1896 1.19178 1.19038 1.19438 1.19201 1.19236 1.19059 1.19017 1.18939 1.18967 1.19178 1.18926 1.18994 1.18794 1.19223 1.18922 1.18895 1.19304 1.19057 1.18729 1.19009 1.18878 1.18957 1.19036 1.19047 1.19178 1.19215 1.19166 1.19199 1.19002 1.18891 1.19272 1.19254 1.18579 1.18588 1.18799 1.18963 1.19178 1.19012 1.18991 1.19209 1.19047 1.18986 1.19178 1.1922 1.19104 1.19063 1.19115 1.19049 1.18893 1.189 1.19076 1.19046 1.19178 1.19174 1.19178 1.19176 1.19189 1.19044 1.18776 1.1893 1.19072 1.19602 1.19187 1.18863 1.19266 1.19485 1.19266 1.19276 1.19118 1.19041 1.19863 1.19702 1.19316 1.19606 1.19533 1.19267 1.19675 1.19588 1.19217 1.19206 1.19836 1.19784 1.19199 1.19749 1.1934 1.19083 1.18911 1.19106 1.1949 1.19117 1.19103 1.19634 1.19272 1.18863 1.19164 1.19288 1.18987 1.19137 1.18837 1.19354 1.1884 1.18883 1.19002 1.18477 1.19184 1.19086 1.192 1.19195 1.19216 1.19056 1.18888 1.18884 1.19207 1.18774 1.1878 1.18902 1.19016 1.18863 1.18888 1.18894 1.19228 1.1909 1.1902 1.18881 1.18908 1.19116 1.19303 1.1892 1.1902 1.19087 1.19105 1.19235 1.19135 1.19118 1.19208 1.19144 1.18646 1.18818 1.19073 1.18716 1.19049 1.19104 1.19044 1.1918 1.19208 1.19115 1.19072 1.19178 1.19054 1.19177 1.19215 1.19173 1.18919 1.18916 1.19396 1.19178 1.19176 1.1918 1.18903 1.18957 1.19178 1.19182 1.19168 1.19207 1.19098 1.18948 1.18928 1.19142 1.18989 1.18899 1.19335 1.19261 1.19309 1.19034 1.19194 1.19562 1.19607 1.19549 1.19485 1.1918 1.19393 1.19017 1.19261 1.19544 1.20101 1.19208 1.18994 1.18801 1.19529 1.19581 1.19548 1.18882 1.19485 1.19178 1.19465 1.18215 1.18532 1.18835 1.19087 1.1878 1.1871 1.19189 1.19125 1.1926 1.18914 1.18517 1.19126 1.19017 1.19178 1.19131 1.19198 1.19079 1.18926 1.1901 1.18849 1.18894 1.19406 1.19178 1.18754 1.18901 1.18813 1.19178 1.19029 1.18976 1.19361 1.19106 1.1918 1.19176 1.18763 1.19449 1.19143 1.19151 1.1886 1.18946 1.19367 1.19168 1.18883 1.19008 1.19112 1.19188 1.19191 1.19134 1.19118 1.19172 1.19141 1.19143 1.18914 1.19054 1.18713 1.18689 1.1911 1.19143 1.19148 1.1905 1.1918 1.1915 1.19052 1.19044 1.19143 1.19193 1.19213 1.19224 1.19396 1.19133 1.1918 1.19088 1.19503 1.19122 1.19327 1.19188 1.18918 1.19137 1.18804 1.18784 1.19312 1.19375 1.1947 1.19189 1.19058 1.1917 1.19453 1.196 1.19556 1.19733 1.19762 1.19518 1.19178 1.19096 1.18902 1.19212 1.19707 1.19452 1.18959 1.18927 1.20499 1.19428 1.1899 1.19033 1.1914 1.19558 1.19856 1.1953 1.18131 1.1918 1.19043 1.19206 1.19224 1.19091 1.19195 1.19087 1.19254 1.18895 1.19141 1.19219 1.1902 1.19123 1.19207 1.19109 1.19017 1.18788 1.1882 1.18891 1.19056 1.19 1.18714 1.19394 1.19139 1.19184 1.18807 1.19193 1.1911 1.19251 1.19132 1.18902 1.19149 1.19185 1.18938 1.1888 1.18898 1.19201 1.19168 1.19178 1.19171 1.19138 1.19144 1.19069 1.19085 1.19178 1.18713 1.19098 1.19167 1.19178 1.19178 1.1904 1.19029 1.19132 1.19125 1.19055 1.1904 1.19181 1.19217 1.19216 1.19199 1.19172 1.19245 1.19195 1.19211 1.18889 1.1914 1.1882 1.19021 1.18758 1.19328 1.1911 1.19196 1.19025 1.1917 1.19432 1.19517 1.19178 1.19807 1.19393 1.19244 1.19276 1.18878 1.19211 1.19514 1.20457 1.18399 1.19175 1.18896 1.20455 1.19302 1.19178 1.19064 1.1965 1.1851 1.18714 1.18922 1.19369 1.18991 1.19178 1.18918 1.19008 1.19218 1.19185 1.19251 1.18885 1.19204 1.19189 1.18847 1.19178 1.1921 1.19178 1.19078 1.1905 1.19182 1.19051 1.19044 1.18987 1.18677 1.19034 1.18988 1.19092 1.19191 1.19104 1.19176 1.1913 1.18938 1.19035 1.18993 1.18943 1.18907 1.18917 1.18972 1.19109 1.19153 1.19178 1.19178 1.19177 1.19171 1.1914 1.19154 1.19178 1.19178 1.19178 1.19115 1.1912 1.19168 1.19178 1.19178 1.1915 1.19175 1.19178 1.19034 1.19132 1.19123 1.19185 1.19128 1.19085 1.19138 1.18932 1.19151 1.19255 1.19094 1.18923 1.18946 1.1889 1.1896 1.19187 1.1899 1.18802 1.18748 1.18957 1.19029 1.19222 1.1895 1.19097 1.19144 1.19212 1.19133 1.19992 1.19385 1.19437 1.18975 1.19585 1.20146 1.19373 1.19376 1.19773 1.20292 1.18845 1.19072 1.19281 1.19361 1.2049 1.19657 1.18511 1.19363 1.18969 1.19011 1.19003 1.19189 1.19132 1.19062 1.19025 1.18958 1.19137 1.19167 1.19185 1.19106 1.19199 1.19228 1.19093 1.19073 1.19236 1.19014 1.18988 1.19084 1.19135 1.19155 1.19178 1.1916 1.19194 1.19086 1.19135 1.18977 1.18793 1.18962 1.19025 1.1895 1.19108 1.19112 1.19178 1.19178 1.19178 1.1917 1.1914 1.19154 1.19178 1.19178 1.19178 1.19119 1.19178 1.19178 1.19178 1.19178 1.19178 1.19176 1.19032 1.19122 1.19179 1.19156 1.19183 1.19192 1.18933 1.18965 1.19224 1.19064 1.19184 1.18769 1.18703 1.18957 1.19209 1.18643 1.18936 1.19064 1.19066 1.19167 1.19196 1.20055 1.19513 1.19714 1.19105 1.19443 1.19645 1.20206 1.19367 1.19565 1.19055 1.1923 1.19 1.1873 1.20049 1.19366 1.19041 1.18524 1.19961 1.18796 1.18757 1.19056 1.19045 1.19111 1.1919 1.19175 1.19134 1.19052 1.19021 1.19115 1.1902 1.18968 1.19074 1.1919 1.19222 1.19069 1.19078 1.19185 1.19149 1.1927 1.18833 1.18655 1.18818 1.1902 1.19099 1.19083 1.19135 1.19144 1.19149 1.18751 1.19013 1.18952 1.19077 1.19109 1.19152 1.19132 1.19156 1.19152 1.19071 1.18962 1.18962 1.18912 1.18832 1.18419 1.18774 1.1881 1.19045 1.19029 1.18986 1.19083 1.19169 1.19969 1.19456 1.19475 1.18922 1.19752 1.20138 1.19349 1.19378 1.19441 1.19312 1.18915 1.19238 1.19041 1.19228 1.19665 1.18723 1.18508 1.1905 1.19046 1.19178 1.19047 1.19081 1.19116 1.19168 1.19104 1.19007 1.19084 1.19011 1.18765 1.18813 1.18989 1.19137 1.18964 1.18947 1.19187 1.1906 1.19232 1.19048 1.19328 1.19773 1.19824 1.19641 1.19178 1.19112 1.19515 1.20067 1.20585 1.19412 1.19468 1.1876 1.18914 1.19181 1.19048 1.19464 1.19109 1.19032 1.18691 1.19478 1.19013 1.19303 1.19215 1.20062 1.19411 1.19892 1.1976 1.20662 1.19761 1.19174 1.18713 1.18779 1.19766 1.1919 1.18967 1.19108 1.191 1.18747 1.19452 1.18785 1.20983 1.20282 1.19006 1.19037 1.20264 1.1863 1.18731 1.19529 1.20045 1.19836 1.19548 1.1982 1.19322 1.18931 1.19921 1.18589 1.18651 1.1926 1.19178 1.18325 1.18218 1.19108 1.21401 1.19211 1.189 1.20294 1.19502 1.19806 1.20039 1.1953 1.1992 1.20369 1.19021 1.18728 1.17905 1.18535 1.20014 1.19178 1.19178 1.19178 1.1947 1.18361 1.20189 1.19084 1.20859 1.19178 1.18781 1.20151 1.19723 1.19979 1.20402 1.19754 1.18749 1.19246 1.19028 1.18349 1.20533 1.19327 1.19178 1.19178 1.19178 1.19178 1.19178 1.19178 1.19178 1.19178 1.19178 1.19178 1.19178 1.19178 1.19178 1.19178 1.19178 1.19269 1.19178 1.19405 1.17941 1.19498 1.22801 1.19846 1.22191 1.1883 1.20047 1.199 1.20342 1.1957 1.19153 1.20036 1.1976 1.20263 1.18866 1.22507 1.20806 1.19285 1.19892 1.19178 1.19178 1.19178 1.19178 1.19178 1.19178 1.19178 1.19178 1.19178 1.19178 1.19178 1.19178 1.19178 1.29517 1.19178 1.19178 1.19178 1.19178 1.19178 1.19178 1.19178 1.19178 1.19178 1.19175 1.19194 1.19381 1.19178 1.19178 1.3857 1.19178 1.20091 1.17432 1.21832 1.28533 1.24243 1.21069 1.21973 1.19113 1.19286 1.19981 1.19287 1.19917 1.20142 1.19522 1.20333 1.1901 1.1952 1.20079 1.21896 1.23747 1.20835 1.19976 1.19657 1.19178 1.1918 1.1917 1.19178 1.19178 1.19178 1.19178 1.19178 1.19178 1.19178 1.19178 2.52874 1.86857 0.13603 2.03539 1.19175 3.30507 0.449667 0.575997 1.17031 0.434017 2.36568 3.17215 1.18019 1.19179 1.19178 0.122478 0.217826 0.359595 0.397928 0.341082 0.309 0.509992 4.12982 0.76885 1.50441 1.25795 1.26061 1.33077 1.75996 1.16003 1.60297 0.611501 1.19179 1.19178 1.32779 0.305939 1.28369 0.376069 0.602529 0.661469 0.414284 1.19153 1.1918 1.19178 0.272224 0.0449219 0.498649 1.19178 1.2045 1.63189 1.94439 3.15238 1.77647 1.42583 1.63203 1.19298 1.28115 1.20206 1.23492 1.21459 1.19575 1.19224 1.1928 1.19969 1.20326 1.20423 1.18981 1.19688 1.23514 1.23089 1.24782 1.20546 1.22992 1.26221 1.43167 1.59094 1.758 1.19178 1.40059 1.28626 0.447749 0.580936 1.19178 0.494299 1.1917 1.19181 1.19178 1.19167 0.201552 0.19583 0.324615 5.12571 0.400002 0.390945 3.06405 1.55371 0.979287 1.52855 1.19178 1.19178 0.916946 1.61733 1.96451 1.19826 1.28199 1.19178 1.25029 1.19178 1.19178 0.891708 0.539163 1.19178 1.19178 1.19178 1.19178 0.142415 0.121191 0.0945125 1.19178 0.485149 0.395753 0.175261 0.57815 2.08372 1.1892 1.21802 0.30835 1.40327 1.47439 1.66986 3.30066 1.70227 1.55363 0.506551 0.473811 1.14789 0.544744 0.95404 1.54813 0.270277 0.689244 1.67765 0.131329 0.890133 1.54322 1.34258 1.9776 1.18928 1.27639 1.11775 0.83218 0.930109 0.0997431 0.848288 0.919617 0.382662 0.393404 0.413013 0.421782 0.406947 0.347198 0.0843328 0.433906 0.276544 0.434002 0.441641 0.727637 1.40763 1.52076 0.700246 0.613829 1.40358 1.12225 0.889724 1.39215 0.704918 0.657307 0.448738 0.488998 0.297121 0.617296 0.397595 0.606952 0.471501 0.982793 0.736369 0.161426 0.660806 0.439346 0.462047 0.375469 0.460547 0.655608 1.32099 1.5352 0.409482 0.0865676 0.850828 0.387909 0.464226 0.431585 0.111325 0.677924 0.884155 0.557203 1.86363 0.928342 1.10907 0.384564 1.07326 2.19295 1.23791 1.16232 0.211382 0.878892 1.21108 1.15932 1.21663 1.19444 1.22051 1.21828 1.20902 1.19754 1.19374 1.19372 1.20279 1.2039 1.18923 1.18859 1.23059 1.19945 1.2057 1.17405 1.10022 0.176556 1.41798 1.22891 0.239548 0.605266 0.745035 0.763409 0.397656 0.263619 0.531446 0.449023 0.449674 0.617114 0.692714 0.389934 0.229047 0.32574 0.1619 0.214735 1.19154 0.279963 0.333905 0.480826 0.337286 0.400885 0.155704 0.242127 0.279746 1.86277 0.678734 0.301563 0.981667 0.613824 1.8127 0.611151 1.37204 0.276538 0.432302 0.974449 0.904549 0.491855 0.531544 0.507228 0.689263 0.778918 0.824522 1.22319 1.49595 0.201207 0.643478 1.2791 0.72275 0.531236 0.272664 0.629413 0.513899 1.85278 4.24983 1.07143 1.65998 0.576938 0.509293 0.184036 0.292889 0.163951 0.194429 0.144356 0.12087 0.107812 0.340036 0.342432 0.582206 1.04167 0.830869 0.946939 1.49014 0.530516 0.386458 0.414738 0.118858 0.511547 0.287644 1.23125 1.69938 1.26841 1.42447 0.902949 1.09948 0.823271 0.838574 0.642373 0.145012 1.16139 0.448289 0.916745 0.459511 0.646941 1.02228 0.782357 0.64185 0.341522 0.417769 0.755981 0.296621 0.291057 0.29407 0.201258 0.486709 0.370841 0.0392808 0.0674758 0.0862115 0.251335 0.282228 0.471082 0.496484 0.472362 0.579198 0.59952 0.852814 0.580409 0.525328 0.668656 0.272393 0.486142 0.381973 0.480523 0.406032 0.306788 0.269222 0.414468 0.722765 0.626396 0.281378 0.223754 0.25618 0.222295 0.334671 0.632422 0.382923 0.154997 0.34087 0.213746 0.487252 0.766773 0.415787 0.735577 0.136002 0.213804 0.123408 0.296854 0.525041 0.833709 1.41557 1.02139 0.584919 0.515519 1.1827 1.33731 1.16164 1.214 1.21014 1.15055 1.2112 1.15595 1.21397 1.2046 1.19907 1.19566 1.19356 1.19847 1.1981 1.19857 1.20258 1.23125 1.18692 1.16875 1.19247 1.20097 1.17492 1.19067 1.12352 0.86758 0.439061 0.672835 0.50748 1.10385 0.5479 1.03654 0.242755 0.472409 0.200263 0.385103 0.354138 0.4583 0.43922 0.210701 0.288372 0.489374 0.314001 0.212216 0.0609586 0.216212 0.0418278 0.393692 0.360668 1.40218 0.601351 1.03787 0.84093 0.901077 0.783051 0.363864 0.616763 0.340661 1.09399 0.750147 0.945825 0.855362 0.840224 0.433061 0.365179 0.491365 0.178273 0.810665 0.595648 0.370462 0.27092 0.416698 0.364955 0.360308 0.267953 0.283951 0.282083 0.245988 0.407768 0.570676 0.461672 0.204988 0.298442 0.634236 0.436142 0.723883 0.899675 0.411887 0.59625 0.537505 0.730493 0.986095 0.591929 0.888179 0.854241 0.823674 0.902634 0.724921 0.619134 0.436223 0.417286 0.666874 0.326 0.382506 0.55038 0.715886 0.247767 0.61211 0.371977 0.384025 0.442084 0.25787 0.445792 0.372782 0.272579 0.464865 0.750958 0.559457 0.430472 0.358613 0.502036 0.448122 0.417265 0.61104 0.50872 0.537493 0.755483 0.715163 0.659344 0.506625 0.40337 0.491037 0.545268 0.648638 0.355655 0.29937 0.0675987 0.326347 0.389236 0.446345 0.349233 0.436093 0.507943 0.434456 0.43235 0.0349674 0.592415 0.74219 0.458475 0.344607 0.512575 0.52792 0.43282 0.504016 0.44642 0.41952 0.78233 0.881232 0.773493 0.702472 0.935316 1.01961 0.974968 1.00469 1.1919 1.21827 1.22079 1.19433 1.195 1.19624 1.20055 1.21944 1.21103 1.17496 1.19051 1.16454 1.17614 1.18721 1.20412 1.17996 1.1627 1.22888 0.704103 0.570934 0.610128 0.615995 0.549919 0.33819 0.5723 0.698887 0.848885 0.605672 0.190586 0.591388 0.303572 0.305326 0.32854 0.345661 0.353687 0.212449 0.223825 0.369657 0.254977 0.0398526 0.209681 0.418956 0.308289 0.291673 0.616021 0.478515 0.460647 0.488904 0.487777 0.534253 0.149484 0.207606 0.239024 0.556271 0.662596 0.609597 0.556264 0.740376 0.329308 0.767737 0.465471 0.516603 0.214606 0.211485 0.399661 0.294139 0.348975 0.263245 0.225875 0.346388 0.375646 0.334173 0.294713 0.32788 0.281208 0.400333 0.35721 0.343004 0.347941 0.5587 0.684593 0.827097 0.686311 0.636722 0.627414 0.586396 0.620258 0.608186 0.622647 0.351599 0.579734 0.503465 0.577175 0.522535 0.524535 0.519923 0.540852 0.477121 0.343182 0.479491 0.542629 0.498161 0.309174 0.534343 0.350743 0.394922 0.42193 0.373625 0.405382 0.414762 0.434716 0.487333 0.390648 0.400761 0.487652 1.1477 0.579123 0.409919 0.403318 0.449373 0.458378 0.556694 0.595025 0.695395 0.705805 0.639256 0.580462 0.599716 0.555918 0.619922 0.635808 0.48254 0.455988 0.223922 0.424976 0.451681 0.468078 0.419095 0.432726 0.429535 0.322959 0.512565 0.235973 0.371431 0.372938 0.411885 0.600349 0.568935 0.536142 0.660298 0.766246 0.892018 0.915659 0.804178 1.27147 1.19178 1.1898 1.1509 1.19497 1.19178 1.16339 1.20233 1.19649 1.18952 1.18209 1.19761 1.22301 1.18424 1.17107 1.17788 1.17095 1.18299 1.21819 1.19167 1.17923 0.678795 1.11515 0.991228 0.519555 0.574743 0.567589 0.507282 0.559554 0.544257 0.679741 0.25589 0.424363 0.468962 0.490382 0.442957 0.46665 0.390021 0.459534 0.381564 0.372414 0.349805 0.338736 0.201581 0.238075 0.35089 0.431889 0.440157 0.447746 0.30204 0.4982 0.568283 0.560471 0.581247 0.509308 0.449355 0.537319 0.462343 0.3217 0.383871 0.361297 0.300956 0.386097 0.337587 0.407742 0.370953 0.41916 0.396802 0.427454 0.40701 0.368561 0.48235 0.443938 0.423039 0.51358 0.545933 0.558839 0.607101 0.589709 0.577191 0.552662 0.538009 0.379949 0.545979 0.503862 0.485089 0.522888 0.541114 0.488495 0.482734 0.415731 0.505176 0.509082 0.457003 0.441034 0.42541 0.478804 0.455473 0.433363 0.437538 0.386969 0.341488 0.590759 0.106978 0.494164 0.451359 0.497143 0.51071 0.569939 0.614281 0.637933 0.663006 0.635608 0.616732 0.629719 0.595487 0.57229 0.563232 0.528145 0.513593 0.491542 0.37848 0.4702 0.463891 0.471186 0.438708 0.463572 0.453234 0.46239 0.506191 0.504055 0.518715 0.458298 0.42675 0.492857 0.535861 0.534687 0.623866 0.697847 0.668994 0.732139 0.669523 0.742945 1.23381 1.17745 1.11948 1.19178 1.21233 1.21099 1.18394 1.18192 1.18452 1.18838 1.19879 1.17793 1.17524 1.18153 1.17806 1.17412 1.19231 1.20231 1.19227 1.20579 0.561115 0.553664 0.508133 0.533631 0.524051 0.478259 0.486855 0.525983 0.477996 0.497524 0.477628 0.476124 0.509383 0.456495 0.456165 0.438427 0.370612 0.203242 0.260825 0.283086 0.314405 0.453005 0.448581 0.497591 0.436526 0.478435 0.460149 0.524548 0.523212 0.560027 0.533383 0.463523 0.489887 0.385587 0.464219 0.434737 0.420779 0.401455 0.405708 0.40942 0.423634 0.404937 0.433791 0.429312 0.44761 0.443625 0.447833 0.465273 0.437546 0.45993 0.468863 0.496953 0.471561 0.507535 0.50967 0.539312 0.573498 0.558247 0.553369 0.561138 0.544015 0.529487 0.53043 0.514402 0.51153 0.523464 0.502704 0.565428 0.554135 0.531412 0.48556 0.525981 0.489906 0.526705 0.497347 0.504308 0.516792 0.480302 0.437438 0.44506 0.488066 0.473359 0.478034 0.483407 0.48886 0.503943 0.518083 0.535183 0.599517 0.591501 0.590523 0.617211 0.612152 0.619074 0.604055 0.59997 0.580798 0.532635 0.560626 0.525073 0.524591 0.511613 0.490694 0.450313 0.47316 0.472548 0.461958 0.495567 0.519942 0.515005 0.498846 0.506854 0.529788 0.53872 0.596475 0.600735 0.621945 0.625718 0.643312 1.11737 1.24068 1.20312 1.13506 1.13885 1.18859 1.22442 1.18972 1.18788 1.18581 1.19925 1.17191 1.19485 1.19121 1.21637 1.18207 1.1821 1.19846 1.18147 0.53777 0.541858 0.550521 0.546548 0.553451 0.532011 0.550349 0.501421 0.432758 0.550166 0.618276 0.546529 0.574073 0.536704 0.76021 0.467068 0.21243 0.125327 0.325687 0.414889 0.533018 0.510555 0.483458 0.471947 0.497012 0.521756 0.496263 0.511212 0.537519 0.509252 0.52259 0.519747 0.47122 0.465352 0.42071 0.457061 0.44627 0.450444 0.463345 0.473188 0.481722 0.474207 0.502154 0.482969 0.516152 0.518933 0.537843 0.533298 0.528417 0.554211 0.545492 0.560452 0.550678 0.570286 0.549174 0.559182 0.547794 0.573708 0.566297 0.413913 0.598666 0.615183 0.574896 0.56 0.563055 0.545976 0.52957 0.52024 0.529262 0.48002 0.515303 0.463909 0.502677 0.514859 0.515614 0.494886 0.498115 0.492255 0.550743 0.544414 0.597303 0.582856 0.58796 0.59608 0.592595 0.594757 0.566439 0.561555 0.539615 0.508016 0.523496 0.497004 0.4966 0.473899 0.543834 0.559812 0.522876 0.530698 0.532234 0.537812 0.547506 0.556867 0.560943 0.588275 0.588698 0.59985 0.595646 0.580535 0.556298 1.13586 1.19794 1.17654 1.14263 1.14512 1.1499 1.24339 1.17563 1.18161 1.15782 1.18647 1.1642 1.20054 1.19492 1.18674 1.18719 1.178 1.18087 1.19178 1.14934 0.543349 0.52984 0.563281 0.556543 0.560821 0.567116 0.589833 0.584831 0.508189 0.430982 0.612673 0.571341 0.594345 0.576217 0.641411 0.58983 0.575128 0.711152 0.617702 0.631848 0.229394 0.332877 0.528321 0.489007 0.585248 0.533708 0.524512 0.510569 0.509732 0.49568 0.517063 0.532783 0.52597 0.532352 0.557149 0.537228 0.502674 0.52862 0.501448 0.482313 0.481651 0.467242 0.463915 0.470868 0.477552 0.482494 0.491475 0.503824 0.506754 0.523154 0.5229 0.553096 0.521788 0.537978 0.548939 0.544135 0.559596 0.564973 0.581127 0.538889 0.517916 0.530054 0.555026 0.569179 0.56963 0.528178 0.697156 0.600822 0.586076 0.606236 0.577067 0.514991 0.552705 0.523805 0.468159 0.543491 0.524499 0.523865 0.521313 0.49084 0.552907 0.591239 0.52439 0.587731 0.54691 0.587786 0.596253 0.610255 0.621373 0.600542 0.579124 0.564575 0.541642 0.54241 0.515952 0.502443 0.488998 0.491019 0.504575 0.503333 0.569967 0.538733 0.546913 0.571951 0.577694 0.602024 0.600335 0.602049 0.604828 0.542339 0.556607 0.538925 0.558465 1.17328 1.02677 1.18018 1.1899 1.13123 1.14062 1.16096 1.19178 1.18034 1.16215 1.15612 1.17768 1.15789 1.19509 1.19132 1.18515 1.19711 1.18801 1.1685 1.10365 1.11799 1.24881 0.554259 0.542056 0.52412 0.548062 0.640029 0.566828 0.759583 0.257055 0.491038 0.580954 0.604482 0.576716 0.5702 0.53848 0.917872 0.608992 0.976002 0.525945 0.856407 0.592133 0.476072 0.506092 0.52194 0.479597 0.547998 0.444379 0.544203 0.554488 0.519715 0.57168 0.526037 0.530976 0.513192 0.535563 0.533995 0.55064 0.57862 0.552895 0.537579 0.518842 0.522501 0.499316 0.503878 0.485581 0.480289 0.490526 0.493366 0.493811 0.508117 0.512468 0.531629 0.557966 0.551406 0.580065 0.55803 0.576208 0.563808 0.57516 0.576253 0.581624 0.584691 0.586247 0.500941 0.481885 0.606978 0.688386 0.670258 0.650512 0.586422 0.598268 0.60863 0.597069 0.524301 0.553072 0.571645 0.578134 0.574752 0.641088 0.568992 0.523355 0.507619 0.510393 0.623811 0.478621 0.6176 0.511563 0.589122 0.592647 0.589278 0.626085 0.570334 0.519753 0.499878 0.489734 0.507148 0.50843 0.625875 0.538204 0.52971 0.561473 0.604982 0.625123 0.623066 0.613843 0.617989 0.618346 0.513828 0.532686 1.20345 1.18022 1.16825 1.11731 1.13905 1.16642 1.16552 1.17652 1.16512 1.16061 1.17583 1.16154 1.18752 1.1933 1.18036 1.19907 1.17503 1.11022 1.19282 1.20416 0.543903 0.510272 0.522694 0.608825 0.543093 0.649413 0.849838 0.0857966 0.469296 0.596328 0.602575 0.59891 0.606203 0.902899 0.698717 0.649204 0.652356 0.554268 0.520719 0.460447 0.488207 0.543427 0.578917 0.602778 0.507574 0.547058 0.623397 0.574886 0.565094 0.609065 0.570799 0.556352 0.54354 0.5328 0.548317 0.506456 0.489388 0.479992 0.512604 0.54 0.524385 0.580238 0.578473 0.609751 0.587496 0.589918 0.578616 0.590508 0.596385 0.594706 0.613992 0.594541 0.496497 0.472445 0.584514 0.64616 0.680043 0.592706 0.621555 0.61397 0.667067 0.573288 0.600232 0.612518 0.59271 0.536298 0.512743 0.542804 0.590375 0.485464 0.461169 0.571911 0.631453 0.700529 0.612064 0.598652 0.586145 0.587747 0.610271 0.629136 0.539215 0.510526 0.493338 0.490662 0.518143 0.523423 0.706566 0.477045 0.54355 0.580297 0.656286 0.649534 0.648197 0.496097 0.528735 1.18868 1.1927 1.16701 1.1571 1.15633 1.17086 1.16794 1.17693 1.16597 1.16283 1.17491 1.16707 1.18603 1.19147 1.19812 1.1908 1.16699 1.12088 1.20915 1.18891 0.571755 0.503714 0.508095 0.562763 0.671785 0.833393 0.562866 0.5884 0.567344 0.611828 0.635859 0.576424 0.704657 0.661408 0.58257 0.519678 0.515883 0.52127 0.490472 0.52409 0.520549 0.567794 0.578213 0.735424 0.640385 0.67 0.603714 0.577139 0.585608 0.567501 0.562075 0.534093 0.56306 0.521475 0.531714 0.496566 0.483971 0.469423 0.544676 0.564865 0.524358 0.614812 0.611581 0.624526 0.59808 0.603631 0.595678 0.625109 0.601 0.643776 0.598833 0.51106 0.42364 0.502532 0.610388 0.632414 0.678999 0.708846 0.604472 0.627028 0.638153 0.631465 0.593367 0.721435 0.720221 0.616303 0.635286 0.573175 0.62044 0.563878 0.518378 0.546047 0.561297 0.553693 0.508805 0.676824 0.651784 0.667709 0.668045 0.613237 0.596375 0.612379 0.625661 0.609685 0.526205 0.544095 0.486517 0.492848 0.458023 0.508982 0.565906 0.553207 0.580504 0.841901 0.477531 0.698342 0.549894 0.673304 0.700747 0.676958 0.654479 0.672111 0.480271 0.53648 1.19259 1.16977 1.18955 1.17983 1.16338 1.17363 1.16731 1.17646 1.20877 1.17236 1.17652 1.19035 1.2134 1.18801 1.19178 1.18254 1.17656 1.19171 1.18399 1.14761 0.540024 0.575028 0.723454 0.56863 0.6072 0.586826 0.653448 0.765538 0.677773 0.599764 0.608338 0.626001 0.611397 0.631022 0.644368 0.581311 0.541546 0.535688 0.540284 0.557007 0.584804 0.561761 0.59411 0.777778 0.68293 0.700943 0.672332 0.66197 0.621226 0.578792 0.570252 0.574417 0.601052 0.55064 0.581259 0.494239 0.439131 0.585186 0.645938 0.603404 0.59341 0.632132 0.623804 0.659828 0.585589 0.611885 0.612211 0.623868 0.655467 0.649427 0.60036 0.574951 0.576447 0.473939 0.675439 0.494119 0.628037 0.59336 0.620008 0.694688 0.649729 0.646721 0.657497 0.682695 0.686877 0.49826 0.595575 0.637976 0.669606 0.81862 0.657859 0.596366 0.622839 0.535778 0.53284 0.518678 0.583956 0.695211 0.657758 0.641449 0.630251 0.655568 0.667969 0.6043 0.442632 0.599325 0.605964 0.509134 0.520552 0.499096 0.572122 0.581188 0.864292 0.499909 0.651911 0.598263 0.692906 0.679711 0.690697 0.489808 0.53725 1.19229 1.16456 1.18981 1.19601 1.17383 1.18008 1.17076 1.18983 1.19178 1.17204 1.17798 1.17156 1.18714 1.21175 1.17754 1.19299 1.15788 1.18887 1.19461 1.21076 0.520369 0.587639 0.742585 0.659165 0.590497 0.540692 0.558134 0.648636 0.650399 0.605778 0.633405 0.627574 0.624961 0.633667 0.569266 0.594179 0.604864 0.527977 0.609268 0.594933 0.603731 0.620751 0.752563 0.720423 0.66543 0.610077 0.570394 0.581477 0.591457 0.632034 0.621115 0.544656 0.66252 0.550415 0.617637 0.678547 0.719211 0.663118 0.616319 0.632632 0.594969 0.654681 0.677022 0.665055 0.576399 0.560234 0.600062 0.689716 0.457627 0.588604 0.65055 0.672017 0.611979 0.68165 0.646598 0.659297 0.690283 0.756459 0.528453 0.632599 0.690094 0.823439 0.631346 0.662332 0.556403 0.528588 0.652633 0.669571 0.642866 0.610091 0.642414 0.675375 0.702697 0.614635 0.672396 0.559015 0.465526 0.508519 0.591029 0.700019 0.671948 0.748083 0.648484 0.694885 0.786307 0.655036 0.695008 0.716049 0.878314 0.821253 0.540229 1.19353 1.17085 1.19052 1.19112 1.19178 1.18155 1.17062 1.19089 1.19381 1.17185 1.19178 1.17062 1.18603 1.19728 1.17454 1.17765 1.2286 1.17234 1.18641 1.20728 0.533319 0.636141 0.75671 0.618223 0.580465 0.641676 0.646891 0.649773 0.653099 0.653293 0.65234 0.630238 0.630279 0.632966 0.612241 0.706269 0.640702 0.61531 0.613859 0.612535 0.66037 0.765227 0.755599 0.642103 0.615962 0.741374 0.599732 0.62644 0.638694 0.678118 0.633238 0.602539 0.700435 0.719633 0.688343 0.707155 0.662566 0.645384 0.641721 0.657792 0.619408 0.682648 0.633921 0.614603 0.574346 0.54245 0.58385 0.68658 0.761394 0.63944 0.750213 0.770234 0.577718 0.688865 0.647152 0.659169 0.767732 0.734744 0.658302 0.728725 0.826059 0.578505 0.641378 0.702328 0.547584 0.736843 0.659813 0.651509 0.636902 0.632422 0.624692 0.703498 0.727226 0.696061 0.855255 0.782886 0.642576 0.583204 0.471624 0.53714 0.580027 0.633545 0.517923 0.616311 0.721393 0.726862 0.782859 0.806762 0.662706 0.759761 0.806494 0.581431 1.19178 1.18469 1.19199 1.19178 1.19178 1.18496 1.17468 1.19096 1.19294 1.17423 1.19503 1.16996 1.18451 1.19391 1.16992 1.18378 1.12157 1.16901 1.1391 1.19388 0.465368 0.60617 0.920982 0.581399 0.653053 0.676239 0.626143 0.629025 0.6515 0.665423 0.647393 0.645904 0.631269 0.615385 0.702132 0.654826 0.622383 0.588699 0.647691 0.688017 0.676281 0.701451 0.599515 0.629092 0.605688 0.782134 0.665977 0.631715 0.644269 0.713964 0.64761 0.657504 0.651048 0.692257 0.763301 0.677955 0.770745 0.668689 0.6893 0.679503 0.718177 0.629708 0.587759 0.489252 0.665969 0.744013 0.65717 0.634704 0.723186 0.575405 0.705107 0.650074 0.668221 0.841187 0.794647 0.826514 0.676792 0.730189 0.845422 0.60349 0.588803 0.622715 0.661038 0.654999 0.717413 0.65104 0.660325 0.639727 0.623276 0.621251 0.691524 0.833909 0.717049 0.841247 0.706507 0.621464 0.610053 0.662813 0.491848 0.602296 0.627359 0.585668 0.631051 0.658429 0.731284 0.757851 0.830959 0.668237 0.72303 0.586273 0.579578 1.19178 1.18885 1.19178 1.19178 1.19202 1.18712 1.18087 1.19118 1.19375 1.17511 1.19293 1.18721 1.20666 1.17622 1.18526 1.19162 1.18095 1.16435 1.15009 1.19147 0.446264 0.35746 0.587659 0.485933 0.884086 0.932805 0.645833 0.738658 0.630998 0.638179 0.657535 0.660645 0.661472 0.676053 0.650144 0.610551 0.731879 0.701468 0.580978 0.636207 0.676334 0.613328 0.575804 0.667525 0.716096 0.629627 0.571507 0.832425 0.735226 0.86437 0.710196 0.702908 0.708499 0.736578 0.818842 0.689202 0.679002 0.753933 0.607958 0.586324 0.474093 0.747582 0.664003 0.694347 0.643951 0.614205 0.731672 0.657992 0.675125 0.696755 0.77179 0.72622 0.753263 0.613883 0.641669 0.527895 0.757663 0.653459 0.647415 0.655443 0.642491 0.642617 0.612917 0.715362 0.706878 0.689412 0.712502 0.757281 0.846217 0.748453 0.649875 0.738346 0.506963 0.644556 0.663584 0.731375 0.741828 0.761184 0.6966 0.643682 0.728357 0.800312 0.643412 1.19178 1.18978 1.19179 1.19178 1.19188 1.18714 1.18065 1.19121 1.19178 1.1767 1.19184 1.19183 1.19209 1.175 1.1905 1.18826 1.16869 1.16799 1.19139 1.18531 0.391848 0.720786 0.938308 0.653266 0.761058 0.64718 0.636898 0.663213 0.677265 0.681106 0.655236 0.619854 0.743176 0.669301 0.647346 0.496666 0.498297 0.611566 0.559404 0.545284 0.53393 0.702008 0.780555 0.892939 0.742981 0.564548 0.762034 0.952041 0.725968 0.676231 0.717528 0.799789 0.78771 0.631479 0.843343 0.63687 0.641157 0.689638 0.634277 0.47144 0.541881 0.716012 0.669506 0.670175 0.688636 0.824958 0.810306 0.628403 0.738417 0.898321 0.651901 0.639536 0.648382 0.716383 0.736633 0.591909 0.606072 0.822407 0.981622 0.653503 0.767706 0.759412 0.633366 0.653833 0.68494 0.685178 0.632611 0.678722 0.717345 0.653603 0.889902 0.918166 0.816848 0.850809 0.695764 0.798627 0.862805 0.653368 0.720679 0.736074 
SCALARS Stress float 1
LOOKUP_TABLE default
-14210900000.0 -13836800000.0 -12856800000.0 -13109500000.0 -12895500000.0 -12980000000.0 -12706600000.0 -12596600000.0 -12825800000.0 -13855200000.0 -14650800000.0 -15261600000.0 -15894200000.0 -15670900000.0 -14617000000.0 -13042200000.0 -13400500000.0 -13172100000.0 -12726700000.0 -16188600000.0 -14352600000.0 -12597500000.0 -12756900000.0 -13236100000.0 -12917600000.0 -17189800000.0 -12823300000.0 -18996700000.0 -12549700000.0 -21577400000.0 -13446700000.0 -13345200000.0 -12656000000.0 -12817600000.0 -13438700000.0 -12549700000.0 -12549700000.0 -12549700000.0 -12739600000.0 -12549700000.0 -12549700000.0 -12658000000.0 -12549700000.0 -12597500000.0 -12703700000.0 -13246000000.0 -13574200000.0 -15122900000.0 -13155200000.0 -12961300000.0 -12821700000.0 -12696700000.0 -12583700000.0 -12549700000.0 -12549700000.0 -12549700000.0 -12661400000.0 -13475000000.0 -12736900000.0 -12977600000.0 -14942800000.0 -14565000000.0 -14783100000.0 -14650200000.0 -12727800000.0 -14485300000.0 -12549700000.0 -12794200000.0 -13668300000.0 -12765300000.0 -12574100000.0 -13034500000.0 -13778200000.0 -12567100000.0 -12587300000.0 -12894500000.0 -15688300000.0 -13926200000.0 -13813800000.0 -13358200000.0 -13578300000.0 -13010400000.0 -12589800000.0 -13405700000.0 -13277200000.0 -13288100000.0 -15336700000.0 -12590200000.0 -12604900000.0 -12735000000.0 -13220600000.0 -13554200000.0 -12822600000.0 -12660200000.0 -12597500000.0 -12982300000.0 -12648500000.0 -12644300000.0 -12627600000.0 -12623900000.0 -13312900000.0 -13578500000.0 -13133000000.0 -13944600000.0 -16868900000.0 -16607600000.0 -16721400000.0 -16113900000.0 -19317900000.0 -13391100000.0 -15749400000.0 -22079000000.0 -12784100000.0 -15368700000.0 -15210100000.0 -12549700000.0 -16122100000.0 -12635400000.0 -14697400000.0 -12549700000.0 -12939700000.0 -14069100000.0 -12670300000.0 -13201600000.0 -14640900000.0 -13569400000.0 -16566800000.0 -16148500000.0 -15246100000.0 -20650600000.0 -13464700000.0 -14646000000.0 -18235500000.0 -23541900000.0 -23761200000.0 -21687100000.0 -19595300000.0 -13718400000.0 -13196000000.0 -16538000000.0 -12549700000.0 -13640100000.0 -12608400000.0 -12549700000.0 -13253400000.0 -12549700000.0 -12549900000.0 -13131100000.0 -12549700000.0 -13049900000.0 -12549700000.0 -15881000000.0 -12549700000.0 -12549700000.0 -12549700000.0 -12985800000.0 -12613000000.0 -12560800000.0 -12549700000.0 -12573100000.0 -13178100000.0 -12730000000.0 -13185600000.0 -14269000000.0 -14389300000.0 -18937100000.0 -14669200000.0 -13294000000.0 -13644100000.0 -16110900000.0 -13518900000.0 -15595200000.0 -12852500000.0 -13432400000.0 -17038800000.0 -12863000000.0 -14006000000.0 -14170400000.0 -13857500000.0 -16984300000.0 -13489000000.0 -13802600000.0 -14229900000.0 -12549700000.0 -14106300000.0 -15377000000.0 -19531000000.0 -14613200000.0 -12557800000.0 -12549700000.0 -12977000000.0 -16528500000.0 -15273900000.0 -13114400000.0 -12549700000.0 -12549700000.0 -13440200000.0 -15680600000.0 -12549700000.0 -12549700000.0 -12897900000.0 -16606300000.0 -17462500000.0 -12894700000.0 -12602700000.0 -16546600000.0 -16005000000.0 -16175500000.0 -16912000000.0 -19739100000.0 -12842700000.0 -15122900000.0 -12970900000.0 -13883000000.0 -12619200000.0 -26209600000.0 -14417900000.0 -13311600000.0 -22702400000.0 -19344300000.0 -12549700000.0 -18261800000.0 -15548100000.0 -23797400000.0 -16817600000.0 -16177100000.0 -16068300000.0 -16429100000.0 -19118600000.0 -20022500000.0 -21374500000.0 -12549700000.0 -25306700000.0 -19868300000.0 -13378500000.0 -23186000000.0 -22601800000.0 -16271900000.0 -24137400000.0 -23778500000.0 -12791100000.0 -23742900000.0 -21500100000.0 -15253600000.0 -16157200000.0 -15307700000.0 -16186400000.0 -14031300000.0 -12764700000.0 -14118100000.0 -12560600000.0 -12627300000.0 -13799800000.0 -12549700000.0 -14059900000.0 -12549700000.0 -12663200000.0 -12661900000.0 -12549700000.0 -13028800000.0 -13178800000.0 -12986800000.0 -13532500000.0 -14284800000.0 -13433800000.0 -16319800000.0 -15624000000.0 -16103500000.0 -18412900000.0 -16105100000.0 -14395900000.0 -25802300000.0 -12581400000.0 -12756600000.0 -12549700000.0 -21026300000.0 -13917500000.0 -17499900000.0 -23986400000.0 -13053400000.0 -13186600000.0 -13469700000.0 -12683500000.0 -15385600000.0 -17826900000.0 -12758800000.0 -12874600000.0 -19172000000.0 -14791800000.0 -14234800000.0 -13894600000.0 -15553100000.0 -15777400000.0 -23208800000.0 -19944300000.0 -20437900000.0 -16753200000.0 -17735800000.0 -16684300000.0 -18436700000.0 -17632800000.0 -17638100000.0 -17361400000.0 -16062700000.0 -22445800000.0 -28114900000.0 -29105800000.0 -38627200000.0 -43472400000.0 -13976500000.0 -14667100000.0 -34165300000.0 -13430300000.0 -26320200000.0 -20211700000.0 -23463200000.0 -17217900000.0 -17505500000.0 -19483900000.0 -15948200000.0 -26012000000.0 -24352000000.0 -12751400000.0 -14568400000.0 -12852900000.0 -27133600000.0 -13297200000.0 -19080500000.0 -19018900000.0 -18825200000.0 -13126700000.0 -21949000000.0 -12549700000.0 -14666300000.0 -26666800000.0 -26209600000.0 -13532800000.0 -19330400000.0 -13710300000.0 -24889200000.0 -23611500000.0 -12819700000.0 -19537300000.0 -12549700000.0 -15561900000.0 -15589300000.0 -15744900000.0 -15523200000.0 -14928100000.0 -16285600000.0 -15443700000.0 -13916600000.0 -13927200000.0 -15318700000.0 -13476100000.0 -16513800000.0 -14162700000.0 -17855200000.0 -16388200000.0 -12950400000.0 -13261400000.0 -14753700000.0 -12549700000.0 -15400800000.0 -13313300000.0 -12609800000.0 -14068700000.0 -12879600000.0 -13462000000.0 -12684900000.0 -14878700000.0 -15846900000.0 -14285000000.0 -14867500000.0 -23976700000.0 -23856700000.0 -25649400000.0 -22267800000.0 -14936900000.0 -22551400000.0 -15074700000.0 -25492400000.0 -18809400000.0 -14711100000.0 -18011500000.0 -14038200000.0 -34535400000.0 -15583200000.0 -12829500000.0 -17158700000.0 -12852200000.0 -22849200000.0 -19690200000.0 -27019800000.0 -14411100000.0 -18837500000.0 -14051900000.0 -23675800000.0 -12549700000.0 -12549700000.0 -12549700000.0 -18277300000.0 -20708200000.0 -20427800000.0 -19002200000.0 -23392300000.0 -27851100000.0 -29061800000.0 -24641100000.0 -25286100000.0 -25335000000.0 -15449300000.0 -25716200000.0 -40581700000.0 -13046100000.0 -22760900000.0 -38206300000.0 -43378500000.0 -12594400000.0 -44685200000.0 -27150800000.0 -41116300000.0 -24764000000.0 -13111900000.0 -27647100000.0 -23219300000.0 -12931100000.0 -31899800000.0 -43289900000.0 -40474400000.0 -17808100000.0 -23020200000.0 -24387200000.0 -14453300000.0 -31745400000.0 -18129200000.0 -13156100000.0 -20409200000.0 -12735100000.0 -28113600000.0 -33527100000.0 -29297300000.0 -30335900000.0 -21353200000.0 -24203500000.0 -21058600000.0 -15733100000.0 -19354800000.0 -13855600000.0 -16799400000.0 -18631300000.0 -14239700000.0 -12987000000.0 -14728400000.0 -12549700000.0 -16449100000.0 -12902400000.0 -18964500000.0 -22483200000.0 -15888200000.0 -23270500000.0 -14965100000.0 -20040600000.0 -14871100000.0 -19057200000.0 -17412200000.0 -16726200000.0 -13854600000.0 -12729200000.0 -25459900000.0 -36403600000.0 -29851400000.0 -17745900000.0 -15440600000.0 -12787100000.0 -15292200000.0 -21748600000.0 -22810400000.0 -32209400000.0 -15002800000.0 -20633400000.0 -14039700000.0 -35189000000.0 -23186800000.0 -13784800000.0 -29505000000.0 -16612400000.0 -15573100000.0 -18607800000.0 -14368700000.0 -27652800000.0 -29059500000.0 -12549700000.0 -22289900000.0 -12747000000.0 -13365800000.0 -33425800000.0 -27849300000.0 -14570500000.0 -13791800000.0 -35159800000.0 -22491900000.0 -13324500000.0 -17822500000.0 -22150800000.0 -22958000000.0 -27842500000.0 -30934600000.0 -29772300000.0 -13749700000.0 -29158600000.0 -28219900000.0 -31094700000.0 -23552400000.0 -39807300000.0 -12606400000.0 -22640800000.0 -26921300000.0 -22076000000.0 -28397500000.0 -41103300000.0 -33303000000.0 -26727000000.0 -29726600000.0 -22749200000.0 -15022700000.0 -17450100000.0 -13633400000.0 -29572300000.0 -24516900000.0 -21147300000.0 -26508800000.0 -12549700000.0 -49151900000.0 -39692600000.0 -46819200000.0 -21667800000.0 -26914900000.0 -24255600000.0 -30030400000.0 -17783700000.0 -16769900000.0 -13524800000.0 -13135000000.0 -13366500000.0 -12771800000.0 -27168800000.0 -20433500000.0 -22186800000.0 -19634100000.0 -22251700000.0 -18352300000.0 -18634400000.0 -27831400000.0 -22591800000.0 -13931100000.0 -18729600000.0 -24704000000.0 -28208900000.0 -26791500000.0 -19369700000.0 -20273400000.0 -21133800000.0 -12573800000.0 -12675700000.0 -24989700000.0 -26670000000.0 -45601700000.0 -14640600000.0 -13749500000.0 -17906400000.0 -16500500000.0 -16268300000.0 -14067800000.0 -13551900000.0 -12581800000.0 -13174700000.0 -21241000000.0 -19211200000.0 -14944400000.0 -18013800000.0 -34997300000.0 -33976200000.0 -13103900000.0 -47269500000.0 -21048400000.0 -33187900000.0 -17914000000.0 -27505500000.0 -30023800000.0 -15210100000.0 -21672100000.0 -26409300000.0 -29837400000.0 -49230100000.0 -15944100000.0 -33489700000.0 -29671200000.0 -20460000000.0 -19579100000.0 -21318100000.0 -55318300000.0 -28666200000.0 -28384800000.0 -19327200000.0 -53861000000.0 -19064400000.0 -22086900000.0 -12701900000.0 -52747800000.0 -32169100000.0 -25791800000.0 -25704200000.0 -46679600000.0 -31333600000.0 -33761100000.0 -17588100000.0 -28119700000.0 -45259200000.0 -38506300000.0 -22880200000.0 -23970800000.0 -12549700000.0 -21628000000.0 -19444800000.0 -17743300000.0 -36104900000.0 -27491200000.0 -25645900000.0 -30854000000.0 -40426100000.0 -71321200000.0 -31302600000.0 -45305100000.0 -38241100000.0 -13756400000.0 -35580900000.0 -13352900000.0 -17868900000.0 -32067100000.0 -33450100000.0 -18748800000.0 -13341400000.0 -15953000000.0 -28341100000.0 -16625000000.0 -17639600000.0 -14816000000.0 -24978900000.0 -21040000000.0 -12620500000.0 -13204800000.0 -23172600000.0 -27383700000.0 -28313800000.0 -12658300000.0 -30730700000.0 -37462200000.0 -35885700000.0 -28770400000.0 -23641700000.0 -32869500000.0 -19667000000.0 -19295200000.0 -17786300000.0 -15492200000.0 -14507400000.0 -13537600000.0 -22112800000.0 -22623100000.0 -16954900000.0 -20282800000.0 -22629900000.0 -13767700000.0 -22996400000.0 -18094200000.0 -24314200000.0 -21008300000.0 -39807500000.0 -29921500000.0 -42908200000.0 -33131600000.0 -19697100000.0 -19784300000.0 -13424500000.0 -20379500000.0 -18301600000.0 -12549700000.0 -15806700000.0 -12745800000.0 -14056800000.0 -37956700000.0 -19549000000.0 -20928100000.0 -19995900000.0 -44193800000.0 -47554100000.0 -41742200000.0 -12888800000.0 -47422700000.0 -43696700000.0 -41725100000.0 -49784000000.0 -42688800000.0 -45572500000.0 -54384000000.0 -43671600000.0 -33802100000.0 -28104100000.0 -38077600000.0 -22779200000.0 -52008200000.0 -24566000000.0 -35269800000.0 -28904300000.0 -33381200000.0 -24472800000.0 -17556800000.0 -17762600000.0 -12950300000.0 -31776400000.0 -13089500000.0 -13668500000.0 -15037700000.0 -12816400000.0 -12638400000.0 -27275300000.0 -12549700000.0 -41640900000.0 -39690400000.0 -50393100000.0 -45611400000.0 -26247800000.0 -29386800000.0 -17199200000.0 -35357300000.0 -35618700000.0 -39795500000.0 -46297000000.0 -24714900000.0 -24846800000.0 -31480100000.0 -29169200000.0 -28841300000.0 -24633500000.0 -17736100000.0 -23100400000.0 -25309800000.0 -14547500000.0 -22887000000.0 -23765400000.0 -14742100000.0 -25209500000.0 -17878000000.0 -15186100000.0 -12907300000.0 -16813300000.0 -13395300000.0 -23772200000.0 -37667100000.0 -35804300000.0 -26202900000.0 -15946200000.0 -20231300000.0 -19003600000.0 -19845300000.0 -19079000000.0 -13808800000.0 -14509500000.0 -20391500000.0 -29295600000.0 -13351800000.0 -15994200000.0 -14203600000.0 -16653100000.0 -17203100000.0 -14693500000.0 -24084500000.0 -29240200000.0 -44127500000.0 -31297700000.0 -41888200000.0 -30256900000.0 -41611700000.0 -38635700000.0 -16786900000.0 -32157700000.0 -14572300000.0 -12888800000.0 -17007500000.0 -13587700000.0 -12549700000.0 -30388200000.0 -47548400000.0 -35627600000.0 -14381600000.0 -21885800000.0 -24620200000.0 -12549700000.0 -27458700000.0 -14554100000.0 -24928700000.0 -26066000000.0 -33585000000.0 -22389800000.0 -25752800000.0 -39167600000.0 -25399100000.0 -47972900000.0 -30578200000.0 -29440000000.0 -30405600000.0 -20848000000.0 -39741500000.0 -30015100000.0 -28510300000.0 -59306600000.0 -12549700000.0 -57024300000.0 -29259200000.0 -36341300000.0 -17150100000.0 -25657800000.0 -34859700000.0 -12921900000.0 -18519800000.0 -31352900000.0 -24695600000.0 -24033900000.0 -25567300000.0 -47553700000.0 -49394400000.0 -26044700000.0 -16522000000.0 -19313900000.0 -15503200000.0 -39679200000.0 -12570300000.0 -28267500000.0 -26488300000.0 -15009100000.0 -15897700000.0 -15765100000.0 -14695500000.0 -25024000000.0 -21768000000.0 -15661000000.0 -21689700000.0 -24522800000.0 -17257700000.0 -21051000000.0 -25405400000.0 -21347400000.0 -25885500000.0 -23132300000.0 -29699000000.0 -30580900000.0 -28323600000.0 -35860800000.0 -20901200000.0 -20358100000.0 -26156500000.0 -31486000000.0 -30487300000.0 -13908300000.0 -26237200000.0 -30387600000.0 -30165200000.0 -32262500000.0 -13504700000.0 -34299300000.0 -28473100000.0 -12555200000.0 -32031800000.0 -26093100000.0 -39377500000.0 -14037200000.0 -18990900000.0 -25558500000.0 -27479500000.0 -43723800000.0 -36609000000.0 -30801300000.0 -29665200000.0 -16852500000.0 -23067600000.0 -27864200000.0 -31893900000.0 -21737500000.0 -16652900000.0 -17277100000.0 -12732500000.0 -24004600000.0 -40412300000.0 -38832200000.0 -31146000000.0 -25851300000.0 -72401200000.0 -33678900000.0 -15483000000.0 -12549700000.0 -35321500000.0 -23259700000.0 -67088300000.0 -35445400000.0 -70895700000.0 -24705900000.0 -22874400000.0 -36032900000.0 -54035700000.0 -44145400000.0 -65740100000.0 -57181300000.0 -48516200000.0 -33507800000.0 -13338800000.0 -13102800000.0 -34134100000.0 -34725100000.0 -28593000000.0 -16098000000.0 -32193400000.0 -21372500000.0 -23818000000.0 -35958000000.0 -14756300000.0 -21255100000.0 -16708400000.0 -22454700000.0 -13748300000.0 -44094700000.0 -14809700000.0 -35307400000.0 -12583800000.0 -12853300000.0 -17860200000.0 -18043200000.0 -42569800000.0 -23468800000.0 -22800700000.0 -12859700000.0 -14881400000.0 -12793600000.0 -17722900000.0 -16561500000.0 -19644800000.0 -15528800000.0 -22932500000.0 -17776300000.0 -13104100000.0 -12549700000.0 -24022900000.0 -26470700000.0 -32889100000.0 -20498800000.0 -13065600000.0 -21675900000.0 -21593500000.0 -26677300000.0 -12811400000.0 -13273900000.0 -13870800000.0 -17489400000.0 -12855300000.0 -14875800000.0 -12590000000.0 -12723900000.0 -38413200000.0 -30800000000.0 -12610900000.0 -32059900000.0 -14069100000.0 -21017400000.0 -12549900000.0 -12650100000.0 -14276600000.0 -16690700000.0 -19708400000.0 -24727200000.0 -12549700000.0 -13258600000.0 -12549700000.0 -17135500000.0 -25247800000.0 -21616200000.0 -24385600000.0 -16937900000.0 -44541400000.0 -12603400000.0 -29401000000.0 -28408000000.0 -13568200000.0 -39572100000.0 -37489900000.0 -23633500000.0 -39482900000.0 -14962400000.0 -12790400000.0 -24576500000.0 -13599600000.0 -22131600000.0 -16927600000.0 -44173300000.0 -34178500000.0 -27388600000.0 -28854800000.0 -50659500000.0 -76979700000.0 -28249400000.0 -68496200000.0 -66074600000.0 -15565000000.0 -63516400000.0 -34108300000.0 -36110800000.0 -69923400000.0 -19422700000.0 -79881000000.0 -79614100000.0 -103604000000.0 -50678200000.0 -46126100000.0 -101213000000.0 -32666700000.0 -54892000000.0 -22447300000.0 -26604800000.0 -27377100000.0 -17640300000.0 -24124400000.0 -25686300000.0 -25497300000.0 -20767100000.0 -31091700000.0 -13371400000.0 -21341800000.0 -26618200000.0 -21621900000.0 -15477300000.0 -27328000000.0 -22077100000.0 -17534300000.0 -24446100000.0 -46828200000.0 -38970900000.0 -36693500000.0 -21596800000.0 -19115400000.0 -40059300000.0 -12549700000.0 -28384500000.0 -23812100000.0 -27763200000.0 -36886500000.0 -33168000000.0 -13216000000.0 -15029800000.0 -26125000000.0 -17613400000.0 -20694300000.0 -18646100000.0 -32756400000.0 -13470900000.0 -32761400000.0 -21573400000.0 -16264900000.0 -24355500000.0 -28191600000.0 -19449900000.0 -20986400000.0 -19538300000.0 -20511100000.0 -19790800000.0 -13597600000.0 -18580900000.0 -16484500000.0 -12830300000.0 -22737700000.0 -21668800000.0 -30310700000.0 -25999200000.0 -33080600000.0 -14320100000.0 -29539100000.0 -21821500000.0 -22204100000.0 -13232100000.0 -30317100000.0 -13602800000.0 -17191500000.0 -18935700000.0 -22929000000.0 -25810400000.0 -17236600000.0 -49733900000.0 -39155500000.0 -12549700000.0 -40520100000.0 -38607900000.0 -41773300000.0 -56803300000.0 -41861700000.0 -29887400000.0 -25229700000.0 -23264700000.0 -19765200000.0 -24032200000.0 -20708900000.0 -25131600000.0 -23862600000.0 -22256900000.0 -15708700000.0 -44147100000.0 -20025200000.0 -43332300000.0 -13236600000.0 -48241200000.0 -23130700000.0 -12706000000.0 -42757900000.0 -22258400000.0 -27151000000.0 -27902900000.0 -15100200000.0 -55251100000.0 -19139500000.0 -46970700000.0 -15120900000.0 -23066900000.0 -22012000000.0 -15484600000.0 -46497300000.0 -26392000000.0 -57835400000.0 -12549700000.0 -48416800000.0 -12585900000.0 -35644400000.0 -42399000000.0 -49899900000.0 -15416200000.0 -12936100000.0 -28753600000.0 -47455400000.0 -15303800000.0 -49706200000.0 -35021800000.0 -35176300000.0 -15175800000.0 -26030900000.0 -22476900000.0 -58192500000.0 -29816600000.0 -12841800000.0 -51789800000.0 -49671800000.0 -29226400000.0 -22034100000.0 -33097500000.0 -15710900000.0 -35085100000.0 -23483800000.0 -28138200000.0 -42218200000.0 -25488300000.0 -24047400000.0 -31774200000.0 -27837200000.0 -29718600000.0 -26039600000.0 -31961500000.0 -31923400000.0 -12549700000.0 -36814200000.0 -35167500000.0 -41500300000.0 -42571100000.0 -13452800000.0 -32766700000.0 -16951300000.0 -18170600000.0 -32003600000.0 -41921000000.0 -22392900000.0 -26573300000.0 -20882200000.0 -17335100000.0 -20907500000.0 -30433700000.0 -12549700000.0 -12622000000.0 -28456700000.0 -45563200000.0 -20388400000.0 -29652700000.0 -43057500000.0 -12549700000.0 -12549700000.0 -38158600000.0 -77831800000.0 -45291800000.0 -50308500000.0 -14141700000.0 -30183600000.0 -32731500000.0 -33794800000.0 -26810300000.0 -33777000000.0 -28686400000.0 -25499000000.0 -28437400000.0 -12823000000.0 -19709600000.0 -47012400000.0 -37256900000.0 -16963700000.0 -19516800000.0 -45238800000.0 -59921900000.0 -24096200000.0 -13589500000.0 -35852100000.0 -22092400000.0 -44271900000.0 -24463300000.0 -17445500000.0 -25101700000.0 -12868500000.0 -51237000000.0 -15875900000.0 -65832400000.0 -38086800000.0 -46554100000.0 -34945900000.0 -16702500000.0 -42687400000.0 -13245700000.0 -23878100000.0 -38410200000.0 -34931900000.0 -13237500000.0 -27966600000.0 -36023600000.0 -22315200000.0 -35692900000.0 -27196100000.0 -29369900000.0 -46788700000.0 -73233700000.0 -12984700000.0 -68142300000.0 -12549700000.0 -73098300000.0 -100133000000.0 -36069100000.0 -55104500000.0 -20754300000.0 -22931300000.0 -19006300000.0 -22551500000.0 -23843200000.0 -14801200000.0 -22021700000.0 -15495900000.0 -14170100000.0 -16207800000.0 -13147300000.0 -35536400000.0 -24658000000.0 -30167100000.0 -29050400000.0 -16135700000.0 -20043600000.0 -23027500000.0 -57742200000.0 -35367400000.0 -28511000000.0 -35990100000.0 -37124700000.0 -31813500000.0 -27855300000.0 -30133600000.0 -43316000000.0 -36695000000.0 -24316900000.0 -26677000000.0 -15344300000.0 -38833400000.0 -26748400000.0 -34795600000.0 -34107200000.0 -12739800000.0 -34998100000.0 -17273400000.0 -13103100000.0 -20162700000.0 -13868500000.0 -26755400000.0 -39373300000.0 -32702500000.0 -12800500000.0 -28432300000.0 -13018600000.0 -22921400000.0 -17039400000.0 -20710600000.0 -41409300000.0 -69092700000.0 -18998200000.0 -61912600000.0 -69743500000.0 -53405700000.0 -26528300000.0 -24747700000.0 -18779800000.0 -13149400000.0 -13505900000.0 -35553400000.0 -26112600000.0 -14530000000.0 -36565100000.0 -45522900000.0 -13217500000.0 -16972200000.0 -15736200000.0 -29208100000.0 -29334700000.0 -13045500000.0 -12992500000.0 -35429400000.0 -39147100000.0 -40896300000.0 -74598800000.0 -36212700000.0 -29206400000.0 -30012700000.0 -20857100000.0 -13256100000.0 -17016400000.0 -60221200000.0 -37513400000.0 -77270100000.0 -37613600000.0 -94599900000.0 -28757000000.0 -44540400000.0 -31473500000.0 -16726700000.0 -12947100000.0 -43669600000.0 -32330500000.0 -41691200000.0 -40237800000.0 -20300400000.0 -13988800000.0 -13297300000.0 -12549700000.0 -12549700000.0 -71572900000.0 -83863500000.0 -18018400000.0 -37811500000.0 -20784200000.0 -19864200000.0 -19284200000.0 -26342200000.0 -16109600000.0 -33441100000.0 -19108700000.0 -26123900000.0 -17213200000.0 -17340300000.0 -25650600000.0 -15090100000.0 -17075600000.0 -12961800000.0 -17889700000.0 -21311600000.0 -12549700000.0 -36909500000.0 -37374600000.0 -25345900000.0 -17014900000.0 -13043300000.0 -26739800000.0 -16154500000.0 -34006000000.0 -30859200000.0 -19551300000.0 -17530900000.0 -12636100000.0 -31461300000.0 -17220900000.0 -13696600000.0 -17281800000.0 -19716100000.0 -16621300000.0 -15907400000.0 -17082200000.0 -18696000000.0 -12697900000.0 -37289600000.0 -50659900000.0 -47627800000.0 -13082200000.0 -38792700000.0 -47747300000.0 -64277000000.0 -20635100000.0 -18451100000.0 -18987700000.0 -85805600000.0 -28011700000.0 -28420100000.0 -13135000000.0 -21522000000.0 -15738800000.0 -20903400000.0 -16342900000.0 -18631000000.0 -30083800000.0 -33598300000.0 -21784700000.0 -40285600000.0 -30962900000.0 -23064400000.0 -31480000000.0 -42936000000.0 -49901100000.0 -43725700000.0 -19556400000.0 -26588400000.0 -12760600000.0 -26768100000.0 -46055000000.0 -37590700000.0 -33896700000.0 -39033600000.0 -19536400000.0 -20403200000.0 -34168400000.0 -14145800000.0 -51209400000.0 -46629500000.0 -63431200000.0 -70652700000.0 -33508000000.0 -42153800000.0 -26387400000.0 -63109800000.0 -39050700000.0 -31895600000.0 -40996700000.0 -18030000000.0 -40269900000.0 -20142200000.0 -13564900000.0 -14103700000.0 -13303300000.0 -12940900000.0 -21263100000.0 -33905400000.0 -19681100000.0 -17998300000.0 -26946100000.0 -21990000000.0 -30593600000.0 -13283900000.0 -15039900000.0 -27217500000.0 -28412400000.0 -18724600000.0 -15704500000.0 -13742800000.0 -12660500000.0 -17548400000.0 -12956300000.0 -15324600000.0 -12667800000.0 -26451300000.0 -23760700000.0 -18212100000.0 -45010900000.0 -62149000000.0 -22836900000.0 -13762000000.0 -34284300000.0 -17987900000.0 -19273700000.0 -20246000000.0 -23843200000.0 -15009900000.0 -13385600000.0 -13582600000.0 -42050000000.0 -48858200000.0 -23727200000.0 -27561700000.0 -39661800000.0 -39599000000.0 -15854200000.0 -30739900000.0 -22841200000.0 -12929300000.0 -54622600000.0 -77156600000.0 -51076300000.0 -20130800000.0 -17378000000.0 -17267400000.0 -17623800000.0 -59594800000.0 -61872900000.0 -16881700000.0 -17015000000.0 -33569800000.0 -16976700000.0 -23128400000.0 -16553400000.0 -16201800000.0 -23780100000.0 -53335000000.0 -42409300000.0 -28080200000.0 -12549700000.0 -25890500000.0 -12549700000.0 -23192200000.0 -25551900000.0 -17906900000.0 -14139500000.0 -25008600000.0 -26948000000.0 -40651800000.0 -13148400000.0 -22518800000.0 -17152900000.0 -47796500000.0 -35600300000.0 -27291100000.0 -29840400000.0 -43128400000.0 -26566300000.0 -32237600000.0 -50392200000.0 -36335800000.0 -37658600000.0 -35210600000.0 -40915200000.0 -53304400000.0 -19196200000.0 -55424000000.0 -12549700000.0 -26428300000.0 -12583200000.0 -21687700000.0 -33627400000.0 -42673800000.0 -18590200000.0 -12800500000.0 -14271400000.0 -14694400000.0 -12803800000.0 -19551800000.0 -13081400000.0 -16822500000.0 -69876000000.0 -32786700000.0 -12577000000.0 -12549700000.0 -31436300000.0 -22782400000.0 -26202600000.0 -22799200000.0 -15992300000.0 -20130300000.0 -28211900000.0 -15330300000.0 -29643200000.0 -16373800000.0 -16966100000.0 -22321000000.0 -19310200000.0 -37860700000.0 -12549700000.0 -20929200000.0 -13884300000.0 -27353300000.0 -28941000000.0 -31105800000.0 -12550300000.0 -23854200000.0 -14248300000.0 -16148300000.0 -18426700000.0 -33369400000.0 -19297600000.0 -32949500000.0 -21011400000.0 -39176600000.0 -22465700000.0 -30007800000.0 -23141100000.0 -16248500000.0 -18361200000.0 -25225800000.0 -17782000000.0 -60238800000.0 -14773800000.0 -31600700000.0 -40264700000.0 -41339900000.0 -24818600000.0 -34351800000.0 -24802000000.0 -102324000000.0 -40730100000.0 -53799000000.0 -48879300000.0 -52037000000.0 -24867100000.0 -33089100000.0 -43185300000.0 -28468000000.0 -35689000000.0 -67547400000.0 -45299500000.0 -40839300000.0 -13437300000.0 -36520500000.0 -21481300000.0 -25684900000.0 -20316200000.0 -29849000000.0 -23126300000.0 -45022500000.0 -20919500000.0 -13651600000.0 -32243700000.0 -29748100000.0 -38708500000.0 -32696200000.0 -26281600000.0 -37772300000.0 -24800500000.0 -18316200000.0 -23849100000.0 -45782900000.0 -15238700000.0 -17304600000.0 -29467500000.0 -13255500000.0 -17725600000.0 -40840300000.0 -36178800000.0 -29840000000.0 -12549700000.0 -20643800000.0 -19705400000.0 -26416800000.0 -15044800000.0 -38862600000.0 -16884000000.0 -13856200000.0 -14482700000.0 -14267300000.0 -13985300000.0 -14836800000.0 -36626700000.0 -39996800000.0 -26025900000.0 -26880100000.0 -33305400000.0 -14116800000.0 -18924100000.0 -13645300000.0 -17043200000.0 -13156700000.0 -13963500000.0 -20335900000.0 -23630600000.0 -20315800000.0 -14092600000.0 -28580500000.0 -22884200000.0 -27417900000.0 -12747500000.0 -13916600000.0 -35130900000.0 -31369700000.0 -18625400000.0 -24721900000.0 -28503900000.0 -28655000000.0 -12549700000.0 -30742400000.0 -28659600000.0 -22500300000.0 -15849600000.0 -16144700000.0 -12549600000.0 -36982000000.0 -36506500000.0 -29748700000.0 -12549700000.0 -35363500000.0 -12724900000.0 -23993300000.0 -15931800000.0 -35915500000.0 -30937800000.0 -40085800000.0 -27593700000.0 -23675300000.0 -136598000000.0 -59749900000.0 -59210300000.0 -66996800000.0 -34556900000.0 -98284400000.0 -20399700000.0 -54164100000.0 -45624300000.0 -46585600000.0 -59103800000.0 -12821300000.0 -43831100000.0 -14748900000.0 -37745600000.0 -21997300000.0 -12549700000.0 -24117000000.0 -19404600000.0 -28763300000.0 -23443600000.0 -39411900000.0 -19122100000.0 -31275600000.0 -41624600000.0 -35759300000.0 -18375000000.0 -13439300000.0 -12549700000.0 -12549700000.0 -13185900000.0 -12725700000.0 -12668000000.0 -22130900000.0 -19008600000.0 -30897500000.0 -21161200000.0 -45098400000.0 -12992900000.0 -27760300000.0 -12576900000.0 -53154500000.0 -23338300000.0 -23761200000.0 -13165800000.0 -26852800000.0 -21778000000.0 -39363200000.0 -34214000000.0 -39372800000.0 -34948000000.0 -38641300000.0 -12984500000.0 -46782600000.0 -16178400000.0 -14514900000.0 -12549700000.0 -14209200000.0 -12830100000.0 -16630000000.0 -12859300000.0 -24967900000.0 -13133500000.0 -36435000000.0 -32858500000.0 -23175200000.0 -18438700000.0 -14076900000.0 -16286200000.0 -15641400000.0 -24137300000.0 -14052200000.0 -20124600000.0 -13205800000.0 -22151500000.0 -15050100000.0 -13117900000.0 -17156900000.0 -12687400000.0 -12862200000.0 -12687000000.0 -12549700000.0 -12630000000.0 -13606600000.0 -21784500000.0 -30351300000.0 -12784900000.0 -13185800000.0 -41264000000.0 -25340100000.0 -42930800000.0 -34605200000.0 -22585300000.0 -16297500000.0 -31244100000.0 -18936800000.0 -44220700000.0 -23865600000.0 -60678500000.0 -46362300000.0 -33074300000.0 -12826900000.0 -23624800000.0 -16888400000.0 -12549600000.0 -44347600000.0 -60153400000.0 -76725300000.0 -83137300000.0 -13829100000.0 -81296100000.0 -80423400000.0 -54081400000.0 -30589700000.0 -71494000000.0 -63468000000.0 -42177800000.0 -45053300000.0 -70232400000.0 -42961000000.0 -45448400000.0 -32938000000.0 -33293300000.0 -26999900000.0 -15931500000.0 -17109400000.0 -18915000000.0 -18463400000.0 -22458600000.0 -20674200000.0 -12549700000.0 -18643100000.0 -14704000000.0 -15024700000.0 -15305900000.0 -24301800000.0 -26840700000.0 -26891800000.0 -46394200000.0 -12549700000.0 -38893400000.0 -16870900000.0 -17176700000.0 -24319200000.0 -29115600000.0 -21824000000.0 -23282200000.0 -27599600000.0 -13363000000.0 -20863600000.0 -38366000000.0 -61560100000.0 -24503500000.0 -14013400000.0 -12549700000.0 -14371700000.0 -12853200000.0 -12899100000.0 -13329100000.0 -15781900000.0 -14705000000.0 -13158500000.0 -20569800000.0 -16609300000.0 -28533600000.0 -12998200000.0 -12549700000.0 -17065100000.0 -14636300000.0 -12725500000.0 -14008900000.0 -13741900000.0 -12549700000.0 -15547800000.0 -23715300000.0 -13220300000.0 -13006000000.0 -13919600000.0 -13819800000.0 -15163200000.0 -12942500000.0 -13928900000.0 -12551700000.0 -12575100000.0 -12619900000.0 -12597200000.0 -12860200000.0 -16284300000.0 -22666200000.0 -17135500000.0 -26650500000.0 -25835300000.0 -30066000000.0 -21099300000.0 -46990400000.0 -16207400000.0 -64864900000.0 -51838500000.0 -51026300000.0 -45760300000.0 -54058700000.0 -48910200000.0 -20351600000.0 -48112200000.0 -41478500000.0 -46970900000.0 -28257400000.0 -18029500000.0 -83327200000.0 -13501000000.0 -56199800000.0 -72018500000.0 -53451200000.0 -76852800000.0 -15049100000.0 -50687500000.0 -70827400000.0 -42058800000.0 -45702600000.0 -13334700000.0 -85162700000.0 -22559900000.0 -14023800000.0 -19644500000.0 -29077900000.0 -18059300000.0 -13668100000.0 -17512500000.0 -13236400000.0 -15107700000.0 -17972200000.0 -18458400000.0 -20821000000.0 -21146400000.0 -12583500000.0 -17401200000.0 -12863500000.0 -14311200000.0 -14188500000.0 -18816800000.0 -14034500000.0 -32582000000.0 -16268300000.0 -34511100000.0 -19766100000.0 -35144100000.0 -29558800000.0 -18068900000.0 -20719800000.0 -19500400000.0 -20529300000.0 -20933600000.0 -24741100000.0 -36201000000.0 -44982800000.0 -37320700000.0 -13839700000.0 -32596400000.0 -20487000000.0 -15023600000.0 -18723400000.0 -19045800000.0 -18530300000.0 -18664100000.0 -17262000000.0 -17277000000.0 -16990900000.0 -27026200000.0 -23790400000.0 -16034800000.0 -15666500000.0 -13652800000.0 -19642900000.0 -19965900000.0 -18778500000.0 -17584000000.0 -12616500000.0 -12549700000.0 -12620100000.0 -12598000000.0 -12943400000.0 -13810300000.0 -14521300000.0 -13088700000.0 -12880300000.0 -12550100000.0 -12556400000.0 -12614200000.0 -12892600000.0 -14281200000.0 -12549700000.0 -23753900000.0 -12595200000.0 -12719600000.0 -42091200000.0 -23107400000.0 -39018200000.0 -32647400000.0 -19120800000.0 -40214100000.0 -56817700000.0 -18494900000.0 -16865900000.0 -20241100000.0 -17330600000.0 -93310200000.0 -33871400000.0 -50072900000.0 -73855700000.0 -46421900000.0 -21810900000.0 -81580500000.0 -13005500000.0 -29815600000.0 -119477000000.0 -160830000000.0 -86933300000.0 -27256500000.0 -94307500000.0 -53282500000.0 -30078300000.0 -56787700000.0 -27857800000.0 -12549700000.0 -71254200000.0 -33461800000.0 -14893400000.0 -25002000000.0 -27939900000.0 -16475400000.0 -14901700000.0 -17168700000.0 -17150100000.0 -12764900000.0 -20937500000.0 -18614800000.0 -12912000000.0 -17538000000.0 -12549700000.0 -14215000000.0 -15477600000.0 -13224300000.0 -13404400000.0 -20559800000.0 -19677200000.0 -19624200000.0 -16344800000.0 -12549700000.0 -23796300000.0 -21677300000.0 -31949500000.0 -12549700000.0 -19884000000.0 -15515100000.0 -18043500000.0 -12756200000.0 -12629800000.0 -12571000000.0 -19767600000.0 -13853700000.0 -19996000000.0 -19550100000.0 -29323700000.0 -16355900000.0 -20952400000.0 -12625500000.0 -46841300000.0 -16886200000.0 -14934900000.0 -12658300000.0 -12643100000.0 -14221600000.0 -13835900000.0 -13455100000.0 -14059800000.0 -14019100000.0 -13409600000.0 -14467500000.0 -23764000000.0 -16470200000.0 -21876000000.0 -19534900000.0 -14464700000.0 -14832000000.0 -15201600000.0 -15675100000.0 -17309900000.0 -19044300000.0 -15136300000.0 -14746400000.0 -15423000000.0 -16560000000.0 -15255400000.0 -15936800000.0 -15645600000.0 -14416200000.0 -15085200000.0 -16831300000.0 -18827500000.0 -34470900000.0 -27386600000.0 -28464700000.0 -33249000000.0 -23447800000.0 -13298300000.0 -53196000000.0 -46495700000.0 -26245900000.0 -19323400000.0 -22302200000.0 -81431000000.0 -31224000000.0 -26811800000.0 -46689200000.0 -27911700000.0 -78441200000.0 -12549700000.0 -47617000000.0 -52725400000.0 -29317200000.0 -116458000000.0 -13540400000.0 -28478400000.0 -19588800000.0 -16493400000.0 -87938600000.0 -48172800000.0 -26840000000.0 -34464200000.0 -35518900000.0 -50205100000.0 -52738200000.0 -24009800000.0 -23565200000.0 -22743700000.0 -13332500000.0 -13058600000.0 -12786200000.0 -15358700000.0 -13282500000.0 -16717700000.0 -21236700000.0 -14782100000.0 -14872300000.0 -16316400000.0 -16518900000.0 -16010600000.0 -15518100000.0 -20117500000.0 -16116200000.0 -15576300000.0 -16290900000.0 -19253200000.0 -21346500000.0 -39852600000.0 -15067500000.0 -24027300000.0 -20018000000.0 -15602600000.0 -18575000000.0 -17643100000.0 -17050300000.0 -13705900000.0 -18391800000.0 -21707600000.0 -12671500000.0 -37524100000.0 -20919000000.0 -15868400000.0 -12949900000.0 -13711500000.0 -12552200000.0 -12658400000.0 -13237600000.0 -12875000000.0 -13714700000.0 -12628200000.0 -12549700000.0 -13283800000.0 -15192200000.0 -12643300000.0 -12554900000.0 -12549700000.0 -18906500000.0 -14418700000.0 -17301400000.0 -16867900000.0 -15176000000.0 -16368000000.0 -16180000000.0 -15285400000.0 -15033200000.0 -14765800000.0 -16961200000.0 -19408600000.0 -21686000000.0 -14448100000.0 -17814700000.0 -16516000000.0 -28633100000.0 -15700600000.0 -24105800000.0 -40018000000.0 -12885300000.0 -51639200000.0 -38315600000.0 -41708500000.0 -54672800000.0 -50047000000.0 -12549700000.0 -26443800000.0 -81288500000.0 -55628800000.0 -24943100000.0 -61338700000.0 -13804100000.0 -126409000000.0 -15845900000.0 -14477000000.0 -103580000000.0 -13930200000.0 -26548500000.0 -104595000000.0 -12549700000.0 -30272000000.0 -68099900000.0 -15809800000.0 -24725900000.0 -13135500000.0 -13962200000.0 -27213300000.0 -12549700000.0 -20472000000.0 -22622300000.0 -21541400000.0 -24346000000.0 -19031100000.0 -21269300000.0 -13734500000.0 -13649100000.0 -15040100000.0 -12557500000.0 -12682900000.0 -12549700000.0 -15739300000.0 -16029400000.0 -13395300000.0 -14067000000.0 -13724500000.0 -14762700000.0 -29399400000.0 -15911700000.0 -14334400000.0 -14102600000.0 -15305200000.0 -16665800000.0 -13078700000.0 -13272400000.0 -17307000000.0 -12958600000.0 -18815600000.0 -23605500000.0 -32422800000.0 -22502400000.0 -16539200000.0 -14032600000.0 -13193500000.0 -12550400000.0 -12549800000.0 -12558700000.0 -12644400000.0 -13017900000.0 -12744600000.0 -12549700000.0 -12549700000.0 -12549700000.0 -13255300000.0 -12904800000.0 -12581200000.0 -12549700000.0 -12549700000.0 -12600600000.0 -12617300000.0 -12783700000.0 -14278700000.0 -13086300000.0 -13042800000.0 -12591700000.0 -13910800000.0 -13709700000.0 -15319000000.0 -15354200000.0 -15767200000.0 -15420700000.0 -32039300000.0 -19693900000.0 -20518500000.0 -21205200000.0 -27502400000.0 -22125000000.0 -22895500000.0 -27626000000.0 -25984800000.0 -27122600000.0 -41187500000.0 -54474200000.0 -13829100000.0 -39494300000.0 -61579700000.0 -71418300000.0 -71460500000.0 -82923400000.0 -114979000000.0 -61086600000.0 -108808000000.0 -138447000000.0 -28260100000.0 -42237800000.0 -103998000000.0 -23043700000.0 -52636000000.0 -28481500000.0 -28322600000.0 -46538700000.0 -60210300000.0 -75772600000.0 -25646000000.0 -17461100000.0 -16266000000.0 -15683900000.0 -20491100000.0 -13520400000.0 -13237800000.0 -13303400000.0 -24940800000.0 -17392800000.0 -18758800000.0 -15158000000.0 -14783600000.0 -14603300000.0 -13065000000.0 -13875100000.0 -13546600000.0 -14822800000.0 -12936700000.0 -12702200000.0 -12996200000.0 -12985000000.0 -12669800000.0 -17178000000.0 -14319000000.0 -12549700000.0 -13649800000.0 -14036000000.0 -19415300000.0 -18479400000.0 -22966600000.0 -23854200000.0 -14285900000.0 -19595600000.0 -16714400000.0 -12972300000.0 -12780600000.0 -12549700000.0 -12550800000.0 -12553500000.0 -12575400000.0 -12714500000.0 -12613800000.0 -12549700000.0 -12549700000.0 -12549700000.0 -12680200000.0 -12549700000.0 -12549700000.0 -12549700000.0 -12549700000.0 -12562900000.0 -12659000000.0 -13644100000.0 -13220600000.0 -13118500000.0 -13111000000.0 -12739600000.0 -12814500000.0 -15937800000.0 -13493500000.0 -13213100000.0 -15565500000.0 -13183700000.0 -23395100000.0 -14958600000.0 -14459000000.0 -13616500000.0 -31589300000.0 -18265000000.0 -61613900000.0 -64006300000.0 -50560000000.0 -19506900000.0 -46811300000.0 -67499700000.0 -59662700000.0 -53037000000.0 -131696000000.0 -83960700000.0 -72998200000.0 -86170400000.0 -57325200000.0 -25945100000.0 -76626700000.0 -26879200000.0 -50375700000.0 -95754800000.0 -29385100000.0 -18966300000.0 -19340300000.0 -14356400000.0 -14650300000.0 -15476400000.0 -15895400000.0 -14630300000.0 -12909100000.0 -12653100000.0 -12614500000.0 -12697400000.0 -13642200000.0 -13067700000.0 -12850700000.0 -16847200000.0 -14942700000.0 -14332900000.0 -15335000000.0 -13316200000.0 -13256500000.0 -14741500000.0 -12566500000.0 -14629700000.0 -15163100000.0 -16080900000.0 -23672400000.0 -16774600000.0 -15897600000.0 -16659600000.0 -13888700000.0 -13558000000.0 -12868700000.0 -12740700000.0 -18637000000.0 -15675300000.0 -12755400000.0 -15089700000.0 -12657400000.0 -12742400000.0 -13231400000.0 -12681500000.0 -12873200000.0 -13169400000.0 -14525400000.0 -13698200000.0 -13132800000.0 -16468900000.0 -17007500000.0 -14259400000.0 -15999600000.0 -21532200000.0 -45237600000.0 -50181900000.0 -92874300000.0 -62953700000.0 -68890000000.0 -73755300000.0 -52239000000.0 -84997500000.0 -77840300000.0 -73862000000.0 -34195000000.0 -12839700000.0 -118845000000.0 -62917400000.0 -44915000000.0 -68671600000.0 -55586700000.0 -105784000000.0 -17275900000.0 -20243800000.0 -16411600000.0 -12897300000.0 -12709100000.0 -12549700000.0 -13314000000.0 -13414500000.0 -13851200000.0 -12603300000.0 -12917200000.0 -12882500000.0 -12918000000.0 -14038200000.0 -12786300000.0 -17135700000.0 -16925300000.0 -19909900000.0 -20331800000.0 -20370000000.0 -39486900000.0 -56169600000.0 -32025100000.0 -13891200000.0 -102265000000.0 -41641700000.0 -47057400000.0 -43257300000.0 -12549700000.0 -67855900000.0 -106000000000.0 -125791000000.0 -58024200000.0 -51385000000.0 -113762000000.0 -70513100000.0 -71753700000.0 -70891900000.0 -63170400000.0 -122738000000.0 -19614300000.0 -22743200000.0 -39766700000.0 -51556900000.0 -37334000000.0 -39075700000.0 -136351000000.0 -93488300000.0 -50915200000.0 -70040400000.0 -291493000000.0 -144493000000.0 -171551000000.0 -96067000000.0 -91529700000.0 -24188900000.0 -13309200000.0 -170459000000.0 -16783100000.0 -15599000000.0 -20721800000.0 -32151000000.0 -56857300000.0 -28462100000.0 -107236000000.0 -114494000000.0 -19822400000.0 -55827600000.0 -38114500000.0 -125303000000.0 -13419900000.0 -129746000000.0 -314190000000.0 -14194100000.0 -59086000000.0 -94313700000.0 -12780900000.0 -80437300000.0 -54738900000.0 -166709000000.0 -14175700000.0 -15426900000.0 -12549700000.0 -27655600000.0 -39102900000.0 -123607000000.0 -147670000000.0 -51280400000.0 -71789900000.0 -67299400000.0 -58769200000.0 -216843000000.0 -127203000000.0 -37280800000.0 -121475000000.0 -42674100000.0 -84136200000.0 -118330000000.0 -34455200000.0 -16624100000.0 -18750700000.0 -12549700000.0 -12549700000.0 -12549700000.0 -19570600000.0 -20333400000.0 -75924500000.0 -19096100000.0 -147872000000.0 -12549700000.0 -37252200000.0 -52013200000.0 -37707700000.0 -216396000000.0 -79808900000.0 -93212800000.0 -59971800000.0 -14014900000.0 -89829100000.0 -127175000000.0 -66380000000.0 -41074200000.0 -12549700000.0 -12549700000.0 -12549700000.0 -12549700000.0 -12549700000.0 -12549700000.0 -12549700000.0 -12549700000.0 -12549700000.0 -12549700000.0 -12549700000.0 -12549700000.0 -12549700000.0 -12549700000.0 -12549700000.0 -14618900000.0 -12549700000.0 -19209600000.0 -25675500000.0 -91462000000.0 -64472900000.0 -77609700000.0 -130297000000.0 -65971200000.0 -71098900000.0 -304338000000.0 -148818000000.0 -91287900000.0 -63752600000.0 -136433000000.0 -227165000000.0 -200530000000.0 -245677000000.0 -114484000000.0 -74514900000.0 -45363200000.0 -23666300000.0 -12549700000.0 -12549700000.0 -12549700000.0 -12549700000.0 -12549700000.0 -12549700000.0 -12549700000.0 -12549700000.0 -12549700000.0 -12549700000.0 -12549700000.0 -12549700000.0 -12549700000.0 -78433800000.0 -12549700000.0 -12549700000.0 -12549700000.0 -12549700000.0 -12549700000.0 -12549700000.0 -12549700000.0 -12549700000.0 -12549700000.0 -12549100000.0 -12736600000.0 -12775900000.0 -12549700000.0 -12549700000.0 -61544200000.0 -12549700000.0 -13401800000.0 -20220600000.0 -62873700000.0 -85550300000.0 -66776800000.0 -81350500000.0 -196153000000.0 -150243000000.0 -106274000000.0 -124481000000.0 -61252400000.0 -104486000000.0 -170518000000.0 -25659600000.0 -107657000000.0 -30514900000.0 -211478000000.0 -99783500000.0 -32731100000.0 -49637700000.0 -128123000000.0 -44445300000.0 -15034600000.0 -12549700000.0 -12637100000.0 -12635200000.0 -12549700000.0 -12549700000.0 -12549700000.0 -12549700000.0 -12549700000.0 -12549700000.0 -12549700000.0 -12549700000.0 -1.57034e+12 -675844000000.0 -3.5312e+12 -326298000000.0 -12549200000.0 -1.75016e+12 -3.43279e+12 -2.87172e+12 -99843000000.0 -2.58451e+12 -752733000000.0 -1.92944e+12 -100845000000.0 -12550000000.0 -12549700000.0 -2.97494e+12 -5.78126e+12 -5.25199e+12 -5.00542e+12 -4.70425e+12 -4.46698e+12 -7.24152e+12 -335088000000.0 -5.34619e+12 -154902000000.0 -280642000000.0 -19639900000.0 -456377000000.0 -229127000000.0 -3.49774e+12 -225208000000.0 -3.3534e+12 -12549900000.0 -12549700000.0 -41117900000.0 -2.77712e+12 -77161500000.0 -4.96245e+12 -3.46894e+12 -5.35821e+12 -5.53413e+12 -12544500000.0 -12550200000.0 -12549700000.0 -4.1019e+12 -2.53391e+12 -3.9868e+12 -12549700000.0 -45652000000.0 -218561000000.0 -633647000000.0 -3.41847e+12 -765970000000.0 -458488000000.0 -909329000000.0 -395071000000.0 -337698000000.0 -215646000000.0 -139747000000.0 -127942000000.0 -28121100000.0 -80293900000.0 -74946800000.0 -262329000000.0 -341591000000.0 -207377000000.0 -252526000000.0 -247065000000.0 -127990000000.0 -198180000000.0 -31970000000.0 -158105000000.0 -35012800000.0 -76659300000.0 -275496000000.0 -223302000000.0 -286931000000.0 -12549700000.0 -124581000000.0 -71528400000.0 -4.90386e+12 -5.18427e+12 -12549700000.0 -5.54467e+12 -12562800000.0 -12565100000.0 -12549700000.0 -12547400000.0 -5.08943e+12 -4.56909e+12 -7.84122e+12 -2.65449e+12 -4.32181e+12 -5.33062e+12 -2.56506e+12 -757954000000.0 -4.08514e+12 -237332000000.0 -12549600000.0 -12549700000.0 -2.89364e+12 -82521100000.0 -315231000000.0 -22993000000.0 -52513500000.0 -12549700000.0 -2.29988e+12 -12549700000.0 -12549700000.0 -4.51452e+12 -3.64293e+12 -12549700000.0 -12549700000.0 -12549700000.0 -12549700000.0 -3.92543e+12 -3.90191e+12 -3.56762e+12 -12549700000.0 -3.42367e+12 -4.32299e+12 -5.06095e+12 -2.52951e+12 -339806000000.0 -12495400000.0 -62293900000.0 -4.42701e+12 -214815000000.0 -506303000000.0 -771496000000.0 -1.95407e+12 -1.25574e+12 -5.89103e+12 -2.26779e+12 -4.9803e+12 -7.1371e+12 -2.95558e+12 -8.04436e+12 -5.54457e+12 -7.78411e+12 -4.23103e+12 -6.71386e+12 -9.26978e+12 -4.36137e+12 -4.64116e+12 -7.10935e+12 -5.10251e+12 -5.15208e+12 -2.62431e+12 -4.95629e+12 -4.52285e+12 -5.29604e+12 -3.52831e+12 -5.68911e+12 -6.11967e+12 -5.13442e+12 -5.6655e+12 -5.64263e+12 -2.9065e+12 -5.2611e+12 -6.31161e+12 -4.73931e+12 -5.32234e+12 -5.39994e+12 -5.50216e+12 -1.10495e+13 -5.84404e+12 -5.73906e+12 -3.05108e+12 -8.57293e+12 -1.96307e+12 -4.36057e+12 -1.00476e+13 -4.31896e+12 -3.99882e+12 -4.23438e+12 -8.3921e+12 -7.04935e+12 -5.82857e+12 -4.204e+12 -5.68434e+12 -3.11655e+12 -3.83471e+12 -7.46827e+12 -4.46416e+12 -5.50067e+12 -8.8951e+12 -3.44875e+12 -5.89394e+12 -6.2549e+12 -9.68801e+12 -2.84144e+12 -4.81323e+12 -4.25767e+12 -3.45123e+12 -3.6146e+12 -4.28018e+12 -5.50186e+12 -4.47766e+12 -5.78497e+12 -4.97931e+12 -5.51933e+12 -4.41025e+12 -4.11263e+12 -5.91601e+12 -3.65459e+12 -3.26048e+12 -3.26649e+12 -5.61882e+12 -5.98635e+12 -3.62915e+12 -7.06597e+12 -5.61615e+12 -2.69477e+12 -3.27028e+12 -21885400000.0 -92867100000.0 -64857800000.0 -176403000000.0 -119478000000.0 -220081000000.0 -199076000000.0 -222310000000.0 -234342000000.0 -303823000000.0 -252055000000.0 -318950000000.0 -332678000000.0 -218682000000.0 -125785000000.0 -193791000000.0 -208617000000.0 -425652000000.0 -252103000000.0 -3.37778e+12 -3.50325e+12 -3.80328e+12 -4.51297e+12 -4.71962e+12 -3.69133e+12 -3.53178e+12 -1.0149e+13 -3.21036e+12 -6.48825e+12 -5.56243e+12 -7.22017e+12 -4.12862e+12 -5.23975e+12 -2.70825e+12 -4.96429e+12 -7.50593e+12 -5.60597e+12 -3.13441e+12 -12544800000.0 -4.5207e+12 -3.23611e+12 -4.45113e+12 -4.35142e+12 -5.43751e+12 -7.22171e+12 -5.5353e+12 -7.87741e+12 -6.50005e+12 -6.57696e+12 -5.81979e+12 -7.75895e+12 -7.01018e+12 -8.11661e+12 -3.15587e+12 -6.82868e+12 -2.96716e+12 -2.93765e+12 -1.10357e+13 -4.25968e+12 -5.90815e+12 -2.86075e+12 -7.74828e+12 -7.33253e+12 -2.79188e+12 -5.77114e+12 -4.58397e+12 -4.11343e+12 -3.75595e+12 -4.03482e+12 -5.67269e+12 -5.57833e+12 -6.19589e+12 -4.52402e+12 -4.55571e+12 -5.40933e+12 -6.98446e+12 -3.47391e+12 -4.76059e+12 -7.52271e+12 -6.20786e+12 -3.82558e+12 -4.46836e+12 -6.8062e+12 -6.83169e+12 -5.52034e+12 -5.95588e+12 -3.98803e+12 -5.90426e+12 -7.45982e+12 -5.39384e+12 -7.04653e+12 -3.20974e+12 -5.29874e+12 -5.04377e+12 -6.25921e+12 -5.4863e+12 -6.00193e+12 -3.54142e+12 -3.86557e+12 -4.87745e+12 -3.39651e+12 -5.96196e+12 -2.36964e+12 -4.49226e+12 -3.3402e+12 -4.57427e+12 -4.02262e+12 -9.10267e+12 -5.16707e+12 -4.68933e+12 -4.28775e+12 -4.58471e+12 -4.90816e+12 -3.98629e+12 -4.20399e+12 -4.76776e+12 -5.56894e+12 -2.90903e+12 -8.08237e+12 -5.02752e+12 -4.11848e+12 -8.19981e+12 -5.63854e+12 -6.73499e+12 -7.06486e+12 -5.03907e+12 -5.07084e+12 -4.17671e+12 -6.00446e+12 -7.32956e+12 -3.13335e+12 -8.50859e+12 -9.22701e+12 -6.5297e+12 -5.1785e+12 -6.47201e+12 -3.70838e+12 -4.9148e+12 -1.13782e+13 -8.10394e+12 -8.48484e+12 -5.55746e+12 -6.62932e+12 -5.7782e+12 -5.70636e+12 -3.02408e+12 -8.70429e+12 -5.93605e+12 -1.36308e+12 -4.71317e+12 -5.45175e+12 -6.16362e+12 -5.42365e+12 -5.0981e+12 -3.89212e+12 -889959000000.0 -4.96734e+12 -5.5495e+12 -5.31083e+12 -7.94307e+12 -8.4081e+12 -8.3585e+12 -7.72335e+12 -6.21871e+12 -9.73987e+12 -6.82353e+12 -4.98864e+12 -3.59294e+12 -2.02454e+12 -1.05034e+13 -4.54585e+12 -5.61706e+12 -5.32074e+12 -6.85902e+12 -4.58772e+12 -3.91147e+12 -1.03825e+13 -6.24997e+12 -3.94136e+12 -6.55049e+12 -50661400000.0 -68229600000.0 -106324000000.0 -52989200000.0 -299958000000.0 -36417000000.0 -149725000000.0 -208044000000.0 -275475000000.0 -248509000000.0 -103231000000.0 -57688000000.0 -173940000000.0 -30988300000.0 -204212000000.0 -252603000000.0 -369866000000.0 -159239000000.0 -355180000000.0 -548629000000.0 -421032000000.0 -5.51262e+12 -5.60711e+12 -7.72897e+12 -7.27585e+12 -4.86984e+12 -5.56038e+12 -6.29034e+12 -5.68719e+12 -7.31924e+12 -4.27342e+12 -6.08318e+12 -4.54493e+12 -9.08411e+12 -7.99932e+12 -1.06132e+13 -5.44986e+12 -4.30918e+12 -3.67624e+12 -8.36181e+12 -1.29365e+13 -6.58375e+12 -6.22232e+12 -4.3207e+12 -7.3221e+12 -7.21067e+12 -3.27635e+12 -4.54955e+12 -4.73428e+12 -4.69671e+12 -4.9641e+12 -5.0931e+12 -5.15508e+12 -9.03292e+12 -4.83049e+12 -6.43978e+12 -7.50335e+12 -5.38457e+12 -4.67447e+12 -6.40395e+12 -3.88456e+12 -6.1792e+12 -7.60936e+12 -4.74187e+12 -5.78996e+12 -7.5035e+12 -8.8052e+12 -1.05018e+12 -7.26863e+12 -8.31283e+12 -3.3338e+12 -7.79945e+12 -6.66388e+12 -3.27305e+12 -5.54402e+12 -5.02616e+12 -3.92727e+12 -7.69876e+12 -5.5373e+12 -5.59824e+12 -4.36906e+12 -8.75829e+12 -6.86013e+12 -4.87286e+12 -4.79213e+12 -8.39485e+12 -4.43327e+12 -4.89137e+12 -7.06768e+12 -6.64255e+12 -3.81314e+12 -5.40426e+12 -7.46611e+12 -5.69114e+12 -6.79441e+12 -9.03255e+12 -7.17928e+12 -5.12189e+12 -6.19808e+12 -5.02753e+12 -6.01239e+12 -5.37326e+12 -5.31005e+12 -5.73535e+12 -5.02852e+12 -2.14144e+12 -6.46828e+12 -4.47709e+12 -5.01511e+12 -7.74922e+12 -4.77647e+12 -6.64349e+12 -9.68307e+12 -3.45632e+12 -3.01839e+12 -3.97414e+12 -2.56468e+12 -6.72752e+12 -6.1365e+12 -4.93388e+12 -6.65354e+12 -6.16015e+12 -8.15035e+12 -6.82771e+12 -6.76365e+12 -7.35027e+12 -5.56235e+12 -5.32507e+12 -2.62744e+12 -4.8883e+12 -8.17127e+12 -6.03656e+12 -7.15938e+12 -4.95002e+12 -4.74766e+12 -5.8048e+12 -5.84102e+12 -5.55016e+12 -5.95041e+12 -8.39467e+12 -4.24861e+12 -8.77614e+12 -6.0455e+12 -5.23171e+12 -5.0206e+12 -5.93869e+12 -6.41197e+12 -2.24589e+12 -4.46687e+12 -4.38412e+12 -5.94922e+12 -5.64509e+12 -4.69118e+12 -5.21907e+12 -3.60123e+12 -6.9851e+12 -6.38672e+12 -5.3909e+12 -4.8725e+12 -2.51367e+12 -53477500000.0 -137115000000.0 -525972000000.0 -419820000000.0 -350077000000.0 -377731000000.0 -94511800000.0 -159011000000.0 -268162000000.0 -282100000000.0 -13081600000.0 -264521000000.0 -305450000000.0 -528158000000.0 -346471000000.0 -261343000000.0 -44738800000.0 -102115000000.0 -6.33112e+12 -5.05387e+12 -3.48562e+12 -6.83895e+12 -5.78735e+12 -2.50922e+12 -6.91272e+12 -4.44501e+12 -3.78953e+12 -6.97308e+12 -7.24291e+12 -3.27498e+12 -4.28112e+12 -7.06376e+12 -6.18236e+12 -3.77664e+12 -5.68779e+12 -8.2753e+12 -4.72876e+12 -7.16427e+12 -8.54461e+12 -4.52693e+12 -5.56125e+12 -9.6053e+12 -7.8748e+12 -4.58281e+12 -5.67912e+12 -5.70627e+12 -2.99769e+12 -6.4807e+12 -3.57409e+12 -9.12154e+12 -6.01722e+12 -5.86459e+12 -7.51736e+12 -6.98424e+12 -8.37943e+12 -7.54434e+12 -2.96527e+12 -6.00242e+12 -5.64077e+12 -6.51998e+12 -4.98611e+12 -6.07174e+12 -4.833e+12 -8.03458e+12 -7.20806e+12 -7.34064e+12 -7.70986e+12 -6.51275e+12 -9.85456e+12 -5.64973e+12 -7.62422e+12 -3.41119e+12 -4.59721e+12 -5.5836e+12 -8.03815e+12 -8.22353e+12 -6.39835e+12 -7.2919e+12 -6.9322e+12 -6.22038e+12 -6.13046e+12 -3.83081e+12 -5.36655e+12 -5.29681e+12 -6.09659e+12 -7.70245e+12 -8.51798e+12 -6.69586e+12 -2.94974e+12 -2.86043e+12 -3.38786e+12 -4.79649e+12 -5.14057e+12 -6.85283e+12 -5.05595e+12 -5.07991e+12 -6.28522e+12 -5.57314e+12 -4.33001e+12 -4.70505e+12 -3.67998e+12 -4.12874e+12 -3.41147e+12 -4.66207e+12 -3.93363e+12 -7.77711e+12 -4.32738e+12 -2.35547e+12 -5.61916e+12 -5.12679e+12 -6.4246e+12 -4.95935e+12 -6.1247e+12 -1.00911e+13 -4.90209e+12 -3.55237e+12 -5.46762e+12 -6.23044e+12 -4.1874e+12 -5.73676e+12 -4.36173e+12 -7.02257e+12 -6.75671e+12 -6.81683e+12 -5.03255e+12 -4.98582e+12 -5.87525e+12 -4.6528e+12 -3.06168e+12 -4.20674e+12 -5.49028e+12 -5.38753e+12 -7.20691e+12 -6.80486e+12 -4.33598e+12 -6.19977e+12 -2.66389e+12 -6.17543e+12 -7.64715e+12 -4.68562e+12 -5.11076e+12 -5.75029e+12 -4.11223e+12 -4.92171e+12 -7.47658e+12 -3.66812e+12 -5.86612e+12 -4.63215e+12 -5.77155e+12 -5.29284e+12 -6.03351e+12 -2.7341e+12 -2.26337e+12 -3.24898e+12 -652438000000.0 -12549700000.0 -754510000000.0 -693685000000.0 -465073000000.0 -12549700000.0 -86466600000.0 -99724400000.0 -130606000000.0 -353914000000.0 -152963000000.0 -342865000000.0 -221921000000.0 -219075000000.0 -209829000000.0 -84423600000.0 -99431100000.0 -271063000000.0 -277368000000.0 -442525000000.0 -168021000000.0 -3.05117e+12 -68071500000.0 -145889000000.0 -5.11255e+12 -4.0884e+12 -5.17099e+12 -3.02238e+12 -5.28034e+12 -8.19319e+12 -5.51207e+12 -4.11613e+12 -3.58402e+12 -6.26561e+12 -6.09275e+12 -9.43512e+12 -4.22236e+12 -3.26747e+12 -4.1899e+12 -5.86353e+12 -9.70665e+12 -6.15853e+12 -5.33286e+12 -6.40066e+12 -8.77276e+12 -6.17446e+12 -4.63875e+12 -5.07261e+12 -9.67003e+12 -6.16062e+12 -5.36678e+12 -4.04973e+12 -7.13055e+12 -6.30205e+12 -4.29668e+12 -3.20459e+12 -5.61928e+12 -5.48234e+12 -5.26372e+12 -5.95551e+12 -5.16492e+12 -5.12163e+12 -4.47484e+12 -6.87013e+12 -5.5177e+12 -6.61161e+12 -4.72191e+12 -5.36851e+12 -4.72568e+12 -5.89523e+12 -3.57247e+12 -7.18354e+12 -5.17861e+12 -4.17463e+12 -4.96936e+12 -8.60851e+12 -4.66032e+12 -6.13964e+12 -4.69069e+12 -6.46534e+12 -5.28804e+12 -2.99256e+12 -4.21448e+12 -2.36932e+12 -4.6406e+12 -6.52062e+12 -4.891e+12 -6.78498e+12 -9.17009e+12 -4.50307e+12 -3.54618e+12 -5.74555e+12 -6.07771e+12 -4.43654e+12 -3.20113e+12 -3.49422e+12 -4.76377e+12 -4.74982e+12 -2.13474e+12 -4.68557e+12 -6.10983e+12 -4.83952e+12 -5.71268e+12 -5.18565e+12 -4.62468e+12 -6.94047e+12 -7.0257e+12 -3.56673e+12 -5.00911e+12 -6.96864e+12 -4.32672e+12 -5.53919e+12 -4.02709e+12 -5.06443e+12 -4.86403e+12 -5.40716e+12 -7.50484e+12 -5.8392e+12 -9.17677e+12 -2.61265e+12 -3.25903e+12 -2.56383e+12 -3.72829e+12 -5.57232e+12 -4.28497e+12 -4.93224e+12 -5.54682e+12 -5.05963e+12 -3.15357e+12 -2.5259e+12 -4.36596e+12 -3.34479e+12 -5.83858e+12 -5.16948e+12 -7.52373e+12 -3.25607e+12 -3.98781e+12 -5.7325e+12 -3.21776e+12 -2.14514e+12 -3.8186e+12 -3.59229e+12 -2.04236e+12 -207588000000.0 -17989500000.0 -474796000000.0 -205460000000.0 -106356000000.0 -130005000000.0 -155557000000.0 -88376200000.0 -70462600000.0 -231106000000.0 -38039200000.0 -122200000000.0 -57944800000.0 -39191200000.0 -215389000000.0 -45950800000.0 -12734500000.0 -62392500000.0 -349289000000.0 -18073700000.0 -4.52542e+12 -6.63133e+12 -6.27862e+12 -4.36471e+12 -7.11746e+12 -2.27148e+12 -2.07437e+12 -3.44062e+12 -5.75627e+12 -5.97689e+12 -4.05762e+12 -7.76462e+12 -5.75755e+12 -7.11695e+12 -7.97712e+12 -4.74091e+12 -4.94053e+12 -8.36893e+12 -6.74134e+12 -3.9257e+12 -5.20964e+12 -7.18994e+12 -5.3625e+12 -5.78747e+12 -7.70639e+12 -3.29084e+12 -7.59042e+12 -5.86177e+12 -3.98198e+12 -3.92878e+12 -5.88734e+12 -4.35897e+12 -5.88006e+12 -4.79703e+12 -4.9261e+12 -5.66111e+12 -4.78239e+12 -4.64907e+12 -3.88406e+12 -1.36553e+12 -2.38556e+12 -3.40032e+12 -4.29817e+12 -5.01742e+12 -7.92794e+12 -4.42883e+12 -5.28327e+12 -4.27232e+12 -3.02138e+12 -5.088e+12 -3.44404e+12 -5.69448e+12 -3.01588e+12 -4.2483e+12 -3.48422e+12 -7.74579e+12 -5.41819e+12 -6.01522e+12 -3.18343e+12 -4.14152e+12 -4.26176e+12 -5.43056e+12 -5.32305e+12 -5.22992e+12 -5.31836e+12 -5.17489e+12 -3.19405e+12 -4.21006e+12 -4.94489e+12 -7.85986e+12 -1.92466e+12 -5.59783e+12 -3.75911e+12 -1.35072e+12 -2.67551e+12 -4.77444e+12 -5.28146e+12 -4.02891e+12 -4.14871e+12 -4.65013e+12 -4.41813e+12 -5.23928e+12 -5.34632e+12 -3.55537e+12 -4.21046e+12 -5.15004e+12 -2.94173e+12 -3.99929e+12 -6.44045e+12 -4.29572e+12 -4.7196e+12 -5.30378e+12 -6.00879e+12 -4.87027e+12 -4.14189e+12 -3.29413e+12 -4.24236e+12 -4.8589e+12 -2.40556e+12 -3.91322e+12 -2.68277e+12 -6.48693e+12 -7.00893e+12 -6.68829e+12 -4.12715e+12 -4.29539e+12 -3.73872e+12 -7.47894e+12 -3.91582e+12 -4.23773e+12 -5.97649e+12 -2.77199e+12 -3.82913e+12 -6.37394e+12 -5.34757e+12 -3.37169e+12 -3.06236e+12 -4.91466e+12 -4.6053e+12 -82529500000.0 -355607000000.0 -242887000000.0 -442921000000.0 -333140000000.0 -199810000000.0 -165341000000.0 -136425000000.0 -161332000000.0 -141241000000.0 -26299900000.0 -62447800000.0 -115785000000.0 -47953600000.0 -153839000000.0 -121621000000.0 -139551000000.0 -168179000000.0 -225419000000.0 -4.16542e+12 -3.672e+12 -6.9348e+12 -3.30625e+12 -2.15949e+12 -4.03938e+12 -2.99857e+12 -7.47101e+12 -4.54815e+12 -4.86565e+12 -2.58223e+12 -7.37752e+12 -4.79877e+12 -8.53977e+12 -3.01736e+12 -4.06269e+12 -3.5952e+12 -5.34382e+12 -4.7625e+12 -5.28228e+12 -4.48988e+12 -4.60777e+12 -5.32681e+12 -6.33073e+12 -7.05758e+12 -2.9431e+12 -2.19112e+12 -4.90307e+12 -3.37134e+12 -4.31163e+12 -3.26254e+12 -5.4769e+12 -4.50451e+12 -4.73857e+12 -5.09911e+12 -4.44552e+12 -4.14075e+12 -3.32269e+12 -5.33047e+12 -4.05736e+12 -5.72239e+12 -2.50479e+12 -3.33382e+12 -5.20596e+12 -4.41513e+12 -3.24372e+12 -3.79456e+12 -4.15653e+12 -4.9991e+12 -5.5189e+12 -3.15534e+12 -2.08597e+12 -6.81346e+12 -3.85539e+12 -3.49336e+12 -1.39247e+12 -4.77219e+12 -4.3896e+12 -3.17013e+12 -6.68103e+12 -4.15688e+12 -4.6044e+12 -7.62498e+12 -3.49649e+12 -3.83743e+12 -2.76202e+12 -5.24232e+12 -3.78696e+12 -4.17654e+12 -4.10893e+12 -4.06697e+12 -3.6803e+12 -3.66912e+12 -2.24074e+12 -2.17912e+12 -4.18385e+12 -5.66633e+12 -4.02707e+12 -6.45972e+12 -2.81463e+12 -5.33412e+12 -6.56009e+12 -4.63571e+12 -3.16727e+12 -7.30098e+12 -3.58113e+12 -3.80974e+12 -5.32285e+12 -4.08934e+12 -3.87322e+12 -2.64453e+12 -6.70553e+12 -4.88191e+12 -3.4371e+12 -2.47527e+12 -3.60785e+12 -5.18098e+12 -4.94685e+12 -2.54088e+12 -5.78699e+12 -5.07477e+12 -5.10196e+12 -3.57397e+12 -5.99684e+12 -4.59443e+12 -4.59739e+12 -5.40668e+12 -4.49111e+12 -3.14594e+12 -454351000000.0 -81806800000.0 -31898600000.0 -219912000000.0 -88541500000.0 -272907000000.0 -245417000000.0 -282453000000.0 -286071000000.0 -257070000000.0 -298925000000.0 -297410000000.0 -359435000000.0 -327709000000.0 -244592000000.0 -142114000000.0 -71055600000.0 -134523000000.0 -12549700000.0 -240376000000.0 -3.54309e+12 -2.91227e+12 -2.46576e+12 -3.74075e+12 -3.65101e+12 -4.00796e+12 -4.33088e+12 -5.38646e+12 -5.77579e+12 -6.75367e+12 -3.6882e+12 -5.53383e+12 -4.10436e+12 -3.49497e+12 -2.3805e+12 -3.22151e+12 -4.39347e+12 -3.26574e+12 -6.4341e+12 -5.41548e+12 -3.94227e+12 -2.94023e+12 -6.35262e+12 -7.49863e+12 -4.73844e+12 -2.77973e+12 -2.45236e+12 -6.72519e+12 -2.77249e+12 -3.75286e+12 -3.40602e+12 -4.24037e+12 -2.51894e+12 -6.21585e+12 -6.12972e+12 -4.81019e+12 -4.55783e+12 -5.75039e+12 -2.48457e+12 -3.32872e+12 -5.32775e+12 -5.06501e+12 -6.45658e+12 -3.80445e+12 -3.94049e+12 -4.67667e+12 -4.65635e+12 -3.2614e+12 -3.30234e+12 -3.16191e+12 -3.76014e+12 -4.77582e+12 -2.92846e+12 -3.41328e+12 -5.60403e+12 -2.35515e+12 -4.38484e+12 -5.57846e+12 -3.26151e+12 -2.64595e+12 -4.45067e+12 -3.28852e+12 -2.47649e+12 -2.95113e+12 -1.83778e+12 -3.10856e+12 -5.97405e+12 -5.31248e+12 -2.56501e+12 -224197000000.0 -3.10979e+12 -3.55657e+12 -7.51433e+12 -4.23492e+12 -3.63107e+12 -2.74457e+12 -3.49889e+12 -2.04591e+12 -4.12975e+12 -5.47304e+12 -4.82638e+12 -2.55003e+12 -2.21344e+12 -4.50316e+12 -6.05213e+12 -3.09811e+12 -2.37164e+12 -3.67606e+12 -3.96349e+12 -1.64458e+12 -3.33654e+12 -3.23887e+12 -4.01831e+12 -1.68635e+12 -5.82381e+12 -5.54998e+12 -4.99659e+12 -4.36198e+12 -4.01206e+12 -2.43499e+12 -3.08739e+12 -5.44566e+12 -3.38779e+12 -2.18418e+12 -4.75971e+12 -3.59836e+12 -2.84773e+12 -3.55709e+12 -4.27557e+12 -1.58017e+12 -1.88686e+12 -2.34695e+12 -1.72584e+12 -30815900000.0 -119554000000.0 -120830000000.0 -133361000000.0 -178263000000.0 -44250400000.0 -106425000000.0 -12549700000.0 -163705000000.0 -169899000000.0 -138497000000.0 -174451000000.0 -150271000000.0 -177190000000.0 -136820000000.0 -254418000000.0 -150447000000.0 -135436000000.0 -156679000000.0 -165140000000.0 -117843000000.0 -14831000000.0 -4.45557e+12 -3.90631e+12 -2.69092e+12 -3.3644e+12 -4.04325e+12 -3.27518e+12 -2.39214e+12 -3.47946e+12 -5.57859e+12 -5.57788e+12 -2.77487e+12 -4.50404e+12 -2.94499e+12 -4.62817e+12 -3.96042e+12 -5.12952e+12 -2.2313e+12 -1.97074e+12 -2.60148e+12 -4.1287e+12 -2.51243e+12 -2.78979e+12 -2.26625e+12 -2.35203e+12 -1.59886e+12 -1.99737e+12 -2.63052e+12 -4.09567e+12 -6.49454e+12 -2.70303e+12 -2.25479e+12 -4.23102e+12 -3.26914e+12 -2.23963e+12 -3.80639e+12 -5.47763e+12 -4.70157e+12 -4.84665e+12 -1.76343e+12 -2.3348e+12 -3.00518e+12 -2.56141e+12 -3.32538e+12 -4.70171e+12 -4.85043e+12 -1.9477e+12 -3.03481e+12 -3.77829e+12 -4.78632e+12 -4.26049e+12 -3.30236e+12 -2.4442e+12 -2.89768e+12 -3.11284e+12 -4.79085e+12 -4.53438e+12 -4.14546e+12 -2.54912e+12 -6.39899e+12 -4.9823e+12 -1.68525e+12 -1.91487e+12 -3.97111e+12 -3.48549e+12 -7.64585e+12 -2.80893e+12 -2.26491e+12 -4.95483e+12 -6.11868e+12 -3.40778e+12 -3.58833e+12 -2.95552e+12 -4.95091e+12 -4.13687e+12 -3.54931e+12 -3.94188e+12 -3.55187e+12 -4.05477e+12 -4.21096e+12 -4.27503e+12 -2.91028e+12 -4.10408e+12 -2.7652e+12 -4.97413e+12 -3.2204e+12 -3.74028e+12 -4.33684e+12 -5.48153e+12 -5.54209e+12 -2.64135e+12 -4.61234e+12 -4.1639e+12 -4.04429e+12 -3.92554e+12 -2.53452e+12 -4.88077e+12 -4.83044e+12 -5.15198e+12 -1.25773e+12 -4.31911e+12 -1.75963e+12 -3.10521e+12 -3.21873e+12 -1.99952e+12 -4.52299e+12 -2.98877e+12 -5.09971e+12 -1.58996e+12 -29485400000.0 -31755500000.0 -117566000000.0 -107702000000.0 -107592000000.0 -149075000000.0 -126079000000.0 -71424200000.0 -77206900000.0 -55444500000.0 -74092900000.0 -40196700000.0 -35137400000.0 -166582000000.0 -100401000000.0 -45781200000.0 -20464600000.0 -47304900000.0 -94532200000.0 -30629400000.0 -3.41501e+12 -4.46673e+12 -3.43996e+12 -2.68431e+12 -2.24362e+12 -2.1619e+12 -2.88651e+12 -2.33793e+12 -3.44666e+12 -3.51553e+12 -2.49886e+12 -3.49459e+12 -3.63414e+12 -3.78692e+12 -1.88322e+12 -2.8699e+12 -2.97322e+12 -2.72454e+12 -4.08054e+12 -4.1905e+12 -2.4448e+12 -1.95527e+12 -3.59302e+12 -5.32743e+12 -1.35879e+12 -2.41316e+12 -3.97575e+12 -4.60868e+12 -2.79795e+12 -5.00853e+12 -3.41883e+12 -2.8863e+12 -3.34749e+12 -2.00649e+12 -1.8528e+12 -5.69121e+12 -2.19936e+12 -3.04474e+12 -5.37428e+12 -3.12898e+12 -2.36708e+12 -4.26039e+12 -1.90289e+12 -3.69723e+12 -3.96677e+12 -1.88777e+12 -3.58421e+12 -4.39912e+12 -2.78678e+12 -3.76401e+12 -2.75314e+12 -2.3565e+12 -5.18545e+12 -2.68143e+12 -4.54217e+12 -2.35656e+12 -3.40045e+12 -4.29974e+12 -3.56418e+12 -3.8402e+12 -3.57683e+12 -3.4489e+12 -1.99767e+12 -1.96639e+12 -2.27481e+12 -2.82497e+12 -1.44769e+12 -3.05748e+12 -2.06724e+12 -2.75922e+12 -2.7444e+12 -2.86439e+12 -2.34436e+12 -1.66389e+12 -3.53303e+12 -6.83343e+12 -2.437e+12 -3.26139e+12 -3.70283e+12 -2.10051e+12 -1.73602e+12 -3.56812e+12 -3.36626e+12 -2.40822e+12 -1.63445e+12 -2.55644e+12 -2.91129e+12 -3.14536e+12 -2.26889e+12 -3.26792e+12 -3.41509e+12 -2.64753e+12 -2.7179e+12 -4.90803e+12 -1.93385e+12 -13110700000.0 -41749500000.0 -113617000000.0 -29637600000.0 -62857000000.0 -75336400000.0 -75044200000.0 -107597000000.0 -82851500000.0 -125884000000.0 -118602000000.0 -149528000000.0 -132795000000.0 -198804000000.0 -52138900000.0 -79124200000.0 -36483800000.0 -38605600000.0 -82724900000.0 -86373300000.0 -3.47806e+12 -3.93931e+12 -4.21625e+12 -4.72402e+12 -3.11967e+12 -2.42032e+12 -3.02904e+12 -3.22317e+12 -2.68321e+12 -2.87323e+12 -4.71388e+12 -2.53109e+12 -5.16681e+12 -2.20509e+12 -4.0448e+12 -2.05426e+12 -3.81296e+12 -3.22259e+12 -2.96672e+12 -3.17198e+12 -2.43578e+12 -3.42012e+12 -3.20523e+12 -2.68522e+12 -4.40839e+12 -2.37548e+12 -2.95558e+12 -2.89644e+12 -1.27106e+12 -3.34294e+12 -3.55235e+12 -2.71291e+12 -2.28789e+12 -2.93628e+12 -2.2367e+12 -2.75094e+12 -1.40195e+12 -4.23812e+12 -3.71582e+12 -1.68127e+12 -1.11306e+12 -2.29401e+12 -4.30186e+12 -4.86906e+12 -2.98281e+12 -3.26731e+12 -3.16045e+12 -2.23319e+12 -1.61408e+12 -4.46523e+12 -2.09917e+12 -2.94432e+12 -1.51127e+12 -3.3436e+12 -1.69675e+12 -1.34405e+12 -2.1071e+12 -2.3789e+12 -3.25865e+12 -1.59816e+12 -2.25864e+12 -4.33385e+12 -1.51063e+12 -2.39433e+12 -3.1129e+12 -1.54003e+12 -2.54638e+12 -2.67428e+12 -4.05756e+12 -572711000000.0 -2.49737e+12 -2.37941e+12 -2.52124e+12 -1.7725e+12 -3.8574e+12 -845610000000.0 -2.52959e+12 -1.57557e+12 -1.3723e+12 -3.21447e+12 -3.09527e+12 -1.89339e+12 -2.09375e+12 -3.21263e+12 -2.86868e+12 -1.8617e+12 -3.28648e+12 -1.81752e+12 -1.40396e+12 -2.02079e+12 -3.33586e+12 -2.7097e+12 -1.80644e+12 -2.88877e+12 -2.59675e+12 -1.40408e+12 -2.84085e+12 -2.32195e+12 -2.24416e+12 -3.09928e+12 -1.92574e+12 -2.26988e+12 -3.18485e+12 -2.7591e+12 -17270300000.0 -104026000000.0 -16388800000.0 -40377800000.0 -59060200000.0 -65635900000.0 -47790400000.0 -107697000000.0 -70659000000.0 -129326000000.0 -83106700000.0 -22408300000.0 -15555000000.0 -192520000000.0 -12549700000.0 -75878000000.0 -15322700000.0 -12827200000.0 -103292000000.0 -28641200000.0 -2.19888e+12 -1.84148e+12 -1.16243e+12 -3.10267e+12 -2.56852e+12 -1.23798e+12 -2.56923e+12 -1.81892e+12 -3.53287e+12 -1.76104e+12 -2.43673e+12 -4.48453e+12 -2.78291e+12 -4.11482e+12 -4.40031e+12 -2.70094e+12 -3.12784e+12 -1.73019e+12 -2.00447e+12 -1.43007e+12 -2.71752e+12 -1.66753e+12 -813957000000.0 -2.19897e+12 -1.96212e+12 -616406000000.0 -2.35267e+12 -544355000000.0 -3.13132e+12 -2.80312e+12 -2.27767e+12 -4.85175e+12 -1.79534e+12 -2.40306e+12 -2.77107e+12 -4.04587e+12 -2.80299e+12 -1.92891e+12 -2.23371e+12 -2.48957e+12 -1.22137e+12 -1.59527e+12 -2.04131e+12 -2.59358e+12 -1.66324e+12 -1.97241e+12 -3.16855e+12 -2.7897e+12 -2.13051e+12 -3.42403e+12 -2.63723e+12 -1.72464e+12 -1.82126e+12 -2.05538e+12 -1.63008e+12 -2.47028e+12 -3.20302e+12 -471344000000.0 -2.13428e+12 -1.16512e+12 -1.17221e+12 -2.11334e+12 -2.6924e+12 -1.76372e+12 -775248000000.0 -888023000000.0 -2.75195e+12 -2.03549e+12 -1.88713e+12 -2.22071e+12 -3.31564e+12 -2.2704e+12 -2.17461e+12 -3.10948e+12 -1.89056e+12 -1.71321e+12 -2.33227e+12 -1.98931e+12 -1.91446e+12 -1.46679e+12 -2.10486e+12 -2.93213e+12 -1.19095e+12 -1.55963e+12 -2.71569e+12 -1.92535e+12 -2.37237e+12 -673189000000.0 -1.74579e+12 -2.08427e+12 -2.1572e+12 -1.6801e+12 -2.60745e+12 -809936000000.0 -1.71438e+12 -2.54695e+12 -1.95819e+12 -2.6172e+12 -2.31052e+12 -794639000000.0 -2.04098e+12 -12738900000.0 -62599100000.0 -23554100000.0 -22381300000.0 -35900300000.0 -63522000000.0 -76584500000.0 -14293300000.0 -12549700000.0 -69133200000.0 -40113900000.0 -66717000000.0 -70302300000.0 -79675700000.0 -269070000000.0 -58657100000.0 -94123700000.0 -94836300000.0 -22455600000.0 -55388100000.0 -1.2805e+12 -1.90409e+12 -1.93888e+12 -1.80888e+12 -5.09745e+12 -1.21491e+12 -2.18189e+12 -2.01311e+12 -4.02659e+12 -1.14566e+12 -2.49031e+12 -1.68057e+12 -4.01413e+12 -1.99855e+12 -1.09626e+12 -812247000000.0 -1.12101e+12 -1.81735e+12 -1.54348e+12 -1.60387e+12 -1.46838e+12 -2.43882e+12 -3.37089e+12 -1.29614e+12 -3.97945e+12 -1.80141e+12 -2.62716e+12 -2.31017e+12 -2.55058e+12 -2.15513e+12 -1.45229e+12 -1.43036e+12 -1.89026e+12 -2.64371e+12 -3.04008e+12 -2.19575e+12 -2.7393e+12 -2.78051e+12 -1.50405e+12 -752666000000.0 -2.56029e+12 -1.25138e+12 -2.25116e+12 -913794000000.0 -2.16586e+12 -1.51173e+12 -1.72186e+12 -1.80576e+12 -1.3444e+12 -1.73524e+12 -1.76591e+12 -1.16959e+12 -1.26295e+12 -1.9185e+12 -1.55275e+12 -1.55504e+12 -1.17381e+12 -975193000000.0 -772637000000.0 -2.87587e+12 -1.99437e+12 -1.26176e+12 -1.99547e+12 -2.35056e+12 -103469000000.0 -1.99596e+12 -3.29982e+12 -2.4443e+12 -2.8247e+12 -1.87438e+12 -609178000000.0 -1.25871e+12 -2.83608e+12 -2.24497e+12 -3.5567e+12 -1.35464e+12 -1.66694e+12 -1.71086e+12 -1.54433e+12 -1.72533e+12 -1.11967e+12 -1.33044e+12 -575343000000.0 -2.68457e+12 -258022000000.0 -883884000000.0 -1.14008e+12 -1.75754e+12 -313371000000.0 -2.04257e+12 -2.2335e+12 -13657500000.0 -27958500000.0 -15967300000.0 -13093700000.0 -12549700000.0 -29818700000.0 -38575800000.0 -13225200000.0 -14738200000.0 -44224200000.0 -12549700000.0 -25537600000.0 -24523500000.0 -27664300000.0 -116035000000.0 -133983000000.0 -138422000000.0 -53668500000.0 -15844200000.0 -73827800000.0 -1.32843e+12 -1.89321e+12 -1.91429e+12 -2.06659e+12 -2.15818e+12 -919762000000.0 -1.11821e+12 -1.73382e+12 -2.09926e+12 -1.38413e+12 -932875000000.0 -2.63627e+12 -2.27576e+12 -1.51753e+12 -1.66825e+12 -906003000000.0 -2.28824e+12 -1.37252e+12 -1.32512e+12 -2.80062e+12 -1.64419e+12 -2.01629e+12 -3.64625e+12 -1.99573e+12 -2.73714e+12 -475097000000.0 -2.36881e+12 -2.32795e+12 -1.85614e+12 -1.01051e+12 -2.15913e+12 -922390000000.0 -1.48789e+12 -2.24073e+12 -2.27681e+12 -2.20096e+12 -1.24302e+12 -821694000000.0 -1.08753e+12 -1.24312e+12 -1.52622e+12 -1.59368e+12 -1.68954e+12 -746032000000.0 -637845000000.0 -1.3885e+12 -569943000000.0 -1.23347e+12 -788728000000.0 -1.44819e+12 -1.38069e+12 -781078000000.0 -1.29722e+12 -1.35219e+12 -1.00643e+12 -1.77095e+12 -760543000000.0 -698844000000.0 -2.55599e+12 -1.44817e+12 -805409000000.0 -782007000000.0 -732641000000.0 -2.16548e+12 -1.57115e+12 -1.74997e+12 -1.09001e+12 -1.92431e+12 -903125000000.0 -1.43822e+12 -1.14663e+12 -160025000000.0 -914643000000.0 -1.23006e+12 -825916000000.0 -1.95067e+12 -1.99519e+12 -1.0451e+12 -1.65195e+12 -735493000000.0 -1.6864e+12 -1.34563e+12 -1.18937e+12 -1.54039e+12 -1.57983e+12 -541115000000.0 -1.16191e+12 -1.05164e+12 -1.32462e+12 -706595000000.0 -1.06053e+12 -783365000000.0 -12549700000.0 -16616600000.0 -13861500000.0 -12549700000.0 -12549700000.0 -22835500000.0 -28981900000.0 -12727700000.0 -12770900000.0 -36752900000.0 -15974400000.0 -19990100000.0 -19190900000.0 -19609400000.0 -63415900000.0 -76422500000.0 -70549700000.0 -207498000000.0 -234530000000.0 -302422000000.0 -1.20191e+12 -1.42073e+12 -1.16643e+12 -829041000000.0 -1.74375e+12 -1.18667e+12 -861105000000.0 -1.0969e+12 -2.55806e+12 -1.94702e+12 -2.06416e+12 -1.14867e+12 -1.18232e+12 -1.72157e+12 -875235000000.0 -1.26856e+12 -1.77917e+12 -1.97551e+12 -2.29416e+12 -1.34969e+12 -1.67752e+12 -1.37374e+12 -1.25068e+12 -669746000000.0 -1.74514e+12 -803418000000.0 -1.77044e+12 -563990000000.0 -1.20665e+12 -760136000000.0 -1.88825e+12 -1.44051e+12 -1.7012e+12 -628789000000.0 -1.88475e+12 -1.19942e+12 -923905000000.0 -2.12011e+12 -1.13556e+12 -467199000000.0 -859621000000.0 -844122000000.0 -374732000000.0 -848422000000.0 -1.45456e+12 -210874000000.0 -1.0506e+12 -862833000000.0 -1.35925e+12 -1.03391e+12 -986508000000.0 -1.28997e+12 -719985000000.0 -404877000000.0 -1.21373e+12 -924929000000.0 -872075000000.0 -1.3511e+12 -740394000000.0 -727015000000.0 -842386000000.0 -727830000000.0 -1.30242e+12 -345161000000.0 -1.67486e+12 -947948000000.0 -702637000000.0 -1.0328e+12 -1.54135e+12 -1.31247e+12 -879566000000.0 -834260000000.0 -1.36569e+12 -1.90606e+12 -915510000000.0 -873772000000.0 -946904000000.0 -526382000000.0 -378420000000.0 -223351000000.0 -745363000000.0 -921947000000.0 -1.78631e+12 -769899000000.0 -959734000000.0 -1.27668e+12 -212759000000.0 -598879000000.0 -777159000000.0 -603742000000.0 -344119000000.0 -12549700000.0 -13989100000.0 -12549700000.0 -12549700000.0 -12671500000.0 -15251100000.0 -27502800000.0 -15391300000.0 -16719000000.0 -33646400000.0 -20828200000.0 -22026700000.0 -23463700000.0 -41856400000.0 -18215800000.0 -13619000000.0 -29338600000.0 -21019200000.0 -45719700000.0 -21630800000.0 -689066000000.0 -571622000000.0 -1.0524e+12 -1.22415e+12 -211510000000.0 -831227000000.0 -1.14567e+12 -1.02154e+12 -893427000000.0 -1.37484e+12 -773549000000.0 -2.2238e+12 -974313000000.0 -953857000000.0 -1.26543e+12 -1.9211e+12 -1.20969e+12 -1.60397e+12 -1.19927e+12 -1.45365e+12 -789711000000.0 -627154000000.0 -1.16138e+12 -142442000000.0 -1.15094e+12 -1.24053e+12 -708761000000.0 -359743000000.0 -838770000000.0 -696799000000.0 -796099000000.0 -1.59904e+12 -1.19905e+12 -809391000000.0 -693391000000.0 -1.12044e+12 -926003000000.0 -670754000000.0 -652410000000.0 -1.21695e+12 -856092000000.0 -101885000000.0 -702951000000.0 -53047400000.0 -402374000000.0 -422139000000.0 -357598000000.0 -979018000000.0 -600224000000.0 -820316000000.0 -784693000000.0 -402019000000.0 -287843000000.0 -91976500000.0 -237706000000.0 -226811000000.0 -706276000000.0 -174825000000.0 -156711000000.0 -750706000000.0 -842725000000.0 -752236000000.0 -147063000000.0 -332825000000.0 -104824000000.0 -548131000000.0 -75900900000.0 -280827000000.0 -166705000000.0 -810171000000.0 -139580000000.0 -254058000000.0 -427483000000.0 -541866000000.0 -214654000000.0 -525870000000.0 -92733100000.0 -151920000000.0 -184402000000.0 -130409000000.0 -190008000000.0 -552142000000.0 -229105000000.0 -12549700000.0 -12958900000.0 -12598500000.0 -12549700000.0 -12673400000.0 -13435000000.0 -17992100000.0 -12729000000.0 -12549700000.0 -17143300000.0 -12729200000.0 -12840300000.0 -13016900000.0 -23195600000.0 -18392500000.0 -20570100000.0 -31963800000.0 -28667700000.0 -12820700000.0 -13825300000.0 -201209000000.0 -516109000000.0 -468736000000.0 -186990000000.0 -1.00213e+12 -321785000000.0 -473705000000.0 -980493000000.0 -711107000000.0 -265131000000.0 -324225000000.0 -722550000000.0 -255341000000.0 -469564000000.0 -1.01839e+12 -443665000000.0 -75267800000.0 -349485000000.0 -259078000000.0 -260762000000.0 -211993000000.0 -259353000000.0 -406236000000.0 -455264000000.0 -447346000000.0 -284814000000.0 -448779000000.0 -261427000000.0 -131782000000.0 -677764000000.0 -452768000000.0 -910584000000.0 -178723000000.0 -548656000000.0 -218794000000.0 -258246000000.0 -387935000000.0 -873071000000.0 -139604000000.0 -180173000000.0 -92853000000.0 -332420000000.0 -321261000000.0 -242630000000.0 -239663000000.0 -316492000000.0 -193951000000.0 -262544000000.0 -190697000000.0 -105254000000.0 -168924000000.0 -240554000000.0 -77171600000.0 -90424700000.0 -200990000000.0 -243406000000.0 -160966000000.0 -131501000000.0 -377466000000.0 -254544000000.0 -315059000000.0 -259361000000.0 -342267000000.0 -144852000000.0 -122021000000.0 -168654000000.0 -121197000000.0 -188399000000.0 -61809400000.0 -88257600000.0 -121912000000.0 -168712000000.0 -181780000000.0 -151815000000.0 -138370000000.0 -96624900000.0 -166863000000.0 -206908000000.0 -241144000000.0 -85142400000.0 