# vtk DataFile Version 2.0
Time step 17
ASCII
DATASET UNSTRUCTURED_GRID
POINTS 5000 float
27676.5 189476.0 0
182941.0 190225.0 0
372010.0 189574.0 0
403642.0 189965.0 0
432487.0 190487.0 0
477067.0 190361.0 0
485846.0 190272.0 0
497601.0 190310.0 0
2398.04 192554.0 0
8502.94 191934.0 0
6047.65 195266.0 0
12438.3 191763.0 0
16748.1 191089.0 0
22243.6 192713.0 0
33180.4 192158.0 0
38168.7 192739.0 0
42687.9 192873.0 0
47479.0 192796.0 0
52137.1 192879.0 0
57006.9 191724.0 0
62763.5 192794.0 0
67994.7 192928.0 0
72700.4 192069.0 0
77500.0 192807.0 0
82500.0 192797.0 0
87408.4 192098.0 0
92500.0 192835.0 0
97198.0 192856.0 0
101298.0 192773.0 0
105953.0 192177.0 0
111933.0 192651.0 0
117847.0 192827.0 0
123327.0 192904.0 0
128341.0 193024.0 0
133424.0 192274.0 0
138120.0 192957.0 0
142500.0 192878.0 0
147500.0 192812.0 0
152501.0 192781.0 0
157587.0 192416.0 0
162557.0 192572.0 0
167014.0 192124.0 0
171832.0 191002.0 0
177736.0 191039.0 0
183525.0 195294.0 0
187397.0 192075.0 0
192500.0 193230.0 0
196086.0 192399.0 0
201750.0 191757.0 0
207652.0 192517.0 0
212987.0 191866.0 0
218129.0 192938.0 0
222481.0 192950.0 0
225802.0 192207.0 0
230432.0 192069.0 0
235810.0 193054.0 0
241170.0 191759.0 0
246501.0 193764.0 0
252676.0 191740.0 0
259048.0 192225.0 0
263772.0 193301.0 0
268743.0 192228.0 0
273937.0 192522.0 0
278880.0 191159.0 0
282030.0 194490.0 0
286326.0 192799.0 0
291718.0 193258.0 0
297320.0 191127.0 0
303660.0 191932.0 0
307738.0 194496.0 0
312125.0 192333.0 0
317926.0 192969.0 0
323242.0 192868.0 0
327579.0 193124.0 0
332204.0 192724.0 0
337221.0 192434.0 0
341017.0 193645.0 0
345897.0 191989.0 0
350694.0 193895.0 0
355274.0 192914.0 0
361818.0 191532.0 0
367952.0 192888.0 0
377027.0 191550.0 0
382607.0 192411.0 0
388127.0 191695.0 0
394015.0 191016.0 0
399190.0 192702.0 0
408581.0 191170.0 0
412477.0 192811.0 0
408372.0 195450.0 0
417500.0 192840.0 0
422731.0 190974.0 0
422127.0 195611.0 0
427273.0 192666.0 0
437537.0 192818.0 0
442099.0 191768.0 0
446261.0 191341.0 0
447594.0 195349.0 0
450673.0 192118.0 0
455216.0 192077.0 0
460244.0 191941.0 0
465797.0 192295.0 0
471632.0 191554.0 0
481316.0 193213.0 0
491674.0 191817.0 0
2282.4 197606.0 0
6746.63 200311.0 0
11075.7 196278.0 0
17318.7 196992.0 0
22989.0 198254.0 0
28501.8 195831.0 0
34953.4 197430.0 0
40325.6 197752.0 0
44448.3 198094.0 0
48261.5 196795.0 0
52500.0 197839.0 0
57989.8 197167.0 0
62845.6 197894.0 0
67505.2 197566.0 0
72127.4 197191.0 0
77500.0 197965.0 0
82116.1 197611.0 0
87905.9 196856.0 0
92500.0 197974.0 0
97186.6 197623.0 0
102467.0 197508.0 0
108246.0 196770.0 0
112500.0 197911.0 0
117500.0 197992.0 0
122500.0 197915.0 0
127726.0 197461.0 0
132493.0 197809.0 0
137520.0 197823.0 0
142773.0 197302.0 0
146940.0 197650.0 0
151951.0 197529.0 0
156876.0 196468.0 0
161311.0 197291.0 0
166524.0 196796.0 0
172965.0 196573.0 0
178369.0 196452.0 0
182187.0 200435.0 0
188597.0 196523.0 0
193565.0 197377.0 0
198246.0 196750.0 0
203920.0 197377.0 0
213693.0 196417.0 0
209356.0 197598.0 0
217608.0 198006.0 0
222041.0 197793.0 0
226812.0 196441.0 0
232216.0 197482.0 0
237698.0 198301.0 0
243296.0 198152.0 0
248451.0 197842.0 0
252668.0 198307.0 0
257253.0 196861.0 0
262325.0 197479.0 0
267088.0 197079.0 0
271634.0 196401.0 0
277040.0 196805.0 0
282827.0 198177.0 0
287500.0 197889.0 0
292897.0 197753.0 0
298240.0 196638.0 0
303106.0 197601.0 0
307453.0 197789.0 0
312501.0 198083.0 0
317499.0 197847.0 0
322443.0 197338.0 0
327500.0 197869.0 0
332500.0 197941.0 0
337706.0 197288.0 0
343301.0 196674.0 0
347738.0 197100.0 0
352666.0 197790.0 0
361455.0 196845.0 0
357772.0 197332.0 0
365130.0 196573.0 0
366511.0 200660.0 0
372926.0 196375.0 0
378826.0 196096.0 0
382013.0 197229.0 0
384363.0 200566.0 0
388366.0 196784.0 0
393545.0 197157.0 0
402984.0 196163.0 0
398128.0 197587.0 0
412850.0 196755.0 0
417508.0 197350.0 0
428288.0 197616.0 0
424096.0 200438.0 0
433405.0 195726.0 0
437503.0 197883.0 0
443209.0 196055.0 0
448245.0 200421.0 0
451933.0 196602.0 0
457163.0 196813.0 0
462426.0 198261.0 0
466601.0 196864.0 0
470197.0 198037.0 0
475187.0 196845.0 0
480804.0 198487.0 0
486597.0 196476.0 0
492083.0 198726.0 0
496837.0 195819.0 0
2238.62 203478.0 0
11847.4 202135.0 0
16326.2 202201.0 0
20504.9 202226.0 0
27026.5 202663.0 0
32605.7 202506.0 0
38243.6 202263.0 0
42951.3 202632.0 0
47573.6 201517.0 0
51790.2 203269.0 0
56543.3 202785.0 0
62103.7 202779.0 0
67684.3 202410.0 0
73697.4 202736.0 0
78212.9 203163.0 0
81956.3 202338.0 0
86962.1 202373.0 0
92531.5 202725.0 0
97547.7 202142.0 0
102630.0 203270.0 0
107925.0 201549.0 0
112497.0 202820.0 0
116735.0 202600.0 0
120857.0 202445.0 0
125869.0 201832.0 0
131163.0 203527.0 0
136450.0 203474.0 0
141001.0 201428.0 0
146316.0 202541.0 0
151842.0 204145.0 0
156253.0 201027.0 0
161710.0 202982.0 0
166532.0 204806.0 0
170004.0 201368.0 0
176300.0 202214.0 0
188053.0 202686.0 0
194266.0 202401.0 0
199977.0 201851.0 0
208108.0 202495.0 0
204287.0 202853.0 0
213298.0 201227.0 0
217709.0 202943.0 0
222567.0 202068.0 0
226876.0 201445.0 0
232451.0 202947.0 0
237436.0 202727.0 0
241801.0 203379.0 0
246857.0 201920.0 0
251802.0 203203.0 0
257722.0 201614.0 0
262704.0 202261.0 0
267470.0 201537.0 0
273027.0 201653.0 0
279889.0 200835.0 0
283571.0 203110.0 0
287232.0 203187.0 0
291036.0 202075.0 0
296752.0 201690.0 0
302248.0 202840.0 0
307712.0 202218.0 0
313217.0 203348.0 0
318201.0 202354.0 0
322515.0 201343.0 0
326815.0 203231.0 0
336506.0 201953.0 0
331859.0 202973.0 0
341406.0 200879.0 0
346833.0 201487.0 0
351887.0 202632.0 0
356024.0 201196.0 0
361252.0 201546.0 0
357351.0 205152.0 0
366566.0 205351.0 0
371104.0 202517.0 0
377674.0 202028.0 0
392422.0 201981.0 0
388345.0 203756.0 0
397215.0 201937.0 0
402854.0 202402.0 0
409235.0 201093.0 0
414394.0 203665.0 0
419111.0 202047.0 0
427668.0 203463.0 0
432235.0 201350.0 0
437322.0 202116.0 0
442330.0 201287.0 0
446547.0 205436.0 0
454142.0 202012.0 0
458961.0 203035.0 0
463135.0 202806.0 0
467509.0 202951.0 0
472370.0 201362.0 0
477762.0 202339.0 0
482614.0 203187.0 0
487502.0 204268.0 0
491509.0 202786.0 0
496593.0 202400.0 0
2182.12 207892.0 0
8048.54 206152.0 0
13470.6 206754.0 0
11878.1 210482.0 0
17750.1 206046.0 0
22412.4 206602.0 0
26967.1 208603.0 0
32048.0 206791.0 0
37565.6 207465.0 0
43178.5 207695.0 0
49062.6 206303.0 0
53807.2 207961.0 0
59215.9 207461.0 0
63611.6 207109.0 0
68064.0 208086.0 0
72602.5 207610.0 0
77068.4 207097.0 0
82136.2 207358.0 0
87333.8 207546.0 0
92269.7 208051.0 0
97735.0 207494.0 0
102769.0 208747.0 0
107689.0 207046.0 0
113106.0 207151.0 0
118132.0 207080.0 0
123412.0 206432.0 0
127500.0 207989.0 0
132686.0 208358.0 0
137735.0 207391.0 0
142523.0 207546.0 0
147999.0 207152.0 0
156821.0 206445.0 0
153401.0 208807.0 0
160407.0 207793.0 0
164429.0 208507.0 0
170843.0 207396.0 0
177033.0 208782.0 0
182232.0 205913.0 0
186626.0 208318.0 0
191646.0 207817.0 0
197220.0 207133.0 0
203050.0 206996.0 0
208745.0 208842.0 0
214360.0 206897.0 0
218726.0 208166.0 0
222056.0 206329.0 0
227540.0 206991.0 0
234298.0 207344.0 0
237834.0 206058.0 0
237942.0 210793.0 0
241788.0 207980.0 0
246254.0 207108.0 0
251528.0 208463.0 0
255884.0 206339.0 0
260348.0 206012.0 0
262646.0 209587.0 0
266370.0 206229.0 0
271770.0 207927.0 0
278362.0 206334.0 0
284359.0 207852.0 0
288763.0 206346.0 0
292987.0 208062.0 0
298945.0 207995.0 0
303985.0 208209.0 0
307500.0 208033.0 0
312166.0 207852.0 0
316231.0 207079.0 0
321053.0 206618.0 0
325841.0 208160.0 0
329890.0 206795.0 0
334364.0 208764.0 0
339783.0 206273.0 0
346084.0 207742.0 0
352840.0 208207.0 0
361676.0 207539.0 0
367117.0 210257.0 0
371935.0 208139.0 0
377881.0 209472.0 0
382813.0 206079.0 0
387364.0 207938.0 0
393041.0 208624.0 0
399509.0 207572.0 0
408061.0 206457.0 0
404313.0 207580.0 0
412360.0 208143.0 0
416955.0 207450.0 0
421359.0 208731.0 0
425634.0 207085.0 0
431039.0 207539.0 0
437132.0 206312.0 0
441834.0 206877.0 0
450866.0 205982.0 0
455447.0 207767.0 0
461242.0 207495.0 0
467016.0 207283.0 0
472626.0 206319.0 0
478869.0 207837.0 0
484728.0 208324.0 0
489145.0 209053.0 0
492125.0 206648.0 0
496756.0 209041.0 0
1489.73 212609.0 0
7130.86 212454.0 0
12648.6 214986.0 0
17140.2 211222.0 0
23028.6 211986.0 0
30208.5 211333.0 0
28635.9 215378.0 0
34860.6 212117.0 0
39747.6 211523.0 0
43649.6 213390.0 0
48535.3 211522.0 0
53108.2 213933.0 0
57200.6 211850.0 0
63072.8 211885.0 0
68324.6 213261.0 0
73375.6 211673.0 0
72214.6 215559.0 0
78276.1 212251.0 0
83567.5 212299.0 0
88373.5 212369.0 0
92500.0 212897.0 0
97244.3 212909.0 0
101203.0 212955.0 0
105594.0 212564.0 0
111306.0 211737.0 0
116641.0 212340.0 0
122097.0 211624.0 0
126926.0 212081.0 0
131219.0 212741.0 0
136576.0 211942.0 0
142211.0 213239.0 0
147009.0 211430.0 0
151793.0 213376.0 0
157931.0 212354.0 0
167056.0 211373.0 0
163671.0 212993.0 0
171005.0 213403.0 0
176731.0 215072.0 0
182930.0 212822.0 0
193689.0 211902.0 0
189200.0 212733.0 0
198248.0 213024.0 0
203173.0 212096.0 0
207327.0 214221.0 0
212120.0 213086.0 0
216330.0 211509.0 0
221187.0 211813.0 0
226328.0 213618.0 0
231989.0 211863.0 0
236043.0 215788.0 0
242851.0 212618.0 0
248042.0 212196.0 0
252906.0 212491.0 0
257736.0 211521.0 0
262854.0 215165.0 0
267610.0 212164.0 0
272708.0 213809.0 0
278483.0 212989.0 0
283576.0 212439.0 0
288839.0 211666.0 0
293489.0 212660.0 0
297508.0 214038.0 0
302639.0 212514.0 0
307138.0 212874.0 0
311964.0 212589.0 0
316998.0 211505.0 0
322326.0 212200.0 0
330976.0 212313.0 0
327182.0 213025.0 0
341485.0 211754.0 0
337097.0 212683.0 0
346730.0 213675.0 0
351648.0 213873.0 0
355612.0 216014.0 0
357888.0 211717.0 0
362976.0 212509.0 0
370204.0 213678.0 0
374578.0 213720.0 0
383267.0 212107.0 0
388185.0 212120.0 0
392177.0 214872.0 0
397910.0 213511.0 0
403063.0 211563.0 0
408167.0 211306.0 0
411957.0 215902.0 0
414654.0 211774.0 0
417914.0 212985.0 0
422464.0 213596.0 0
427473.0 211558.0 0
427254.0 215810.0 0
431214.0 212968.0 0
436083.0 211283.0 0
441956.0 212538.0 0
448294.0 210965.0 0
454005.0 212910.0 0
459420.0 213084.0 0
464954.0 212362.0 0
473855.0 211544.0 0
469617.0 213220.0 0
477649.0 214593.0 0
481992.0 212798.0 0
486778.0 212668.0 0
492180.0 213223.0 0
497459.0 214775.0 0
2747.09 216650.0 0
7839.1 218949.0 0
13600.4 220829.0 0
18080.5 216988.0 0
23733.7 217739.0 0
28764.2 220720.0 0
33605.4 217670.0 0
39102.1 216361.0 0
43702.3 217599.0 0
48649.3 217491.0 0
54145.2 218633.0 0
59695.1 216867.0 0
64847.7 217961.0 0
68272.5 217493.0 0
76331.0 217161.0 0
71710.1 220895.0 0
81953.8 217728.0 0
87897.7 217441.0 0
92645.9 217849.0 0
96913.3 217481.0 0
101497.0 217600.0 0
106441.0 217900.0 0
111045.0 216586.0 0
115385.0 217055.0 0
120870.0 217642.0 0
127441.0 217344.0 0
133299.0 217195.0 0
138722.0 217682.0 0
143739.0 217847.0 0
148384.0 217463.0 0
152801.0 217948.0 0
157001.0 218054.0 0
161431.0 216828.0 0
166775.0 216726.0 0
172245.0 219183.0 0
177065.0 219398.0 0
181350.0 219444.0 0
186871.0 217725.0 0
192400.0 217245.0 0
197835.0 218731.0 0
202619.0 216660.0 0
206604.0 218827.0 0
210632.0 217623.0 0
216376.0 217399.0 0
222677.0 217487.0 0
228326.0 219162.0 0
233994.0 220314.0 0
240964.0 218216.0 0
246446.0 218759.0 0
250933.0 216650.0 0
252346.0 220964.0 0
256789.0 217729.0 0
268280.0 217555.0 0
272900.0 218703.0 0
277859.0 218998.0 0
282089.0 216370.0 0
287111.0 217750.0 0
293045.0 217072.0 0
297889.0 219371.0 0
301881.0 216438.0 0
306185.0 218350.0 0
311442.0 218301.0 0
316883.0 216628.0 0
322352.0 218117.0 0
328013.0 217641.0 0
333898.0 216561.0 0
337591.0 219920.0 0
342264.0 217722.0 0
348036.0 218441.0 0
352346.0 218153.0 0
356054.0 220609.0 0
360552.0 217271.0 0
366548.0 217362.0 0
372554.0 218647.0 0
378578.0 217071.0 0
383450.0 216244.0 0
387269.0 216600.0 0
383532.0 220690.0 0
390793.0 219521.0 0
396057.0 219332.0 0
400406.0 217781.0 0
405321.0 216802.0 0
417755.0 217786.0 0
422945.0 218462.0 0
432210.0 217541.0 0
437059.0 216608.0 0
441836.0 218142.0 0
447097.0 217132.0 0
452633.0 218102.0 0
458099.0 218448.0 0
462539.0 218022.0 0
466542.0 217038.0 0
471802.0 217777.0 0
476949.0 219315.0 0
482258.0 218152.0 0
487738.0 217516.0 0
492480.0 219037.0 0
497462.0 219857.0 0
3049.96 222447.0 0
8746.73 224845.0 0
18364.2 224569.0 0
23865.7 223438.0 0
33705.6 223371.0 0
38519.9 221546.0 0
43245.2 221856.0 0
49649.8 222380.0 0
46370.6 226197.0 0
53673.7 223380.0 0
58558.1 222738.0 0
63407.6 221913.0 0
67000.2 222358.0 0
68663.5 225655.0 0
77984.3 222459.0 0
83407.3 223800.0 0
88029.8 222473.0 0
93064.7 222469.0 0
97993.1 221953.0 0
98570.1 226132.0 0
105795.0 222335.0 0
102083.0 223575.0 0
110777.0 221929.0 0
116653.0 221831.0 0
126510.0 222565.0 0
122670.0 223147.0 0
131222.0 221903.0 0
128398.0 225982.0 0
135248.0 223723.0 0
139772.0 223228.0 0
145125.0 222432.0 0
150868.0 222500.0 0
156898.0 223412.0 0
162046.0 221488.0 0
167187.0 221822.0 0
171465.0 224503.0 0
176190.0 223127.0 0
180980.0 225047.0 0
185799.0 223012.0 0
191581.0 223126.0 0
197326.0 224261.0 0
202631.0 222111.0 0
207599.0 222843.0 0
212128.0 222006.0 0
217207.0 223785.0 0
223341.0 223455.0 0
228971.0 225150.0 0
233402.0 224779.0 0
238450.0 223963.0 0
243830.0 223281.0 0
248948.0 222899.0 0
255550.0 223826.0 0
262545.0 222349.0 0
268734.0 222524.0 0
273491.0 223246.0 0
278391.0 224387.0 0
282800.0 221756.0 0
287967.0 223767.0 0
293206.0 222405.0 0
297716.0 224630.0 0
302616.0 222279.0 0
308396.0 223252.0 0
313173.0 222863.0 0
317434.0 222357.0 0
325912.0 221761.0 0
322174.0 223687.0 0
330041.0 222775.0 0
335103.0 223331.0 0
340369.0 223730.0 0
345977.0 224508.0 0
351128.0 222619.0 0
356411.0 226136.0 0
360854.0 223146.0 0
366472.0 223105.0 0
371171.0 223582.0 0
377251.0 224290.0 0
387815.0 223893.0 0
392751.0 223877.0 0
398350.0 224855.0 0
403863.0 222830.0 0
409473.0 221493.0 0
414442.0 221798.0 0
417738.0 221920.0 0
417007.0 225652.0 0
420925.0 222266.0 0
427636.0 222295.0 0
433309.0 221897.0 0
437894.0 221580.0 0
442663.0 223030.0 0
448510.0 223012.0 0
453987.0 222968.0 0
458524.0 223416.0 0
462973.0 223163.0 0
467781.0 222017.0 0
472974.0 223504.0 0
479944.0 223243.0 0
484272.0 223076.0 0
488512.0 222646.0 0
492605.0 223193.0 0
497773.0 224614.0 0
2142.5 228309.0 0
7225.53 230912.0 0
13672.5 228451.0 0
18593.3 229508.0 0
22330.4 227917.0 0
27477.7 228308.0 0
32318.2 227621.0 0
32585.2 231094.0 0
37256.0 228170.0 0
42424.3 229473.0 0
51396.5 228595.0 0
57384.3 228866.0 0
63624.2 227082.0 0
73535.7 228713.0 0
79798.9 227947.0 0
85103.5 228709.0 0
90116.2 226963.0 0
95017.7 228839.0 0
101277.0 229474.0 0
105622.0 226842.0 0
111321.0 228269.0 0
118227.0 227397.0 0
123833.0 227674.0 0
133278.0 228057.0 0
137504.0 231120.0 0
137796.0 227159.0 0
141897.0 228033.0 0
147416.0 227746.0 0
152987.0 227717.0 0
157253.0 229300.0 0
161803.0 227056.0 0
167159.0 226792.0 0
170773.0 228531.0 0
176897.0 228118.0 0
182339.0 229863.0 0
186903.0 228035.0 0
191551.0 228430.0 0
196365.0 229711.0 0
201663.0 227592.0 0
207192.0 227815.0 0
213029.0 227563.0 0
219813.0 228881.0 0
224921.0 228770.0 0
228663.0 229245.0 0
232711.0 228545.0 0
236996.0 229207.0 0
242073.0 227509.0 0
246531.0 227271.0 0
251477.0 226830.0 0
257760.0 229100.0 0
262733.0 228419.0 0
268243.0 228139.0 0
274059.0 228204.0 0
279357.0 229909.0 0
284571.0 227841.0 0
289664.0 228715.0 0
293280.0 226866.0 0
296598.0 229567.0 0
302344.0 228046.0 0
307427.0 228535.0 0
312019.0 227023.0 0
316757.0 226951.0 0
321318.0 228816.0 0
326415.0 227274.0 0
331722.0 227756.0 0
337290.0 228988.0 0
342892.0 229072.0 0
346860.0 229077.0 0
351203.0 227795.0 0
361721.0 229248.0 0
367012.0 227974.0 0
371693.0 228062.0 0
382230.0 228204.0 0
378377.0 230898.0 0
386913.0 228615.0 0
391464.0 228386.0 0
395535.0 229159.0 0
400539.0 229954.0 0
405871.0 228619.0 0
411613.0 227002.0 0
417200.0 230777.0 0
422653.0 227242.0 0
428251.0 228378.0 0
432985.0 226540.0 0
438706.0 227224.0 0
444678.0 227922.0 0
450488.0 229674.0 0
455640.0 227368.0 0
461338.0 228293.0 0
468698.0 227243.0 0
465805.0 229914.0 0
473156.0 229056.0 0
477807.0 227769.0 0
482451.0 227904.0 0
486609.0 226825.0 0
486650.0 231028.0 0
490664.0 227232.0 0
495015.0 228596.0 0
2237.84 232882.0 0
12433.3 234510.0 0
18039.8 233958.0 0
23268.3 232766.0 0
29040.9 234288.0 0
35974.8 233952.0 0
41015.6 233704.0 0
46980.8 232669.0 0
52812.1 233305.0 0
57591.9 235025.0 0
62181.3 232475.0 0
67947.1 232535.0 0
73636.5 235418.0 0
78093.3 232549.0 0
82811.2 233440.0 0
88765.6 233237.0 0
93957.7 233689.0 0
97838.0 232191.0 0
101251.0 233758.0 0
105726.0 232332.0 0
110247.0 233691.0 0
115525.0 233267.0 0
121629.0 232497.0 0
128127.0 232024.0 0
133715.0 232891.0 0
142032.0 233300.0 0
148125.0 234321.0 0
153553.0 232534.0 0
157995.0 233477.0 0
163115.0 232893.0 0
173367.0 231774.0 0
168451.0 232062.0 0
177766.0 232562.0 0
181602.0 234432.0 0
186466.0 233300.0 0
191582.0 232940.0 0
195899.0 235463.0 0
201131.0 233181.0 0
207152.0 233895.0 0
212108.0 232489.0 0
216827.0 233669.0 0
221596.0 234517.0 0
226059.0 233303.0 0
231009.0 232608.0 0
235867.0 233841.0 0
241277.0 232421.0 0
246721.0 232206.0 0
252419.0 232342.0 0
257588.0 234325.0 0
263746.0 233914.0 0
269639.0 233792.0 0
274614.0 233178.0 0
279890.0 235255.0 0
283979.0 232294.0 0
288564.0 233733.0 0
292623.0 232145.0 0
298685.0 234328.0 0
303612.0 233022.0 0
307758.0 232899.0 0
312269.0 232254.0 0
317541.0 231940.0 0
323369.0 233793.0 0
328014.0 231931.0 0
332722.0 232864.0 0
337386.0 234301.0 0
341968.0 232999.0 0
345535.0 232799.0 0
349569.0 231991.0 0
355378.0 232353.0 0
360708.0 234433.0 0
366539.0 232694.0 0
373469.0 233207.0 0
378312.0 235393.0 0
383175.0 233851.0 0
388097.0 233013.0 0
392603.0 232754.0 0
397133.0 233008.0 0
408081.0 233369.0 0
403378.0 234090.0 0
412536.0 232242.0 0
421046.0 232832.0 0
418455.0 236201.0 0
425388.0 232425.0 0
431956.0 232185.0 0
428745.0 236210.0 0
437670.0 233459.0 0
443652.0 233499.0 0
450711.0 236105.0 0
454484.0 232619.0 0
458768.0 233577.0 0
463921.0 233393.0 0
469276.0 232679.0 0
474349.0 233611.0 0
479065.0 232660.0 0
483690.0 234290.0 0
491447.0 233098.0 0
497411.0 233218.0 0
2123.33 237248.0 0
6949.33 236764.0 0
8514.88 241273.0 0
12543.8 239917.0 0
16005.3 237940.0 0
20032.8 238233.0 0
24879.8 238014.0 0
32187.7 238647.0 0
37664.1 239563.0 0
43299.9 238147.0 0
48670.5 238659.0 0
53558.3 237820.0 0
57427.7 239934.0 0
62542.0 237717.0 0
67217.6 237805.0 0
71125.1 240189.0 0
79061.5 238082.0 0
84498.1 238057.0 0
88564.3 238271.0 0
92508.1 237749.0 0
97469.4 236582.0 0
102454.0 238179.0 0
107195.0 237081.0 0
111840.0 237853.0 0
117997.0 238774.0 0
123255.0 237727.0 0
127773.0 237411.0 0
132826.0 237960.0 0
138530.0 237229.0 0
143147.0 238119.0 0
151875.0 238111.0 0
147990.0 240296.0 0
156563.0 238306.0 0
161569.0 237829.0 0
166880.0 236934.0 0
173245.0 237992.0 0
178603.0 238139.0 0
183562.0 239069.0 0
189469.0 238144.0 0
193917.0 239284.0 0
199741.0 238176.0 0
203873.0 238758.0 0
208378.0 239029.0 0
212776.0 237113.0 0
219042.0 238430.0 0
223358.0 237975.0 0
227640.0 238002.0 0
232480.0 237374.0 0
237821.0 238254.0 0
242371.0 238771.0 0
246774.0 237041.0 0
251954.0 238597.0 0
257453.0 238622.0 0
262278.0 240127.0 0
267707.0 237975.0 0
271777.0 237568.0 0
272493.0 241463.0 0
276113.0 238009.0 0
284243.0 236706.0 0
288534.0 238970.0 0
293557.0 236688.0 0
298774.0 239088.0 0
302591.0 237882.0 0
306694.0 236782.0 0
306826.0 241510.0 0
311702.0 237937.0 0
316852.0 236781.0 0
321353.0 238672.0 0
324904.0 237675.0 0
328721.0 236640.0 0
334185.0 238482.0 0
339635.0 238167.0 0
344201.0 237013.0 0
350158.0 237645.0 0
356768.0 239201.0 0
363302.0 239089.0 0
369436.0 237487.0 0
374951.0 238530.0 0
379764.0 239361.0 0
384046.0 239376.0 0
388137.0 237507.0 0
393205.0 237821.0 0
397971.0 237177.0 0
402024.0 238419.0 0
406619.0 237992.0 0
412757.0 238135.0 0
423573.0 237547.0 0
433886.0 238698.0 0
440196.0 239616.0 0
445494.0 238208.0 0
448667.0 240730.0 0
456135.0 237732.0 0
458546.0 241558.0 0
463201.0 237435.0 0
460054.0 238142.0 0
467452.0 237950.0 0
472539.0 237915.0 0
477862.0 237989.0 0
482745.0 238539.0 0
487582.0 237535.0 0
492460.0 238297.0 0
497811.0 237978.0 0
3066.33 242355.0 0
7507.78 245701.0 0
12201.9 244466.0 0
16390.0 242103.0 0
21275.9 243137.0 0
27428.2 243379.0 0
32657.0 242540.0 0
32857.0 246651.0 0
37712.9 244930.0 0
42230.3 243286.0 0
47936.9 244164.0 0
53255.7 242790.0 0
58922.8 243813.0 0
62502.9 242139.0 0
66933.4 242241.0 0
71389.3 244367.0 0
76195.9 243247.0 0
80901.0 245940.0 0
82320.6 241669.0 0
86362.1 241991.0 0
91227.6 242807.0 0
96583.6 241698.0 0
101330.0 242840.0 0
106453.0 242249.0 0
112402.0 243363.0 0
118084.0 244195.0 0
123233.0 242977.0 0
128391.0 241912.0 0
133243.0 243443.0 0
138704.0 242960.0 0
143912.0 242158.0 0
146835.0 244539.0 0
143092.0 246282.0 0
152620.0 242565.0 0
150635.0 246512.0 0
157962.0 242802.0 0
155608.0 246593.0 0
162825.0 241964.0 0
168105.0 242384.0 0
172589.0 243683.0 0
177260.0 243412.0 0
182439.0 244020.0 0
187102.0 243031.0 0
192278.0 243307.0 0
197943.0 242897.0 0
202917.0 242743.0 0
207324.0 243727.0 0
212063.0 242059.0 0
217210.0 243504.0 0
222465.0 242207.0 0
227449.0 243540.0 0
232469.0 242080.0 0
231541.0 246249.0 0
237110.0 242557.0 0
235525.0 246659.0 0
241402.0 243229.0 0
246137.0 242051.0 0
250379.0 243622.0 0
254556.0 243093.0 0
258848.0 243747.0 0
267428.0 243304.0 0
272424.0 246114.0 0
277178.0 243302.0 0
283114.0 242087.0 0
288126.0 243518.0 0
292673.0 242281.0 0
297284.0 243018.0 0
302004.0 242948.0 0
306729.0 246384.0 0
316047.0 241673.0 0
311357.0 243397.0 0
320412.0 243084.0 0
326148.0 242461.0 0
332582.0 244527.0 0
338279.0 243509.0 0
343338.0 241949.0 0
345189.0 246360.0 0
348088.0 243081.0 0
353202.0 243643.0 0
358609.0 244706.0 0
363211.0 244574.0 0
372383.0 242654.0 0
367638.0 243090.0 0
377386.0 244003.0 0
382097.0 242488.0 0
387280.0 242103.0 0
391744.0 242489.0 0
396336.0 241797.0 0
401367.0 243303.0 0
406517.0 242854.0 0
411905.0 244491.0 0
417759.0 242068.0 0
422240.0 245011.0 0
428002.0 242424.0 0
435887.0 243949.0 0
440095.0 244550.0 0
444906.0 243345.0 0
448961.0 243867.0 0
453271.0 242506.0 0
457780.0 246415.0 0
463244.0 241623.0 0
468264.0 243005.0 0
473577.0 243094.0 0
478479.0 242897.0 0
481990.0 243255.0 0
485465.0 242044.0 0
490368.0 242198.0 0
495361.0 242248.0 0
497799.0 246546.0 0
2830.08 248248.0 0
9615.0 249577.0 0
12470.0 248109.0 0
17106.5 247645.0 0
23524.1 248576.0 0
28450.4 248471.0 0
32656.3 251302.0 0
37930.3 250588.0 0
44145.6 248622.0 0
48936.0 250310.0 0
51651.2 247276.0 0
56204.6 247350.0 0
61473.2 247800.0 0
67336.6 247743.0 0
73085.8 248757.0 0
77993.7 249753.0 0
86736.5 247604.0 0
92889.2 248809.0 0
98382.8 247058.0 0
101916.0 251366.0 0
103688.0 247021.0 0
108537.0 247637.0 0
113674.0 248742.0 0
118727.0 249490.0 0
123582.0 248008.0 0
128446.0 247086.0 0
133099.0 247962.0 0
137610.0 248336.0 0
141663.0 250851.0 0
146707.0 248587.0 0
161150.0 246847.0 0
167134.0 248458.0 0
172931.0 247970.0 0
178061.0 248922.0 0
183604.0 248800.0 0
189258.0 247773.0 0
194199.0 247829.0 0
203777.0 246945.0 0
199082.0 248538.0 0
208273.0 248771.0 0
213120.0 247318.0 0
217840.0 248807.0 0
222500.0 247950.0 0
227501.0 248118.0 0
231650.0 250440.0 0
241042.0 247618.0 0
246256.0 247916.0 0
252697.0 248371.0 0
257745.0 247475.0 0
257368.0 250813.0 0
262639.0 246689.0 0
268574.0 248027.0 0
276591.0 248349.0 0
282672.0 247879.0 0
287847.0 247924.0 0
293331.0 247750.0 0
298007.0 246872.0 0
302134.0 248948.0 0
311408.0 248618.0 0
317187.0 247385.0 0
322903.0 247648.0 0
326725.0 247404.0 0
331450.0 248934.0 0
328133.0 250915.0 0
335605.0 249441.0 0
340761.0 248225.0 0
345753.0 251621.0 0
349876.0 247692.0 0
355440.0 249868.0 0
361532.0 249279.0 0
367135.0 248436.0 0
372551.0 247567.0 0
377573.0 249736.0 0
382859.0 247162.0 0
389007.0 247050.0 0
397209.0 246907.0 0
393390.0 249222.0 0
402333.0 248930.0 0
407503.0 247556.0 0
411959.0 249796.0 0
416972.0 247760.0 0
421559.0 249586.0 0
426089.0 248528.0 0
432076.0 247764.0 0
437855.0 248885.0 0
443206.0 248374.0 0
447834.0 247515.0 0
452694.0 248376.0 0
463153.0 246793.0 0
463595.0 251613.0 0
468227.0 248111.0 0
473109.0 248196.0 0
478125.0 247732.0 0
482761.0 248044.0 0
487728.0 246983.0 0
493273.0 246968.0 0
497559.0 251191.0 0
2502.63 253588.0 0
7243.02 253027.0 0
12076.9 253352.0 0
17542.7 253919.0 0
23351.2 254626.0 0
28750.2 252976.0 0
34040.9 256651.0 0
39380.4 255560.0 0
43250.8 254049.0 0
47685.0 254124.0 0
52855.0 252992.0 0
58174.8 252133.0 0
64129.5 253411.0 0
71399.8 252332.0 0
69224.7 254319.0 0
75146.6 254159.0 0
81048.0 253892.0 0
87049.3 254257.0 0
96742.5 252875.0 0
92013.1 253387.0 0
107424.0 253725.0 0
113362.0 253736.0 0
118423.0 254749.0 0
123404.0 253072.0 0
128618.0 252249.0 0
133598.0 252493.0 0
138000.0 254107.0 0
145493.0 253448.0 0
150747.0 252222.0 0
156831.0 251815.0 0
162674.0 252921.0 0
170979.0 252830.0 0
175331.0 254550.0 0
183134.0 252753.0 0
179594.0 253617.0 0
183444.0 256669.0 0
187210.0 252837.0 0
192587.0 252424.0 0
197937.0 254177.0 0
202915.0 251981.0 0
206839.0 254258.0 0
211000.0 252847.0 0
215662.0 253141.0 0
221181.0 253230.0 0
227127.0 253457.0 0
237646.0 252400.0 0
243901.0 253140.0 0
248950.0 252876.0 0
254196.0 254489.0 0
260306.0 252852.0 0
265509.0 251856.0 0
272394.0 252438.0 0
279491.0 253082.0 0
285568.0 252052.0 0
283999.0 256284.0 0
290220.0 251831.0 0
293579.0 255208.0 0
297315.0 252100.0 0
302261.0 254092.0 0
306822.0 251844.0 0
312359.0 254675.0 0
318339.0 253210.0 0
323494.0 252591.0 0
327582.0 256780.0 0
332373.0 253425.0 0
341003.0 252799.0 0
337105.0 253998.0 0
350996.0 253780.0 0
359270.0 254076.0 0
364355.0 253763.0 0
368942.0 253095.0 0
373329.0 252432.0 0
377203.0 254820.0 0
381323.0 253001.0 0
386950.0 253195.0 0
393333.0 254075.0 0
398501.0 252488.0 0
402869.0 253866.0 0
407730.0 252940.0 0
415844.0 253598.0 0
421152.0 254857.0 0
424597.0 252566.0 0
428964.0 253085.0 0
434127.0 252762.0 0
438722.0 254072.0 0
442770.0 252726.0 0
447700.0 252777.0 0
453024.0 253399.0 0
458308.0 252224.0 0
463561.0 256153.0 0
468164.0 253436.0 0
473589.0 252611.0 0
471805.0 256309.0 0
478167.0 252888.0 0
482825.0 252241.0 0
481069.0 256209.0 0
487510.0 252559.0 0
492505.0 251917.0 0
495984.0 256462.0 0
2475.27 258581.0 0
7679.37 258035.0 0
12006.6 257545.0 0
15774.9 258976.0 0
20838.9 259674.0 0
26803.1 258949.0 0
40017.0 259805.0 0
44667.5 258518.0 0
48719.6 257837.0 0
47730.9 261873.0 0
53021.7 258165.0 0
59467.5 257228.0 0
63876.8 258549.0 0
67591.0 257777.0 0
71676.7 257732.0 0
78324.5 257643.0 0
77964.4 261732.0 0
82493.2 258875.0 0
87158.1 259846.0 0
92016.7 258027.0 0
97017.0 257988.0 0
102145.0 257252.0 0
106970.0 259613.0 0
111115.0 258040.0 0
115813.0 259388.0 0
121093.0 259379.0 0
126573.0 257776.0 0
132453.0 257466.0 0
137141.0 258575.0 0
142291.0 257712.0 0
147729.0 257206.0 0
152621.0 257884.0 0
157512.0 256897.0 0
156138.0 261838.0 0
162022.0 258488.0 0
167211.0 256933.0 0
172470.0 257983.0 0
178168.0 258878.0 0
186099.0 261065.0 0
190387.0 257433.0 0
195373.0 258871.0 0
203326.0 257339.0 0
199742.0 259491.0 0
208099.0 258288.0 0
204896.0 261873.0 0
212491.0 257398.0 0
217661.0 257853.0 0
223413.0 258029.0 0
227833.0 258428.0 0
232882.0 257739.0 0
238090.0 258405.0 0
242328.0 257341.0 0
241547.0 261838.0 0
246656.0 257207.0 0
251492.0 258943.0 0
257653.0 258797.0 0
262651.0 257040.0 0
268069.0 257117.0 0
266309.0 261557.0 0
273522.0 259087.0 0
279497.0 259267.0 0
284959.0 261401.0 0
289063.0 256926.0 0
290121.0 261791.0 0
293800.0 259428.0 0
298765.0 257874.0 0
302755.0 257652.0 0
302594.0 260808.0 0
307515.0 257436.0 0
307404.0 261368.0 0
312826.0 260489.0 0
316369.0 258066.0 0
321274.0 258233.0 0
333556.0 258413.0 0
340755.0 256928.0 0
337861.0 259846.0 0
346459.0 258181.0 0
352469.0 258626.0 0
358053.0 259660.0 0
362691.0 257630.0 0
367611.0 258345.0 0
373240.0 257545.0 0
377760.0 259550.0 0
383131.0 258432.0 0
388880.0 259065.0 0
397587.0 256907.0 0
393913.0 259350.0 0
401982.0 258485.0 0
407538.0 258743.0 0
417754.0 257736.0 0
413339.0 258801.0 0
420764.0 259003.0 0
426074.0 258453.0 0
432059.0 257557.0 0
436722.0 257912.0 0
442746.0 257745.0 0
438886.0 261967.0 0
448790.0 259872.0 0
453393.0 257566.0 0
458482.0 258784.0 0
467775.0 258752.0 0
472218.0 261399.0 0
476424.0 257902.0 0
481548.0 261482.0 0
485618.0 257199.0 0
490678.0 258182.0 0
3196.5 263710.0 0
8245.76 263136.0 0
12750.9 262772.0 0
17394.2 263740.0 0
21994.8 264269.0 0
26209.2 263728.0 0
30911.0 262261.0 0
35886.1 262394.0 0
39962.9 265510.0 0
43607.5 262506.0 0
51781.7 262225.0 0
52658.7 266417.0 0
56802.3 262426.0 0
62549.9 262554.0 0
67141.3 262966.0 0
72490.2 262921.0 0
78845.1 266478.0 0
82555.2 263300.0 0
86319.6 263914.0 0
90170.2 263166.0 0
95232.5 263008.0 0
101135.0 262919.0 0
106569.0 264633.0 0
111805.0 262897.0 0
118313.0 264065.0 0
123260.0 263810.0 0
127614.0 262897.0 0
132203.0 262782.0 0
137223.0 263173.0 0
141693.0 264468.0 0
146443.0 262194.0 0
151555.0 264639.0 0
161845.0 264787.0 0
169296.0 263310.0 0
175987.0 264660.0 0
181621.0 263720.0 0
190957.0 262732.0 0
195717.0 263545.0 0
200484.0 264731.0 0
208486.0 263980.0 0
206386.0 266382.0 0
211750.0 262011.0 0
216627.0 263199.0 0
221822.0 262477.0 0
226823.0 262917.0 0
232040.0 261993.0 0
231073.0 266361.0 0
236156.0 263255.0 0
246871.0 262316.0 0
251527.0 263193.0 0
252675.0 266834.0 0
256234.0 263925.0 0
260054.0 266981.0 0
261538.0 262369.0 0
265447.0 266797.0 0
270560.0 263943.0 0
276605.0 264006.0 0
281974.0 266909.0 0
288357.0 266573.0 0
293702.0 264021.0 0
297269.0 262324.0 0
298770.0 266720.0 0
304644.0 265461.0 0
310195.0 263833.0 0
313942.0 265410.0 0
316933.0 262313.0 0
326178.0 262161.0 0
321541.0 264210.0 0
327747.0 266683.0 0
331791.0 263386.0 0
336640.0 263813.0 0
341738.0 262791.0 0
346576.0 264015.0 0
350375.0 262555.0 0
354428.0 263732.0 0
363435.0 262956.0 0
368541.0 263567.0 0
372669.0 262236.0 0
377003.0 264699.0 0
381284.0 262940.0 0
382593.0 266952.0 0
385772.0 263538.0 0
391594.0 264088.0 0
397821.0 262983.0 0
403451.0 263446.0 0
408204.0 263856.0 0
412662.0 263915.0 0
417338.0 262433.0 0
422300.0 262758.0 0
427067.0 265157.0 0
433135.0 263489.0 0
443925.0 263332.0 0
448486.0 265718.0 0
453724.0 262525.0 0
457871.0 264655.0 0
463005.0 263243.0 0
468076.0 263548.0 0
472251.0 266556.0 0
476490.0 262932.0 0
483453.0 266603.0 0
487359.0 262108.0 0
487736.0 266773.0 0
492226.0 264581.0 0
497270.0 262104.0 0
2743.05 269138.0 0
8047.19 268159.0 0
14942.5 267992.0 0
11770.6 270638.0 0
19932.0 268552.0 0
25351.7 268577.0 0
32693.5 269037.0 0
42500.7 270471.0 0
47189.5 267148.0 0
52162.2 271827.0 0
57751.7 268661.0 0
63747.9 267907.0 0
69573.2 268276.0 0
74689.3 268788.0 0
82760.7 268104.0 0
87408.8 268353.0 0
93072.1 268423.0 0
98824.8 268270.0 0
103886.0 268803.0 0
107214.0 268643.0 0
111628.0 268764.0 0
107419.0 271893.0 0
116390.0 271473.0 0
120363.0 268798.0 0
124153.0 268115.0 0
128421.0 267516.0 0
131767.0 271838.0 0
132887.0 267113.0 0
136872.0 267865.0 0
141100.0 268653.0 0
146515.0 268159.0 0
151898.0 270028.0 0
156634.0 268239.0 0
160726.0 270339.0 0
166708.0 269573.0 0
172251.0 268298.0 0
170862.0 271733.0 0
179229.0 268284.0 0
184118.0 268935.0 0
189282.0 267244.0 0
193642.0 268106.0 0
197488.0 267829.0 0
202918.0 268572.0 0
207383.0 271198.0 0
212360.0 267778.0 0
216912.0 267724.0 0
221073.0 267307.0 0
221736.0 271571.0 0
225841.0 267948.0 0
235706.0 268173.0 0
238408.0 272147.0 0
240626.0 267077.0 0
244810.0 271407.0 0
248434.0 267109.0 0
251433.0 271872.0 0
256139.0 268919.0 0
261832.0 271583.0 0
270068.0 270770.0 0
272883.0 267388.0 0
275620.0 267973.0 0
277989.0 270992.0 0
288924.0 271905.0 0
293499.0 268697.0 0
297167.0 271586.0 0
302954.0 271922.0 0
309215.0 267497.0 0
312936.0 270144.0 0
317726.0 267297.0 0
323313.0 269410.0 0
328784.0 271893.0 0
332500.0 268014.0 0
336862.0 268422.0 0
342180.0 268363.0 0
351670.0 267280.0 0
347187.0 268381.0 0
354403.0 270916.0 0
357629.0 267303.0 0
363232.0 269304.0 0
368506.0 267829.0 0
373399.0 269050.0 0
379121.0 269099.0 0
387091.0 269137.0 0
392330.0 270275.0 0
395883.0 267701.0 0
400740.0 268146.0 0
405927.0 267790.0 0
411221.0 269084.0 0
416960.0 268289.0 0
422181.0 267654.0 0
426368.0 270709.0 0
431403.0 269191.0 0
437976.0 267387.0 0
443843.0 269194.0 0
453568.0 267752.0 0
449059.0 270067.0 0
458365.0 268846.0 0
462262.0 268241.0 0
467293.0 268559.0 0
472915.0 271754.0 0
478259.0 267672.0 0
482520.0 271063.0 0
487855.0 271900.0 0
492422.0 269569.0 0
497066.0 267700.0 0
2121.86 273963.0 0
6648.19 273093.0 0
10892.6 274294.0 0
16453.5 273208.0 0
22163.2 273353.0 0
26832.6 273149.0 0
31198.6 276839.0 0
38011.3 274502.0 0
44013.6 274982.0 0
47182.2 272278.0 0
57344.5 274756.0 0
62692.7 273286.0 0
67626.2 273611.0 0
72726.7 273332.0 0
77865.0 272735.0 0
83353.0 272817.0 0
86316.5 276940.0 0
88720.5 273316.0 0
93480.3 273282.0 0
97423.9 272904.0 0
102458.0 274014.0 0
111812.0 275126.0 0
120445.0 274637.0 0
125882.0 272447.0 0
137400.0 272743.0 0
143333.0 273561.0 0
148483.0 273105.0 0
152914.0 274549.0 0
157338.0 273233.0 0
162751.0 277227.0 0
163282.0 272727.0 0
168098.0 274988.0 0
175909.0 272301.0 0
181659.0 274140.0 0
186432.0 276867.0 0
189117.0 272489.0 0
194245.0 272909.0 0
199446.0 272175.0 0
203612.0 274120.0 0
210858.0 274853.0 0
216160.0 273228.0 0
221819.0 276233.0 0
226473.0 273234.0 0
232422.0 272370.0 0
236460.0 277155.0 0
241260.0 276566.0 0
245821.0 276758.0 0
256890.0 273446.0 0
266248.0 274880.0 0
274182.0 273512.0 0
271155.0 277184.0 0
278081.0 276843.0 0
283381.0 273250.0 0
288381.0 277193.0 0
293175.0 274220.0 0
298333.0 276795.0 0
308760.0 272771.0 0
318340.0 272579.0 0
324041.0 274852.0 0
334046.0 273668.0 0
339562.0 273026.0 0
344900.0 272830.0 0
349954.0 272368.0 0
353183.0 277044.0 0
358634.0 274005.0 0
363888.0 274893.0 0
368155.0 272538.0 0
372328.0 273698.0 0
376976.0 273626.0 0
382485.0 272599.0 0
387497.0 273626.0 0
392137.0 274382.0 0
396156.0 273089.0 0
401237.0 273612.0 0
406701.0 272945.0 0
411225.0 273955.0 0
415501.0 273331.0 0
421165.0 273238.0 0
428490.0 274243.0 0
430924.0 273632.0 0
435855.0 273410.0 0
442068.0 275135.0 0
446680.0 273545.0 0
451302.0 274761.0 0
456099.0 272509.0 0
461508.0 273288.0 0
466943.0 273962.0 0
470965.0 276727.0 0
478069.0 273140.0 0
482646.0 277064.0 0
493649.0 273458.0 0
498091.0 272365.0 0
497013.0 277143.0 0
2818.66 278754.0 0
8173.6 278030.0 0
12921.9 277396.0 0
11909.8 281359.0 0
16360.2 278039.0 0
17730.5 282287.0 0
20412.5 277929.0 0
25302.5 279134.0 0
37238.2 279850.0 0
41763.9 278844.0 0
47413.4 278962.0 0
53066.3 278268.0 0
58681.4 280047.0 0
63558.5 278439.0 0
68261.1 278008.0 0
72447.3 278180.0 0
77180.9 277845.0 0
82030.0 277926.0 0
91299.6 277848.0 0
87020.3 281959.0 0
96813.2 277305.0 0
101400.0 279907.0 0
107504.0 280092.0 0
116480.0 277849.0 0
113023.0 279950.0 0
121271.0 279374.0 0
126003.0 278597.0 0
132145.0 278222.0 0
137843.0 278383.0 0
147555.0 277659.0 0
142862.0 278931.0 0
152657.0 279190.0 0
157589.0 278222.0 0
167345.0 280023.0 0
172608.0 277478.0 0
172060.0 281881.0 0
177932.0 277562.0 0
182366.0 279224.0 0
188294.0 281843.0 0
192160.0 277427.0 0
196712.0 278027.0 0
201208.0 277619.0 0
206863.0 277516.0 0
212749.0 277990.0 0
214065.0 281427.0 0
217664.0 279134.0 0
222166.0 281723.0 0
226846.0 278320.0 0
226329.0 282207.0 0
231595.0 278005.0 0
235765.0 281891.0 0
240077.0 279928.0 0
243678.0 280905.0 0
250486.0 277757.0 0
255230.0 277593.0 0
260797.0 277752.0 0
266725.0 280388.0 0
283210.0 280028.0 0
293401.0 279118.0 0
299294.0 282155.0 0
303394.0 277473.0 0
303570.0 281469.0 0
308125.0 277774.0 0
314283.0 277871.0 0
319198.0 277469.0 0
317836.0 282288.0 0
322811.0 280577.0 0
328935.0 277525.0 0
333117.0 277874.0 0
333054.0 282157.0 0
336742.0 277799.0 0
342556.0 278190.0 0
347860.0 277437.0 0
346952.0 280987.0 0
357731.0 279685.0 0
362472.0 279694.0 0
367760.0 278203.0 0
373531.0 278376.0 0
382619.0 277850.0 0
378304.0 278157.0 0
387500.0 278163.0 0
390874.0 277963.0 0
394244.0 277563.0 0
394677.0 282184.0 0
398024.0 277535.0 0
400654.0 281930.0 0
405862.0 278972.0 0
412277.0 278583.0 0
417907.0 278114.0 0
423032.0 278493.0 0
427900.0 278142.0 0
432814.0 278563.0 0
437699.0 279053.0 0
441794.0 279803.0 0
447132.0 277835.0 0
452088.0 279930.0 0
456296.0 277458.0 0
461221.0 278940.0 0
466182.0 278545.0 0
470805.0 281914.0 0
476150.0 278156.0 0
488893.0 277464.0 0
492853.0 280274.0 0
2355.09 283198.0 0
2852.91 287039.0 0
7488.63 282879.0 0
7660.86 287339.0 0
13279.0 285765.0 0
17503.8 287179.0 0
22200.9 282884.0 0
22027.2 287170.0 0
25726.7 283662.0 0
29644.1 285436.0 0
33501.3 282427.0 0
36837.6 284835.0 0
41271.9 284074.0 0
46283.5 284202.0 0
51606.3 283613.0 0
56838.5 284295.0 0
62243.6 283887.0 0
67522.5 282731.0 0
72513.3 282790.0 0
73837.7 287273.0 0
81274.0 283049.0 0
76628.9 283863.0 0
92318.8 283113.0 0
97265.3 283138.0 0
102435.0 285057.0 0
106772.0 285235.0 0
111802.0 283920.0 0
117626.0 283395.0 0
123420.0 283139.0 0
128784.0 283650.0 0
134060.0 283266.0 0
137961.0 282994.0 0
142168.0 282929.0 0
147551.0 283458.0 0
152920.0 284121.0 0
158958.0 282619.0 0
162906.0 282628.0 0
163022.0 287014.0 0
167199.0 284656.0 0
177793.0 283095.0 0
183307.0 283901.0 0
186725.0 287217.0 0
193949.0 282700.0 0
196830.0 286748.0 0
199104.0 282413.0 0
204208.0 282809.0 0
209550.0 282600.0 0
213696.0 285699.0 0
217514.0 283511.0 0
220533.0 286570.0 0
225427.0 286069.0 0
230551.0 283518.0 0
235849.0 287368.0 0
240008.0 283995.0 0
245192.0 286961.0 0
250397.0 283145.0 0
256501.0 283037.0 0
262612.0 283384.0 0
267366.0 285912.0 0
272501.0 282824.0 0
278299.0 282649.0 0
282875.0 285574.0 0
289925.0 282681.0 0
289716.0 287452.0 0
294850.0 283564.0 0
293364.0 287149.0 0
303713.0 286605.0 0
307743.0 282928.0 0
312949.0 284053.0 0
320157.0 286645.0 0
324459.0 285178.0 0
327852.0 282541.0 0
334606.0 287440.0 0
338876.0 283421.0 0
344200.0 283477.0 0
351185.0 283155.0 0
358176.0 284061.0 0
362923.0 284598.0 0
367612.0 283565.0 0
372854.0 284004.0 0
376894.0 286657.0 0
377591.0 282835.0 0
380649.0 287298.0 0
383032.0 283012.0 0
387669.0 282661.0 0
390594.0 283509.0 0
391395.0 286893.0 0
400522.0 286305.0 0
404230.0 285230.0 0
409739.0 284424.0 0
416376.0 283912.0 0
422828.0 284146.0 0
428624.0 282946.0 0
433390.0 283379.0 0
438580.0 284308.0 0
448819.0 282707.0 0
444220.0 283616.0 0
452111.0 283920.0 0
457237.0 283758.0 0
462842.0 283393.0 0
466808.0 284654.0 0
476415.0 284532.0 0
482899.0 283797.0 0
488677.0 282932.0 0
492901.0 283991.0 0
497144.0 282994.0 0
2103.77 291200.0 0
12523.9 291128.0 0
18522.1 292212.0 0
24346.3 291937.0 0
25969.4 287582.0 0
30114.0 292318.0 0
33843.4 288342.0 0
38552.9 288303.0 0
39854.7 292365.0 0
43311.8 289137.0 0
47500.0 287976.0 0
47453.0 292138.0 0
51959.0 289258.0 0
58873.4 288849.0 0
64459.5 289092.0 0
68971.6 287828.0 0
71678.0 292171.0 0
77214.8 287702.0 0
80678.1 288149.0 0
77177.7 291322.0 0
86308.0 288262.0 0
92816.9 288121.0 0
93310.6 292228.0 0
98248.1 288400.0 0
103089.0 289022.0 0
108999.0 288434.0 0
113164.0 288048.0 0
112316.0 292314.0 0
122444.0 287931.0 0
117545.0 289105.0 0
126565.0 288543.0 0
122472.0 292029.0 0
131868.0 287999.0 0
136849.0 287543.0 0
137661.0 292484.0 0
140228.0 289822.0 0
144041.0 288215.0 0
150481.0 288004.0 0
157108.0 287844.0 0
153078.0 292037.0 0
161600.0 291888.0 0
167697.0 289309.0 0
173099.0 287508.0 0
183083.0 288531.0 0
178882.0 289164.0 0
185045.0 292303.0 0
191879.0 287573.0 0
190280.0 291854.0 0
195437.0 292352.0 0
201815.0 287844.0 0
207338.0 287682.0 0
212373.0 291510.0 0
216957.0 288650.0 0
222899.0 291035.0 0
229421.0 288563.0 0
232587.0 292191.0 0
240270.0 289002.0 0
248607.0 291936.0 0
252571.0 288131.0 0
257288.0 288479.0 0
255118.0 292229.0 0
259913.0 292421.0 0
262301.0 288147.0 0
272583.0 288927.0 0
277765.0 287656.0 0
276473.0 292447.0 0
281543.0 291342.0 0
285957.0 289109.0 0
292779.0 291964.0 0
297823.0 288036.0 0
303469.0 291899.0 0
309244.0 288474.0 0
315270.0 289492.0 0
323632.0 290080.0 0
328712.0 288118.0 0
332623.0 292072.0 0
338193.0 289649.0 0
342793.0 288655.0 0
348319.0 287945.0 0
354579.0 287875.0 0
358839.0 288025.0 0
358283.0 291865.0 0
362321.0 288659.0 0
366749.0 288612.0 0
372011.0 289396.0 0
377274.0 290945.0 0
386662.0 287806.0 0
383141.0 292270.0 0
392808.0 291629.0 0
396453.0 287887.0 0
401658.0 291373.0 0
407494.0 289889.0 0
413221.0 289724.0 0
418120.0 288979.0 0
422123.0 289298.0 0
426900.0 287744.0 0
431442.0 287668.0 0
429100.0 291950.0 0
436304.0 289657.0 0
442114.0 288954.0 0
447562.0 287862.0 0
452816.0 288107.0 0
457507.0 289782.0 0
461611.0 287612.0 0
461736.0 292207.0 0
465868.0 288713.0 0
470849.0 287701.0 0
476639.0 290454.0 0
480531.0 288213.0 0
485121.0 288845.0 0
491130.0 288778.0 0
497366.0 288485.0 0
6791.69 292829.0 0
12818.9 296548.0 0
23735.8 297303.0 0
35415.9 293748.0 0
43496.6 294437.0 0
47737.5 296899.0 0
51733.4 294096.0 0
56694.3 293889.0 0
61951.6 293907.0 0
66623.2 293577.0 0
82278.9 293129.0 0
88454.9 294572.0 0
94101.8 296449.0 0
97500.0 293010.0 0
102240.0 292810.0 0
107098.0 292589.0 0
108329.0 297552.0 0
113647.0 297159.0 0
117490.0 293719.0 0
122419.0 296421.0 0
132616.0 292794.0 0
127690.0 293504.0 0
131372.0 297588.0 0
135447.0 296257.0 0
142135.0 292892.0 0
140013.0 297183.0 0
147670.0 292707.0 0
157512.0 293726.0 0
162284.0 297311.0 0
165700.0 293546.0 0
171307.0 293401.0 0
176307.0 293404.0 0
180397.0 293816.0 0
188899.0 295974.0 0
198216.0 297051.0 0
201352.0 293299.0 0
206621.0 293653.0 0
218144.0 293072.0 0
217375.0 297538.0 0
221992.0 296367.0 0
227504.0 293711.0 0
231268.0 297593.0 0
238127.0 292940.0 0
243751.0 293271.0 0
247367.0 297230.0 0
251778.0 295179.0 0
256856.0 297407.0 0
262112.0 297641.0 0
266640.0 292945.0 0
272616.0 293841.0 0
277757.0 296977.0 0
282655.0 296825.0 0
286997.0 293696.0 0
298708.0 293895.0 0
304132.0 296916.0 0
307680.0 293131.0 0
312642.0 294763.0 0
319060.0 293758.0 0
323745.0 294319.0 0
328155.0 293759.0 0
337166.0 293423.0 0
341691.0 293883.0 0
346947.0 293381.0 0
352949.0 293146.0 0
357520.0 297211.0 0
363834.0 293063.0 0
368627.0 292706.0 0
368174.0 297539.0 0
372501.0 293278.0 0
373356.0 296990.0 0
378029.0 296051.0 0
388497.0 293496.0 0
392127.0 296584.0 0
396722.0 293379.0 0
408654.0 294479.0 0
412969.0 294687.0 0
417500.0 292908.0 0
421525.0 297652.0 0
423634.0 293211.0 0
427083.0 297009.0 0
432842.0 293168.0 0
436292.0 296861.0 0
439570.0 293347.0 0
445086.0 292961.0 0
449566.0 292626.0 0
453923.0 292971.0 0
458011.0 294349.0 0
454959.0 297649.0 0
462512.0 296407.0 0
466249.0 293422.0 0
472021.0 293727.0 0
477069.0 295119.0 0
481386.0 292832.0 0
487081.0 294019.0 0
492808.0 294674.0 0
497597.0 293518.0 0
3506.29 298281.0 0
8912.75 298102.0 0
7866.05 302167.0 0
13204.0 302458.0 0
18047.4 298423.0 0
29008.9 298109.0 0
33720.9 297909.0 0
38524.1 298231.0 0
43678.5 299177.0 0
47500.0 302785.0 0
52018.3 298651.0 0
56987.8 299295.0 0
61805.5 298615.0 0
66408.0 298170.0 0
71642.0 298056.0 0
78218.9 298534.0 0
84128.9 297866.0 0
87693.4 299646.0 0
92062.7 301764.0 0
99300.2 297709.0 0
103857.0 299130.0 0
113342.0 302576.0 0
118200.0 298183.0 0
121262.0 301685.0 0
126929.0 298451.0 0
129867.0 301868.0 0
135587.0 302048.0 0
141841.0 302056.0 0
145242.0 297847.0 0
151729.0 298148.0 0
157510.0 298859.0 0
167898.0 297848.0 0
173519.0 299036.0 0
178705.0 297778.0 0
183550.0 297848.0 0
188063.0 301854.0 0
193464.0 298607.0 0
197939.0 302076.0 0
202288.0 298602.0 0
207070.0 298820.0 0
212438.0 297898.0 0
210469.0 302468.0 0
215959.0 302045.0 0
222094.0 302438.0 0
226334.0 298456.0 0
232918.0 302036.0 0
236066.0 298105.0 0
237620.0 302606.0 0
240749.0 297947.0 0
243209.0 302460.0 0
248591.0 302723.0 0
251799.0 299187.0 0
259210.0 302354.0 0
266495.0 300256.0 0
272514.0 298587.0 0
276863.0 301547.0 0
287482.0 299168.0 0
294202.0 298585.0 0
299664.0 298721.0 0
305941.0 302512.0 0
308942.0 298226.0 0
315319.0 299607.0 0
311333.0 301241.0 0
320333.0 298768.0 0
326040.0 299058.0 0
333099.0 298233.0 0
339084.0 298765.0 0
336977.0 302602.0 0
341081.0 302543.0 0
343380.0 297905.0 0
346139.0 302711.0 0
347313.0 298183.0 0
351756.0 298680.0 0
357125.0 302531.0 0
362980.0 298094.0 0
372162.0 301609.0 0
377860.0 302057.0 0
382777.0 298418.0 0
387977.0 299177.0 0
397071.0 297740.0 0
392972.0 301803.0 0
402886.0 298046.0 0
407572.0 298023.0 0
411394.0 299006.0 0
416300.0 297860.0 0
415645.0 302655.0 0
431820.0 299299.0 0
442641.0 298234.0 0
449577.0 298254.0 0
453726.0 302476.0 0
459052.0 298656.0 0
458599.0 302746.0 0
462387.0 300880.0 0
466476.0 298287.0 0
470825.0 298896.0 0
475091.0 298667.0 0
479834.0 299151.0 0
485482.0 299683.0 0
491401.0 298884.0 0
496525.0 298992.0 0
3164.68 304943.0 0
18016.5 304402.0 0
22913.6 302941.0 0
28302.9 303253.0 0
33682.9 302819.0 0
38743.1 303169.0 0
37851.1 307702.0 0
42462.8 303009.0 0
42860.5 307806.0 0
47500.0 307868.0 0
52544.2 303050.0 0
52500.0 307787.0 0
57789.4 304611.0 0
62773.3 303084.0 0
67039.3 302983.0 0
67614.2 307369.0 0
72935.3 304106.0 0
78321.2 304333.0 0
82589.4 302930.0 0
81633.9 307835.0 0
86244.9 307682.0 0
87057.8 303560.0 0
97669.3 302991.0 0
102293.0 302798.0 0
102674.0 307364.0 0
107404.0 303381.0 0
111197.0 307450.0 0
117553.0 303922.0 0
120821.0 307567.0 0
125811.0 304343.0 0
131573.0 307851.0 0
147660.0 304179.0 0
152852.0 303502.0 0
152385.0 307448.0 0
156995.0 303333.0 0
162597.0 303422.0 0
168646.0 303367.0 0
173714.0 304388.0 0
178572.0 302861.0 0
183168.0 304499.0 0
193440.0 303374.0 0
190849.0 306744.0 0
196018.0 307722.0 0
202775.0 302796.0 0
202301.0 306473.0 0
206595.0 303208.0 0
212811.0 306639.0 0
217477.0 306429.0 0
227947.0 302910.0 0
226214.0 307757.0 0
231973.0 307080.0 0
240951.0 306736.0 0
254366.0 302861.0 0
257758.0 306333.0 0
262934.0 303858.0 0
267340.0 305979.0 0
270763.0 302845.0 0
272647.0 306934.0 0
277764.0 306257.0 0
282673.0 302965.0 0
287928.0 304385.0 0
292252.0 304108.0 0
298226.0 303025.0 0
301993.0 307149.0 0
310108.0 304028.0 0
313987.0 304621.0 0
318424.0 302871.0 0
318413.0 307445.0 0
322500.0 303071.0 0
325774.0 307401.0 0
328889.0 303691.0 0
333230.0 304625.0 0
352109.0 304790.0 0
361932.0 303012.0 0
367459.0 304343.0 0
372110.0 307728.0 0
383974.0 304457.0 0
389038.0 303992.0 0
393839.0 307482.0 0
398548.0 303176.0 0
404602.0 303210.0 0
408302.0 303235.0 0
411598.0 303299.0 0
413400.0 307487.0 0
420771.0 303139.0 0
427257.0 303559.0 0
432707.0 303365.0 0
432985.0 307621.0 0
437828.0 303420.0 0
443868.0 304483.0 0
448909.0 304367.0 0
447415.0 307748.0 0
455868.0 306749.0 0
466467.0 303167.0 0
471678.0 303556.0 0
476759.0 303235.0 0
482163.0 304007.0 0
489737.0 303012.0 0
493003.0 305014.0 0
497151.0 304984.0 0
2175.04 310190.0 0
6289.24 309142.0 0
11599.1 308572.0 0
17536.7 308865.0 0
22464.5 308613.0 0
27690.8 308314.0 0
32847.0 308199.0 0
37800.8 312773.0 0
42911.0 312922.0 0
48373.5 312741.0 0
53049.3 312970.0 0
57475.1 309073.0 0
62274.0 308141.0 0
62500.0 312955.0 0
67351.0 312978.0 0
72220.4 309827.0 0
77007.7 308223.0 0
86602.0 312854.0 0
91742.2 308176.0 0
97810.4 308379.0 0
106906.0 309527.0 0
102894.0 312378.0 0
112146.0 312756.0 0
115542.0 308242.0 0
117792.0 312624.0 0
126030.0 309175.0 0
127514.0 312895.0 0
137603.0 308236.0 0
135069.0 311735.0 0
143048.0 308636.0 0
148575.0 309980.0 0
156824.0 308014.0 0
161303.0 309208.0 0
165928.0 307914.0 0
170877.0 308312.0 0
176361.0 308944.0 0
181211.0 308035.0 0
186271.0 309974.0 0
191951.0 311477.0 0
201361.0 311446.0 0
207151.0 308211.0 0
212010.0 312405.0 0
217741.0 311140.0 0
221439.0 307938.0 0
222974.0 312608.0 0
228682.0 312768.0 0
233701.0 312069.0 0
236970.0 309277.0 0
241223.0 312064.0 0
246425.0 308717.0 0
252574.0 308137.0 0
257101.0 310819.0 0
262354.0 308924.0 0
268794.0 311941.0 0
276052.0 310428.0 0
283357.0 309983.0 0
289824.0 308925.0 0
295953.0 308172.0 0
305047.0 311511.0 0
308414.0 307991.0 0
313651.0 309751.0 0
316644.0 312661.0 0
322126.0 310088.0 0
330983.0 309180.0 0
336301.0 308298.0 0
338661.0 312687.0 0
342214.0 307938.0 0
347980.0 308884.0 0
352467.0 310445.0 0
357685.0 308346.0 0
363340.0 307940.0 0
362641.0 312767.0 0
367590.0 310429.0 0
377577.0 308020.0 0
382651.0 310747.0 0
388182.0 308864.0 0
397815.0 311318.0 0
403552.0 309009.0 0
409208.0 309773.0 0
418005.0 308114.0 0
417028.0 312658.0 0
422321.0 308183.0 0
427435.0 310309.0 0
437052.0 308346.0 0
442554.0 309967.0 0
448187.0 312796.0 0
451705.0 308328.0 0
455983.0 312650.0 0
461835.0 308041.0 0
468608.0 308753.0 0
474673.0 308644.0 0
480002.0 308085.0 0
481991.0 312059.0 0
486614.0 308234.0 0
493175.0 309390.0 0
498364.0 309304.0 0
2646.72 314472.0 0
6704.61 313018.0 0
11883.4 315359.0 0
17237.6 313362.0 0
21689.7 313487.0 0
26625.9 313516.0 0
32270.4 313654.0 0
57491.5 313358.0 0
72974.1 314163.0 0
77094.2 313151.0 0
80949.5 313138.0 0
92663.7 314771.0 0
98143.4 313423.0 0
107107.0 314879.0 0
123044.0 314286.0 0
131665.0 314648.0 0
139815.0 314332.0 0
146666.0 315199.0 0
153482.0 313279.0 0
159471.0 313743.0 0
162836.0 316768.0 0
165985.0 313128.0 0
171483.0 313545.0 0
177300.0 315169.0 0
183225.0 315217.0 0
188863.0 315590.0 0
196032.0 315299.0 0
201292.0 316876.0 0
206543.0 314884.0 0
210907.0 318060.0 0
216537.0 316869.0 0
234117.0 316867.0 0
237035.0 313606.0 0
240450.0 317834.0 0
246294.0 315144.0 0
251823.0 313584.0 0
258292.0 315796.0 0
263341.0 314509.0 0
274268.0 314630.0 0
270485.0 317482.0 0
278951.0 313383.0 0
284375.0 316361.0 0
288473.0 313691.0 0
293532.0 313843.0 0
300001.0 313276.0 0
304823.0 315586.0 0
308652.0 313754.0 0
313242.0 314691.0 0
320501.0 314207.0 0
326613.0 313825.0 0
333850.0 314124.0 0
342795.0 313420.0 0
347411.0 313855.0 0
352855.0 315270.0 0
357812.0 314131.0 0
367028.0 314780.0 0
371834.0 313159.0 0
377408.0 313924.0 0
382625.0 315103.0 0
386620.0 314377.0 0
391984.0 313658.0 0
396550.0 315436.0 0
401651.0 315731.0 0
406993.0 313955.0 0
411816.0 313470.0 0
422585.0 313904.0 0
427264.0 316063.0 0
432173.0 314204.0 0
437969.0 313570.0 0
442937.0 315521.0 0
452076.0 315953.0 0
461573.0 314599.0 0
466236.0 313265.0 0
471914.0 314965.0 0
477542.0 313463.0 0
481347.0 315902.0 0
486492.0 315527.0 0
491855.0 314494.0 0
497015.0 314086.0 0
199877.0 321867.0 0
204572.0 319394.0 0
209777.0 323096.0 0
215919.0 322971.0 0
222580.0 318346.0 0
228064.0 318180.0 0
231666.0 321397.0 0
236705.0 320218.0 0
244593.0 321029.0 0
248944.0 319784.0 0
253422.0 318399.0 0
257814.0 321337.0 0
261229.0 318788.0 0
262070.0 321971.0 0
265644.0 319448.0 0
271245.0 322597.0 0
278426.0 318852.0 0
283277.0 320975.0 0
289723.0 318226.0 0
287085.0 322477.0 0
293059.0 323153.0 0
296910.0 318609.0 0
302159.0 319141.0 0
200829.0 328155.0 0
204796.0 323517.0 0
207085.0 328049.0 0
212613.0 327344.0 0
221320.0 323740.0 0
223487.0 327683.0 0
226814.0 323697.0 0
231961.0 326688.0 0
235503.0 323385.0 0
236846.0 327059.0 0
240469.0 323910.0 0
245958.0 326124.0 0
252310.0 323322.0 0
250748.0 327701.0 0
256735.0 327708.0 0
262793.0 326037.0 0
267891.0 326778.0 0
276203.0 324199.0 0
278702.0 328072.0 0
280713.0 324063.0 0
284356.0 325305.0 0
288584.0 327774.0 0
299311.0 323975.0 0
213758.0 332439.0 0
218343.0 328666.0 0
227499.0 329680.0 0
231816.0 332053.0 0
236243.0 331132.0 0
241083.0 329645.0 0
246430.0 331990.0 0
252243.0 332464.0 0
261575.0 330942.0 0
266599.0 332009.0 0
273205.0 328950.0 0
276722.0 332962.0 0
283218.0 329059.0 0
280874.0 331984.0 0
285682.0 332951.0 0
294056.0 328718.0 0
291311.0 332669.0 0
298111.0 328662.0 0
297212.0 333302.0 0
10310.7 337911.0 0
202533.0 334496.0 0
208517.0 333565.0 0
210616.0 337506.0 0
218913.0 334023.0 0
215459.0 337934.0 0
223938.0 333644.0 0
221059.0 338237.0 0
228407.0 334323.0 0
231433.0 336656.0 0
237069.0 336577.0 0
240661.0 333719.0 0
243180.0 336534.0 0
248825.0 337356.0 0
254641.0 337624.0 0
257319.0 333628.0 0
261792.0 336254.0 0
268301.0 338469.0 0
271801.0 333727.0 0
274493.0 337045.0 0
279450.0 335721.0 0
283447.0 337915.0 0
289035.0 337409.0 0
293797.0 336838.0 0
341742.0 335575.0 0
202150.0 341648.0 0
206451.0 339013.0 0
211693.0 342445.0 0
217162.0 343465.0 0
222508.0 343074.0 0
226730.0 339246.0 0
232382.0 341711.0 0
237291.0 341952.0 0
242132.0 342013.0 0
247877.0 343232.0 0
253457.0 342829.0 0
258727.0 341118.0 0
272877.0 343470.0 0
278597.0 339801.0 0
282507.0 342093.0 0
292550.0 342161.0 0
297540.0 339583.0 0
309756.0 339441.0 0
404603.0 342697.0 0
497243.0 343565.0 0
6878.9 347721.0 0
48261.5 345336.0 0
126005.0 348693.0 0
167796.0 347583.0 0
174681.0 344360.0 0
177286.0 348413.0 0
201698.0 346422.0 0
206512.0 344310.0 0
210738.0 348122.0 0
215821.0 348270.0 0
220361.0 347531.0 0
228296.0 343847.0 0
225647.0 347240.0 0
231538.0 347813.0 0
237641.0 346869.0 0
253844.0 348173.0 0
258795.0 346306.0 0
262754.0 343756.0 0
267392.0 344741.0 0
278974.0 345522.0 0
286721.0 343886.0 0
288428.0 348459.0 0
292382.0 347440.0 0
297449.0 346038.0 0
317421.0 347661.0 0
357807.0 347168.0 0
362467.0 345585.0 0
368610.0 345367.0 0
374583.0 348009.0 0
389098.0 344432.0 0
421499.0 343969.0 0
437044.0 347258.0 0
443009.0 343616.0 0
455114.0 343998.0 0
461586.0 347858.0 0
472319.0 344741.0 0
476569.0 347984.0 0
492537.0 345717.0 0
14254.8 352274.0 0
22442.4 353590.0 0
30433.9 353494.0 0
56374.4 349249.0 0
63868.7 349259.0 0
68827.6 350278.0 0
75161.9 352314.0 0
79658.9 351012.0 0
85031.3 351710.0 0
96187.4 349525.0 0
100416.0 348973.0 0
107589.0 350709.0 0
111005.0 352554.0 0
115161.0 351011.0 0
121008.0 350904.0 0
131855.0 353016.0 0
137504.0 352029.0 0
154054.0 351314.0 0
158565.0 350709.0 0
173222.0 353437.0 0
178733.0 351784.0 0
191569.0 349566.0 0
196244.0 350494.0 0
201172.0 350774.0 0
205489.0 349202.0 0
208329.0 352203.0 0
213516.0 352981.0 0
218057.0 351997.0 0
222523.0 351709.0 0
227630.0 352501.0 0
233167.0 353528.0 0
238282.0 352946.0 0
242391.0 349944.0 0
248102.0 349243.0 0
245448.0 353749.0 0
258903.0 350714.0 0
255485.0 352719.0 0
263536.0 348878.0 0
261657.0 353132.0 0
269152.0 349851.0 0
274210.0 348673.0 0
273004.0 352924.0 0
277706.0 352394.0 0
283937.0 348939.0 0
282050.0 352842.0 0
287430.0 352622.0 0
292625.0 352437.0 0
297121.0 351033.0 0
309917.0 350947.0 0
322450.0 349051.0 0
322451.0 353763.0 0
391310.0 351110.0 0
396056.0 352548.0 0
417123.0 353617.0 0
423600.0 351920.0 0
449230.0 353630.0 0
466760.0 353120.0 0
471850.0 351717.0 0
481239.0 349077.0 0
497839.0 353016.0 0
7996.32 357920.0 0
17655.2 355591.0 0
36537.1 354028.0 0
40985.6 358432.0 0
48339.7 356239.0 0
53010.0 356236.0 0
88220.9 357700.0 0
93065.2 355627.0 0
97919.2 357751.0 0
119150.0 357899.0 0
124422.0 355880.0 0
142262.0 354281.0 0
146000.0 357733.0 0
150902.0 355604.0 0
169989.0 358688.0 0
178041.0 355285.0 0
199919.0 358707.0 0
204403.0 353822.0 0
209713.0 356540.0 0
215444.0 358498.0 0
220477.0 355862.0 0
226325.0 357516.0 0
231076.0 358382.0 0
236558.0 357981.0 0
241850.0 354766.0 0
241564.0 358525.0 0
250985.0 354127.0 0
253375.0 358587.0 0
257848.0 356582.0 0
262741.0 357328.0 0
267161.0 354852.0 0
271632.0 357328.0 0
280535.0 357023.0 0
284380.0 355128.0 0
287614.0 357550.0 0
292231.0 357324.0 0
296578.0 355390.0 0
300084.0 358037.0 0
304452.0 358409.0 0
308675.0 357623.0 0
318269.0 357787.0 0
326630.0 354522.0 0
330913.0 354797.0 0
335045.0 357456.0 0
339605.0 354140.0 0
345114.0 356333.0 0
383587.0 358543.0 0
388718.0 355627.0 0
393964.0 357432.0 0
407269.0 356730.0 0
422388.0 357385.0 0
426612.0 355489.0 0
431907.0 356192.0 0
436080.0 358029.0 0
439714.0 354480.0 0
444222.0 356737.0 0
458451.0 356496.0 0
462790.0 354307.0 0
479717.0 354360.0 0
484429.0 354440.0 0
489239.0 357366.0 0
2616.03 360907.0 0
14588.8 359098.0 0
18911.2 361425.0 0
30589.4 359696.0 0
27252.5 363748.0 0
37311.7 362028.0 0
45936.2 359908.0 0
54909.3 362897.0 0
60744.6 363946.0 0
85759.2 362916.0 0
91010.0 363049.0 0
92904.6 360635.0 0
96476.5 362073.0 0
102310.0 359858.0 0
105708.0 362949.0 0
113050.0 359916.0 0
126288.0 360097.0 0
132568.0 363395.0 0
137031.0 361520.0 0
155278.0 358970.0 0
166572.0 362770.0 0
177742.0 359470.0 0
183200.0 361303.0 0
189013.0 359869.0 0
194886.0 360858.0 0
204815.0 358933.0 0
209060.0 361941.0 0
218713.0 363612.0 0
222485.0 360111.0 0
226884.0 362347.0 0
232075.0 363606.0 0
237452.0 363390.0 0
242607.0 363150.0 0
247336.0 359203.0 0
252208.0 363518.0 0
257563.0 362012.0 0
262623.0 361991.0 0
267176.0 360216.0 0
272403.0 363001.0 0
276025.0 358926.0 0
278183.0 363049.0 0
283936.0 361862.0 0
290486.0 362745.0 0
295897.0 360315.0 0
305431.0 362265.0 0
309710.0 361765.0 0
314003.0 360484.0 0
342098.0 359746.0 0
348027.0 359888.0 0
360433.0 362688.0 0
364980.0 358931.0 0
368631.0 361687.0 0
377593.0 359767.0 0
385592.0 363289.0 0
390689.0 359553.0 0
394410.0 362223.0 0
398839.0 359586.0 0
398431.0 363606.0 0
403252.0 360530.0 0
412962.0 359018.0 0
415142.0 363458.0 0
431773.0 361714.0 0
473827.0 361145.0 0
478880.0 359580.0 0
483291.0 363178.0 0
492521.0 361364.0 0
497265.0 361121.0 0
1405.01 368921.0 0
4265.79 365975.0 0
10164.0 364135.0 0
8268.25 367942.0 0
21306.5 367604.0 0
31965.3 366233.0 0
44551.6 365389.0 0
49617.5 366324.0 0
53511.7 367866.0 0
65233.2 367090.0 0
73247.1 365983.0 0
79511.2 366671.0 0
97594.8 367677.0 0
100409.0 364241.0 0
101262.0 368792.0 0
118557.0 365297.0 0
122619.0 367235.0 0
127500.0 364858.0 0
139998.0 365681.0 0
145846.0 365711.0 0
158147.0 367888.0 0
170012.0 366468.0 0
175508.0 365217.0 0
181492.0 366350.0 0
204366.0 364396.0 0
208746.0 367210.0 0
213333.0 365031.0 0
223060.0 364004.0 0
221781.0 367892.0 0
226593.0 367295.0 0
231231.0 368930.0 0
242804.0 368172.0 0
247316.0 365578.0 0
251202.0 368645.0 0
255793.0 367276.0 0
261607.0 367601.0 0
265870.0 365776.0 0
275926.0 368833.0 0
281342.0 366418.0 0
286250.0 367455.0 0
295668.0 366537.0 0
301317.0 365578.0 0
305158.0 368818.0 0
308983.0 366398.0 0
312964.0 366381.0 0
329821.0 368655.0 0
335012.0 365039.0 0
341530.0 364625.0 0
351259.0 367618.0 0
368544.0 367165.0 0
374340.0 364502.0 0
380934.0 364559.0 0
388226.0 366504.0 0
402481.0 365432.0 0
406792.0 367981.0 0
411618.0 366469.0 0
440900.0 367184.0 0
462565.0 364128.0 0
468005.0 365786.0 0
472750.0 366820.0 0
488293.0 364626.0 0
494688.0 366071.0 0
498185.0 369163.0 0
1649.52 375613.0 0
9451.89 373870.0 0
5524.62 375451.0 0
11604.2 370118.0 0
16161.7 368867.0 0
17997.1 375532.0 0
23805.1 375092.0 0
21262.1 375841.0 0
28225.7 375265.0 0
32774.1 370798.0 0
32501.8 375964.0 0
37185.6 370277.0 0
41408.7 371618.0 0
43713.9 375028.0 0
47564.6 375376.0 0
51260.7 375170.0 0
55243.4 372081.0 0
58798.2 375315.0 0
62416.3 375300.0 0
66061.4 375421.0 0
70868.1 374804.0 0
74742.9 371638.0 0
75642.7 375765.0 0
79877.3 375292.0 0
84278.6 375283.0 0
88435.1 375020.0 0
90980.4 376590.0 0
94540.0 375297.0 0
99664.5 375540.0 0
104099.0 375286.0 0
107207.0 375130.0 0
111473.0 375133.0 0
117158.0 373283.0 0
121512.0 375302.0 0
125842.0 368824.0 0
125001.0 375319.0 0
127488.0 372125.0 0
132002.0 369809.0 0
136868.0 372039.0 0
134154.0 375343.0 0
139367.0 375852.0 0
143632.0 375126.0 0
147176.0 375489.0 0
150246.0 369126.0 0
154595.0 375149.0 0
158603.0 375137.0 0
162771.0 368766.0 0
161876.0 375366.0 0
164774.0 375248.0 0
167025.0 371234.0 0
170640.0 373421.0 0
178426.0 369329.0 0
173778.0 369761.0 0
174454.0 375272.0 0
177144.0 376109.0 0
179580.0 374629.0 0
183921.0 371762.0 0
189185.0 375063.0 0
194213.0 375373.0 0
198379.0 375204.0 0
204346.0 369979.0 0
208754.0 372782.0 0
212275.0 369873.0 0
217122.0 370252.0 0
222366.0 373068.0 0
227876.0 373201.0 0
233301.0 373908.0 0
237144.0 369328.0 0
244282.0 373545.0 0
247555.0 370013.0 0
249643.0 373375.0 0
254090.0 374044.0 0
259201.0 372004.0 0
265077.0 370676.0 0
269660.0 369770.0 0
267870.0 374256.0 0
272453.0 374096.0 0
281973.0 371340.0 0
287080.0 373679.0 0
291209.0 370101.0 0
295727.0 372245.0 0
301027.0 375694.0 0
304292.0 375176.0 0
306850.0 375734.0 0
310640.0 375092.0 0
315021.0 375784.0 0
321436.0 370208.0 0
315867.0 370256.0 0
325443.0 373376.0 0
328854.0 375468.0 0
331398.0 373590.0 0
333926.0 376013.0 0
341689.0 375208.0 0
341626.0 377418.0 0
337690.0 375352.0 0
344561.0 375766.0 0
346253.0 369641.0 0
350220.0 375137.0 0
356279.0 369663.0 0
354365.0 375167.0 0
359637.0 375079.0 0
364267.0 372778.0 0
367895.0 375442.0 0
371521.0 376322.0 0
372358.0 371054.0 0
377838.0 369695.0 0
378978.0 376014.0 0
382953.0 375013.0 0
387907.0 375252.0 0
391421.0 375114.0 0
393163.0 370858.0 0
397753.0 368903.0 0
402612.0 370457.0 0
404471.0 373718.0 0
408419.0 375229.0 0
412117.0 375288.0 0
417668.0 368368.0 0
415780.0 375839.0 0
423125.0 375451.0 0
419626.0 375130.0 0
426870.0 375198.0 0
430530.0 371024.0 0
435931.0 369344.0 0
443571.0 371474.0 0
439275.0 375371.0 0
448159.0 369474.0 0
449013.0 375089.0 0
452827.0 375395.0 0
456556.0 375046.0 0
459998.0 375348.0 0
463722.0 375018.0 0
467344.0 375742.0 0
473521.0 374646.0 0
470705.0 375653.0 0
478072.0 374812.0 0
474825.0 377006.0 0
482681.0 375237.0 0
486537.0 375445.0 0
489903.0 375097.0 0
491326.0 369855.0 0
493959.0 375017.0 0
497871.0 375244.0 0
4737.12 378568.0 0
1624.69 378879.0 0
9406.53 378394.0 0
13468.7 375640.0 0
13102.4 379704.0 0
16131.8 378599.0 0
18937.5 379726.0 0
21410.4 378494.0 0
24732.6 377819.0 0
22640.4 380918.0 0
25854.1 380415.0 0
28626.2 378788.0 0
31722.9 379816.0 0
34717.8 378547.0 0
36175.2 375764.0 0
39503.6 375360.0 0
38148.5 379660.0 0
41670.0 377017.0 0
45174.6 378103.0 0
42133.9 380087.0 0
45868.0 381422.0 0
49463.2 378988.0 0
53856.1 376803.0 0
52849.7 381085.0 0
56346.3 375849.0 0
59226.1 378399.0 0
56312.6 379372.0 0
58887.9 381735.0 0
62147.3 377981.0 0
65401.0 379378.0 0
62255.8 381812.0 0
68728.4 377938.0 0
70066.3 381614.0 0
73395.0 378294.0 0
75992.9 381273.0 0
78227.9 378813.0 0
85781.3 378884.0 0
81681.3 378947.0 0
90424.0 379974.0 0
94771.9 379534.0 0
98673.3 380032.0 0
103448.0 378596.0 0
107089.0 377703.0 0
102102.0 382062.0 0
106706.0 381496.0 0
110089.0 378602.0 0
110042.0 381697.0 0
114629.0 376948.0 0
113619.0 380806.0 0
117900.0 378081.0 0
121141.0 378075.0 0
121285.0 381275.0 0
123874.0 377113.0 0
127797.0 377092.0 0
124626.0 379702.0 0
131015.0 375685.0 0
128457.0 381125.0 0
131009.0 379544.0 0
136148.0 374760.0 0
133788.0 378465.0 0
137324.0 380500.0 0
136831.0 376980.0 0
141162.0 379316.0 0
146162.0 378961.0 0
150244.0 375857.0 0
153414.0 378001.0 0
150815.0 380360.0 0
156960.0 377896.0 0
154875.0 380918.0 0
160980.0 378319.0 0
167844.0 376218.0 0
164667.0 378359.0 0
167799.0 379033.0 0
171709.0 378446.0 0
175951.0 379078.0 0
179270.0 378346.0 0
182367.0 376498.0 0
185453.0 376192.0 0
184416.0 378925.0 0
189006.0 379940.0 0
192974.0 378609.0 0
196477.0 378504.0 0
194836.0 381766.0 0
199624.0 378310.0 0
203975.0 375583.0 0
213503.0 374507.0 0
209186.0 378214.0 0
218377.0 376646.0 0
223563.0 378091.0 0
229378.0 378184.0 0
234236.0 379058.0 0
238633.0 375722.0 0
242737.0 379283.0 0
247855.0 378197.0 0
252146.0 377385.0 0
255982.0 378951.0 0
263762.0 374611.0 0
260861.0 378001.0 0
265458.0 378484.0 0
269945.0 378232.0 0
277623.0 375110.0 0
282610.0 376650.0 0
292100.0 375250.0 0
300979.0 379785.0 0
296357.0 376419.0 0
304732.0 378154.0 0
308593.0 379272.0 0
316766.0 378595.0 0
312849.0 379399.0 0
316428.0 381726.0 0
319088.0 375491.0 0
320297.0 379834.0 0
322268.0 376030.0 0
323785.0 378339.0 0
327319.0 377462.0 0
330868.0 377155.0 0
326340.0 381368.0 0
330328.0 380638.0 0
334210.0 379534.0 0
338954.0 379978.0 0
347249.0 375571.0 0
344068.0 378805.0 0
346424.0 380821.0 0
347503.0 378201.0 0
351223.0 378399.0 0
354995.0 381053.0 0
356899.0 377037.0 0
362782.0 376897.0 0
359803.0 379318.0 0
363098.0 380543.0 0
365741.0 377739.0 0
368993.0 378932.0 0
373771.0 378967.0 0
375518.0 375455.0 0
375938.0 378957.0 0
378663.0 378808.0 0
381799.0 379050.0 0
385340.0 378390.0 0
388255.0 378249.0 0
391314.0 377616.0 0
389559.0 381206.0 0
393188.0 379739.0 0
395205.0 375924.0 0
396767.0 380015.0 0
399707.0 375654.0 0
403139.0 376858.0 0
406662.0 377456.0 0
404628.0 380830.0 0
411680.0 378178.0 0
409123.0 379706.0 0
418687.0 377599.0 0
414981.0 379125.0 0
422285.0 378655.0 0
418181.0 380803.0 0
426500.0 378217.0 0
429738.0 375883.0 0
425459.0 381117.0 0
432277.0 376244.0 0
430188.0 379687.0 0
435490.0 375951.0 0
436347.0 379202.0 0
433984.0 380138.0 0
442393.0 376233.0 0
439046.0 379314.0 0
445961.0 376310.0 0
443507.0 380131.0 0
450219.0 378035.0 0
447949.0 380694.0 0
452274.0 381636.0 0
454124.0 378671.0 0
457688.0 378169.0 0
456535.0 381790.0 0
462243.0 377901.0 0
460038.0 380511.0 0
465491.0 378676.0 0
468301.0 379668.0 0
471467.0 378422.0 0
471160.0 381772.0 0
479126.0 378518.0 0
475165.0 380671.0 0
482893.0 378275.0 0
481564.0 381219.0 0
489444.0 378365.0 0
486307.0 379332.0 0
491914.0 376817.0 0
492038.0 380836.0 0
495108.0 378723.0 0
498756.0 378375.0 0
2115.85 382648.0 0
1740.43 386053.0 0
6367.86 381766.0 0
6233.03 385672.0 0
10773.6 383283.0 0
15761.5 382867.0 0
20272.5 383507.0 0
24659.2 383574.0 0
28662.8 382523.0 0
27234.4 386077.0 0
34701.3 381703.0 0
31720.9 384456.0 0
39392.6 383464.0 0
36129.9 384913.0 0
42452.6 383098.0 0
45084.8 384894.0 0
41844.6 385932.0 0
49211.3 383804.0 0
52923.6 384772.0 0
56128.2 383234.0 0
59861.6 385729.0 0
64299.4 384614.0 0
66256.5 382508.0 0
68043.3 385640.0 0
73507.6 384827.0 0
80408.2 381969.0 0
77801.4 384217.0 0
79886.2 385859.0 0
83986.7 382610.0 0
81986.7 385111.0 0
85189.5 386133.0 0
92043.9 383526.0 0
87879.7 383187.0 0
89733.0 386773.0 0
95871.4 383925.0 0
99523.9 385039.0 0
104323.0 384945.0 0
109606.0 385253.0 0
117800.0 382051.0 0
114129.0 384741.0 0
117405.0 385069.0 0
120997.0 384714.0 0
125291.0 384036.0 0
130391.0 383905.0 0
133875.0 382441.0 0
137061.0 384671.0 0
139841.0 383048.0 0
141424.0 386365.0 0
143724.0 382728.0 0
148066.0 382685.0 0
146100.0 385746.0 0
149811.0 385482.0 0
153220.0 384631.0 0
158880.0 382269.0 0
163335.0 381894.0 0
157844.0 386696.0 0
162518.0 385659.0 0
166711.0 380780.0 0
166115.0 384438.0 0
169351.0 382536.0 0
171007.0 385127.0 0
173639.0 382916.0 0
177405.0 382268.0 0
176749.0 386279.0 0
181374.0 381325.0 0
180281.0 385413.0 0
185359.0 381920.0 0
183630.0 384339.0 0
187616.0 385404.0 0
191664.0 383913.0 0
195658.0 385941.0 0
199020.0 382314.0 0
199124.0 386075.0 0
203858.0 380758.0 0
207651.0 383462.0 0
214473.0 380259.0 0
220164.0 380555.0 0
223112.0 383294.0 0
226768.0 381366.0 0
230859.0 383034.0 0
238501.0 380732.0 0
235727.0 384018.0 0
240685.0 384293.0 0
246021.0 383741.0 0
251738.0 382049.0 0
256577.0 383996.0 0
262209.0 382886.0 0
267695.0 382995.0 0
274797.0 380042.0 0
281476.0 381407.0 0
284878.0 384406.0 0
287202.0 379517.0 0
292421.0 380094.0 0
296332.0 380120.0 0
295936.0 384567.0 0
304974.0 381987.0 0
301417.0 384342.0 0
305585.0 385167.0 0
309087.0 383346.0 0
312831.0 383106.0 0
316507.0 385593.0 0
319163.0 382824.0 0
320943.0 384770.0 0
322743.0 382329.0 0
325703.0 385455.0 0
330252.0 384533.0 0
333293.0 383050.0 0
335930.0 383179.0 0
339311.0 384981.0 0
342962.0 382433.0 0
346524.0 384022.0 0
349164.0 381238.0 0
351129.0 384256.0 0
356158.0 385951.0 0
360268.0 383477.0 0
366496.0 382592.0 0
371619.0 381556.0 0
370574.0 385224.0 0
376043.0 382116.0 0
374372.0 385427.0 0
379891.0 382428.0 0
378101.0 385610.0 0
381464.0 385336.0 0
384809.0 382252.0 0
389194.0 384645.0 0
393541.0 383690.0 0
400613.0 380454.0 0
398317.0 384852.0 0
401729.0 383887.0 0
404464.0 384660.0 0
412493.0 381751.0 0
408544.0 383122.0 0
411560.0 385769.0 0
415412.0 383483.0 0
422033.0 382100.0 0
419729.0 385456.0 0
424573.0 385263.0 0
428675.0 383358.0 0
432534.0 384657.0 0
437333.0 383247.0 0
441562.0 383347.0 0
445210.0 383357.0 0
444232.0 385590.0 0
447832.0 384888.0 0
450547.0 384037.0 0
454730.0 385300.0 0
459916.0 383779.0 0
463788.0 386805.0 0
464052.0 382158.0 0
467817.0 383595.0 0
472137.0 385040.0 0
478714.0 383050.0 0
475208.0 384523.0 0
484086.0 382579.0 0
481616.0 385361.0 0
488510.0 383288.0 0
485313.0 386264.0 0
493553.0 384729.0 0
497753.0 382368.0 0
4419.69 388092.0 0
1500.87 389159.0 0
4599.38 391213.0 0
10055.0 387061.0 0
7773.81 389986.0 0
14273.8 387008.0 0
12135.5 390559.0 0
18596.2 387240.0 0
16405.1 391042.0 0
22983.5 386823.0 0
21500.1 391203.0 0
30025.9 388179.0 0
26056.3 389465.0 0
33502.6 387538.0 0
32930.6 390686.0 0
39521.5 386880.0 0
36628.6 388738.0 0
43899.9 387828.0 0
41107.1 390597.0 0
47581.2 387437.0 0
49051.5 390069.0 0
46065.6 391180.0 0
51291.2 387877.0 0
55767.4 387274.0 0
54022.5 390865.0 0
58596.9 390782.0 0
63529.7 389103.0 0
70902.7 388076.0 0
67987.5 389548.0 0
74169.2 389477.0 0
77445.1 387274.0 0
77658.0 390474.0 0
81672.3 389020.0 0
86437.5 390091.0 0
90951.1 391348.0 0
94253.5 387742.0 0
98232.2 389039.0 0
102281.0 388521.0 0
106321.0 388168.0 0
104687.0 391738.0 0
109177.0 390259.0 0
112728.0 388600.0 0
116025.0 387515.0 0
116240.0 390728.0 0
119261.0 387705.0 0
120587.0 391475.0 0
123569.0 387944.0 0
128431.0 387618.0 0
131237.0 390956.0 0
133480.0 387432.0 0
135063.0 391254.0 0
138001.0 388558.0 0
141424.0 390694.0 0
144424.0 388905.0 0
149399.0 389505.0 0
153672.0 388769.0 0
157307.0 390999.0 0
161897.0 389513.0 0
165725.0 388081.0 0
168894.0 386742.0 0
173098.0 386807.0 0
170970.0 390206.0 0
175385.0 389591.0 0
179258.0 389671.0 0
183463.0 387538.0 0
183595.0 391273.0 0
187676.0 389381.0 0
191911.0 388178.0 0
190896.0 391760.0 0
195910.0 389134.0 0
198959.0 388656.0 0
198377.0 391772.0 0
194249.0 391726.0 0
203575.0 386421.0 0
208489.0 388724.0 0
212162.0 384556.0 0
217994.0 384473.0 0
214497.0 389489.0 0
220045.0 389182.0 0
226925.0 386849.0 0
232068.0 388016.0 0
237405.0 388953.0 0
242944.0 387917.0 0
251892.0 386623.0 0
260022.0 387092.0 0
255692.0 389113.0 0
264718.0 387812.0 0
269341.0 388094.0 0
272736.0 385039.0 0
277942.0 384546.0 0
281773.0 389353.0 0
290211.0 384836.0 0
293735.0 389728.0 0
300505.0 388169.0 0
304173.0 387902.0 0
308288.0 387025.0 0
306913.0 390430.0 0
310437.0 389544.0 0
312127.0 386824.0 0
315011.0 390466.0 0
319346.0 388544.0 0
322813.0 387508.0 0
322321.0 390567.0 0
326061.0 390088.0 0
329685.0 388503.0 0
334837.0 387468.0 0
339840.0 388662.0 0
338109.0 391276.0 0
343153.0 386672.0 0
343208.0 391282.0 0
347911.0 388475.0 0
352690.0 387940.0 0
355920.0 390373.0 0
359680.0 388354.0 0
363123.0 386135.0 0
367303.0 387771.0 0
363243.0 390606.0 0
371982.0 388999.0 0
376283.0 388672.0 0
380426.0 388390.0 0
385412.0 387413.0 0
390852.0 387877.0 0
394718.0 387605.0 0
397805.0 389196.0 0
402424.0 388397.0 0
407622.0 387394.0 0
407485.0 391008.0 0
411318.0 389446.0 0
415034.0 387375.0 0
415102.0 391316.0 0
418855.0 389306.0 0
423486.0 389317.0 0
428013.0 391191.0 0
428340.0 387519.0 0
432074.0 389184.0 0
436206.0 388019.0 0
441074.0 387541.0 0
442668.0 391774.0 0
446340.0 388672.0 0
450952.0 387389.0 0
450600.0 391016.0 0
454565.0 389628.0 0
458842.0 387646.0 0
462125.0 390714.0 0
468491.0 387884.0 0
465625.0 391145.0 0
472656.0 388394.0 0
477458.0 387646.0 0
474709.0 390914.0 0
482019.0 389051.0 0
489754.0 387579.0 0
486221.0 389503.0 0
493862.0 389466.0 0
498042.0 387050.0 0
498067.0 391045.0 0
1581.35 392518.0 0
1336.2 395255.0 0
9755.82 393216.0 0
5745.82 395159.0 0
13794.1 394577.0 0
18333.3 395591.0 0
23319.0 396180.0 0
29030.3 391694.0 0
25755.6 393045.0 0
28061.9 395483.0 0
31938.9 394561.0 0
36485.4 392529.0 0
40386.1 394725.0 0
44178.7 394426.0 0
50750.1 391965.0 0
48502.5 394515.0 0
55980.9 393106.0 0
53312.2 395209.0 0
57964.2 395377.0 0
62061.0 394053.0 0
70824.7 391819.0 0
66582.3 393254.0 0
69858.4 395703.0 0
74737.8 394259.0 0
80043.6 393771.0 0
83938.1 392849.0 0
87294.2 394298.0 0
91305.7 395923.0 0
95626.0 392929.0 0
100658.0 392236.0 0
99258.2 395331.0 0
103362.0 395679.0 0
108201.0 394080.0 0
112095.0 396658.0 0
112714.0 392791.0 0
117067.0 394939.0 0
122213.0 395577.0 0
126122.0 392095.0 0
129947.0 394168.0 0
132153.0 396186.0 0
133236.0 393274.0 0
136556.0 395287.0 0
138369.0 392085.0 0
141236.0 394209.0 0
145181.0 392357.0 0
145140.0 396411.0 0
149388.0 394228.0 0
153540.0 392577.0 0
157418.0 394698.0 0
159928.0 392841.0 0
163004.0 392778.0 0
160956.0 395665.0 0
166638.0 391359.0 0
165382.0 395430.0 0
169964.0 394567.0 0
175409.0 394016.0 0
180045.0 393089.0 0
183209.0 394664.0 0
187763.0 393504.0 0
192100.0 394552.0 0
189928.0 396723.0 0
195687.0 394855.0 0
199225.0 394737.0 0
203743.0 391905.0 0
208966.0 393728.0 0
218367.0 393463.0 0
224045.0 390713.0 0
228522.0 392871.0 0
233597.0 392344.0 0
237581.0 394541.0 0
241600.0 392084.0 0
247898.0 389639.0 0
249715.0 394446.0 0
254586.0 394536.0 0
260840.0 392800.0 0
267561.0 392863.0 0
275399.0 389809.0 0
278467.0 394690.0 0
282748.0 394293.0 0
288000.0 390040.0 0
286353.0 394600.0 0
290879.0 394233.0 0
301941.0 391731.0 0
301169.0 396272.0 0
305934.0 394255.0 0
310953.0 393127.0 0
316016.0 395930.0 0
319511.0 392559.0 0
321203.0 395819.0 0
323222.0 393102.0 0
323951.0 395304.0 0
331133.0 392180.0 0
327077.0 393925.0 0
330363.0 396270.0 0
334855.0 391830.0 0
335067.0 395832.0 0
339794.0 394270.0 0
348537.0 393617.0 0
352132.0 391340.0 0
354519.0 395580.0 0
359220.0 392784.0 0
363462.0 395281.0 0
368305.0 392840.0 0
371625.0 395527.0 0
373912.0 392497.0 0
376192.0 396629.0 0
378450.0 392249.0 0
381409.0 395544.0 0
383316.0 391682.0 0
385682.0 394769.0 0
388401.0 391799.0 0
393732.0 392033.0 0
395663.0 396259.0 0
399362.0 392710.0 0
402708.0 395184.0 0
403949.0 392113.0 0
407010.0 395299.0 0
411284.0 393128.0 0
415978.0 395585.0 0
419807.0 392707.0 0
421325.0 396340.0 0
424408.0 393384.0 0
431798.0 392867.0 0
428612.0 395318.0 0
435544.0 392144.0 0
434243.0 394490.0 0
436114.0 395442.0 0
438924.0 391041.0 0
439235.0 394408.0 0
446605.0 392579.0 0
444030.0 395929.0 0
449767.0 395580.0 0
458540.0 391790.0 0
454282.0 393051.0 0
458253.0 395281.0 0
454459.0 396616.0 0
462610.0 393959.0 0
466764.0 394616.0 0
470442.0 391961.0 0
470715.0 395571.0 0
479041.0 391992.0 0
475105.0 394534.0 0
484009.0 392994.0 0
479922.0 395551.0 0
489367.0 391847.0 0
488447.0 396362.0 0
493467.0 393642.0 0
497856.0 394666.0 0
2109.81 398551.0 0
6536.33 400432.0 0
10359.6 397082.0 0
14933.7 399249.0 0
10816.2 400852.0 0
19876.2 399878.0 0
23770.5 400428.0 0
27079.5 398530.0 0
31323.7 399234.0 0
35504.7 401294.0 0
36074.4 397050.0 0
39979.8 397453.0 0
39546.8 400687.0 0
42887.3 397718.0 0
42658.9 400735.0 0
46346.6 397025.0 0
50445.6 398424.0 0
45825.4 400732.0 0
56027.6 399102.0 0
52895.4 401716.0 0
60979.5 398474.0 0
65272.3 397137.0 0
64817.6 401742.0 0
68653.4 399209.0 0
73177.5 398958.0 0
78265.7 397740.0 0
77038.2 401081.0 0
81302.7 400589.0 0
83516.2 397160.0 0
85797.4 400961.0 0
87572.9 397883.0 0
90785.7 401135.0 0
95312.5 397940.0 0
99717.4 399037.0 0
103818.0 399758.0 0
107561.0 398117.0 0
110953.0 400628.0 0
115297.0 398269.0 0
119615.0 399247.0 0
127141.0 397424.0 0
123345.0 398551.0 0
124336.0 401495.0 0
130662.0 398591.0 0
134651.0 399976.0 0
140262.0 399119.0 0
145239.0 400188.0 0
149222.0 398587.0 0
152512.0 401495.0 0
153788.0 397186.0 0
156100.0 401326.0 0
158587.0 398439.0 0
162935.0 398889.0 0
168057.0 398593.0 0
172179.0 397651.0 0
175490.0 399241.0 0
180066.0 397296.0 0
185758.0 397180.0 0
183917.0 400863.0 0
193569.0 398492.0 0
188806.0 399943.0 0
198490.0 398269.0 0
203061.0 398840.0 0
205503.0 396276.0 0
209228.0 398330.0 0
213500.0 395234.0 0
217991.0 398306.0 0
222978.0 395147.0 0
227158.0 398349.0 0
232005.0 397331.0 0
236516.0 399593.0 0
241431.0 397704.0 0
245363.0 394778.0 0
251267.0 398489.0 0
263097.0 399407.0 0
268342.0 398022.0 0
272982.0 394863.0 0
277255.0 399696.0 0
282410.0 398785.0 0
286768.0 398190.0 0
295802.0 394830.0 0
293409.0 399179.0 0
297987.0 398635.0 0
304914.0 398006.0 0
301947.0 401101.0 0
309865.0 397690.0 0
306194.0 400616.0 0
313592.0 399040.0 0
316046.0 400668.0 0
320329.0 399404.0 0
325838.0 399017.0 0
331606.0 400242.0 0
335985.0 400980.0 0
339548.0 398214.0 0
339464.0 401475.0 0
344403.0 396698.0 0
342601.0 401488.0 0
346790.0 400518.0 0
349964.0 397884.0 0
350082.0 401353.0 0
353462.0 400435.0 0
359527.0 396719.0 0
357764.0 400233.0 0
367272.0 398182.0 0
362540.0 399735.0 0
371818.0 398661.0 0
369608.0 401349.0 0
380068.0 399447.0 0
384915.0 398244.0 0
390024.0 396684.0 0
393936.0 400847.0 0
399734.0 396700.0 0
398451.0 399223.0 0
402927.0 399370.0 0
407642.0 398944.0 0
411606.0 397145.0 0
410961.0 401352.0 0
415089.0 400099.0 0
418977.0 399191.0 0
425279.0 397240.0 0
423502.0 400803.0 0
428562.0 399871.0 0
432613.0 397113.0 0
433301.0 401132.0 0
437126.0 398712.0 0
440573.0 397383.0 0
442011.0 401097.0 0
446830.0 399837.0 0
452191.0 399726.0 0
457539.0 400040.0 0
461313.0 396878.0 0
462065.0 399937.0 0
464451.0 397394.0 0
468250.0 398535.0 0
465345.0 401675.0 0
473118.0 398483.0 0
470665.0 401022.0 0
477278.0 397648.0 0
476343.0 400619.0 0
483687.0 397155.0 0
480693.0 399883.0 0
485451.0 400131.0 0
489052.0 400335.0 0
493447.0 398342.0 0
498126.0 398614.0 0
2066.22 402556.0 0
1571.59 406247.0 0
9265.81 403622.0 0
5891.61 405426.0 0
12724.1 403636.0 0
10257.9 406691.0 0
17389.6 404095.0 0
23062.5 404625.0 0
27782.4 402606.0 0
32793.4 404833.0 0
38206.9 404643.0 0
42432.5 403554.0 0
49221.2 402783.0 0
45896.2 405496.0 0
55958.1 403597.0 0
59803.1 402314.0 0
62695.9 405348.0 0
69591.7 402706.0 0
66990.2 406253.0 0
70952.7 405874.0 0
73837.2 403220.0 0
78907.6 404763.0 0
83612.4 403548.0 0
87503.3 404848.0 0
96171.5 402780.0 0
92228.3 406351.0 0
101361.0 403452.0 0
106920.0 403311.0 0
111114.0 404407.0 0
115321.0 402250.0 0
120393.0 403417.0 0
117326.0 405858.0 0
126818.0 404777.0 0
123263.0 406093.0 0
129683.0 401799.0 0
130501.0 406500.0 0
137600.0 403785.0 0
133399.0 404007.0 0
143099.0 404180.0 0
147741.0 406717.0 0
148323.0 402437.0 0
151640.0 404778.0 0
155705.0 405185.0 0
160233.0 402733.0 0
165548.0 402219.0 0
163560.0 405321.0 0
168126.0 406002.0 0
171270.0 402090.0 0
175444.0 403294.0 0
177934.0 405554.0 0
179174.0 401922.0 0
182383.0 405506.0 0
187312.0 403949.0 0
192083.0 402633.0 0
197527.0 402959.0 0
194272.0 406054.0 0
199236.0 406972.0 0
203657.0 403230.0 0
213516.0 400060.0 0
209443.0 403774.0 0
218729.0 402920.0 0
214688.0 404313.0 0
222523.0 399918.0 0
222631.0 404175.0 0
226759.0 403221.0 0
232099.0 403390.0 0
237688.0 403869.0 0
241784.0 402762.0 0
246339.0 399904.0 0
251582.0 403025.0 0
256539.0 400435.0 0
261147.0 404340.0 0
268111.0 403260.0 0
272464.0 399986.0 0
273242.0 404421.0 0
279712.0 403849.0 0
284532.0 403574.0 0
289078.0 401332.0 0
293020.0 403986.0 0
297108.0 401994.0 0
301482.0 405468.0 0
305873.0 404138.0 0
308937.0 401858.0 0
310197.0 404834.0 0
312440.0 401712.0 0
314751.0 405207.0 0
318735.0 403070.0 0
323392.0 404023.0 0
328972.0 404359.0 0
334100.0 405035.0 0
338988.0 404980.0 0
345323.0 403114.0 0
343574.0 405424.0 0
348161.0 404656.0 0
352113.0 403625.0 0
355688.0 404342.0 0
360847.0 404519.0 0
365579.0 402580.0 0
369669.0 405478.0 0
375042.0 402112.0 0
374174.0 406651.0 0
377664.0 406549.0 0
380174.0 403719.0 0
383370.0 401714.0 0
383930.0 405208.0 0
387956.0 402030.0 0
391747.0 406044.0 0
396241.0 404889.0 0
399029.0 402489.0 0
402672.0 404096.0 0
406411.0 402253.0 0
405692.0 405298.0 0
409444.0 405997.0 0
414695.0 404796.0 0
418888.0 403139.0 0
422832.0 405402.0 0
426753.0 403819.0 0
430074.0 403449.0 0
433399.0 405528.0 0
429280.0 406842.0 0
437431.0 403078.0 0
440993.0 405338.0 0
445701.0 405145.0 0
449672.0 402983.0 0
453895.0 403560.0 0
450576.0 406859.0 0
457838.0 404351.0 0
461411.0 403468.0 0
468979.0 404079.0 0
464525.0 406352.0 0
473499.0 402922.0 0
478225.0 404520.0 0
482871.0 402939.0 0
482785.0 406737.0 0
486960.0 403942.0 0
492287.0 402804.0 0
497563.0 402503.0 0
495309.0 406481.0 0
498831.0 406067.0 0
2985.01 410481.0 0
7869.72 409397.0 0
13727.9 407388.0 0
11616.9 410735.0 0
20292.9 407508.0 0
17206.5 411237.0 0
23098.8 409863.0 0
27445.9 407359.0 0
32273.8 410404.0 0
37040.7 408579.0 0
39447.4 409642.0 0
41597.3 407350.0 0
45705.3 409507.0 0
48708.7 411410.0 0
51737.2 407369.0 0
55743.5 410978.0 0
58420.7 407059.0 0
59864.3 411294.0 0
63084.6 409006.0 0
66688.7 410566.0 0
70818.6 409423.0 0
74580.6 406840.0 0
74490.8 409684.0 0
78424.4 409729.0 0
83574.5 407739.0 0
88019.0 409158.0 0
94884.8 409092.0 0
96637.6 411605.0 0
98249.3 407544.0 0
103952.0 407848.0 0
106877.0 411851.0 0
109196.0 407619.0 0
113586.0 406848.0 0
117186.0 409350.0 0
112623.0 411321.0 0
120109.0 406959.0 0
122187.0 410670.0 0
126851.0 408909.0 0
130467.0 410309.0 0
134823.0 408431.0 0
139693.0 407786.0 0
144078.0 410077.0 0
152047.0 408515.0 0
148677.0 410454.0 0
155985.0 409867.0 0
160021.0 407737.0 0
164655.0 408151.0 0
168392.0 411066.0 0
173507.0 407818.0 0
178996.0 408813.0 0
183045.0 409579.0 0
186437.0 408210.0 0
190725.0 406970.0 0
189985.0 411131.0 0
196491.0 407530.0 0
194057.0 409435.0 0
198060.0 410527.0 0
202303.0 409676.0 0
205876.0 407827.0 0
212465.0 408554.0 0
216769.0 407688.0 0
220996.0 408414.0 0
226453.0 408380.0 0
231385.0 408463.0 0
236673.0 408769.0 0
242936.0 408160.0 0
247242.0 404871.0 0
247759.0 408936.0 0
251706.0 407571.0 0
257671.0 405235.0 0
256230.0 409054.0 0
260967.0 408625.0 0
265936.0 408513.0 0
270832.0 407958.0 0
276484.0 408003.0 0
281936.0 408285.0 0
288295.0 405548.0 0
286391.0 408943.0 0
291516.0 408769.0 0
296684.0 406709.0 0
305098.0 407979.0 0
301746.0 410506.0 0
308328.0 407628.0 0
311747.0 408607.0 0
315936.0 409647.0 0
319123.0 407108.0 0
319811.0 411142.0 0
322577.0 408368.0 0
326328.0 408238.0 0
323765.0 411603.0 0
331507.0 409384.0 0
327726.0 411703.0 0
336613.0 408961.0 0
341380.0 408871.0 0
346444.0 408649.0 0
352020.0 407892.0 0
357038.0 408284.0 0
360627.0 408664.0 0
364816.0 406802.0 0
363404.0 410578.0 0
367667.0 409937.0 0
372244.0 409574.0 0
375785.0 409001.0 0
380869.0 407066.0 0
379098.0 409751.0 0
387091.0 406752.0 0
383744.0 409852.0 0
388906.0 410029.0 0
395888.0 407888.0 0
393320.0 410598.0 0
397442.0 410764.0 0
399635.0 407084.0 0
401238.0 410968.0 0
404299.0 408421.0 0
408313.0 410203.0 0
413348.0 409532.0 0
418887.0 408589.0 0
426103.0 407223.0 0
423571.0 409365.0 0
427399.0 410741.0 0
432264.0 409764.0 0
437279.0 408010.0 0
442722.0 409146.0 0
439375.0 410829.0 0
447463.0 409839.0 0
452565.0 410981.0 0
455435.0 407519.0 0
457792.0 411636.0 0
459912.0 407333.0 0
462208.0 409773.0 0
468481.0 407996.0 0
465634.0 410592.0 0
473194.0 407175.0 0
469763.0 411378.0 0
473974.0 411504.0 0
478520.0 409832.0 0
483901.0 411271.0 0
486428.0 408327.0 0
490477.0 407448.0 0
493933.0 410871.0 0
498247.0 409463.0 0
3045.18 416421.0 0
8124.55 413679.0 0
12785.0 415499.0 0
22342.0 414380.0 0
27053.4 412273.0 0
26309.2 416624.0 0
31422.2 415854.0 0
36802.7 413353.0 0
41728.0 411901.0 0
46187.6 414852.0 0
51987.9 414047.0 0
57533.4 415314.0 0
63388.2 414416.0 0
69399.9 414580.0 0
74271.0 413002.0 0
78703.8 414251.0 0
82811.4 412164.0 0
82850.2 416595.0 0
87238.9 413814.0 0
91588.4 416517.0 0
92089.7 411864.0 0
96373.3 415447.0 0
101012.0 412697.0 0
104487.0 415894.0 0
109934.0 416677.0 0
114824.0 415413.0 0
117795.0 413354.0 0
121897.0 415775.0 0
127384.0 413901.0 0
133387.0 413861.0 0
138846.0 412584.0 0
147422.0 413401.0 0
143597.0 415126.0 0
152052.0 413555.0 0
158129.0 414174.0 0
162926.0 412094.0 0
166031.0 414592.0 0
172390.0 412647.0 0
169342.0 416363.0 0
176520.0 412292.0 0
174256.0 416225.0 0
181197.0 412646.0 0
178963.0 416177.0 0
185639.0 412325.0 0
183877.0 416202.0 0
188818.0 415581.0 0
194280.0 413993.0 0
198919.0 414123.0 0
202628.0 413251.0 0
208363.0 413418.0 0
213673.0 414742.0 0
215910.0 411721.0 0
220169.0 413388.0 0
225319.0 413861.0 0
230646.0 413124.0 0
235501.0 414198.0 0
240073.0 413346.0 0
245855.0 413874.0 0
252822.0 414021.0 0
259214.0 413458.0 0
264070.0 413547.0 0
269426.0 413002.0 0
273829.0 412584.0 0
278352.0 413249.0 0
283199.0 412692.0 0
287018.0 412633.0 0
291272.0 414258.0 0
296075.0 411592.0 0
302676.0 415160.0 0
307796.0 412450.0 0
312983.0 412163.0 0
312554.0 416247.0 0
316800.0 413753.0 0
321069.0 414903.0 0
325807.0 415319.0 0
330508.0 414725.0 0
334797.0 413015.0 0
339277.0 412461.0 0
337616.0 415906.0 0
341539.0 416387.0 0
344024.0 412623.0 0
349517.0 412526.0 0
354581.0 412068.0 0
357258.0 416408.0 0
359157.0 411678.0 0
362233.0 414459.0 0
366288.0 413979.0 0
370661.0 413185.0 0
369113.0 416746.0 0
375641.0 412765.0 0
380222.0 413421.0 0
377733.0 416901.0 0
383570.0 414470.0 0
386762.0 413431.0 0
391018.0 414657.0 0
395356.0 413435.0 0
399343.0 414763.0 0
404994.0 413616.0 0
410740.0 414166.0 0
416617.0 413115.0 0
414594.0 416607.0 0
422073.0 413229.0 0
426828.0 414971.0 0
430891.0 413456.0 0
429895.0 416196.0 0
432781.0 417084.0 0
436038.0 413510.0 0
440857.0 412839.0 0
440798.0 416474.0 0
444519.0 413468.0 0
449225.0 414446.0 0
454447.0 415283.0 0
458576.0 416243.0 0
462156.0 413571.0 0
466743.0 414839.0 0
471913.0 416098.0 0
476485.0 414431.0 0
480522.0 414552.0 0
488812.0 411885.0 0
485708.0 415771.0 0
489419.0 415428.0 0
492603.0 414597.0 0
497669.0 413383.0 0
495195.0 416878.0 0
8627.94 418941.0 0
13810.9 421089.0 0
18010.3 417128.0 0
18879.4 421245.0 0
22884.7 419400.0 0
28085.7 420292.0 0
32218.3 420509.0 0
36318.2 418448.0 0
41114.3 416909.0 0
45109.0 420411.0 0
49343.8 418358.0 0
53403.2 418524.0 0
60928.4 418490.0 0
57196.3 419441.0 0
66124.8 417835.0 0
64320.1 421887.0 0
70355.6 420107.0 0
75089.6 417598.0 0
75031.3 421942.0 0
79194.4 417397.0 0
78521.4 420384.0 0
83018.0 421157.0 0
87023.9 418528.0 0
90593.6 420205.0 0
95452.9 419947.0 0
100535.0 418491.0 0
105651.0 420147.0 0
114780.0 419203.0 0
117927.0 417178.0 0
120257.0 420054.0 0
125655.0 419790.0 0
130488.0 417837.0 0
134930.0 418836.0 0
139406.0 417257.0 0
139421.0 421727.0 0
143671.0 419771.0 0
148190.0 417477.0 0
152382.0 420209.0 0
154539.0 416922.0 0
157896.0 419637.0 0
163173.0 417584.0 0
167275.0 419894.0 0
172438.0 420505.0 0
176510.0 419584.0 0
181040.0 420556.0 0
186915.0 420196.0 0
192703.0 419528.0 0
197917.0 417579.0 0
197867.0 422035.0 0
203486.0 417939.0 0
213644.0 418205.0 0
217399.0 417702.0 0
222010.0 418185.0 0
227144.0 418733.0 0
232621.0 418516.0 0
238324.0 418273.0 0
242744.0 417980.0 0
247786.0 419514.0 0
251712.0 418876.0 0
255714.0 419487.0 0
260748.0 418566.0 0
265792.0 417534.0 0
271563.0 418883.0 0
276623.0 417651.0 0
281800.0 418255.0 0
287290.0 417422.0 0
291372.0 420047.0 0
296209.0 417243.0 0
301885.0 419802.0 0
307493.0 418364.0 0
312485.0 421404.0 0
317689.0 418447.0 0
323137.0 419204.0 0
328251.0 419229.0 0
333859.0 417779.0 0
331631.0 420691.0 0
338292.0 419997.0 0
346685.0 416731.0 0
343398.0 421266.0 0
351804.0 416858.0 0
354407.0 421338.0 0
361465.0 417776.0 0
365327.0 418717.0 0
370343.0 421057.0 0
373165.0 416938.0 0
375472.0 420667.0 0
381855.0 417453.0 0
379473.0 420535.0 0
386428.0 417917.0 0
383125.0 421421.0 0
390966.0 419458.0 0
395171.0 417142.0 0
394734.0 420905.0 0
402819.0 417843.0 0
398847.0 420120.0 0
407403.0 418700.0 0
411711.0 418555.0 0
414678.0 419793.0 0
418675.0 417835.0 0
420903.0 421612.0 0
423806.0 418256.0 0
428669.0 419405.0 0
433047.0 421227.0 0
436748.0 418628.0 0
440477.0 420576.0 0
443662.0 421578.0 0
445519.0 418090.0 0
451209.0 419363.0 0
455816.0 418772.0 0
463142.0 417891.0 0
459474.0 420368.0 0
463774.0 422001.0 0
467567.0 419674.0 0
472027.0 420760.0 0
477046.0 419131.0 0
481961.0 418277.0 0
485385.0 420179.0 0
490778.0 420090.0 0
498503.0 416937.0 0
497308.0 420833.0 0
3801.3 422147.0 0
1692.02 426129.0 0
9027.28 423823.0 0
5703.84 426899.0 0
13032.2 426502.0 0
17910.9 425426.0 0
21648.1 423162.0 0
22467.6 426638.0 0
25518.7 423625.0 0
35296.1 422748.0 0
30739.3 425053.0 0
40037.8 422306.0 0
45449.6 425013.0 0
41845.2 426747.0 0
49510.4 422913.0 0
54410.1 422734.0 0
52168.7 426898.0 0
59159.9 422382.0 0
56982.0 426470.0 0
61163.6 425643.0 0
68337.0 424875.0 0
72474.7 424660.0 0
75692.4 426944.0 0
79252.2 424185.0 0
83372.4 425337.0 0
87435.3 423562.0 0
92422.0 423462.0 0
96039.5 425436.0 0
98881.6 422612.0 0
100269.0 426663.0 0
102719.0 423068.0 0
107115.0 423775.0 0
111106.0 422129.0 0
110381.0 427098.0 0
116742.0 423602.0 0
122078.0 423794.0 0
126248.0 425071.0 0
130818.0 422523.0 0
135502.0 422865.0 0
134044.0 425973.0 0
138117.0 425811.0 0
147504.0 422165.0 0
143277.0 424461.0 0
147617.0 427013.0 0
151275.0 424363.0 0
155817.0 424487.0 0
160311.0 423298.0 0
164276.0 422481.0 0
164735.0 426945.0 0
169122.0 423916.0 0
176171.0 423707.0 0
180455.0 425101.0 0
184197.0 423952.0 0
188559.0 425205.0 0
193547.0 424955.0 0
197956.0 427084.0 0
202811.0 422825.0 0
209088.0 420428.0 0
214642.0 422483.0 0
219036.0 423123.0 0
222497.0 423180.0 0
226705.0 424400.0 0
232103.0 423596.0 0
237132.0 423455.0 0
242260.0 422688.0 0
246908.0 424324.0 0
252500.0 423184.0 0
255895.0 424215.0 0
260717.0 423797.0 0
266387.0 423391.0 0
271778.0 424749.0 0
276433.0 422255.0 0
281218.0 424451.0 0
286335.0 422475.0 0
296092.0 423398.0 0
305348.0 422446.0 0
301786.0 424766.0 0
305951.0 426105.0 0
308560.0 423108.0 0
310023.0 426450.0 0
313982.0 425897.0 0
317285.0 423227.0 0
325873.0 422429.0 0
321911.0 423616.0 0
325513.0 426346.0 0
329861.0 424366.0 0
334756.0 422707.0 0
339243.0 425313.0 0
343802.0 425652.0 0
349070.0 421589.0 0
351770.0 425287.0 0
356374.0 426463.0 0
360418.0 422141.0 0
365948.0 424214.0 0
370327.0 425725.0 0
373714.0 424091.0 0
378227.0 424585.0 0
387574.0 423025.0 0
383191.0 425799.0 0
392238.0 423210.0 0
390824.0 426098.0 0
396655.0 424823.0 0
400325.0 423203.0 0
401606.0 426104.0 0
403524.0 422157.0 0
407709.0 422090.0 0
407025.0 426097.0 0
411264.0 422499.0 0
416561.0 423397.0 0
421012.0 425654.0 0
425289.0 423464.0 0
429753.0 423613.0 0
433099.0 426491.0 0
437155.0 423172.0 0
441921.0 425505.0 0
446988.0 422524.0 0
446999.0 427096.0 0
450794.0 424234.0 0
455418.0 423053.0 0
460270.0 424618.0 0
464388.0 425782.0 0
469377.0 424864.0 0
474534.0 422956.0 0
474412.0 426611.0 0
477803.0 424153.0 0
481551.0 422230.0 0
481494.0 426694.0 0
486111.0 424720.0 0
494177.0 424431.0 0
490530.0 426375.0 0
497990.0 425563.0 0
2490.97 430287.0 0
9286.13 428110.0 0
7315.34 432200.0 0
12210.8 431190.0 0
20108.1 428918.0 0
16776.1 430190.0 0
23102.1 430587.0 0
26343.0 427775.0 0
29271.6 428820.0 0
32420.2 430084.0 0
36642.6 427059.0 0
36179.2 431930.0 0
40360.5 430913.0 0
45150.9 429747.0 0
48253.0 427070.0 0
49645.2 430503.0 0
54914.2 431304.0 0
60297.7 429780.0 0
64792.5 427622.0 0
70423.7 430317.0 0
76115.3 431474.0 0
80462.2 428944.0 0
86282.3 429075.0 0
90828.2 427129.0 0
91615.7 432015.0 0
96665.1 429922.0 0
101889.0 431941.0 0
104991.0 427169.0 0
107617.0 431584.0 0
111916.0 431620.0 0
115619.0 428932.0 0
120432.0 427430.0 0
124813.0 429881.0 0
130013.0 428134.0 0
135650.0 430976.0 0
141019.0 428811.0 0
144194.0 427670.0 0
144973.0 430982.0 0
152380.0 428329.0 0
149319.0 431656.0 0
156275.0 428839.0 0
160047.0 427360.0 0
158916.0 431751.0 0
162633.0 430490.0 0
166146.0 430995.0 0
168521.0 428414.0 0
172870.0 427653.0 0
170603.0 431794.0 0
178026.0 429176.0 0
174244.0 431927.0 0
183843.0 428672.0 0
188323.0 429695.0 0
191397.0 428393.0 0
194279.0 429027.0 0
197374.0 432390.0 0
202500.0 428057.0 0
206615.0 426107.0 0
213095.0 427900.0 0
217615.0 428015.0 0
222500.0 427881.0 0
228101.0 429656.0 0
232999.0 428219.0 0
237873.0 428345.0 0
242673.0 427259.0 0
247596.0 428664.0 0
251751.0 427496.0 0
256032.0 428444.0 0
260460.0 428843.0 0
265240.0 428685.0 0
270363.0 429978.0 0
276425.0 428543.0 0
285318.0 428300.0 0
290776.0 425446.0 0
296607.0 429984.0 0
302084.0 428988.0 0
307042.0 430998.0 0
312847.0 430136.0 0
318877.0 428666.0 0
324282.0 430402.0 0
329514.0 430073.0 0
334284.0 427414.0 0
338297.0 430263.0 0
343047.0 429439.0 0
347582.0 426828.0 0
347434.0 431651.0 0
351952.0 429595.0 0
361862.0 427897.0 0
366403.0 428596.0 0
370094.0 429464.0 0
374311.0 428151.0 0
379971.0 428374.0 0
377514.0 431524.0 0
387400.0 428097.0 0
383461.0 430756.0 0
393464.0 429923.0 0
398723.0 429122.0 0
403399.0 431121.0 0
412765.0 427419.0 0
409287.0 431481.0 0
417826.0 428736.0 0
428182.0 427498.0 0
423495.0 430249.0 0
430682.0 431810.0 0
437485.0 427050.0 0
435752.0 430588.0 0
439543.0 429593.0 0
443393.0 430749.0 0
448251.0 432176.0 0
452130.0 428534.0 0
456927.0 427636.0 0
455456.0 432042.0 0
461463.0 429448.0 0
466814.0 429686.0 0
471699.0 430074.0 0
477968.0 427643.0 0
476293.0 430702.0 0
480886.0 431061.0 0
484930.0 429203.0 0
489075.0 430700.0 0
494304.0 428475.0 0
493316.0 432213.0 0
498044.0 429432.0 0
2750.85 435396.0 0
7184.84 436775.0 0
15318.6 434544.0 0
10967.9 435541.0 0
19956.2 433738.0 0
23836.5 434315.0 0
27849.3 432612.0 0
32803.8 434709.0 0
38550.4 436079.0 0
43081.6 433720.0 0
50991.6 433918.0 0
47112.3 433895.0 0
54562.2 437042.0 0
59676.9 434543.0 0
64487.7 432489.0 0
67881.5 435309.0 0
71865.7 436054.0 0
76746.3 436094.0 0
79590.6 433136.0 0
81607.2 436481.0 0
82974.8 432644.0 0
86771.3 434666.0 0
96588.2 435666.0 0
101573.0 437032.0 0
105846.0 436208.0 0
110795.0 435713.0 0
115285.0 433948.0 0
119975.0 432132.0 0
119104.0 437091.0 0
123928.0 435109.0 0
129465.0 434040.0 0
141116.0 434032.0 0
146189.0 435294.0 0
150327.0 435574.0 0
154200.0 432951.0 0
158132.0 435859.0 0
162394.0 434549.0 0
167423.0 435238.0 0
172898.0 436251.0 0
177307.0 434083.0 0
181416.0 433087.0 0
186138.0 433733.0 0
191660.0 432780.0 0
189273.0 436983.0 0
198005.0 437538.0 0
202855.0 432851.0 0
208789.0 430527.0 0
207114.0 434593.0 0
212258.0 433274.0 0
217524.0 432781.0 0
222385.0 432897.0 0
226457.0 434113.0 0
231476.0 432929.0 0
236432.0 433048.0 0
241646.0 431892.0 0
247215.0 433795.0 0
253364.0 432954.0 0
258580.0 433208.0 0
262538.0 432574.0 0
266761.0 433939.0 0
273752.0 433777.0 0
278194.0 433883.0 0
281137.0 430665.0 0
283037.0 433666.0 0
290538.0 430721.0 0
286951.0 434172.0 0
291591.0 435385.0 0
302001.0 433005.0 0
306873.0 436269.0 0
311231.0 434592.0 0
316220.0 434176.0 0
321378.0 433847.0 0
326361.0 434835.0 0
331507.0 435189.0 0
334289.0 431864.0 0
337993.0 435552.0 0
343401.0 434046.0 0
347740.0 436543.0 0
352309.0 434473.0 0
357454.0 432019.0 0
360482.0 436305.0 0
362678.0 432522.0 0
364573.0 436023.0 0
367352.0 432709.0 0
372652.0 433535.0 0
376989.0 435518.0 0
380785.0 434296.0 0
384443.0 436815.0 0
388274.0 433197.0 0
393387.0 435904.0 0
398108.0 433489.0 0
401921.0 436186.0 0
406638.0 436003.0 0
411358.0 436071.0 0
414487.0 432429.0 0
416912.0 437153.0 0
419150.0 432987.0 0
422048.0 436175.0 0
426433.0 434538.0 0
430045.0 436867.0 0
434677.0 434497.0 0
439299.0 434115.0 0
444363.0 435786.0 0
449441.0 437240.0 0
452156.0 433903.0 0
459386.0 434106.0 0
464189.0 434105.0 0
469187.0 434137.0 0
473956.0 434461.0 0
478361.0 434477.0 0
484965.0 433746.0 0
490117.0 435821.0 0
494410.0 435783.0 0
497609.0 433452.0 0
1061.79 438997.0 0
4489.28 440590.0 0
9469.7 440352.0 0
14159.6 439256.0 0
18302.9 437572.0 0
22708.1 438086.0 0
28245.7 438338.0 0
33793.7 439458.0 0
38271.4 441378.0 0
43801.3 438160.0 0
49231.1 438240.0 0
55369.3 442058.0 0
59429.6 439691.0 0
64000.4 437353.0 0
68679.5 440093.0 0
74095.6 440413.0 0
79278.7 440769.0 0
85489.8 440322.0 0
90989.9 437689.0 0
90411.7 442326.0 0
94729.9 441090.0 0
99236.4 440286.0 0
104075.0 441087.0 0
108723.0 439692.0 0
114656.0 437911.0 0
116817.0 440794.0 0
112735.0 441694.0 0
120739.0 441465.0 0
126727.0 440629.0 0
132356.0 441310.0 0
135072.0 437307.0 0
139524.0 437562.0 0
138842.0 440459.0 0
143131.0 439124.0 0
148523.0 439841.0 0
153868.0 438308.0 0
159157.0 441132.0 0
164064.0 438774.0 0
168759.0 440269.0 0
177717.0 438273.0 0
174182.0 442312.0 0
182593.0 437712.0 0
178713.0 441669.0 0
186996.0 440834.0 0
193485.0 437732.0 0
197865.0 441866.0 0
203031.0 437793.0 0
207924.0 439111.0 0
212928.0 438450.0 0
217760.0 437867.0 0
221862.0 437861.0 0
225673.0 438372.0 0
230663.0 438393.0 0
236499.0 438268.0 0
242350.0 437883.0 0
247994.0 439339.0 0
252220.0 438096.0 0
256697.0 437737.0 0
261577.0 437849.0 0
266798.0 439747.0 0
272317.0 438275.0 0
277749.0 439270.0 0
283286.0 438031.0 0
288644.0 439352.0 0
293461.0 440570.0 0
296604.0 436482.0 0
302332.0 437515.0 0
302051.0 442225.0 0
305967.0 440516.0 0
310602.0 439311.0 0
315194.0 438769.0 0
319572.0 438048.0 0
324010.0 439036.0 0
328685.0 439437.0 0
333813.0 439686.0 0
338333.0 440935.0 0
342992.0 439292.0 0
347756.0 441460.0 0
356259.0 437181.0 0
352102.0 439518.0 0
363395.0 440968.0 0
368831.0 437577.0 0
374195.0 439420.0 0
379919.0 438819.0 0
384058.0 441809.0 0
389009.0 439533.0 0
393856.0 440790.0 0
397980.0 438680.0 0
402815.0 440889.0 0
407613.0 440585.0 0
412622.0 440817.0 0
417540.0 442021.0 0
421945.0 441096.0 0
426084.0 439059.0 0
429844.0 440955.0 0
434525.0 439264.0 0
440399.0 439584.0 0
445841.0 441016.0 0
455199.0 437715.0 0
461558.0 439331.0 0
466549.0 437926.0 0
471238.0 438989.0 0
476610.0 438635.0 0
481545.0 437558.0 0
484553.0 441693.0 0
485949.0 438134.0 0
489281.0 440894.0 0
493700.0 439473.0 0
497832.0 437827.0 0
497682.0 442149.0 0
1236.33 442852.0 0
2600.99 446069.0 0
7433.84 444996.0 0
12600.9 444208.0 0
18989.9 442623.0 0
24778.8 442712.0 0
22397.1 446960.0 0
29591.9 443392.0 0
34282.6 444621.0 0
38706.9 445871.0 0
42281.8 443424.0 0
46502.5 442346.0 0
51102.8 443282.0 0
59033.7 445082.0 0
63730.3 442477.0 0
67425.0 444892.0 0
71629.1 444655.0 0
76399.2 444754.0 0
81993.1 446036.0 0
87531.8 445451.0 0
93143.4 445985.0 0
98245.2 444947.0 0
103404.0 446649.0 0
108451.0 444480.0 0
112843.0 446129.0 0
117415.0 445243.0 0
122614.0 445670.0 0
126840.0 446600.0 0
131126.0 445410.0 0
136037.0 443799.0 0
141101.0 443674.0 0
144834.0 442931.0 0
147563.0 443892.0 0
149397.0 446815.0 0
153449.0 443882.0 0
158355.0 447182.0 0
164646.0 443599.0 0
169364.0 445142.0 0
178374.0 446145.0 0
182216.0 443025.0 0
186060.0 445262.0 0
192481.0 443414.0 0
198130.0 445944.0 0
297574.0 441622.0 0
301645.0 446259.0 0
305730.0 445101.0 0
309561.0 443524.0 0
314059.0 443382.0 0
319538.0 443172.0 0
321464.0 447872.0 0
325441.0 444108.0 0
330997.0 443907.0 0
335736.0 444374.0 0
341504.0 445618.0 0
351610.0 444794.0 0
346958.0 445485.0 0
357060.0 442350.0 0
361251.0 446657.0 0
369370.0 443468.0 0
378526.0 444648.0 0
384108.0 446857.0 0
388395.0 444706.0 0
393216.0 445086.0 0
398302.0 443924.0 0
405698.0 443435.0 0
403072.0 445827.0 0
409217.0 445183.0 0
414657.0 445642.0 0
420435.0 445544.0 0
426443.0 444197.0 0
432465.0 444882.0 0
437331.0 443714.0 0
442029.0 445097.0 0
446923.0 445867.0 0
451512.0 443013.0 0
457255.0 443128.0 0
461784.0 444827.0 0
466748.0 442816.0 0
474334.0 444177.0 0
480083.0 442464.0 0
481875.0 447113.0 0
487071.0 445886.0 0
493063.0 444824.0 0
497958.0 446587.0 0
5347.99 448774.0 0
10862.9 449863.0 0
17261.6 448734.0 0
27338.4 448064.0 0
32675.8 449741.0 0
38015.2 450563.0 0
42172.1 447819.0 0
47382.3 447964.0 0
54235.9 447290.0 0
58513.8 450370.0 0
63745.7 447843.0 0
68472.6 448750.0 0
72851.0 449206.0 0
77388.3 449272.0 0
85870.4 449065.0 0
89583.6 449263.0 0
94017.6 451023.0 0
99270.4 450323.0 0
104948.0 451045.0 0
109076.0 449680.0 0
115061.0 449708.0 0
120028.0 449092.0 0
124352.0 449717.0 0
133880.0 450316.0 0
139007.0 447920.0 0
144468.0 447519.0 0
153279.0 449568.0 0
160610.0 452078.0 0
163424.0 448280.0 0
167748.0 449306.0 0
173308.0 448129.0 0
182793.0 447936.0 0
189137.0 448454.0 0
194723.0 449521.0 0
304209.0 450073.0 0
310699.0 448829.0 0
316770.0 447640.0 0
319001.0 452139.0 0
324266.0 450821.0 0
328265.0 449057.0 0
333125.0 448277.0 0
337733.0 450883.0 0
342962.0 451384.0 0
346805.0 449348.0 0
351316.0 450160.0 0
355992.0 447996.0 0
359471.0 451394.0 0
365163.0 450034.0 0
368885.0 448399.0 0
370588.0 451504.0 0
373242.0 447904.0 0
377267.0 449991.0 0
380890.0 449311.0 0
388358.0 449785.0 0
393649.0 450047.0 0
398806.0 449230.0 0
406227.0 449169.0 0
411852.0 449935.0 0
417639.0 450129.0 0
423974.0 449006.0 0
428996.0 448748.0 0
437757.0 448520.0 0
444385.0 449793.0 0
449052.0 449543.0 0
453643.0 448400.0 0
458251.0 447532.0 0
462482.0 449833.0 0
467045.0 447950.0 0
471798.0 449869.0 0
477415.0 449330.0 0
484740.0 450409.0 0
490781.0 449679.0 0
495161.0 449438.0 0
POINT_DATA 5000
SCALARS Radius float 1
LOOKUP_TABLE default
5782.6 5120.0 5529.52 6324.23 5191.63 4861.06 5320.28 4797.52 4796.58 3979.26 4298.67 3471.03 5253.55 5820.48 4862.21 5113.21 3929.19 4107.03 4478.15 5379.87 5925.6 4501.51 4792.73 4736.58 4931.38 3485.26 4329.05 4151.94 4049.23 5337.48 6124.89 5708.81 5252.48 4780.03 5495.39 3996.0 3856.1 4665.12 3383.4 4133.88 4834.9 3850.77 6044.04 5415.48 5085.53 3863.18 2356.98 4998.37 6182.6 5492.18 5258.36 5061.3 3642.12 3163.97 5812.43 5122.66 5906.14 5484.19 7513.1 5254.28 4436.4 5733.48 4672.91 5580.89 3588.44 5645.7 5176.86 6810.52 5840.26 3672.51 6110.27 5561.06 5073.35 3615.22 5670.04 4380.59 3589.27 6716.79 3607.45 5759.91 7613.27 4951.03 5255.32 6037.08 5096.78 6756.95 4129.43 3843.58 3320.52 4727.24 4194.5 4270.53 5082.47 5344.25 4593.7 4150.99 4216.92 4177.94 4742.68 4344.58 5634.83 5495.84 6268.1 5374.51 6739.08 4569.12 5873.69 5960.66 6608.73 5011.84 7034.11 6261.42 4502.5 3771.48 4043.57 4271.69 5681.38 4138.42 3708.04 5513.6 3240.09 4556.36 6082.81 3191.99 4685.34 5601.05 4929.8 3586.91 3103.0 3554.9 4015.92 5542.21 4487.31 3936.02 4044.71 5980.74 4094.62 4927.02 5546.39 5325.36 5484.83 5538.89 5351.6 4730.36 4715.55 5867.73 3951.75 5013.56 4499.64 4375.68 5542.27 5054.98 6030.06 5170.02 3557.27 4927.31 4688.68 4402.52 4517.56 4182.53 5903.42 3955.56 3761.32 4118.05 4366.19 5553.16 2938.66 4940.78 4231.61 4008.92 3942.53 3379.84 4827.82 3997.1 3260.67 5123.52 3038.33 4392.68 4333.2 4295.38 7199.21 4523.7 2240.39 5923.5 5091.39 5293.9 6142.94 3912.37 4602.25 4790.08 4763.45 5344.0 5445.87 3815.26 4704.72 6048.7 4571.7 5896.46 5022.8 3784.5 3780.23 6481.79 5224.12 7042.12 4819.73 6326.39 4471.58 4962.09 3999.48 4359.62 6946.21 2586.12 5433.8 4011.77 5499.11 3633.87 5922.5 5198.77 5987.17 6013.14 2765.2 4901.41 5110.37 5664.98 4382.74 5927.43 4651.28 4384.42 3693.63 4516.43 5481.78 5637.59 4937.14 5043.05 5816.2 5693.81 5109.54 6483.19 3829.13 5945.65 6759.9 7021.47 5416.38 6059.59 4955.55 2720.68 5701.86 3563.63 4238.81 4468.59 5885.03 2837.58 5325.02 5200.76 5017.13 4862.64 5185.34 4432.58 6684.56 3968.64 4688.67 2635.86 5292.64 6166.5 5065.13 5936.02 5305.17 4861.08 4003.05 5390.22 4805.87 4712.33 5227.21 5697.78 4667.36 4091.31 6372.62 4254.17 5090.24 5615.42 7565.34 4612.68 4281.49 4973.83 6342.25 6691.39 4840.84 5135.69 4020.32 6045.46 4245.72 5908.1 4541.21 6133.92 3719.84 4178.4 3095.48 4166.08 4123.6 4850.14 5163.55 3382.7 6817.32 4319.79 6098.14 4472.17 3637.61 4203.26 5188.81 4730.41 6057.22 5062.71 6125.34 4527.08 5347.48 4850.01 3970.25 5147.67 3979.82 5011.31 5138.31 5264.06 4659.59 6327.9 4048.37 6355.42 4362.19 5690.56 4948.92 3115.91 4493.48 3307.12 5924.89 4002.16 4174.52 4138.16 3486.22 4684.5 6230.49 6458.82 5418.62 4601.27 5493.32 5740.68 5926.61 6051.14 5836.15 3261.21 4345.55 6704.06 3653.41 3871.88 5600.93 3856.01 5246.2 4390.66 5279.39 3673.74 4827.23 5205.43 6116.18 7447.37 4924.6 4385.06 4733.32 7184.19 2899.43 2924.37 3867.67 4290.3 5399.73 4660.72 3888.21 5891.05 6038.78 6902.81 6644.76 5629.19 4786.6 5740.84 6445.94 5530.87 4310.18 7134.64 5978.9 4187.56 3629.62 4997.27 4301.06 4877.67 4290.14 6562.18 4156.38 5316.75 4164.68 5669.65 5934.22 5624.49 5762.59 7092.87 4666.81 3703.1 3954.91 6471.55 2965.01 6643.85 5501.93 6222.42 5654.31 3745.84 4938.74 5690.26 4156.2 4497.59 5965.78 4374.35 4810.12 5643.58 5215.05 4292.06 3821.72 5577.04 5006.58 4602.86 3688.8 4548.16 3369.23 5449.18 5492.26 5244.78 5762.84 3937.74 4749.8 6084.86 5478.92 4778.34 5551.36 6894.71 3091.3 4414.54 5789.98 6138.47 7054.71 3641.64 5489.43 5747.75 4277.89 5054.25 4796.33 4195.44 5539.32 5360.19 6496.85 4794.96 4874.39 5541.59 4124.71 5728.85 6337.56 4911.47 5803.39 5863.59 4381.97 6257.19 3255.82 5242.73 2812.98 4065.69 5603.15 4695.45 6052.7 3921.18 3798.62 5308.1 3666.57 4907.89 4937.02 4073.93 5655.21 4645.41 4433.59 4320.28 5542.14 4218.06 5480.13 6308.71 4716.19 5514.76 6405.76 3456.98 3498.2 5105.16 3066.13 5448.61 4302.5 6006.16 6009.88 7055.53 5013.67 5826.04 5339.78 4970.88 4143.78 4763.66 4636.5 4940.42 5923.4 5085.71 5499.39 5644.82 6343.14 5463.38 5945.21 5750.71 5696.88 5607.14 3923.03 5975.63 5252.34 6396.74 4138.46 2775.04 4986.77 6898.19 6318.18 5586.81 3948.17 4621.75 4551.24 5358.59 4220.88 4515.71 6519.71 6640.13 5082.6 5810.84 4230.54 5094.44 3748.24 4655.49 4467.94 4850.81 6038.14 2540.31 6029.66 5527.54 5573.7 5697.4 4727.62 4270.95 4055.8 7325.81 5280.17 6425.26 5143.58 6186.19 4839.34 5083.08 2980.99 6834.49 5525.39 3998.5 5938.34 4024.3 6394.38 5555.28 5169.36 4737.14 4686.65 5834.74 5556.96 5788.23 5581.75 6392.01 3599.45 6730.19 4907.06 3735.44 5163.9 6043.3 5952.75 6332.36 6122.55 2739.94 4931.53 6155.31 4223.33 5911.67 3323.28 6695.82 5794.24 4678.38 5050.65 4827.33 5206.48 5513.57 5729.23 5226.0 3365.82 4538.95 5965.15 4780.2 6090.91 4946.42 5019.93 5081.78 6116.33 6263.44 5774.97 5462.21 5470.77 4831.47 4643.85 4004.04 6062.05 4289.17 5564.02 4274.61 2965.79 4410.55 6035.6 5137.34 4481.53 5330.45 4581.13 3856.59 3610.4 4219.07 6387.01 5367.52 3092.35 4322.15 5210.03 4714.54 3629.96 5478.47 5351.39 6142.37 6061.47 4933.21 5375.47 4723.12 5120.49 5201.36 5262.61 6302.8 5409.61 6038.2 4005.44 5206.78 5555.88 6732.43 5028.96 3866.16 6362.12 4484.76 4840.01 5611.2 7933.0 4455.12 5173.87 4894.16 5380.13 5711.87 5118.27 4941.22 5932.23 5791.61 3369.13 4479.66 3043.85 5367.2 5461.13 4726.76 5839.13 5495.68 5489.34 5002.48 5708.14 5537.72 3920.42 8332.24 4553.56 5329.64 6049.55 5709.62 5835.78 4127.74 2476.04 5133.97 3942.07 7443.72 3937.08 5260.34 4709.35 6586.45 4373.3 4750.78 4163.5 5724.64 5078.86 5100.1 3561.29 4963.34 3295.83 4459.28 4260.92 6250.23 5960.56 4118.84 4020.95 6313.06 3474.39 3493.7 6470.3 4200.03 5082.74 6915.83 6072.45 7099.43 5526.14 5198.29 5423.0 5077.33 4746.52 5413.79 6338.89 6202.55 5025.39 5893.5 4547.19 3320.11 5030.91 6022.17 5119.37 3982.23 6163.38 4566.18 3459.9 4964.09 4809.42 5024.9 4306.53 5659.17 5094.81 5972.06 5713.22 5861.71 4359.04 3183.98 3794.63 4524.28 3778.1 5152.36 4511.82 5826.64 4220.65 6820.42 4816.2 6321.41 4896.52 4751.02 3372.79 5184.56 5282.64 4715.72 4669.66 4808.52 5046.33 5607.24 5053.92 6352.26 3847.38 3818.59 4863.72 6623.85 4262.82 5102.36 4342.9 5065.11 5069.84 4051.44 4241.89 5054.74 5941.72 5991.09 5126.91 6600.94 4788.58 5371.02 6155.1 5876.71 6262.72 5029.78 6515.84 4888.6 2990.77 4739.14 4918.77 4371.99 4219.78 4188.3 3885.86 5235.29 4479.94 6413.02 4863.27 5862.86 6049.79 5374.98 4719.7 6939.12 4735.33 5411.85 5092.37 6444.77 6314.07 4287.63 5315.4 6449.45 3975.31 3689.45 3824.16 5572.95 3868.18 6723.16 5584.06 7111.16 3817.13 5507.24 6851.54 4583.31 4503.89 5806.08 4853.39 4997.27 4093.08 4449.22 5543.27 4717.05 5287.2 6135.57 5998.38 4312.67 5423.8 4270.24 4989.15 5017.78 5015.69 6175.81 4727.24 6677.09 4305.57 6959.81 4829.35 5201.67 4424.7 4089.76 5526.55 3192.41 5215.15 4987.87 3315.57 5804.71 4764.96 5727.3 4242.52 5356.51 4277.88 3057.03 4087.15 4143.08 7500.97 3948.23 5228.18 5787.31 3927.99 5868.82 4050.9 4978.31 4099.77 4537.32 4981.9 4656.78 3600.43 4906.82 5131.24 5196.67 5004.23 6496.67 5474.8 6607.87 3664.11 5117.47 4925.63 5882.65 4434.19 5187.7 4623.61 6261.75 5177.64 4255.31 5453.3 4094.73 4407.9 3492.19 4584.5 5122.63 4703.08 6345.13 5274.19 5516.95 4406.4 4413.85 4844.57 4027.46 4470.98 5776.37 4516.28 3627.82 4044.45 5125.78 5344.43 4373.47 5045.38 5350.88 5372.61 3686.21 6480.17 5023.15 4377.07 3813.22 5101.59 5570.3 4336.42 5243.29 7589.94 3130.65 5628.24 5856.11 3327.49 4109.88 4234.94 4562.29 5013.13 5080.66 3417.33 4926.42 4164.13 4642.34 4520.1 4947.52 5874.89 4293.03 5813.4 4389.21 3791.79 4128.98 4925.44 4754.05 4951.47 6084.93 4307.28 3697.96 4739.42 4723.48 5538.93 5020.12 4745.45 2631.9 5281.28 6255.18 4668.71 4758.21 7228.46 6362.14 6719.88 5978.82 5266.5 4523.88 4066.38 4948.98 5227.52 4414.48 4092.24 5163.02 7144.24 5687.83 6442.69 6320.71 4648.04 3464.83 4721.32 4305.16 3293.56 3163.78 5274.14 4903.82 5746.28 4082.47 5511.6 4338.08 4378.3 6134.99 4989.56 4718.54 4440.57 5548.29 6766.43 2315.64 5916.16 4390.41 5226.56 5599.49 5313.22 3905.51 3999.94 4864.22 3901.8 5759.46 5083.41 3921.08 4190.31 5678.96 5262.19 4244.9 6070.58 6034.41 5452.83 5130.91 5402.24 4519.22 6445.22 3844.9 3695.36 4564.34 3963.86 4871.44 3848.93 5076.35 4306.11 5935.47 3402.32 5903.66 4528.49 5004.67 5365.89 5992.26 3960.8 5070.39 4980.85 5714.58 5110.45 5208.32 5248.77 3296.27 4083.97 4713.25 4607.02 5153.74 3895.51 4528.09 4165.81 6291.51 5174.89 5882.89 6246.22 4188.32 5246.61 4100.38 5344.77 5027.98 4899.11 5097.87 4278.07 7267.18 6256.02 5320.92 5269.18 4305.43 4406.1 5034.59 4942.77 4263.33 4454.63 5080.18 5912.61 3279.1 4403.98 4560.84 4729.43 5776.57 4562.74 5683.26 5598.74 5139.5 7493.3 4814.55 3527.05 5698.77 2477.07 6413.11 5529.42 5092.28 4965.89 5659.95 4152.85 2908.7 4453.64 4517.73 5469.47 4419.71 5660.16 3838.47 2588.37 6736.03 6235.57 3623.87 3087.09 6934.37 6113.95 4050.08 4097.57 5017.5 5563.79 6171.13 5511.88 4512.11 7055.42 5486.68 6048.86 5100.25 4285.32 5490.43 5022.28 5197.52 4959.34 4948.5 4527.02 4531.14 5013.42 3838.56 6020.48 6375.99 5200.05 5234.29 5313.66 5419.37 4466.03 4511.54 5409.33 5196.0 4923.9 4973.78 3329.99 3947.47 5091.68 4204.84 6243.0 6673.96 3556.85 3161.47 5441.96 3435.9 4288.3 5370.52 4652.29 5774.81 3746.31 5498.32 5346.27 6475.1 4969.21 2691.29 2845.98 4880.14 5289.52 5314.85 5941.4 5450.44 6510.17 5742.65 5592.32 5381.16 5565.13 6193.35 6086.96 5233.78 3701.27 5653.9 5046.21 4929.14 5894.61 3979.54 5304.13 5944.09 5833.06 4923.41 4497.31 5384.76 5257.12 4428.78 5243.43 4537.14 5551.9 3757.34 6415.61 4687.64 4888.12 5037.06 4541.8 5175.29 5842.56 5887.15 5412.31 7480.41 3423.15 4890.5 3981.07 5452.42 5328.22 6853.85 2395.5 3497.9 5941.61 5782.48 6248.6 5683.61 3836.45 6894.26 4986.51 5339.38 5178.99 5383.07 4591.87 4790.78 4247.15 6552.22 5651.07 6248.81 5273.35 4091.8 2651.49 4645.58 5181.4 5512.23 5275.32 5985.29 4898.94 4178.15 4613.31 4733.04 6119.09 5788.66 7531.29 5069.25 5048.89 5935.03 3991.03 6390.78 7435.25 6826.57 4788.87 4249.46 4495.87 3702.37 6022.72 4643.31 5527.33 6917.52 5402.21 4989.09 6718.19 4982.31 3848.54 4307.48 5331.02 4871.96 4863.23 4402.67 4470.61 4631.83 4384.88 6887.27 6008.49 4806.34 4287.53 5612.21 5945.08 4968.03 3306.14 5490.58 4863.79 4702.06 3830.46 6031.67 4689.15 6138.12 4655.16 5409.66 4345.67 3867.19 4765.72 4642.66 4039.91 4752.14 5329.59 6119.63 4950.97 5512.16 3197.63 4863.96 5191.08 5203.08 5163.77 4488.85 3731.84 4579.69 4901.07 5186.3 3436.15 4151.76 4020.4 3493.47 4721.02 4596.75 4933.65 5443.58 4558.46 5805.86 4049.02 4470.4 5311.03 5255.12 6169.11 5615.35 4027.09 6422.84 4502.18 5379.09 4602.85 5210.48 4962.77 5872.05 4853.02 6259.23 5088.44 5670.2 4711.62 4247.23 4114.24 4268.65 5349.31 4694.83 5509.42 4354.08 4256.43 5936.36 4520.62 3903.75 5229.48 4755.47 4485.99 5127.16 5475.8 5314.69 4244.99 6050.81 5543.46 6185.89 5965.81 3997.96 4750.17 5660.85 2330.66 3990.25 4177.19 3691.0 4752.51 3587.05 6229.37 5282.91 4425.84 3797.33 7256.35 4800.69 6566.1 3555.86 6386.78 4996.99 4896.39 6081.14 5480.83 4220.46 4607.85 5128.57 6000.7 3169.67 5604.21 3361.92 6710.88 5395.14 3967.48 6213.04 5235.11 6622.11 3685.13 6790.73 5251.4 5097.69 5857.79 6543.13 5276.7 5036.58 5411.02 4752.9 4287.16 5199.44 4062.5 4435.51 5374.07 4588.7 5683.95 3766.55 3554.48 5010.2 6496.52 5005.85 4216.17 6484.17 4938.72 4254.37 3374.08 4031.78 6098.1 5708.99 5687.85 5346.68 5296.29 4611.53 4285.66 4896.11 5172.53 4135.62 5801.99 5534.94 7644.38 7552.94 6101.92 5323.3 4998.21 4662.56 5166.79 2976.22 3405.98 4649.22 5394.55 5094.52 4946.74 2682.24 5996.33 5928.32 5475.7 4016.18 3619.07 5526.75 4275.57 5435.74 6385.23 5327.45 5560.26 6363.92 6205.93 4439.35 3460.94 5830.72 6184.4 3758.07 4373.45 4236.14 4407.87 5733.62 5169.9 5282.51 4460.92 5945.89 4042.28 4105.55 4340.76 6065.22 4221.28 4456.39 5514.84 3633.79 3914.2 5421.53 5937.08 6070.3 5233.29 4312.56 4612.06 5204.04 4750.58 5926.11 6667.68 5211.38 5089.62 4590.55 4741.26 5920.32 4255.85 4732.09 3988.3 4356.25 5149.72 4216.95 5776.96 5464.25 5486.48 5301.47 4617.55 3645.12 5424.88 5415.85 8659.64 5469.13 6027.62 5765.42 6123.03 5966.61 5711.11 4575.94 3546.71 5768.57 5564.23 5950.04 4231.83 2435.33 6401.43 4074.48 4558.47 5020.71 2681.29 5094.48 5839.71 3872.61 4238.4 4318.48 6132.95 5266.22 4860.33 3685.13 6004.68 4051.34 3361.26 3627.55 6239.84 4635.6 4256.67 3457.48 3931.07 6430.39 5417.15 3688.16 4681.72 3949.6 4945.39 3950.63 5661.62 5415.19 6631.19 4612.62 6648.68 4467.04 5626.61 5817.25 2983.99 2614.4 5061.98 4537.6 4923.24 4419.61 7177.44 3828.81 5309.98 4082.57 5255.18 5460.65 3004.16 4767.78 5235.17 4421.12 4779.5 4435.36 5254.49 6649.96 4303.19 5784.3 4256.57 6088.68 4643.56 4135.08 5620.74 4778.82 6124.08 5467.84 5053.95 5266.01 5253.37 5767.9 6515.8 5869.4 3685.65 3701.16 4186.6 5895.77 5750.07 6136.49 4757.74 6045.67 4209.49 5742.74 4244.21 4947.24 3875.05 6200.54 5148.58 4199.45 7234.66 6599.66 4055.54 4233.8 6098.95 4997.83 4893.49 5325.44 5021.88 5956.65 4200.09 4498.25 4188.87 3735.24 6574.95 6333.29 5731.57 5997.88 5576.92 6408.83 3930.79 4004.35 5226.97 5754.18 3312.06 5180.76 6799.4 5278.36 4409.63 5865.39 4427.28 6079.11 3082.32 3658.37 7440.72 5376.71 5703.6 6326.18 4807.28 4867.08 4266.03 4713.74 5407.78 4084.49 5449.46 6179.96 6632.99 6113.54 5147.36 6260.79 4563.46 6553.94 5726.66 5652.0 5463.41 5225.33 4929.75 6439.37 6045.22 4614.3 5134.39 3532.3 5769.98 5442.32 2221.99 3580.58 4863.01 5356.79 5657.36 3619.79 5029.47 6306.21 2978.76 2040.66 7016.27 5884.9 3876.21 5689.26 4916.22 6022.7 4940.84 4833.46 4809.67 7248.4 3946.28 3821.94 5984.81 5439.9 5367.73 3540.11 4640.06 3456.47 5471.74 4652.01 5421.64 4207.54 4886.12 6419.12 4976.12 4817.16 5453.98 3991.42 4388.63 5102.75 4597.29 5931.77 5938.17 5151.21 5398.64 6817.57 4477.04 3614.96 3886.68 5703.74 5662.55 5737.92 5365.24 4360.23 5293.51 4763.96 5008.63 3418.99 5132.68 4480.95 4993.35 6218.95 5521.25 3661.9 5370.85 5949.46 3178.54 3776.94 4765.02 5629.39 4448.13 2684.03 5070.29 4768.61 2261.36 5075.55 5280.69 4220.03 6923.84 5227.59 5703.07 4662.43 4630.82 3963.76 4043.66 5528.53 6799.88 3062.43 4540.86 5990.52 5426.78 2967.38 5604.35 4159.35 6477.91 4237.98 3091.67 4081.97 5401.99 5580.92 5973.33 5067.46 3583.21 2511.46 4011.37 2775.69 6505.78 4785.25 5461.55 6519.43 5876.64 5424.46 4857.84 4908.49 4962.21 4858.44 3468.42 4673.35 4771.13 4992.42 5297.19 4351.38 5550.75 5933.7 5280.12 4444.97 3498.16 4247.69 4409.27 4514.39 4588.99 4321.21 3548.39 4344.34 3673.28 4928.27 4858.51 3375.28 5625.65 4301.61 6107.89 4446.84 5660.55 5148.08 4834.87 4514.79 5760.22 3672.21 4795.43 5097.95 5108.06 3573.73 4693.52 6853.04 4745.43 5831.96 4747.55 3056.7 3755.95 6234.32 4586.19 4446.06 3450.93 5323.91 4270.74 6595.03 4558.15 4983.39 5222.16 4690.55 5107.23 5136.08 5558.68 4802.32 4010.57 4599.38 5246.47 6157.04 6191.29 4522.21 7422.36 5506.19 6719.94 4950.67 5832.37 6166.29 5453.6 5409.63 5294.77 4263.16 4709.05 3077.84 6109.49 4813.08 5860.67 5332.65 3764.1 4835.83 5413.31 6316.56 4332.87 6420.81 4715.58 4450.7 5151.52 5369.08 3101.75 4347.74 4518.04 5291.9 4009.62 2081.58 4874.18 3298.2 4270.15 6865.76 6449.64 6464.8 4684.44 4749.59 5799.69 3809.69 5571.72 3208.96 7051.9 4184.23 4144.57 6834.41 6226.14 5466.33 3000.29 5721.05 4209.31 6242.79 5950.45 5713.03 3583.49 5849.65 5052.84 4366.74 4165.21 5297.16 3184.64 4936.96 5206.33 5530.49 5653.03 3718.69 6192.0 2216.82 4509.89 4940.28 6752.75 5269.38 3004.34 5607.3 2928.82 4222.4 4000.43 4698.87 3420.08 4568.41 4912.04 3624.7 4539.07 5464.68 4475.83 2685.81 5591.76 4585.31 6625.18 5010.04 4570.98 5097.45 6293.89 2761.07 5737.75 5742.47 5366.52 3778.02 6552.21 5533.72 5533.42 7132.12 3678.08 5518.57 4187.31 5463.48 3240.51 4527.99 5161.01 4298.15 4376.7 5190.61 4628.4 6051.83 4642.93 4440.81 5941.9 3973.12 6642.76 6024.75 4497.78 5567.93 5987.42 4442.22 6451.33 4669.06 3012.99 6400.08 4743.59 5208.14 3317.83 4396.25 3763.05 5092.24 5549.49 5423.42 4766.06 6605.86 5012.5 5435.19 7093.13 4953.1 5818.95 4093.99 3940.49 4406.05 4680.94 5089.1 5828.35 5876.72 5236.43 5285.07 4680.14 4608.41 4083.79 4187.94 5980.59 5021.77 3796.15 4801.8 7216.98 5271.02 5718.28 4601.74 5088.57 5134.67 4215.0 4603.5 4481.76 5452.78 5065.26 4304.41 5885.28 6579.31 5323.55 3022.6 4811.76 4914.45 5313.12 5351.56 4661.03 5160.59 4691.91 5262.35 4320.42 4255.34 4510.8 5064.79 5889.35 4394.56 5896.26 4275.07 5825.38 4185.61 4047.87 4917.99 4367.78 5417.8 5146.37 4836.16 4232.16 5300.96 5151.11 5680.94 5730.33 5545.46 5193.01 4543.1 6550.44 3860.83 8325.01 3764.06 4523.39 5278.56 5434.47 5829.22 5631.14 4243.79 5811.18 5433.65 4008.15 4887.76 4811.32 4286.49 6184.88 5829.32 6405.0 5551.95 3918.87 5789.55 2275.45 4633.05 4901.2 4383.56 4990.79 3562.79 4516.53 4122.92 3604.14 5381.54 4452.54 5810.77 2711.19 5474.15 4028.32 4099.92 4884.59 3858.06 4511.7 4478.6 4304.63 5263.27 6300.92 4173.54 5599.29 6038.68 5046.12 4807.4 7013.17 3805.67 4590.01 6101.86 6506.86 5580.34 3852.6 5775.31 4706.5 5354.66 4647.67 5375.12 4356.36 4892.44 5578.94 7610.49 4286.17 3684.56 6028.09 5375.1 4172.6 5498.42 3984.88 5318.53 4732.09 4281.98 7165.9 5344.83 5480.3 7509.24 4146.81 5388.78 6101.13 4573.72 5099.21 6969.28 5636.4 5698.96 4350.12 5227.02 5670.0 4298.45 5222.51 6609.84 4344.51 3834.43 3781.77 5658.37 5581.55 4707.06 6074.94 3474.5 4250.88 6348.03 5732.27 4792.39 5146.37 6917.62 4013.38 6137.8 4343.78 5263.3 3352.35 4909.65 6523.86 7693.4 4326.48 3994.07 4219.94 4437.07 5907.46 3449.37 5491.9 4264.91 4659.16 4909.31 6522.59 5711.62 4798.17 5166.79 5425.98 6479.39 2895.63 4997.91 5079.22 4599.81 4714.83 7519.2 6355.68 5484.36 3953.55 4277.24 4063.9 4469.54 4314.56 3928.53 5606.51 5740.65 3834.47 6349.67 6329.53 4227.41 5993.0 4803.57 5966.42 4110.59 5131.15 3332.49 4847.14 3950.27 4214.44 5116.66 5378.23 4787.97 3746.36 4981.43 6789.23 3989.7 4777.03 5069.89 4157.29 4246.61 5452.36 3804.5 4609.02 6486.37 4638.18 3344.57 6448.66 5220.76 6945.98 7046.11 3427.63 4449.98 4863.97 6342.48 5756.75 4587.67 5599.7 4163.74 3665.95 4296.69 6238.32 4095.75 3319.67 3603.51 5283.8 4076.59 5135.96 5164.1 6464.15 4972.17 5491.37 4222.77 3783.54 5268.38 3475.67 5527.23 4805.33 7038.89 3863.67 4814.12 5067.56 6069.3 2735.53 5116.6 3747.03 5388.39 2783.85 5335.47 4356.49 4526.81 6740.71 5399.29 5971.22 5533.19 6602.43 3568.28 6063.64 5996.66 4405.42 2995.67 3598.08 5522.21 5698.23 7300.58 3608.06 4923.57 6633.61 5217.95 4867.7 2279.05 4075.28 5291.05 5161.1 4619.2 5166.41 5067.56 2596.96 5701.75 4350.15 4139.3 6541.45 4750.49 5078.31 5391.48 4923.43 5009.83 5210.38 5717.8 3629.44 3566.79 5374.67 3299.24 6246.56 4741.28 4215.2 6212.15 6813.72 5327.75 4896.65 4946.23 6083.28 4196.37 5211.6 4453.97 3556.79 5138.2 3503.41 5783.48 4701.5 4504.35 4771.65 4840.44 5093.82 5951.81 3924.14 6918.35 4834.3 6804.79 6471.42 6372.13 5369.5 4428.14 5404.01 6016.19 4124.49 4479.11 5714.25 6685.4 5699.53 4850.06 6332.01 7044.29 4234.18 7085.01 5980.95 6193.08 3862.77 5887.01 5168.35 3185.39 3728.18 5633.61 5048.19 4243.26 6799.23 4888.27 4592.15 6487.56 4854.11 4901.44 4998.22 5417.21 6104.26 5583.61 4986.71 7382.3 4022.56 3772.3 5522.75 4855.01 6208.9 3340.09 6061.63 6545.43 4829.35 6760.92 8137.11 5484.32 6650.77 4067.96 4824.12 7104.73 6162.3 3272.75 4264.54 3516.27 7043.44 4263.78 4643.9 5228.75 6047.14 5003.78 4061.6 2603.64 5107.0 6502.97 4783.07 4852.58 5806.31 5456.71 7317.04 6412.67 7001.83 5012.97 4036.91 5589.37 5439.49 6639.64 5212.43 5454.12 6348.54 4066.57 5642.35 5156.76 6357.47 5535.91 3230.13 5955.86 6176.67 5325.96 5412.24 5016.02 4920.21 4581.37 4049.16 5851.61 3936.95 6153.94 6836.82 3858.17 4631.99 4740.98 5128.77 7122.87 5797.36 4153.84 5119.86 5089.26 5084.17 3776.8 5096.43 6156.21 2460.79 4653.83 6171.71 3628.89 6589.82 4668.88 5027.43 5867.64 4438.58 6059.93 5602.53 5073.02 3472.91 4989.2 4711.04 7144.05 4506.18 2970.9 6542.5 4383.47 5971.21 6318.23 4206.98 5174.75 5932.07 6101.57 4891.38 4793.65 2949.12 4532.89 4533.37 4848.46 5742.09 2779.99 2884.65 5887.38 5807.46 6942.34 3658.05 5478.11 4549.69 6423.81 5526.31 5030.15 6413.15 4058.87 6103.11 5048.55 4984.46 4024.31 5948.71 5844.72 3856.53 3992.97 5460.89 6040.74 5260.85 4054.22 7228.94 5393.65 4961.99 4648.21 4595.12 4393.16 3311.29 6484.43 6192.77 5416.45 6459.51 4955.16 4904.51 4147.31 5989.05 5751.15 5950.88 4441.22 5853.89 6551.93 4140.4 3110.13 4386.8 5446.4 4625.67 4725.01 3485.54 5966.75 3104.96 6735.97 5305.59 3636.15 4330.58 6114.89 5754.6 5135.63 3288.01 4355.83 6870.97 2202.77 5351.86 6056.87 5474.01 4149.55 6201.86 7554.58 3380.69 5166.89 3639.44 5491.63 5725.37 3868.62 4729.42 4844.83 5244.78 5652.87 5483.7 5018.69 6384.7 5952.38 3896.27 5807.52 5963.36 5230.02 5307.35 6016.08 4731.21 3124.7 6102.98 5138.33 3477.1 5769.14 5493.89 5261.19 4811.22 4788.08 6379.14 5216.26 3687.65 4749.96 5377.37 5869.67 4311.48 4899.73 3152.86 5457.66 6394.19 5973.89 5518.11 5087.14 4342.18 5169.48 6776.22 6064.71 3719.11 4467.13 6060.17 5934.82 5415.45 4385.81 6592.93 6350.71 5096.24 3381.82 7107.63 4831.93 4023.93 5868.89 5494.28 4099.26 4834.39 3831.52 6106.43 6761.81 4918.76 4208.41 5826.78 2856.55 6214.73 4553.68 3758.22 4268.19 4532.7 3205.68 5561.74 6100.73 4908.75 6556.26 4593.7 4349.13 6818.91 3634.5 5478.95 3851.85 4019.34 4658.24 3623.19 4906.11 4387.39 4564.1 5825.55 5509.51 4848.14 5366.22 6193.73 4316.5 3742.11 4192.21 5712.35 3597.43 5701.52 4743.9 4158.91 5311.55 5321.17 3360.86 4869.25 5545.21 3877.8 6418.11 4501.78 4922.49 5039.12 4824.81 7307.21 5135.5 5788.97 5007.21 5545.59 5206.47 4057.17 7066.96 4263.65 5467.63 5666.95 4127.53 5210.75 5175.89 5361.87 5232.85 6816.66 4473.29 3971.08 6204.65 4482.9 5513.8 3503.65 4392.65 4869.48 5510.96 6653.07 4745.16 4584.81 5071.98 5719.79 3199.4 4371.08 5254.24 4968.14 4914.03 5086.29 5144.56 5139.18 5551.43 3034.16 5049.99 4201.03 4333.87 4458.64 4312.15 3657.69 6015.02 3572.94 5001.58 4820.17 6456.58 5244.98 6436.74 5366.11 4384.28 5944.3 5640.72 3619.72 4565.93 4504.52 5615.84 4464.73 6440.38 3274.85 4580.06 4835.97 6419.64 5262.47 4587.7 5196.92 5644.81 4807.35 4568.64 4642.2 6555.44 5293.75 6358.93 2205.51 3894.64 3703.49 4374.74 4757.2 5975.23 4745.79 5470.04 4211.82 6550.4 4891.67 4887.52 6631.28 5350.88 6571.31 5429.3 4944.51 5532.72 4697.91 5179.17 5579.39 5270.51 5148.1 7261.51 5224.64 5949.73 4312.48 5527.13 6370.33 4278.57 5081.08 6318.25 6864.06 5001.87 3644.78 4883.63 4078.93 3814.65 3886.72 7778.01 4034.05 5127.82 5798.38 3862.91 3419.87 4456.26 3908.98 4027.33 5113.6 6328.42 3563.14 5851.63 4954.81 5610.53 5755.15 3926.11 5464.83 2781.96 5414.58 4991.35 3512.94 5601.55 5334.36 5750.35 4489.99 3683.86 5658.14 5473.72 7124.45 2617.39 5144.44 4062.56 5034.69 4198.94 5079.64 6003.78 5684.25 3766.69 5188.53 4882.66 4027.63 5603.68 4526.34 5610.95 3220.8 5042.75 4598.92 5241.22 4979.52 5490.75 4407.79 5214.63 3495.68 5783.94 7362.42 4202.77 5836.14 6008.81 5510.9 4583.52 4505.28 3492.83 5585.14 7039.98 6006.89 5792.98 5910.86 5690.96 5805.1 4456.11 4810.98 5026.76 5091.22 5212.92 5556.0 5748.9 3742.31 4608.34 5695.79 3622.8 4770.51 4431.23 5577.41 4467.0 4994.65 5740.98 4258.98 3787.08 6545.99 3903.91 5630.9 4929.6 3919.62 4368.28 4945.0 4474.83 4548.45 4658.11 4551.26 5114.07 5730.61 4508.18 4263.18 7142.95 4559.74 5064.67 4383.68 6618.21 6666.67 3717.47 4504.86 6200.63 5969.37 4928.35 3217.67 3844.54 4509.46 6163.54 5212.37 3538.53 4680.69 6500.49 2628.22 5438.92 5058.51 4244.49 5110.11 4050.03 4124.76 5036.98 4120.07 4521.75 4813.33 4952.52 3429.57 3840.21 5569.2 6746.66 5410.33 5420.67 5635.32 4827.61 4316.45 5409.08 5481.64 5673.75 5360.67 6647.08 6263.3 3422.29 4501.05 4537.03 6548.29 3990.96 5352.24 4326.06 5034.46 5793.12 5469.17 5473.05 4373.2 5153.18 3743.76 3425.69 6711.21 4971.29 5244.22 6280.13 5832.29 2606.51 4438.76 3864.92 4128.1 2955.36 6119.99 4159.81 4960.64 4446.58 4983.3 5372.82 5401.4 5053.15 4681.29 5499.59 5124.17 6239.68 3845.9 7320.78 4834.44 4125.9 4234.88 5782.43 4708.31 3873.92 4833.67 5023.41 6282.38 5325.91 5347.9 4092.07 4646.51 5657.55 5727.79 5188.82 4700.07 5043.14 4717.73 4928.85 5072.5 3904.07 4749.18 5553.94 3663.0 4546.96 6304.49 4316.0 5134.72 4921.1 3814.16 4420.6 4475.38 5287.25 4184.47 4920.88 6511.37 5917.34 4216.44 3999.5 4012.92 4346.07 4462.87 4013.86 4177.47 4218.16 4933.49 2918.64 4728.55 4554.68 6139.64 4140.92 4692.32 4512.07 4896.43 5984.8 5236.24 5463.06 3127.83 4585.04 4639.8 3986.41 4212.15 5678.58 5260.52 4385.49 6102.49 6570.35 5114.23 4242.63 7407.91 3269.54 5836.26 6015.22 6061.85 6063.44 4051.18 4454.74 5512.44 4826.52 2904.46 4583.94 6449.06 5046.31 4337.32 4685.4 1937.5 5849.53 5241.75 4651.99 4731.53 3763.9 996.652 4788.7 4577.73 4420.11 5863.0 6127.39 5965.58 3352.34 5640.12 4901.29 4972.18 5329.76 4775.04 4607.18 2403.72 7200.89 4147.49 4802.98 4833.55 4081.34 3646.95 7224.99 4954.76 3908.56 5384.86 4642.74 5661.6 5285.75 6099.28 5385.03 4169.15 4778.37 5134.17 5968.54 4904.35 5592.54 3247.97 5124.34 4114.2 4904.37 4358.81 4651.64 5757.29 5016.46 5061.75 6273.6 3769.24 4763.4 5902.67 4236.86 5454.11 4708.17 5510.45 5393.76 3684.15 4941.02 4730.14 3994.39 5806.61 4983.1 6010.59 7123.04 3965.3 4618.73 3668.93 4009.24 5906.57 7541.76 4402.17 4775.49 4932.29 3954.77 4990.23 3784.94 3220.29 5749.6 3125.13 4506.66 4141.21 4174.44 4439.71 4064.58 5209.55 4564.41 5667.51 5426.4 6331.74 4198.9 5431.29 5951.86 4659.88 4252.18 4213.05 3791.41 5157.38 5853.12 4546.44 4224.3 4841.7 4184.21 5702.4 6203.03 952.938 5069.9 5235.87 5473.89 5273.37 6089.45 4732.37 5810.17 5265.21 4985.3 4966.07 4657.24 5713.36 4400.14 3669.32 4762.1 4704.92 3987.69 5424.55 6502.99 4392.75 4287.25 4271.07 6219.34 4191.01 5674.63 5340.05 4589.06 5995.4 4140.04 5890.25 5322.11 5700.79 6710.14 5759.79 4598.54 5218.42 4816.51 4770.63 5345.73 4841.23 5188.22 3990.94 4756.8 2804.54 5477.8 4176.32 4462.35 6069.78 4241.68 3185.09 5532.75 6949.65 5495.0 3469.18 3372.95 4489.29 2945.34 5676.61 5064.23 4301.93 5846.95 5268.15 5701.63 5819.0 6347.72 5120.92 4924.07 3200.6 4629.02 6240.42 5146.0 5721.14 4608.62 4288.45 5407.96 5084.5 4918.64 4987.28 4071.75 6206.98 6638.25 5078.59 6562.03 4815.47 3899.7 4759.99 5134.33 2646.13 5419.57 5162.67 5214.4 5760.98 4636.53 4705.68 3629.49 5766.05 5469.35 5117.64 6334.53 3835.81 3242.31 4898.29 5372.25 3234.26 4830.13 3494.16 5370.9 4074.16 4529.77 4325.13 6172.27 5390.33 5078.73 5278.54 5729.0 5729.92 4179.87 4786.66 6224.13 4761.84 3661.67 5370.1 5136.87 5684.05 3667.93 5638.7 5024.32 5813.79 2741.2 4644.88 3779.45 5790.42 5784.37 3142.09 3682.35 5591.77 5182.13 5003.3 3756.96 6110.48 5800.81 6245.52 6793.1 6016.87 4068.31 5077.29 5166.05 5515.73 3671.06 3612.44 6715.73 4850.5 5866.91 5763.05 6405.69 2820.07 5129.68 5076.84 5357.39 4825.73 5247.01 4208.37 6296.54 5797.21 5685.74 6019.35 6740.35 4678.7 3450.07 3673.6 4550.92 3306.84 6215.87 5191.26 6060.06 5866.42 5544.27 5393.43 5308.33 3484.81 4666.12 4685.65 6023.07 5377.01 6470.23 6506.63 3495.3 4668.8 4271.93 4697.49 5125.17 5735.08 4859.01 4726.2 5524.45 5034.05 7133.44 4711.15 4426.02 3825.48 4474.39 3810.68 4658.59 4196.62 6478.35 4357.11 2809.19 5453.77 5005.6 5486.89 4916.7 5589.53 7208.19 3587.93 4549.51 4975.85 4095.83 4517.29 5695.25 5323.95 6171.01 5716.42 5796.26 4603.04 4620.95 5578.18 4870.94 5368.93 3460.93 4488.39 5124.86 6121.56 4927.73 5914.5 4602.57 6006.16 3565.32 5710.33 3622.48 5344.44 6432.8 4626.72 5131.77 5549.71 4410.82 4368.12 4365.58 6443.99 3889.98 5193.58 5399.43 5490.64 5034.34 5695.44 3769.2 3422.21 3916.42 5036.14 4507.46 5265.63 5684.88 4431.06 5730.2 6523.78 4645.86 5620.88 4941.52 5900.0 4262.74 3783.79 4248.14 5317.19 5279.19 4016.6 5192.92 5275.57 7050.08 5891.25 5998.13 4493.79 4932.56 4279.44 5192.49 3487.31 4899.19 6643.4 5058.34 4028.22 3918.94 5575.11 5293.13 7350.26 3768.46 4507.36 5167.53 6224.85 7145.73 4168.52 5403.97 4795.08 5106.46 6562.92 5648.78 5501.73 4697.24 4983.43 7035.54 5233.76 4683.28 4217.36 6549.8 5679.74 4851.18 4165.36 5288.33 5368.52 4871.77 5811.26 5205.38 5062.77 4884.93 6075.99 6028.63 5262.79 5927.2 5146.1 5035.71 4419.79 6485.77 3869.39 5960.5 5152.78 4117.9 6896.55 4753.76 4638.09 5330.26 4441.91 5828.25 5939.22 4725.11 4215.05 3626.86 4604.1 6371.96 5076.11 5990.75 5600.21 4750.81 3953.26 4282.11 5467.51 5459.92 4625.53 4096.47 4104.04 5114.67 2638.82 5353.66 5030.33 5593.79 5196.08 5025.42 4965.24 6379.38 6257.79 4495.75 4849.5 5353.23 6229.83 4468.26 4523.81 5106.33 5293.37 5198.94 5271.88 5933.54 5559.79 7168.2 3763.85 4571.74 3419.07 5740.78 4096.86 4796.12 5001.51 5997.91 5385.86 5115.42 4082.4 3186.07 4369.86 4209.0 4967.51 5482.76 5173.82 7212.97 3720.7 4211.36 5698.53 3604.31 3856.73 4450.49 3468.45 5764.52 4390.64 4608.01 4045.67 6005.95 4308.49 4930.17 4581.1 6241.77 4085.96 5762.82 7360.12 6223.98 5821.49 5617.29 3035.06 5580.44 4262.19 4597.88 5537.34 6022.78 5884.99 5726.42 7025.09 4674.9 4433.12 3392.26 2549.95 5487.63 5461.72 4361.24 3852.82 6599.28 5138.93 6406.8 4556.19 7086.69 5368.66 6170.9 6875.73 4436.48 5226.42 5758.98 6081.3 5615.35 5117.52 3967.76 6311.89 6734.39 5987.88 5942.45 4228.53 4150.76 6123.46 5005.72 6142.88 5155.28 5111.26 5388.73 4764.83 4949.55 4600.71 1969.87 3132.34 3957.38 4841.28 4494.15 5507.38 6889.5 5407.69 4710.88 5300.17 4416.87 4057.4 4896.67 5534.23 3934.11 4781.9 6025.77 6815.96 4466.22 5339.6 6153.71 5917.08 5483.37 5418.12 5934.05 5322.07 5770.07 4714.66 5101.6 4984.17 4656.01 5781.62 4037.86 6589.13 2347.41 5602.62 4542.16 2030.03 3543.37 5628.97 5714.51 5527.27 4484.78 5104.39 5234.2 5847.91 4612.13 5846.6 5327.05 4109.44 4903.84 5438.55 4290.49 4434.65 6688.53 5977.66 5209.5 5065.74 5791.25 4873.23 4028.35 5464.05 5879.24 2980.31 5410.6 3148.79 6348.93 6824.53 4332.64 4742.82 4422.23 6791.86 3989.26 4820.68 4930.72 5728.58 3745.02 4887.73 6297.99 5378.24 5918.95 5817.74 4538.89 5887.71 3402.44 3770.22 4848.98 5150.84 5184.98 5087.97 5339.82 4519.03 5460.57 5110.27 4745.44 4612.68 6649.52 4232.33 5462.6 4747.68 5770.92 3093.38 5095.52 4878.93 2002.78 4087.32 5517.65 6647.85 4009.68 2569.12 4161.32 5161.74 7336.37 5932.28 5560.23 5099.9 2960.5 6945.69 4975.32 4298.7 5118.86 3902.48 4183.4 4304.64 6030.39 5833.78 4733.79 4823.06 3799.01 5254.49 5288.64 6213.24 6883.86 3579.59 3350.99 6161.94 4065.28 5057.59 5939.29 4461.14 5285.6 4574.54 5575.11 5615.06 5490.54 5061.74 5203.54 4047.95 6189.67 6142.94 5001.69 6581.56 4052.43 4061.87 3980.46 5383.9 5165.31 5158.44 3798.09 3886.56 4288.5 4496.51 5715.51 4511.05 3456.3 6561.94 5259.21 5092.93 4256.08 2803.01 5881.93 4444.0 4399.52 6771.18 6182.19 5327.39 7415.84 4981.81 4138.59 4938.33 4970.55 4621.33 5157.73 4541.22 4934.66 4946.08 3539.68 4984.01 6217.33 4557.1 4605.39 5927.1 6270.59 6175.27 5876.51 4103.76 6731.89 4733.41 4286.61 5264.83 4603.66 5453.2 4969.68 5136.51 3901.53 6815.51 5313.86 5232.16 4457.05 5189.91 6031.22 5485.84 3618.64 5703.84 6424.77 4335.79 3530.82 5453.69 5797.32 5432.04 5689.56 6556.86 3921.27 3702.45 5537.61 4491.96 6084.88 4199.44 4397.06 4467.51 4053.12 4479.5 6261.67 3435.13 5065.78 5703.34 4521.42 6668.98 3977.98 6043.34 4939.56 4128.93 4959.72 4712.17 4845.91 4723.71 4461.67 5129.4 5114.51 3303.49 4655.37 4622.73 5585.25 5256.75 6351.89 6530.78 5059.37 5783.38 3043.77 4139.39 5237.55 3909.94 5088.64 6589.8 4905.53 6920.92 7392.65 3729.16 3783.36 5319.1 3757.23 4181.93 6828.8 6570.43 3820.19 4979.5 4586.82 4745.37 3133.28 6026.04 6200.05 5418.98 5859.17 4034.41 4052.49 5522.34 4150.44 5326.03 4420.35 5717.45 4948.96 5256.82 5117.83 4013.86 4645.93 5448.64 5244.95 4585.37 6417.61 3721.69 5395.12 5783.69 6074.39 5317.83 5350.9 3483.61 6738.9 4460.89 4554.24 4157.1 3939.96 8052.53 4867.12 5910.66 6520.19 4637.3 1458.87 5141.03 4840.44 3997.68 8123.59 4819.83 5765.14 4801.16 4767.54 5071.38 5121.08 4696.03 2927.84 5688.77 6177.68 4698.7 2848.44 4220.43 6045.26 6500.45 5743.8 4907.55 4094.63 5084.76 6666.34 2932.52 6605.11 4757.87 3557.46 6636.43 5431.14 6298.8 5178.07 3689.24 5151.19 5777.26 4171.02 6119.0 7012.36 5028.06 4002.99 4886.99 5159.67 5587.3 3161.1 3572.73 4864.38 3228.27 4721.98 5252.82 3543.98 5056.26 5878.55 4014.44 6604.72 6002.77 4431.46 3794.47 4610.55 3207.84 4967.02 4614.49 5400.69 4462.5 5573.31 5004.68 3808.04 4023.88 5348.11 4405.61 4746.15 6275.25 3720.38 4758.84 4731.37 5023.61 4452.36 3976.0 4672.86 4511.34 6463.71 4068.41 4742.35 5394.79 5645.54 6264.03 4526.87 3562.8 4151.74 4691.01 5192.82 4174.22 3573.84 3038.91 4067.89 3922.28 6294.09 4571.57 3445.92 5131.07 4121.07 5236.69 4197.87 5524.28 5105.54 5731.43 6353.81 3518.14 3414.67 5444.36 5044.68 5771.98 5899.78 2649.69 5000.74 5772.57 5268.27 5637.53 4813.81 3882.37 4634.25 4095.4 5901.8 4718.61 5188.57 6351.48 5357.33 3830.7 6210.0 5432.4 4262.52 7430.48 5992.06 5545.68 4970.12 6044.01 4967.93 6369.66 5973.57 5734.07 6241.48 6033.28 5957.82 6286.27 6327.54 5616.66 4802.36 5368.28 5327.71 5466.13 5257.38 6229.64 5075.23 6263.87 4975.56 7282.36 3826.01 4645.91 5581.01 6834.92 6379.33 5971.95 3979.46 5652.73 6321.97 6412.84 6509.54 2589.19 3792.06 6079.55 5128.59 5485.61 4993.49 4937.36 4293.3 5308.4 5310.33 6583.37 3688.83 3956.24 7558.99 3393.59 4142.1 5043.14 5333.04 5445.91 4521.99 4812.59 6842.54 7115.67 5675.45 3361.11 6038.56 2807.46 5599.16 4179.8 3488.34 5658.35 5428.24 5631.32 6892.33 4505.3 5793.14 4491.26 4609.65 5704.61 4832.21 5009.21 4574.03 4379.91 4942.63 5290.37 5850.38 5264.08 7066.26 4227.66 4730.97 4594.89 5245.95 3677.85 5821.42 4515.02 4677.84 3463.53 4924.52 6126.03 2970.24 6044.69 5658.05 6593.1 5462.1 4000.51 6032.45 5011.37 4026.03 2827.92 4441.44 6908.32 3467.11 5336.61 4817.75 6153.26 4848.15 4439.09 5523.81 5648.59 6697.45 3873.79 5717.67 5252.37 5515.59 3224.81 4499.54 5037.58 3775.38 5640.67 6572.17 6080.69 3751.73 5555.89 4766.47 4871.1 5678.08 5922.62 5872.45 4414.09 5125.45 4188.16 3784.68 3717.22 6305.9 6649.21 5507.07 3470.69 2943.17 4654.92 5286.55 4880.78 4322.56 5509.09 5625.02 5212.05 4829.77 3928.99 4444.92 6959.88 4125.75 5749.53 5130.57 5247.73 5090.48 5402.45 5582.28 3985.93 5945.25 6071.59 3856.4 4696.06 4137.16 6189.29 5984.55 6581.13 4569.32 5803.3 5580.95 3549.92 4032.06 5246.81 5089.1 5888.95 5394.78 3463.34 5122.38 2853.68 5262.85 4998.37 5329.84 6559.82 3879.83 6565.95 4577.98 5043.34 5886.81 6126.5 6322.0 6007.1 6345.2 5488.96 5128.03 5410.73 3720.92 5087.3 6139.74 6637.38 4975.57 6111.23 3057.3 6150.31 5873.62 5214.71 4996.91 4811.11 3920.44 5379.52 4450.51 4866.8 5314.67 3851.47 5563.47 4966.74 5651.46 4066.36 3162.27 6033.93 4083.24 5516.37 5092.44 5432.2 4232.44 4612.4 3312.3 5563.09 6381.58 3282.57 4798.13 5212.2 4611.21 5108.42 4630.5 6296.36 4432.32 4451.76 7885.41 4046.22 5782.25 6457.89 4104.97 4844.2 4575.72 5114.61 6118.13 3374.62 4420.3 4926.62 3917.09 6332.64 6009.93 4083.1 4613.32 5270.1 5191.29 5130.56 4947.64 4957.99 4063.26 4997.89 4542.62 5093.28 4859.95 4132.08 5522.18 5223.1 4850.49 3873.72 4981.55 4592.49 3625.98 5479.86 6188.62 6474.5 4702.32 4763.04 5971.9 3746.62 4413.56 4532.67 5034.02 4876.37 5316.05 4769.62 5260.13 4649.5 5181.31 4810.74 5985.75 5475.83 4149.17 4329.8 5728.27 5672.46 5202.33 4313.38 6598.99 5250.56 3633.58 2468.16 6294.14 4339.97 5203.75 5169.09 4691.15 2459.88 4210.24 5470.67 5901.71 5225.11 5342.9 5252.22 5733.12 6436.29 4034.88 5108.84 4582.12 3511.5 4295.25 4520.14 5067.92 3188.21 5357.14 4850.95 5919.27 4793.06 6271.22 3421.81 6188.33 3920.64 6186.24 6916.18 5786.06 4137.41 3868.69 5447.74 6033.72 5007.41 3768.62 3692.99 6213.74 2329.93 4369.87 4959.94 1635.31 6938.87 5639.4 6185.73 4806.99 6520.96 3771.91 5856.43 5217.62 6178.19 4746.19 5349.85 4616.81 5715.25 4362.94 4469.82 6545.78 3354.94 4870.14 4404.87 5237.27 5105.72 5767.65 4750.76 5003.49 4907.03 5497.27 4081.77 5617.91 4948.21 2181.29 4987.01 4706.31 4202.12 2694.25 4735.99 6492.44 4203.68 4739.56 5145.39 3482.73 3996.93 6351.95 5195.09 5345.05 7679.2 4881.51 6131.52 6009.88 4699.77 6729.99 5093.41 6842.35 5144.23 5464.34 3621.63 6153.07 4414.06 5908.57 5944.52 7296.47 5050.2 2513.38 4821.41 4908.32 4924.53 3995.08 5019.84 4499.52 3874.12 4028.13 3900.93 5784.38 4457.73 6476.35 3113.64 6260.58 4067.24 3053.19 3074.49 6571.26 2832.83 5827.3 6036.99 3010.1 3825.98 4589.22 5087.03 4667.84 3906.41 4123.08 4512.6 4260.38 4636.45 4932.27 5638.51 6793.49 6060.19 4962.35 6786.37 4487.51 6805.02 5354.48 7394.47 4729.45 6261.13 5374.09 4720.34 5244.47 5378.75 4731.16 5510.89 5822.7 3780.07 4159.89 5466.49 4038.17 5178.55 4907.48 5146.69 6818.23 4488.41 6679.12 5412.07 5652.19 5512.57 4813.55 6578.62 6284.12 3465.03 4796.04 3839.0 5229.56 6011.4 5799.86 5172.1 4672.34 6052.22 5376.41 5003.63 2932.2 4695.7 4944.08 4082.01 5269.39 3964.03 4305.35 4216.33 5832.72 3903.9 4721.2 4444.95 5161.02 3124.49 6265.48 5003.81 6262.18 3818.37 3352.46 4701.03 6225.05 5434.04 5200.1 3997.52 4444.54 5779.9 2626.41 4909.74 4311.92 5310.33 6664.54 3922.98 5161.73 5259.48 4777.96 5801.89 5254.93 4803.4 6833.5 5742.39 4780.16 3834.01 5616.11 4433.23 4813.24 5759.19 5847.27 4490.2 4304.75 5480.86 6139.9 3982.31 4720.22 4474.96 4084.87 4758.76 4790.63 5259.29 3584.05 4916.75 4818.53 5097.85 5584.64 6189.04 6224.64 4221.03 3799.55 5082.66 4550.77 4337.93 3563.33 3550.88 5536.0 4345.51 4048.73 4246.24 4600.81 4919.13 5640.63 4900.26 5783.88 5002.38 4167.55 6705.93 4865.11 5449.09 5502.14 6470.87 4465.56 4495.33 4131.08 5282.67 5747.9 3864.19 4287.93 5315.71 6203.24 6158.93 5081.65 4823.14 5438.5 4621.32 5806.74 5699.4 3878.8 5237.76 4698.94 4286.84 3948.21 5669.15 5296.05 5263.86 3330.85 5056.32 5533.52 5410.33 4747.24 4380.86 5576.16 5648.02 3308.75 5210.22 2451.27 5677.42 4929.35 5606.22 3943.77 5242.38 6081.35 5459.52 4609.98 5566.5 5663.36 4276.59 5579.04 5125.53 5994.21 5403.81 5082.25 6964.78 5299.03 4374.05 5036.84 4565.36 5813.68 4025.08 4008.67 3618.53 5040.9 4770.21 8013.28 3846.55 6608.94 2613.78 3796.73 5417.07 5656.84 5738.37 6789.66 4739.41 5312.2 4706.59 6760.64 5734.84 2515.5 5551.79 4950.07 4582.24 5367.05 4449.73 5647.11 4088.72 3945.62 3743.85 6236.46 5342.17 6379.3 5015.67 3795.63 5189.4 4576.71 6538.04 4894.15 6157.59 5201.3 5848.41 4090.28 6223.33 5402.81 4333.23 4328.76 5561.63 4124.33 5168.97 4358.06 5093.51 5647.93 4280.92 6201.49 4696.92 4605.61 5154.74 6898.8 5386.95 6540.57 5332.11 4893.72 6004.72 4072.4 5373.78 5345.65 4489.18 5863.36 4632.75 4752.94 4994.98 3950.53 6423.96 6058.13 5894.69 6988.4 6635.51 4060.17 6051.35 5302.53 4909.13 3999.81 4287.61 4867.13 4604.34 4439.17 4863.27 2701.42 4502.12 5442.79 5051.39 6673.92 5151.68 4633.59 4884.94 5362.15 4455.61 4738.72 4752.31 5240.97 5569.85 5405.6 3929.35 4884.93 4759.38 6960.97 4287.15 5282.51 5504.65 5669.41 5732.11 3919.47 5596.68 4868.66 4004.39 5159.9 5283.65 4644.68 3082.16 2892.36 4248.58 5981.54 5911.29 5416.41 4694.27 4849.21 5177.88 3793.83 6981.47 3916.15 4246.83 3860.8 5145.13 3747.96 5611.29 5940.5 4521.88 6568.45 5004.22 4601.54 7263.57 5705.96 3832.09 6437.99 5739.69 6632.04 7360.62 4977.64 4985.45 4983.56 5699.51 2489.44 4714.52 5499.37 4883.13 4836.76 5551.09 5755.98 4501.1 5581.47 4384.91 6550.61 4987.01 4713.56 6094.34 6779.82 5543.67 4739.5 6210.48 6377.45 4182.05 3255.93 6853.07 6327.61 5733.59 5575.8 5268.93 3695.72 6874.6 5106.9 5306.31 5523.96 4223.53 4733.37 4535.94 3037.72 4523.9 5126.08 5604.0 3760.4 4951.02 4602.7 3783.35 4037.16 6395.63 4987.48 5943.61 5479.17 5020.37 4542.25 4414.23 5233.88 4785.55 5245.4 6189.81 5438.6 7370.52 4726.5 5467.05 3724.23 5103.3 4963.88 5888.94 4727.98 4122.2 5175.88 5267.65 4516.26 4790.16 3509.34 3647.26 5360.88 3731.58 3166.37 5369.42 5207.08 5205.53 4587.19 5543.05 6028.89 5333.16 4888.17 5392.85 5077.2 4274.05 5275.27 4277.54 5529.09 4531.46 5925.82 5448.68 4072.95 4491.62 3865.5 
SCALARS Velocity float 1
LOOKUP_TABLE default
1.19316 1.19247 1.19339 1.19354 1.19293 1.19317 1.19179 1.19211 1.19265 1.19278 1.19341 1.19256 1.1935 1.19178 1.19292 1.19268 1.19177 1.19259 1.19178 1.19215 1.19178 1.19178 1.19228 1.19178 1.19178 1.19208 1.19178 1.19177 1.19174 1.19256 1.1923 1.19177 1.19178 1.19174 1.19181 1.19176 1.19178 1.19178 1.19178 1.19212 1.19212 1.19283 1.19233 1.19222 1.19256 1.19223 1.19178 1.19216 1.19196 1.19177 1.19255 1.19178 1.19175 1.19327 1.1927 1.19204 1.19207 1.19222 1.19181 1.19241 1.19175 1.19262 1.19254 1.19181 1.19174 1.19179 1.19197 1.192 1.19308 1.19271 1.19183 1.19177 1.19263 1.19175 1.19178 1.19181 1.19188 1.19229 1.19142 1.19324 1.1923 1.19339 1.1937 1.19299 1.19199 1.19236 1.1933 1.19332 1.19277 1.19328 1.19178 1.1935 1.19356 1.1919 1.19178 1.19262 1.19186 1.19183 1.19249 1.19348 1.19467 1.19265 1.1928 1.19225 1.19214 1.19408 1.19319 1.19242 1.19354 1.19317 1.19327 1.19278 1.1931 1.19273 1.19282 1.19178 1.19223 1.19175 1.19178 1.19236 1.19178 1.19178 1.1921 1.19178 1.19283 1.19178 1.19265 1.19178 1.19178 1.19178 1.19194 1.19177 1.19178 1.19185 1.19187 1.19187 1.19229 1.19238 1.19289 1.19247 1.19231 1.19285 1.19247 1.19192 1.19258 1.19198 1.19256 1.19238 1.19163 1.19279 1.19322 1.19206 1.19182 1.19312 1.19244 1.19216 1.19235 1.19178 1.193 1.19359 1.19369 1.19175 1.19178 1.1922 1.19209 1.19301 1.19273 1.19178 1.19178 1.19273 1.19178 1.19178 1.19255 1.19207 1.19356 1.19167 1.1923 1.19317 1.19391 1.19413 1.19326 1.19342 1.19311 1.19302 1.19199 1.19206 1.19346 1.19176 1.19285 1.19144 1.19241 1.19411 1.19319 1.19167 1.19291 1.19194 1.19283 1.19398 1.19163 1.19265 1.192 1.19268 1.19219 1.19272 1.19273 1.19211 1.19178 1.19358 1.19356 1.19357 1.19321 1.19363 1.19293 1.19191 1.19283 1.19213 1.19217 1.19278 1.1918 1.19257 1.19176 1.19178 1.19214 1.19178 1.19283 1.19178 1.1926 1.19231 1.19205 1.19178 1.19207 1.19202 1.19163 1.19207 1.19184 1.19212 1.19223 1.19239 1.19286 1.19315 1.19272 1.19255 1.19178 1.19225 1.19178 1.1927 1.19253 1.19178 1.1928 1.19318 1.19207 1.19182 1.19171 1.19294 1.1924 1.19237 1.19189 1.19316 1.19408 1.19227 1.19172 1.19225 1.19298 1.1925 1.1932 1.19272 1.19334 1.1938 1.19272 1.19268 1.19258 1.19393 1.19199 1.19357 1.19208 1.19263 1.19223 1.1925 1.19408 1.19328 1.19325 1.19216 1.19314 1.19192 1.19335 1.19317 1.19422 1.19188 1.19326 1.19323 1.19475 1.19271 1.19292 1.1932 1.19161 1.19203 1.19335 1.19227 1.19358 1.19239 1.19153 1.19268 1.19301 1.19178 1.19323 1.19349 1.19323 1.19351 1.19367 1.194 1.19353 1.19279 1.19192 1.19256 1.19178 1.19206 1.1927 1.19162 1.19255 1.19253 1.19176 1.19214 1.19161 1.1928 1.19343 1.19256 1.19237 1.1922 1.19172 1.19178 1.19217 1.19176 1.1921 1.19203 1.19328 1.19253 1.19225 1.19268 1.19315 1.19272 1.19281 1.19241 1.19275 1.19212 1.19263 1.19175 1.19247 1.19042 1.19298 1.19293 1.19297 1.19216 1.1921 1.19157 1.19309 1.1925 1.19286 1.19268 1.19283 1.1935 1.19426 1.19209 1.19185 1.19253 1.19249 1.19274 1.19178 1.19178 1.19178 1.19424 1.19461 1.19259 1.1939 1.19274 1.19215 1.1936 1.19202 1.19216 1.19401 1.19276 1.19261 1.19281 1.19288 1.19045 1.19295 1.19388 1.19178 1.19483 1.19336 1.19392 1.19322 1.1932 1.1948 1.1929 1.19537 1.19224 1.19407 1.19364 1.19212 1.19347 1.19238 1.19242 1.19286 1.19294 1.19319 1.19299 1.19325 1.19325 1.19368 1.19361 1.19346 1.19301 1.19239 1.19419 1.19225 1.1902 1.19185 1.19267 1.19162 1.19283 1.19297 1.19291 1.19177 1.19232 1.19178 1.19282 1.19168 1.19268 1.19258 1.19235 1.19185 1.19468 1.19229 1.19183 1.1921 1.19205 1.19271 1.19197 1.19235 1.19277 1.19303 1.19262 1.19184 1.19294 1.19251 1.1922 1.19262 1.19171 1.19136 1.19225 1.19028 1.1922 1.19405 1.1927 1.19075 1.19364 1.19257 1.19285 1.19277 1.19274 1.19408 1.19207 1.19186 1.19249 1.19252 1.19259 1.19178 1.19174 1.1916 1.19373 1.19401 1.1941 1.19235 1.19156 1.19385 1.19186 1.19278 1.19356 1.19185 1.19221 1.19293 1.19356 1.19304 1.19283 1.19054 1.19379 1.19212 1.19387 1.1943 1.19377 1.19163 1.19415 1.19364 1.19356 1.19322 1.19411 1.19287 1.19384 1.19134 1.19293 1.19236 1.19279 1.19362 1.19115 1.19371 1.1927 1.19271 1.19285 1.19351 1.19178 1.19295 1.19299 1.19347 1.19337 1.19282 1.19218 1.19409 1.19224 1.19025 1.19212 1.19153 1.19427 1.19396 1.19305 1.19244 1.19248 1.19299 1.19276 1.19209 1.19264 1.19255 1.19233 1.19173 1.19462 1.19229 1.19228 1.19208 1.19284 1.19182 1.19209 1.19209 1.19219 1.19272 1.19267 1.19284 1.19222 1.19286 1.19215 1.19193 1.19145 1.19178 1.19177 1.19186 1.19214 1.19202 1.19243 1.19194 1.19305 1.19431 1.19286 1.19424 1.19389 1.19187 1.1919 1.1924 1.192 1.19128 1.19168 1.19133 1.19074 1.19362 1.19384 1.19259 1.19508 1.19164 1.1909 1.19101 1.19285 1.19356 1.19298 1.1925 1.19338 1.19365 1.19296 1.19322 1.19295 1.19125 1.19339 1.19184 1.19234 1.19436 1.19391 1.19277 1.19381 1.19267 1.19383 1.19135 1.19287 1.19178 1.19224 1.1932 1.19106 1.19358 1.19269 1.19054 1.19269 1.19338 1.19234 1.19307 1.19335 1.1925 1.19215 1.19404 1.19196 1.19274 1.19038 1.19228 1.19186 1.19128 1.19192 1.19197 1.19158 1.19244 1.19307 1.19297 1.19311 1.19254 1.19103 1.19204 1.19217 1.19219 1.19365 1.19305 1.19207 1.19293 1.192 1.19166 1.19225 1.1921 1.19187 1.19217 1.19242 1.19293 1.19288 1.1923 1.19296 1.19213 1.19225 1.19124 1.19185 1.19167 1.19181 1.19175 1.19191 1.1916 1.19342 1.19358 1.19257 1.19366 1.19422 1.1937 1.19187 1.19224 1.19333 1.19198 1.19029 1.19108 1.19069 1.19178 1.19232 1.19894 1.19353 1.19109 1.19168 1.19107 1.19387 1.19171 1.19144 1.19307 1.1924 1.1933 1.19183 1.19491 1.19277 1.19384 1.1919 1.19357 1.19592 1.19427 1.19458 1.19298 1.19184 1.19235 1.19341 1.19232 1.19372 1.19148 1.19279 1.19058 1.19252 1.19163 1.19239 1.19175 1.19313 1.1906 1.19248 1.19178 1.19194 1.1909 1.19286 1.19333 1.19067 1.19281 1.19281 1.19132 1.19245 1.19296 1.19215 1.19188 1.19135 1.19244 1.19091 1.19298 1.19414 1.19225 1.19234 1.19217 1.19189 1.19353 1.19222 1.19281 1.19142 1.19279 1.19179 1.19277 1.1908 1.19177 1.19211 1.19219 1.19282 1.1925 1.19201 1.19294 1.19228 1.19275 1.19145 1.19403 1.19242 1.19157 1.19178 1.19115 1.19173 1.19234 1.19401 1.19228 1.19273 1.1935 1.19414 1.19352 1.19177 1.19406 1.194 1.19623 1.19093 1.19541 1.19178 1.19118 1.1923 1.19319 1.19423 1.1925 1.1889 1.19178 1.19436 1.19168 1.19284 1.19228 1.19311 1.1911 1.19238 1.19491 1.19292 1.19431 1.19349 1.19362 1.19292 1.19438 1.19179 1.19188 1.1922 1.19328 1.19291 1.19268 1.1918 1.19307 1.19254 1.19162 1.19147 1.19305 1.19164 1.19419 1.19412 1.19187 1.19234 1.19173 1.19073 1.19254 1.19318 1.19114 1.19127 1.19281 1.19261 1.19178 1.19204 1.19197 1.19162 1.19129 1.19277 1.1916 1.19036 1.1943 1.19331 1.19218 1.19219 1.19127 1.19122 1.19297 1.19254 1.19218 1.19274 1.19167 1.19265 1.19077 1.19173 1.1919 1.19196 1.19291 1.19221 1.19191 1.19293 1.19246 1.19263 1.19227 1.19364 1.19246 1.19362 1.19178 1.1925 1.19142 1.19242 1.19392 1.19223 1.19178 1.19305 1.1937 1.19313 1.19172 1.19374 1.19409 1.19386 1.19323 1.19627 1.19367 1.19126 1.19018 1.19259 1.19401 1.19228 1.18885 1.19169 1.19559 1.19139 1.19247 1.19264 1.19225 1.19269 1.19231 1.19178 1.19471 1.19287 1.19402 1.19265 1.19211 1.1924 1.19691 1.19783 1.19202 1.19178 1.18865 1.19292 1.19251 1.19255 1.19192 1.19236 1.19212 1.19013 1.19162 1.1934 1.19017 1.19425 1.19252 1.19162 1.19067 1.19099 1.19062 1.19036 1.19208 1.19298 1.19086 1.19162 1.19364 1.19237 1.19121 1.19191 1.19235 1.19263 1.19146 1.19362 1.19272 1.19027 1.19178 1.19326 1.19193 1.19202 1.19123 1.19129 1.19287 1.19247 1.19215 1.19293 1.19226 1.19191 1.1916 1.19054 1.19187 1.19176 1.19172 1.19177 1.19145 1.19182 1.19224 1.19178 1.1918 1.19205 1.19236 1.19296 1.19178 1.19162 1.19514 1.18916 1.19333 1.19381 1.19236 1.19178 1.19252 1.1934 1.19383 1.19404 1.19292 1.19363 1.19406 1.19384 1.19322 1.19221 1.19433 1.1943 1.19072 1.19064 1.19074 1.19184 1.19373 1.19174 1.18686 1.19561 1.19113 1.19341 1.19185 1.19215 1.19285 1.19229 1.18665 1.19439 1.19248 1.19327 1.19217 1.19243 1.19226 1.19069 1.19302 1.19231 1.19166 1.19083 1.19267 1.1909 1.19202 1.19115 1.19037 1.192 1.19348 1.19021 1.19031 1.19459 1.19249 1.19151 1.19121 1.19059 1.19096 1.19219 1.19354 1.19477 1.19491 1.19157 1.19299 1.19208 1.19178 1.19125 1.19235 1.19266 1.19129 1.19215 1.19379 1.19327 1.19225 1.19034 1.19296 1.19183 1.19193 1.19116 1.19085 1.19276 1.19238 1.19202 1.19283 1.19214 1.19189 1.19222 1.19287 1.19345 1.19149 1.19348 1.19195 1.19168 1.19251 1.19099 1.19113 1.19195 1.1923 1.19177 1.19187 1.19188 1.19243 1.19307 1.19236 1.19138 1.19512 1.19664 1.18868 1.19125 1.19274 1.19353 1.19296 1.19332 1.19418 1.19317 1.194 1.19322 1.19325 1.19379 1.19347 1.1929 1.18954 1.19422 1.19048 1.18886 1.19059 1.19179 1.19113 1.19099 1.19504 1.19593 1.19001 1.19113 1.19178 1.19149 1.1918 1.19422 1.19165 1.18945 1.19278 1.18984 1.19494 1.19116 1.19229 1.19187 1.19125 1.19222 1.19333 1.19164 1.19178 1.19132 1.19178 1.19257 1.19109 1.19193 1.19009 1.19166 1.1931 1.18504 1.19264 1.19517 1.19349 1.19416 1.19149 1.19208 1.19071 1.19113 1.19241 1.19374 1.19257 1.19135 1.19182 1.19169 1.19188 1.19062 1.19177 1.19275 1.19255 1.19209 1.19162 1.19137 1.1922 1.19303 1.19343 1.19153 1.191 1.19044 1.1926 1.19229 1.19193 1.19273 1.19201 1.19178 1.19203 1.19148 1.19246 1.19104 1.19181 1.19197 1.19247 1.19109 1.19126 1.19205 1.19229 1.19299 1.19178 1.19138 1.19671 1.19267 1.19403 1.19301 1.19178 1.19178 1.19507 1.19332 1.19305 1.19361 1.19342 1.19313 1.19252 1.19318 1.18882 1.19106 1.19197 1.19171 1.19091 1.19201 1.19237 1.1922 1.19313 1.19048 1.18834 1.19134 1.19166 1.19171 1.19149 1.19032 1.19138 1.19121 1.19224 1.19067 1.19202 1.19181 1.19084 1.19131 1.19278 1.19128 1.19055 1.19157 1.19001 1.19269 1.19185 1.1919 1.18941 1.18973 1.19295 1.19371 1.19424 1.1934 1.19396 1.19086 1.19206 1.19233 1.19111 1.19198 1.19363 1.19038 1.19156 1.19162 1.1914 1.19279 1.19106 1.19223 1.19425 1.1898 1.19422 1.19052 1.19109 1.19204 1.1911 1.19124 1.19088 1.19034 1.19243 1.19229 1.19195 1.19062 1.19144 1.19336 1.19321 1.19206 1.19211 1.19172 1.19187 1.19161 1.19163 1.19097 1.19179 1.19127 1.19248 1.18847 1.19051 1.19388 1.19429 1.1896 1.19334 1.19569 1.19356 1.19257 1.19178 1.19485 1.19438 1.19178 1.19577 1.19463 1.19179 1.19106 1.19338 1.19441 1.1938 1.18889 1.19123 1.19194 1.19255 1.19319 1.19191 1.19101 1.19416 1.19018 1.19103 1.19177 1.19174 1.19139 1.19151 1.19141 1.19218 1.19176 1.19049 1.19146 1.19253 1.1909 1.19297 1.19192 1.19257 1.19053 1.19084 1.1899 1.19266 1.19129 1.19179 1.18937 1.18992 1.19011 1.19281 1.19364 1.19248 1.19406 1.19334 1.19359 1.19078 1.19191 1.19179 1.19185 1.19178 1.18833 1.19162 1.19176 1.1915 1.19164 1.19271 1.19117 1.19223 1.1902 1.19122 1.19288 1.19227 1.19013 1.19103 1.19107 1.19192 1.19264 1.19178 1.19152 1.19007 1.18986 1.19238 1.19196 1.19062 1.19033 1.19204 1.19388 1.19336 1.19329 1.19188 1.19278 1.19243 1.19162 1.19142 1.19135 1.19074 1.19269 1.19082 1.19068 1.19325 1.19298 1.19494 1.19214 1.18942 1.19188 1.19264 1.19633 1.19646 1.19449 1.19156 1.19334 1.19472 1.19518 1.19606 1.19399 1.19169 1.19362 1.19159 1.19139 1.19098 1.19458 1.19854 1.19837 1.19503 1.19498 1.18868 1.18953 1.19163 1.19337 1.19174 1.19038 1.19336 1.19594 1.19046 1.19103 1.19076 1.19133 1.19132 1.19181 1.19095 1.19177 1.19206 1.19066 1.1915 1.19124 1.19351 1.19111 1.19257 1.19084 1.19092 1.19048 1.19112 1.18921 1.1924 1.1921 1.18938 1.19157 1.19183 1.1927 1.19278 1.18966 1.19081 1.19196 1.19201 1.19207 1.19164 1.1881 1.18965 1.19062 1.19026 1.19191 1.19285 1.19265 1.19175 1.19182 1.19105 1.19131 1.1918 1.19011 1.19109 1.19131 1.19177 1.19251 1.19174 1.19116 1.19031 1.19007 1.19243 1.19192 1.19057 1.19166 1.19154 1.19067 1.19184 1.19244 1.19193 1.19296 1.191 1.19064 1.19399 1.18667 1.19076 1.19477 1.19595 1.19393 1.19093 1.19226 1.19125 1.19024 1.19434 1.19152 1.19163 1.19411 1.19463 1.19392 1.19593 1.19278 1.19172 1.1933 1.1924 1.1909 1.19501 1.19485 1.19593 1.19015 1.19619 1.19431 1.19243 1.19137 1.19295 1.19302 1.18888 1.19137 1.19107 1.19604 1.19107 1.1902 1.19069 1.19126 1.19121 1.19186 1.19072 1.19132 1.19133 1.19086 1.19018 1.1914 1.19075 1.19248 1.19113 1.19174 1.19105 1.18985 1.18922 1.19099 1.18891 1.19276 1.1891 1.19178 1.19183 1.19194 1.19263 1.19239 1.19027 1.19316 1.1908 1.19198 1.19299 1.19197 1.19199 1.18837 1.18848 1.18977 1.19166 1.19178 1.19142 1.19142 1.192 1.1907 1.19212 1.19149 1.19123 1.19186 1.19071 1.19198 1.19088 1.19178 1.19181 1.19073 1.19194 1.19214 1.19178 1.1917 1.19064 1.19178 1.19137 1.1905 1.19098 1.19232 1.19215 1.19244 1.19235 1.19233 1.19346 1.19082 1.18901 1.19558 1.19346 1.19209 1.19175 1.19561 1.19391 1.19469 1.19179 1.19025 1.19393 1.19584 1.19454 1.19459 1.19447 1.19398 1.19625 1.19381 1.19188 1.1907 1.19033 1.19253 1.19095 1.19414 1.19514 1.19003 1.19572 1.19386 1.19203 1.19228 1.19178 1.18877 1.1913 1.19178 1.19103 1.19308 1.19323 1.18993 1.19067 1.19086 1.19074 1.19133 1.19143 1.1901 1.1893 1.19075 1.19045 1.19254 1.19074 1.19188 1.19143 1.19073 1.18964 1.19104 1.18926 1.18857 1.19296 1.18921 1.19178 1.19094 1.19178 1.19233 1.19028 1.19273 1.19075 1.19195 1.19218 1.19149 1.19211 1.18822 1.18844 1.18972 1.18955 1.19166 1.19124 1.19128 1.19145 1.19038 1.19221 1.19209 1.19184 1.19158 1.19119 1.19182 1.19075 1.19068 1.18949 1.1924 1.1906 1.19193 1.19149 1.19 1.19071 1.19376 1.19384 1.1921 1.19226 1.19328 1.1925 1.19072 1.19053 1.19516 1.19178 1.19085 1.19466 1.19464 1.19241 1.19242 1.19702 1.19196 1.19498 1.19379 1.19381 1.19319 1.19282 1.19624 1.19418 1.19224 1.19147 1.19424 1.19423 1.19414 1.19165 1.19386 1.1914 1.19119 1.19087 1.1905 1.19213 1.18973 1.18998 1.18678 1.1902 1.19102 1.19178 1.19143 1.19113 1.18918 1.19042 1.19037 1.19278 1.19052 1.19308 1.19194 1.19083 1.18995 1.18891 1.18901 1.18969 1.19302 1.18911 1.19091 1.19084 1.19175 1.18998 1.1916 1.19118 1.19065 1.19166 1.19185 1.19155 1.19139 1.19177 1.19216 1.19062 1.19001 1.1894 1.1897 1.18873 1.19122 1.19127 1.19143 1.19033 1.19187 1.19215 1.19128 1.19168 1.19181 1.19082 1.19018 1.19005 1.19051 1.18963 1.19193 1.19179 1.1906 1.19152 1.19138 1.1899 1.19072 1.19232 1.19178 1.19009 1.19059 1.19269 1.19261 1.19411 1.18987 1.19355 1.19695 1.19178 1.19501 1.19437 1.19452 1.19174 1.19301 1.19268 1.19688 1.19154 1.1934 1.19389 1.19264 1.19629 1.19329 1.19258 1.19138 1.1944 1.1951 1.19499 1.19392 1.19181 1.19192 1.19244 1.19019 1.19326 1.19367 1.19345 1.19178 1.1913 1.19567 1.19549 1.1899 1.18937 1.19073 1.18839 1.191 1.19176 1.19178 1.19167 1.1921 1.1922 1.19038 1.19098 1.19029 1.18998 1.19122 1.18978 1.19345 1.19049 1.19075 1.18988 1.19089 1.18942 1.18972 1.19276 1.18907 1.1909 1.19038 1.19215 1.19049 1.19079 1.19122 1.19178 1.19178 1.192 1.19171 1.19189 1.19191 1.19073 1.18996 1.18872 1.18803 1.1894 1.19022 1.18894 1.19076 1.19075 1.19203 1.19027 1.19108 1.19223 1.19089 1.19109 1.1913 1.19087 1.19012 1.19016 1.19032 1.19163 1.1918 1.19198 1.19178 1.19126 1.19143 1.18972 1.19114 1.19504 1.195 1.19201 1.19041 1.19251 1.1925 1.19264 1.1916 1.19225 1.19088 1.19788 1.1952 1.19416 1.19489 1.19352 1.19228 1.19686 1.19502 1.19237 1.19371 1.19606 1.19663 1.19325 1.19246 1.196 1.19283 1.19191 1.19173 1.1912 1.19112 1.19464 1.19367 1.19153 1.1945 1.18692 1.19205 1.19192 1.18826 1.19093 1.19112 1.18981 1.18937 1.19061 1.18824 1.19183 1.19178 1.19118 1.19082 1.19358 1.1918 1.19178 1.19089 1.19049 1.18967 1.19202 1.18949 1.19178 1.19027 1.19088 1.19193 1.19063 1.1894 1.19204 1.19122 1.1908 1.19019 1.19157 1.19 1.19028 1.19108 1.19144 1.19211 1.19151 1.1914 1.19234 1.19196 1.19225 1.18804 1.18841 1.18948 1.19178 1.19113 1.18886 1.19088 1.19152 1.192 1.19181 1.19178 1.19207 1.19197 1.19144 1.19111 1.19116 1.19136 1.19089 1.19117 1.19105 1.19182 1.19178 1.1903 1.19181 1.19317 1.19176 1.19185 1.19179 1.19006 1.19103 1.19047 1.19145 1.1919 1.19215 1.19147 1.1895 1.1937 1.19051 1.19286 1.19246 1.19225 1.19283 1.19124 1.19703 1.19451 1.19211 1.19489 1.19266 1.19511 1.19441 1.19312 1.19192 1.19531 1.19443 1.19732 1.19603 1.1922 1.19565 1.19121 1.19433 1.19452 1.19106 1.19005 1.19469 1.1915 1.19319 1.18884 1.19111 1.19147 1.18959 1.19242 1.19055 1.19135 1.19281 1.19259 1.1897 1.19093 1.18855 1.19077 1.19185 1.19146 1.1918 1.1919 1.19058 1.18963 1.18977 1.19334 1.18937 1.18914 1.19022 1.18952 1.19102 1.19057 1.19019 1.18943 1.18928 1.19137 1.19332 1.191 1.18996 1.19018 1.1917 1.19178 1.19005 1.19101 1.19138 1.19181 1.19139 1.19157 1.19014 1.19102 1.18885 1.19131 1.19157 1.19101 1.19147 1.19105 1.19159 1.19178 1.19177 1.19201 1.19198 1.19209 1.19028 1.19318 1.19337 1.19161 1.1911 1.1926 1.19041 1.19132 1.19192 1.19165 1.19175 1.19067 1.19065 1.19141 1.18997 1.19296 1.19199 1.19126 1.19251 1.19549 1.19552 1.19498 1.19764 1.19554 1.19256 1.19124 1.18968 1.19184 1.19561 1.19515 1.19304 1.19142 1.19879 1.19366 1.19418 1.18942 1.19546 1.19178 1.19405 1.18612 1.1919 1.1909 1.18921 1.19195 1.192 1.19136 1.19253 1.19006 1.19005 1.18974 1.18877 1.19195 1.19085 1.19111 1.19183 1.19024 1.18944 1.18978 1.19178 1.19075 1.19017 1.18906 1.19178 1.19323 1.19307 1.19133 1.19179 1.19177 1.18955 1.19208 1.19207 1.19107 1.18993 1.19198 1.19196 1.18981 1.19002 1.19096 1.19138 1.19183 1.19191 1.19173 1.19149 1.19174 1.19156 1.19156 1.19119 1.19178 1.18871 1.19124 1.1916 1.19106 1.19181 1.19162 1.19104 1.19102 1.19152 1.19188 1.19104 1.19204 1.19143 1.192 1.19162 1.19179 1.19221 1.19164 1.19228 1.19195 1.19002 1.18994 1.19087 1.18928 1.19282 1.1927 1.19332 1.19207 1.19207 1.1925 1.19401 1.19373 1.19495 1.19189 1.19651 1.19468 1.19178 1.19339 1.19194 1.19412 1.18998 1.19184 1.19861 1.19282 1.19146 1.19875 1.19178 1.19217 1.19063 1.19536 1.1956 1.19017 1.19221 1.18585 1.19131 1.19128 1.19174 1.19119 1.19175 1.19151 1.19208 1.19211 1.19103 1.19253 1.19 1.1919 1.19187 1.1914 1.18972 1.19136 1.192 1.19061 1.18918 1.19102 1.19106 1.19099 1.19083 1.19156 1.19177 1.19189 1.19105 1.191 1.19176 1.19144 1.19013 1.19183 1.19113 1.18988 1.19012 1.19072 1.19136 1.19178 1.19178 1.19174 1.19155 1.19156 1.19163 1.19127 1.19178 1.19178 1.18887 1.19178 1.19135 1.19172 1.19178 1.19178 1.19178 1.19162 1.19178 1.19178 1.19098 1.19095 1.19147 1.19091 1.19181 1.19178 1.19147 1.19185 1.19153 1.19031 1.19156 1.19131 1.19181 1.18987 1.18988 1.19176 1.19002 1.19012 1.18914 1.18943 1.19132 1.19066 1.19259 1.19195 1.19143 1.1927 1.19213 1.19345 1.1961 1.1968 1.19461 1.1958 1.19341 1.19707 1.18313 1.19447 1.18988 1.19062 1.19887 1.19302 1.19113 1.1929 1.19089 1.19754 1.19414 1.18887 1.1912 1.19021 1.19178 1.19068 1.19064 1.19183 1.19089 1.18997 1.19157 1.19185 1.19129 1.19178 1.19212 1.19178 1.19093 1.19185 1.19103 1.19114 1.19066 1.18884 1.19059 1.19059 1.19097 1.19158 1.19151 1.19178 1.19205 1.19144 1.19028 1.1911 1.19055 1.19022 1.19092 1.19057 1.19135 1.19138 1.19163 1.19178 1.19178 1.19174 1.19156 1.19162 1.19178 1.19178 1.19178 1.19139 1.19172 1.19178 1.19178 1.19178 1.19176 1.19097 1.19152 1.19146 1.19178 1.19166 1.19181 1.19127 1.19186 1.19032 1.1905 1.19223 1.19203 1.19038 1.19103 1.18987 1.18876 1.19055 1.18956 1.18936 1.19046 1.18762 1.19015 1.19254 1.19251 1.19201 1.19333 1.19155 1.19306 1.19941 1.19631 1.19979 1.19538 1.19117 1.19393 1.19788 1.19111 1.1947 1.19592 1.1922 1.1918 1.19179 1.19183 1.19533 1.18896 1.19135 1.18654 1.19158 1.19125 1.1919 1.19181 1.19164 1.19083 1.19082 1.19017 1.19035 1.19074 1.19184 1.19189 1.19189 1.19107 1.19099 1.19184 1.19207 1.19229 1.19081 1.1887 1.19094 1.19135 1.19134 1.19172 1.1915 1.19107 1.19152 1.19039 1.18925 1.18903 1.19059 1.19085 1.19058 1.19136 1.19178 1.19163 1.19178 1.19178 1.19174 1.19156 1.19138 1.19178 1.19178 1.19177 1.19152 1.19146 1.19165 1.19163 1.19116 1.19059 1.19026 1.19183 1.1884 1.19002 1.19053 1.19202 1.18954 1.18607 1.18876 1.18997 1.19253 1.19142 1.19163 1.19312 1.19525 1.18749 1.19552 1.1912 1.1938 1.19849 1.1915 1.19452 1.19544 1.19173 1.19201 1.19147 1.18936 1.19549 1.19392 1.19087 1.18749 1.18637 1.18996 1.1911 1.19175 1.19162 1.19083 1.19079 1.19094 1.19037 1.19108 1.19178 1.19107 1.19201 1.19111 1.19104 1.1909 1.1916 1.18981 1.19177 1.18971 1.19092 1.19138 1.19074 1.19106 1.19162 1.1906 1.19161 1.18913 1.18945 1.19071 1.19122 1.19636 1.19022 1.19456 1.19389 1.19315 1.19985 1.19373 1.19848 1.20166 1.19475 1.19532 1.19843 1.19429 1.20026 1.19287 1.19549 1.19127 1.19096 1.1911 1.18974 1.19409 1.19187 1.18932 1.19642 1.18957 1.19091 1.19757 1.19371 1.19225 1.18996 1.19345 1.19833 1.20022 1.19178 1.19857 1.19434 1.19845 1.19769 1.20043 1.19867 1.18942 1.18709 1.18667 1.18644 1.19082 1.19119 1.19705 1.19392 1.19742 1.19391 1.19742 1.1896 1.19986 1.20131 1.19139 1.19914 1.1936 1.19861 1.19636 1.18995 1.18783 1.19 1.18681 1.19044 1.19215 1.19178 1.19343 1.19091 1.19038 1.19493 1.19667 1.19787 1.19591 1.19615 1.19419 1.19863 1.18951 1.19451 1.20043 1.20063 1.19754 1.19122 1.19908 1.19431 1.2022 1.19211 1.19148 1.18106 1.18804 1.19178 1.19939 1.20034 1.19764 1.19573 1.19457 1.19753 1.19348 1.19797 1.1973 1.20223 1.20345 1.1936 1.20504 1.19228 1.18802 1.19427 1.19829 1.19178 1.19178 1.19178 1.19178 1.19178 1.19178 1.19178 1.19178 1.19178 1.20088 1.20017 1.19698 1.20121 1.196 1.1922 1.19763 1.1919 1.19821 1.20307 1.19277 1.19309 1.19881 1.19188 1.20073 1.20363 1.19369 1.1968 1.19178 1.19178 1.19178 1.19178 1.19178 1.19178 1.19178 1.19178 1.19178 1.19178 1.19178 1.19178 1.19178 1.19178 1.19178 1.19178 1.19178 1.19178 1.19178 1.19178 1.19178 1.19178 1.19178 1.19178 1.19178 1.19178 1.19178 1.19178 1.19178 1.19178 1.19178 1.19178 1.19178 1.19178 1.19233 1.19178 1.19178 1.20118 1.20307 1.20195 1.19081 1.20452 1.19763 1.19486 1.19067 1.19819 1.19663 1.20172 1.19727 1.19244 1.20026 1.19914 1.20028 1.19846 1.2034 1.2024 1.21389 1.21334 1.22223 1.20549 1.19241 1.19535 1.19178 1.19178 1.19178 1.19178 1.19178 1.19178 1.19178 1.19178 1.19178 1.19178 1.19178 1.19178 1.20455 1.19178 1.19178 1.19178 1.19178 1.19178 1.19178 1.19178 1.19178 1.19178 1.19178 1.19178 1.19178 1.19178 1.19178 1.19239 1.21326 1.20355 1.20301 1.20008 1.2 1.19693 1.19909 1.19065 1.20544 1.20486 1.19932 1.20319 1.20407 1.199 1.19771 1.2031 1.22096 1.20729 1.20177 1.19241 1.18497 1.18003 1.19313 1.20437 1.19296 1.19178 1.19178 1.19178 1.19178 1.19178 1.19178 1.19178 1.19179 1.19178 1.19178 1.19178 1.19178 1.19178 1.19178 1.19178 1.19178 1.19178 1.19178 1.19178 1.19178 1.20654 1.19178 1.19178 1.19178 1.19178 1.19178 1.19178 1.19178 1.19178 1.19178 1.19178 1.19178 1.19178 1.19178 1.19178 1.19178 1.19178 1.19178 1.19178 1.19178 1.19178 1.19324 1.19173 1.19954 1.1809 1.20335 1.20135 1.19404 1.19613 1.19569 1.20069 1.18815 1.20228 1.19556 1.20607 1.19898 1.19632 1.20614 1.20457 1.21659 1.21474 1.21483 1.19357 1.19578 1.18884 1.20825 1.19031 1.19178 1.19178 1.18339 1.27551 1.37972 1.19178 1.2209 1.19166 1.19178 1.19178 1.19178 1.19178 1.19178 1.19178 1.19178 1.19178 1.19178 1.19178 1.19178 1.19178 1.09743 1.1675 1.19178 1.19895 1.19206 1.19202 1.19178 1.19178 1.19178 1.19178 1.19178 1.19178 1.19172 1.19178 1.19178 1.4594 1.33579 1.19178 1.19178 1.19178 1.19178 1.19177 1.19178 1.17964 1.20097 1.1946 1.20206 1.19423 1.1916 1.19511 1.19959 1.20126 1.19813 1.19735 1.203 1.21208 1.1895 1.21609 1.2085 1.21387 1.21192 1.26719 1.01317 1.23412 1.55215 1.19178 1.19178 1.19178 1.19178 1.27772 1.19177 1.26218 1.17964 1.19178 1.21987 1.1959 1.76036 1.19178 1.19178 1.19178 1.19178 1.19178 1.19177 0.153921 4.78226 0.68872 1.27418 1.19461 0.233868 0.64567 0.609356 0.318084 1.15959 0.453078 1.20505 1.72953 0.969267 0.795267 0.693282 1.29397 0.393825 0.385699 0.362845 4.70121 2.11952 1.66102 0.524742 0.372018 0.110511 0.22475 0.631102 0.416206 0.155219 0.346211 0.661048 3.75977 0.750579 2.03188 0.52754 1.54098 1.84898 2.75023 1.73912 0.788028 0.553058 0.407845 1.19178 0.210022 0.386322 1.44062 0.253706 0.768582 1.9162 4.01784 1.19002 1.19175 0.128592 0.254559 5.40445 2.18754 0.459287 0.764143 0.595159 1.19649 1.23053 1.20057 1.18611 1.18692 1.20423 1.1876 1.18714 1.19911 1.19754 1.19545 1.21988 1.21019 1.19168 1.18441 1.18652 1.17188 1.20305 1.18487 1.23036 1.21738 0.170847 0.170478 0.127234 0.124563 0.826872 2.09242 1.32901 3.30503 1.39178 4.4649 1.68388 0.24378 0.284924 0.606349 0.365889 1.19178 0.162848 1.19178 0.384493 0.436935 3.13088 1.03253 0.758874 1.03369 1.15851 0.70759 0.277548 0.201484 0.141566 1.17441 1.36653 2.58238 3.40661 0.708596 0.642625 1.19178 0.204294 0.225815 0.454754 0.503172 1.23611 1.15806 1.67226 0.320091 1.49134 0.302378 0.381741 0.274415 0.198806 0.300239 0.297048 5.42277 0.623562 4.50642 0.579786 0.177299 0.0807771 0.040412 1.19178 0.190489 0.201029 0.264155 0.102077 1.82876 0.620463 0.280143 0.275085 0.3828 0.497668 0.334076 0.317614 0.337338 0.23296 0.359195 0.557009 0.683956 1.31759 0.702829 0.86335 1.02323 0.84711 0.725779 0.362142 0.969512 0.809419 0.441036 0.695514 0.865446 0.904119 0.218128 0.166681 0.608558 1.31022 0.846619 0.370103 0.0131571 1.03237 0.11954 0.543857 0.0960562 0.0612912 0.387786 0.450932 0.427277 0.548168 0.515906 0.598184 0.412286 1.62426 0.427898 1.98505 0.994331 0.578488 0.733472 1.22165 0.797042 1.11984 0.849207 0.657764 2.67166 0.798687 1.41706 1.04812 0.643535 0.24083 0.483254 0.434506 0.873167 0.436527 0.451268 0.518138 2.03008 1.16233 0.9127 1.42418 0.162199 1.24473 1.20146 1.24312 0.706412 0.873422 0.592993 0.186039 0.0620782 0.57966 1.19224 1.18997 1.24331 1.17289 1.19178 1.20685 1.18743 1.18776 1.18651 1.19845 1.22103 1.18581 1.17644 1.17408 1.17828 1.1769 1.2215 1.20715 1.22515 0.00847472 1.25525 0.213138 0.395633 0.740334 0.599126 0.832071 1.06396 1.10634 1.94242 1.69351 1.71151 2.46905 0.547933 1.63447 0.430404 0.12785 0.305338 0.540001 0.279703 0.316729 0.739897 0.616832 0.221817 1.75669 0.975663 1.1644 1.48997 0.982539 0.957098 0.749064 1.14552 0.331945 0.197637 0.277701 0.187809 0.29469 0.261474 0.570328 0.401513 0.512315 0.776236 2.09295 1.58682 0.153018 0.572616 1.27025 0.610103 0.449773 0.0438513 0.503454 0.481132 1.1173 0.593985 0.476756 0.579618 0.399682 0.561692 0.202674 1.15292 0.406078 0.129765 0.823089 0.0694898 0.842762 0.493611 0.201132 0.147264 0.284632 0.164496 0.222214 0.237053 0.35436 0.324301 0.109937 0.52116 0.238308 0.479853 0.412752 0.103977 0.214312 0.260975 0.171477 0.203792 0.26414 0.0283973 0.157263 0.514745 0.290214 0.651075 0.261983 0.428822 0.124124 0.118866 0.233832 0.41415 0.570483 0.667232 0.568614 0.257199 0.625713 0.590028 0.38145 0.78434 0.654018 0.531924 0.666159 0.493992 0.63817 0.274838 0.925117 0.490923 0.650181 0.493987 0.741924 0.617953 0.112261 0.234148 0.539737 0.387855 0.714477 0.468044 0.36488 1.26854 0.515884 0.857296 0.614805 0.687395 0.792021 0.74237 0.964508 0.782661 0.623293 0.496109 0.376724 0.602172 0.440469 0.776598 0.379478 0.707358 0.637388 0.630032 0.328802 0.279022 0.843064 0.921356 0.968276 0.678876 0.629583 1.10977 0.615425 0.538857 0.707615 0.32125 0.914979 0.363829 0.417706 0.42911 1.19177 1.20315 1.19703 1.18434 1.17242 1.21756 1.20062 1.18734 1.19388 1.19361 1.19243 1.18619 1.18428 1.18058 1.19321 1.20561 1.19642 1.10742 1.17444 1.22442 1.28726 1.25019 0.254029 0.0970064 0.300119 0.3394 0.724026 0.565566 0.869162 0.469377 1.21312 0.675745 0.56189 0.66316 0.113158 0.28003 0.52467 0.416839 0.490628 0.486977 0.0832258 0.434352 0.946178 0.903424 0.824378 0.861017 0.707077 0.195998 0.545216 0.21892 0.22875 0.313723 0.54613 1.16002 0.712348 0.406145 0.390017 0.518275 0.740925 0.490913 0.236904 0.560639 0.291686 0.374747 0.928337 0.644328 0.755224 0.358754 0.64557 0.0804795 0.615221 0.733695 0.539328 0.324638 0.355358 0.142865 0.361228 0.257072 0.27273 0.41735 0.513366 0.235851 0.104085 0.437406 0.0642764 0.207141 0.318203 0.211583 0.354308 0.305418 0.298117 0.299522 0.279473 0.332616 0.234187 0.337135 0.329828 0.580663 0.442209 0.660364 0.590673 0.776272 0.64404 0.58556 0.717337 0.496399 0.58365 0.537321 0.483547 0.735673 0.470458 0.539791 0.645801 0.48226 0.603063 0.442545 0.625572 0.579306 0.526616 0.429488 0.356506 0.418096 0.709947 0.305176 0.235907 0.248777 0.264788 0.292982 0.361886 0.3105 0.477002 0.505064 0.546071 0.57656 0.563416 0.7711 0.650457 0.783242 0.609803 0.518897 0.269621 0.617269 0.496215 0.569123 0.560552 0.47019 0.810832 0.438597 0.61671 0.514926 0.239893 0.335587 0.296784 0.559864 0.519227 0.28901 0.423318 0.335558 0.392647 1.25296 1.19984 1.15016 1.19635 1.15466 1.20358 1.17184 1.20753 1.20553 1.19279 1.18777 1.18996 1.18131 1.19444 1.20764 1.19961 1.20617 1.16025 1.15826 1.10601 0.119553 0.247688 0.444326 0.473853 0.588817 0.630584 0.42743 0.233199 0.291523 0.310548 0.474866 0.410748 0.280015 0.336711 0.370403 0.472768 0.448015 0.432703 0.409959 0.321694 0.495312 0.694026 0.776607 0.622183 0.568177 0.415836 0.476815 0.321938 0.542027 0.649526 0.63319 0.476853 0.433673 0.549693 0.385553 0.347001 0.369754 0.246401 0.407529 0.677396 0.690948 0.60305 0.787475 0.370751 0.45656 0.340707 0.610341 0.508358 0.463014 0.473569 0.392249 0.422911 0.293709 0.312528 0.286311 0.376448 0.282986 0.179349 0.41945 0.180056 0.248143 0.307069 0.265894 0.331296 0.338023 0.367693 0.296971 0.194452 0.459746 0.60903 0.50766 0.62955 0.54471 0.575676 0.675746 0.639411 0.48393 0.471053 0.269261 0.378788 0.415754 0.572584 0.50968 0.566615 0.481681 0.463977 0.491844 0.54701 0.411201 0.437342 0.44027 0.489827 0.48062 0.409258 0.345129 0.205244 0.206877 0.48356 0.493256 0.514979 0.572161 0.446074 0.473468 0.532723 0.638147 0.51623 0.471947 0.418569 0.325638 0.464919 0.446823 0.395091 0.555707 0.46306 0.587572 0.511441 0.48891 0.493785 0.469027 0.379455 0.351567 0.454751 0.388565 0.39189 0.326311 1.24394 1.1821 1.18495 1.16305 1.1839 1.20687 1.18535 1.19011 1.18869 1.18644 1.17928 1.19026 1.20402 1.17425 1.15496 1.16471 1.14784 1.14108 1.18101 0.337412 0.498706 0.486781 0.452754 0.401483 0.289971 0.375233 0.379428 0.387469 0.30195 0.462512 0.333844 0.252854 0.339222 0.427635 0.482262 0.50953 0.504822 0.50896 0.513769 0.517594 0.455957 0.410208 0.457593 0.472066 0.465934 0.452621 0.548112 0.495417 0.563199 0.531137 0.523 0.56823 0.53384 0.500021 0.455885 0.452623 0.263191 0.323046 0.404342 0.643166 0.561093 0.660221 0.697844 0.678661 0.483421 0.43942 0.468541 0.497791 0.480688 0.380187 0.395202 0.370926 0.397887 0.341545 0.203015 0.320582 0.268401 0.316894 0.437352 0.351189 0.383726 0.273006 0.334459 0.294276 0.379602 0.408114 0.432953 0.390341 0.355721 0.464497 0.272375 0.835118 0.729577 0.533108 0.502763 0.553815 0.638826 0.541919 0.553803 0.482699 0.561578 0.459466 0.470633 0.409521 0.473965 0.443569 0.493059 0.430625 0.42874 0.446163 0.411498 0.384431 0.366815 0.445129 0.433764 0.380598 0.441912 0.47685 0.459553 0.399521 0.426379 0.343592 0.733247 0.435816 0.472121 0.488913 0.426598 0.384307 0.490044 0.462246 0.428622 0.381924 0.389379 0.418308 0.504708 0.501829 0.461198 0.431235 0.479837 0.473144 0.456274 0.409104 0.44169 0.412718 0.399956 0.34478 1.19017 1.26857 1.18234 1.16386 1.18209 1.16788 1.18045 1.19178 1.18732 1.17513 1.17734 1.18335 1.19136 1.20182 1.16328 1.15296 1.17598 1.14418 1.12763 1.20064 0.989984 0.478599 0.486102 0.457024 0.499619 0.412355 0.435377 0.425148 0.410156 0.36057 0.389524 0.44016 0.450715 0.502118 0.493869 0.526027 0.519008 0.537708 0.53316 0.502804 0.524162 0.512059 0.529061 0.49213 0.509172 0.470482 0.541909 0.508336 0.51391 0.535217 0.543306 0.534391 0.511701 0.472269 0.483045 0.465086 0.464821 0.40552 0.41834 0.495064 0.578317 0.544699 0.586389 0.466689 0.499527 0.480742 0.452518 0.413455 0.378017 0.453073 0.342756 0.0553976 0.476629 0.483215 0.651426 0.460425 0.437503 0.368269 0.389047 0.387099 0.384186 0.36815 0.423227 0.454464 0.466702 0.460175 0.449847 0.4243 0.421879 0.419887 0.840999 0.528477 0.507924 0.509001 0.454771 0.397124 0.442366 0.407646 0.410375 0.42116 0.423934 0.429663 0.428339 0.432223 0.389493 0.392819 0.444554 0.455763 0.446591 0.446075 0.369247 0.33366 0.627465 0.456967 0.562206 0.425948 0.479757 0.427302 0.461762 0.459559 0.483511 0.474059 0.456197 0.449056 0.404345 0.505491 0.446007 0.431438 0.422881 0.440486 0.453602 0.465043 0.458475 0.455505 0.448476 0.421471 0.393373 0.357979 0.361679 0.350549 1.12857 1.20474 1.18339 1.1686 1.18793 1.15349 1.15403 1.18154 1.16394 1.18682 1.17417 1.17647 1.18313 1.17784 1.18698 1.17172 1.1647 1.1726 1.18125 1.20289 1.13816 1.11024 1.15682 0.502513 0.501033 0.481238 0.483033 0.449539 0.474255 0.458016 0.444105 0.387413 0.384509 0.46103 0.511232 0.523119 0.543357 0.550227 0.538626 0.539171 0.522005 0.521234 0.484494 0.491366 0.492573 0.496751 0.514135 0.514874 0.50714 0.509326 0.514342 0.530543 0.534133 0.529379 0.534613 0.506823 0.472979 0.470652 0.456967 0.469866 0.50342 0.52634 0.488877 0.554935 0.516325 0.484268 0.439518 0.450132 0.444908 0.404337 0.406514 0.717795 0.45471 0.3482 0.392474 0.409014 0.427433 0.418513 0.417535 0.432931 0.456095 0.448078 0.460201 0.424865 0.39364 0.368189 0.561432 0.488556 0.646705 0.648947 0.571232 0.528154 0.42471 0.446228 0.459755 0.444478 0.435763 0.444672 0.421029 0.432189 0.429729 0.4426 0.448168 0.446708 0.453961 0.4477 0.415604 0.452698 0.456274 0.452608 0.443981 0.41586 0.455986 0.416641 0.482701 0.50046 0.47831 0.491785 0.490276 0.472773 0.484722 0.477761 0.476254 0.4711 0.453222 0.46131 0.514686 0.421107 0.443569 0.442778 0.46563 0.465505 0.456352 0.435133 0.407294 0.418359 0.352332 0.375116 0.351502 1.22541 1.15326 1.18639 1.18569 1.16463 1.18232 1.16752 1.18622 1.17147 1.17846 1.17364 1.18293 1.17906 1.18444 1.18692 1.168 1.19595 1.18518 1.14944 1.14189 1.13224 1.1329 1.19199 0.526558 0.523395 0.499454 0.495059 0.492635 0.47894 0.502133 0.482021 0.416851 0.49286 0.38408 0.422883 0.463039 0.515665 0.569525 0.558911 0.537344 0.549531 0.522953 0.532126 0.527279 0.515068 0.503471 0.505352 0.500518 0.512777 0.506354 0.513049 0.512825 0.510418 0.519539 0.524495 0.522251 0.529321 0.511707 0.488477 0.459482 0.463932 0.470243 0.449255 0.508534 0.544656 0.525912 0.553579 0.478296 0.460021 0.441201 0.458147 0.381677 0.468908 0.62123 0.490099 0.424418 0.62011 0.458738 0.461758 0.454437 0.438277 0.448105 0.47209 0.462006 0.456549 0.440384 0.517265 0.580014 0.601941 0.59115 0.572642 0.554795 0.474828 0.460327 0.453224 0.456555 0.443149 0.47041 0.467706 0.482308 0.452643 0.478999 0.486547 0.484316 0.45755 0.468645 0.450998 0.479782 0.484372 0.489907 0.483823 0.498148 0.496236 0.498842 0.486682 0.480193 0.492741 0.459068 0.554756 0.441245 0.402495 0.474587 0.460244 0.482816 0.485993 0.478964 0.494825 0.454856 0.486726 0.444479 0.383817 0.361157 1.20645 1.15296 1.19982 1.20819 1.16437 1.18072 1.16702 1.18253 1.19122 1.17071 1.17946 1.18521 1.20907 1.18755 1.19247 1.17217 1.15427 1.13427 1.13042 1.19367 0.519847 0.507909 0.501754 0.505252 0.514581 0.521603 0.515293 0.387875 0.482958 0.513834 0.563029 0.52401 0.559145 0.60163 0.540224 0.579607 0.559847 0.552577 0.531914 0.523183 0.528698 0.50933 0.499401 0.499917 0.492861 0.506878 0.509833 0.516447 0.52036 0.527547 0.508947 0.482099 0.503121 0.450535 0.417001 0.48433 0.441704 0.473678 0.524591 0.54908 0.567155 0.512797 0.466568 0.48329 0.5177 0.482982 0.555545 0.516378 0.449851 0.476169 0.46334 0.476923 0.477739 0.483406 0.4774 0.484038 0.475974 0.521941 0.526527 0.554887 0.570851 0.57666 0.57819 0.56281 0.511452 0.462391 0.481229 0.453742 0.473013 0.471844 0.479167 0.503608 0.492582 0.485437 0.49781 0.516104 0.532287 0.498535 0.499988 0.501263 0.492358 0.482409 0.494785 0.509847 0.47571 0.50511 0.515918 0.513306 0.517259 0.502555 0.51338 0.500358 0.498891 0.558964 0.530441 0.521956 0.463784 0.517179 0.481771 0.494499 0.50207 0.490022 0.413451 0.363867 0.362183 1.2382 1.1938 1.1958 1.16744 1.18312 1.17635 1.18801 1.17977 1.16778 1.17874 1.18041 1.18584 1.21173 1.173 1.17515 1.17347 1.17316 1.19178 1.19201 0.515882 0.507154 0.488861 0.526179 0.530584 0.544289 0.595081 0.761418 0.553362 0.59517 0.539169 0.661628 0.608578 0.550872 0.538488 0.528906 0.514164 0.50252 0.490075 0.482486 0.503473 0.488741 0.516553 0.515038 0.520243 0.535427 0.508977 0.523089 0.520272 0.515633 0.485412 0.493269 0.439835 0.434877 0.49893 0.531874 0.59417 0.471335 0.480508 0.492331 0.514651 0.528747 0.569496 0.503372 0.525391 0.501404 0.47682 0.484129 0.491438 0.48966 0.486023 0.490081 0.47451 0.485937 0.490404 0.482057 0.507761 0.568639 0.575913 0.575124 0.564297 0.567442 0.578443 0.553714 0.464531 0.56673 0.502945 0.473648 0.497022 0.482345 0.481628 0.496211 0.510386 0.515079 0.516422 0.535254 0.51913 0.500967 0.515496 0.493033 0.492941 0.504638 0.501262 0.511528 0.492 0.511911 0.545136 0.509813 0.535857 0.53035 0.524445 0.533708 0.524406 0.507868 0.5115 0.521124 0.536883 0.517823 0.545998 0.47212 0.500641 0.521934 0.502671 0.520078 0.505951 0.509515 0.453877 0.323711 1.23677 1.15305 1.19796 1.18935 1.19271 1.18339 1.17773 1.19094 1.19694 1.16837 1.19178 1.17976 1.18527 1.19571 1.17235 1.17605 1.21433 1.16637 1.19046 0.503717 0.511887 0.495899 0.504554 0.523508 0.496851 0.514166 0.539422 0.50559 0.543863 0.655377 0.637534 0.632683 0.543201 0.66531 0.616785 0.584245 0.557906 0.539554 0.543459 0.522002 0.471738 0.501278 0.483634 0.52951 0.524346 0.510357 0.498028 0.505617 0.530638 0.524904 0.526463 0.522608 0.534014 0.551673 0.391306 0.474971 0.547434 0.584172 0.537352 0.499057 0.501525 0.48908 0.562625 0.531271 0.49232 0.506394 0.483252 0.49918 0.487114 0.490343 0.495035 0.505138 0.485415 0.500301 0.498721 0.488455 0.509078 0.505897 0.520049 0.559137 0.61049 0.60808 0.586268 0.580552 0.58119 0.562204 0.570574 0.546891 0.590137 0.515606 0.522678 0.481039 0.496148 0.508346 0.523117 0.512033 0.548505 0.51877 0.506987 0.503753 0.502486 0.514932 0.515322 0.518147 0.529005 0.5558 0.541715 0.555973 0.550015 0.539333 0.526273 0.517746 0.526755 0.527192 0.529221 0.524888 0.531916 0.532795 0.513744 0.516461 0.522549 0.508819 0.518531 0.52856 0.552378 0.528401 0.540286 0.522375 0.4523 0.285926 1.19178 1.12159 1.19043 1.19186 1.19178 1.1857 1.18229 1.19168 1.19285 1.17206 1.1961 1.1796 1.18437 1.19276 1.16807 1.18696 1.19309 1.17659 1.18462 0.510738 0.507702 0.515259 0.509141 0.530426 0.620569 0.654306 0.663087 0.597495 0.690349 0.666182 0.643309 0.570893 0.543082 0.549012 0.529691 0.467849 0.553152 0.493272 0.480178 0.511607 0.506432 0.497603 0.517642 0.534391 0.559334 0.472869 0.611513 0.551599 0.558952 0.562716 0.579498 0.515422 0.465571 0.439547 0.529381 0.488961 0.506908 0.50868 0.502369 0.499017 0.520413 0.5022 0.514108 0.499424 0.48292 0.472026 0.502713 0.484074 0.511752 0.579908 0.51175 0.653914 0.636982 0.604099 0.605431 0.523514 0.560122 0.492381 0.615536 0.470959 0.502657 0.51367 0.527959 0.538885 0.518869 0.564987 0.534888 0.54928 0.50966 0.5123 0.519364 0.523095 0.531342 0.553509 0.560334 0.57184 0.530675 0.581385 0.550644 0.559177 0.526669 0.527868 0.54138 0.518451 0.523124 0.523719 0.533731 0.553589 0.530115 0.556872 0.559478 0.269564 1.21469 1.13167 1.12115 1.17236 1.19178 1.19204 1.18733 1.18425 1.19132 1.19299 1.17218 1.18643 1.18967 1.20005 1.18003 1.18532 1.19164 1.16049 1.18803 1.14945 1.1906 1.1631 0.506688 0.513029 0.494115 0.560452 0.505274 0.561281 0.656432 0.673829 0.66595 0.628001 0.65943 0.641352 0.597451 0.582402 0.576199 0.577555 0.550934 0.539332 0.544219 0.570208 0.605117 0.477634 0.529326 0.500322 0.467749 0.496668 0.575697 0.498387 0.5258 0.620598 0.838947 0.677935 0.524106 0.532489 0.547768 0.493362 0.458519 0.538138 0.498964 0.510835 0.50279 0.524603 0.534835 0.522305 0.482074 0.464525 0.499437 0.47383 0.49898 0.530594 0.556939 0.645493 0.65288 0.647288 0.612794 0.552533 0.537004 0.674987 0.499877 0.522478 0.527954 0.539744 0.532475 0.521571 0.497608 0.516325 0.521441 0.516067 0.518623 0.523914 0.533287 0.557684 0.577782 0.557669 0.589579 0.554301 0.429602 0.55098 0.535687 0.510036 0.617982 0.535864 0.520578 0.560412 0.52729 0.526173 0.53197 0.516387 0.580283 0.544787 0.633447 0.598456 0.292693 1.19079 1.10275 1.19223 1.19222 1.19185 1.18709 1.18426 1.19133 1.19178 1.17252 1.19269 1.1923 1.19572 1.18006 1.19301 1.18607 1.18617 1.16892 1.18473 1.17734 0.501078 0.484396 0.52027 0.5137 0.626066 0.496386 0.560553 0.577233 0.639073 0.658402 0.65146 0.661665 0.618462 0.638363 0.587909 0.545077 0.538323 0.549432 0.595045 0.663971 0.534972 0.483602 0.440781 0.474121 0.644847 0.451228 0.887775 0.628751 0.525072 0.539937 0.518737 0.517196 0.523226 0.496636 0.498584 0.501795 0.522083 0.563212 0.492599 0.512943 0.492297 0.473782 0.501906 0.507777 0.556014 0.575746 0.518927 0.545437 0.674291 0.639901 0.654246 0.69201 0.683587 0.579446 1.04773 0.571111 0.773153 0.514383 0.533832 0.539925 0.538161 0.526172 0.491999 0.513363 0.512392 0.518669 0.523964 0.537917 0.562344 0.595245 0.58084 0.547526 0.457887 0.357376 0.647069 0.726435 0.504683 0.408638 0.499474 0.563673 0.533171 0.528866 0.532816 0.589749 0.664522 0.608241 0.328281 1.17393 0.491416 0.52314 0.504549 0.628468 0.463407 0.48659 0.557212 0.619851 0.639344 0.644912 0.636767 0.675345 0.623797 0.604039 0.546277 0.541018 0.426683 0.714197 0.576184 0.492485 0.417653 0.473059 0.533058 0.63807 0.745628 0.632206 0.553989 0.548401 0.517575 0.527803 0.582498 0.511094 0.5024 0.502995 0.511934 0.551746 0.525557 0.463573 0.485746 0.506057 0.540184 0.539452 0.714428 0.700712 0.69443 0.542293 0.775926 0.685685 0.713017 0.553713 0.529217 0.542357 0.537419 0.514412 0.393945 0.498749 0.51584 0.521443 0.673118 0.640438 0.579055 0.587073 0.560769 0.760256 0.687327 0.569212 0.498455 0.539457 0.508614 0.495444 0.521669 0.571949 0.634001 0.598188 0.511341 0.575491 0.554665 0.580703 0.450259 0.515647 0.61651 0.612414 0.649165 0.683274 0.62871 0.631368 0.611428 0.581055 0.548945 0.551537 0.551758 0.546459 0.514285 0.693119 0.583859 0.529996 0.575038 0.439345 0.791507 0.508924 0.656586 0.535573 0.528716 0.519669 0.590564 0.520509 0.487414 0.507219 0.544698 0.455571 0.498169 0.466747 0.497653 
SCALARS Stress float 1
LOOKUP_TABLE default
-13259000000.0 -12778200000.0 -13745500000.0 -13619300000.0 -12955000000.0 -13546900000.0 -12574600000.0 -12654500000.0 -12915400000.0 -12755000000.0 -15077800000.0 -12705500000.0 -13252000000.0 -12549700000.0 -13040800000.0 -12995700000.0 -12609300000.0 -12696300000.0 -12549700000.0 -12693600000.0 -12549700000.0 -12549700000.0 -12697000000.0 -12549700000.0 -12549700000.0 -12595200000.0 -12549700000.0 -12573900000.0 -12627700000.0 -12903300000.0 -13068400000.0 -12855500000.0 -12757200000.0 -12686600000.0 -12623700000.0 -12566800000.0 -12549700000.0 -12549700000.0 -12549700000.0 -12612800000.0 -12648200000.0 -12780200000.0 -12854100000.0 -12721500000.0 -13664000000.0 -12632500000.0 -12549700000.0 -12674100000.0 -12658800000.0 -12562400000.0 -12803700000.0 -12559000000.0 -12569800000.0 -12739300000.0 -13296800000.0 -13230800000.0 -12991400000.0 -13113400000.0 -12634700000.0 -12792100000.0 -12570700000.0 -13040700000.0 -12982200000.0 -12572100000.0 -12569200000.0 -12577400000.0 -12643900000.0 -12693400000.0 -13154600000.0 -12719500000.0 -12613800000.0 -12569800000.0 -12822700000.0 -12604000000.0 -12600600000.0 -12590700000.0 -12588800000.0 -12966300000.0 -12860400000.0 -13327700000.0 -13049000000.0 -14487200000.0 -14081000000.0 -14530400000.0 -14328000000.0 -14196700000.0 -14197800000.0 -12825700000.0 -12669200000.0 -14019400000.0 -12549700000.0 -12920500000.0 -14112800000.0 -12594300000.0 -12549700000.0 -12741100000.0 -12650800000.0 -12607400000.0 -12922200000.0 -13073200000.0 -14717100000.0 -14463000000.0 -14473500000.0 -14025100000.0 -12989000000.0 -15725300000.0 -18795200000.0 -16119100000.0 -17950800000.0 -17836800000.0 -17861100000.0 -16563000000.0 -13221000000.0 -12952500000.0 -13037800000.0 -12549700000.0 -13061100000.0 -12577200000.0 -12549700000.0 -13097900000.0 -12549700000.0 -12549700000.0 -12794400000.0 -12549700000.0 -12809600000.0 -12549700000.0 -13856500000.0 -12549700000.0 -12549700000.0 -12549700000.0 -12590300000.0 -12556700000.0 -12549700000.0 -12563600000.0 -12643300000.0 -12889400000.0 -13053900000.0 -13531900000.0 -13838600000.0 -13651300000.0 -13705600000.0 -13681400000.0 -13518600000.0 -12942400000.0 -13124700000.0 -13101700000.0 -13194000000.0 -13048500000.0 -12711300000.0 -13027100000.0 -14265700000.0 -12724000000.0 -13339100000.0 -13466900000.0 -13273300000.0 -13072200000.0 -13208100000.0 -12549700000.0 -13435500000.0 -12992900000.0 -14232300000.0 -12552700000.0 -12549700000.0 -12769800000.0 -12899700000.0 -14181800000.0 -12903000000.0 -12549700000.0 -12549700000.0 -13134200000.0 -12549700000.0 -12549700000.0 -12770100000.0 -13123100000.0 -12783000000.0 -12577900000.0 -14435700000.0 -14660100000.0 -15051100000.0 -16324700000.0 -14504000000.0 -16520600000.0 -12705300000.0 -13743100000.0 -12839900000.0 -12742100000.0 -17379900000.0 -12575600000.0 -13803900000.0 -13373700000.0 -12974200000.0 -17325900000.0 -13947500000.0 -12580800000.0 -13280300000.0 -14385100000.0 -13809300000.0 -18583900000.0 -14780500000.0 -14429300000.0 -14352100000.0 -15908900000.0 -16378600000.0 -16903100000.0 -17324100000.0 -13595300000.0 -12549700000.0 -16707300000.0 -17810700000.0 -15569500000.0 -18072600000.0 -12710000000.0 -17121500000.0 -14104200000.0 -14753100000.0 -13999600000.0 -14356200000.0 -13349100000.0 -12682800000.0 -13717200000.0 -12554300000.0 -12582600000.0 -13077000000.0 -12549700000.0 -13335000000.0 -12549700000.0 -14246100000.0 -12662700000.0 -12596000000.0 -12549700000.0 -12807800000.0 -12885000000.0 -12805100000.0 -12918000000.0 -13114900000.0 -13579900000.0 -13514800000.0 -14594200000.0 -14208900000.0 -16000500000.0 -14362500000.0 -14277600000.0 -13495800000.0 -14358000000.0 -12565900000.0 -12655900000.0 -14140500000.0 -12549700000.0 -13295300000.0 -15014900000.0 -12822400000.0 -12872800000.0 -12626700000.0 -15062500000.0 -14177300000.0 -13401600000.0 -12688400000.0 -14172100000.0 -16741300000.0 -13803000000.0 -13556000000.0 -13402600000.0 -14457100000.0 -14960100000.0 -19154500000.0 -17206800000.0 -17514400000.0 -15217500000.0 -14604500000.0 -15293500000.0 -15833400000.0 -15877500000.0 -15032300000.0 -15718700000.0 -14743000000.0 -14849700000.0 -14529300000.0 -17542900000.0 -22791700000.0 -22664500000.0 -26562600000.0 -13470400000.0 -13861400000.0 -13436800000.0 -23944200000.0 -19994500000.0 -20050400000.0 -16381200000.0 -17904800000.0 -16774600000.0 -15310800000.0 -15601900000.0 -14454300000.0 -18871100000.0 -12667100000.0 -13579200000.0 -12735800000.0 -14429700000.0 -12984200000.0 -15865600000.0 -15705600000.0 -15602300000.0 -17717400000.0 -12549700000.0 -20027400000.0 -13084400000.0 -13761700000.0 -16861400000.0 -19498400000.0 -13433700000.0 -18342100000.0 -18670100000.0 -13201300000.0 -14557200000.0 -12549700000.0 -13853300000.0 -14000500000.0 -13550000000.0 -14149800000.0 -13821600000.0 -13169900000.0 -13755000000.0 -12975700000.0 -14575200000.0 -13351800000.0 -15270900000.0 -13000500000.0 -13006700000.0 -12848000000.0 -12549700000.0 -12920200000.0 -12577900000.0 -12704300000.0 -12596700000.0 -13082200000.0 -13982200000.0 -14361500000.0 -13491600000.0 -18786100000.0 -18527400000.0 -15687400000.0 -19235600000.0 -17844600000.0 -18055400000.0 -19692100000.0 -19680100000.0 -17059500000.0 -15955800000.0 -15245900000.0 -18839500000.0 -13371500000.0 -13029000000.0 -14168600000.0 -12710800000.0 -15165200000.0 -12707700000.0 -15492400000.0 -12886800000.0 -16834000000.0 -16392700000.0 -21160300000.0 -13826500000.0 -13501900000.0 -14220100000.0 -13426300000.0 -19181200000.0 -12549700000.0 -12549700000.0 -12549700000.0 -16097400000.0 -15727000000.0 -17762100000.0 -16380200000.0 -16245800000.0 -15032200000.0 -21976000000.0 -22247800000.0 -20303400000.0 -20028100000.0 -13910900000.0 -19063600000.0 -28428200000.0 -27137100000.0 -25615200000.0 -28402300000.0 -13000500000.0 -12569100000.0 -21035900000.0 -20082400000.0 -21940400000.0 -19104800000.0 -22289600000.0 -15236000000.0 -15829600000.0 -19578500000.0 -14992400000.0 -17755500000.0 -18709100000.0 -19897400000.0 -22629100000.0 -15194800000.0 -12911600000.0 -12894200000.0 -17195000000.0 -12704700000.0 -24961100000.0 -21866600000.0 -18960900000.0 -21751500000.0 -16967200000.0 -18023500000.0 -13925500000.0 -19062900000.0 -16972400000.0 -16314400000.0 -13984400000.0 -13850500000.0 -14052900000.0 -13180900000.0 -13846200000.0 -14624900000.0 -14318400000.0 -12814200000.0 -13475500000.0 -12549700000.0 -14596400000.0 -12729900000.0 -15796500000.0 -14775700000.0 -14154900000.0 -13585100000.0 -13934200000.0 -13679900000.0 -13209200000.0 -13579200000.0 -12928700000.0 -16312000000.0 -15166200000.0 -13823200000.0 -13213100000.0 -19636600000.0 -24821700000.0 -21399900000.0 -13453700000.0 -15589400000.0 -13839700000.0 -13588900000.0 -13829700000.0 -17505700000.0 -13445000000.0 -15273100000.0 -18063500000.0 -24656200000.0 -23542400000.0 -13886200000.0 -17126000000.0 -13331800000.0 -18191000000.0 -19478400000.0 -13284800000.0 -22795100000.0 -15107100000.0 -14337600000.0 -16208100000.0 -13808600000.0 -22521400000.0 -12549700000.0 -12656900000.0 -12993300000.0 -17495900000.0 -22089400000.0 -13208300000.0 -12762300000.0 -19589300000.0 -19000000000.0 -13064100000.0 -15387200000.0 -20173300000.0 -22387400000.0 -17812300000.0 -21838100000.0 -22776800000.0 -12940800000.0 -17910100000.0 -21730600000.0 -23709600000.0 -30313200000.0 -28820700000.0 -27852300000.0 -12926300000.0 -12587600000.0 -18939400000.0 -12756900000.0 -19926100000.0 -17534400000.0 -28028600000.0 -26143200000.0 -27404500000.0 -19273900000.0 -21129300000.0 -17934800000.0 -13154000000.0 -14563500000.0 -12817400000.0 -21672100000.0 -18551500000.0 -16787300000.0 -20272500000.0 -22173900000.0 -12549700000.0 -28659700000.0 -18124700000.0 -26881500000.0 -29622500000.0 -18261400000.0 -19263100000.0 -19168900000.0 -15966800000.0 -15010400000.0 -15895400000.0 -13092400000.0 -13012300000.0 -17507800000.0 -21486600000.0 -17521900000.0 -18174000000.0 -17157600000.0 -18352200000.0 -16397900000.0 -21422000000.0 -18648400000.0 -18889600000.0 -19807100000.0 -21591300000.0 -17151300000.0 -16771700000.0 -17012500000.0 -17713600000.0 -12559600000.0 -12639800000.0 -14696200000.0 -12672900000.0 -29944700000.0 -13826100000.0 -13218600000.0 -15576400000.0 -15374500000.0 -15126500000.0 -12657300000.0 -13199900000.0 -12549700000.0 -17787100000.0 -16589800000.0 -13842300000.0 -15807300000.0 -24978200000.0 -24463700000.0 -25252300000.0 -12968400000.0 -32330600000.0 -18331700000.0 -25463700000.0 -16122800000.0 -15787100000.0 -22132900000.0 -21220800000.0 -13865400000.0 -18506800000.0 -21144700000.0 -23325000000.0 -25529500000.0 -35667900000.0 -25175800000.0 -26238700000.0 -22608700000.0 -17498500000.0 -17009400000.0 -17711500000.0 -38253900000.0 -20514400000.0 -21588100000.0 -15408700000.0 -23566800000.0 -13471800000.0 -22259900000.0 -39052500000.0 -14953400000.0 -17907500000.0 -12570900000.0 -18003800000.0 -23176400000.0 -32372000000.0 -14721300000.0 -20424300000.0 -25831200000.0 -25247900000.0 -17965400000.0 -18650800000.0 -12549700000.0 -14761900000.0 -16043100000.0 -15049200000.0 -25431000000.0 -20364400000.0 -19384900000.0 -22632300000.0 -30796200000.0 -46405900000.0 -22133900000.0 -34647000000.0 -24129300000.0 -20034000000.0 -21877300000.0 -13504300000.0 -25871800000.0 -13105700000.0 -14898400000.0 -12879700000.0 -12741500000.0 -25581500000.0 -15299900000.0 -12770500000.0 -13825000000.0 -15234900000.0 -15919600000.0 -14953200000.0 -18036000000.0 -14129400000.0 -13418700000.0 -15698100000.0 -12597800000.0 -12971100000.0 -19888000000.0 -18284600000.0 -20137700000.0 -20720400000.0 -21790300000.0 -25775400000.0 -24572500000.0 -18827700000.0 -19822700000.0 -23127400000.0 -16737000000.0 -16194900000.0 -15532200000.0 -14659700000.0 -13466800000.0 -14775400000.0 -13350100000.0 -13235600000.0 -18519200000.0 -18906800000.0 -15398100000.0 -17468100000.0 -18208100000.0 -13260200000.0 -18503000000.0 -17875200000.0 -27569900000.0 -22816700000.0 -30359600000.0 -23570700000.0 -22315100000.0 -18309400000.0 -17409600000.0 -17866400000.0 -18436000000.0 -16432000000.0 -12549700000.0 -12677600000.0 -14528400000.0 -28597300000.0 -17115800000.0 -16908400000.0 -30960100000.0 -32832100000.0 -29893500000.0 -12724600000.0 -34829300000.0 -32007000000.0 -30150400000.0 -35504800000.0 -32509000000.0 -31560800000.0 -38323500000.0 -31529500000.0 -35987200000.0 -20751300000.0 -20406800000.0 -22697800000.0 -24289300000.0 -25399500000.0 -21797800000.0 -31846300000.0 -16541400000.0 -26092100000.0 -21579700000.0 -23892900000.0 -15243300000.0 -18877300000.0 -12718800000.0 -23538600000.0 -12932900000.0 -13134900000.0 -12702900000.0 -20869800000.0 -12549700000.0 -21573100000.0 -35885600000.0 -40007000000.0 -38103900000.0 -25485200000.0 -25990800000.0 -14573800000.0 -26014100000.0 -28430200000.0 -29912500000.0 -32729800000.0 -24553400000.0 -24484800000.0 -22339600000.0 -22024400000.0 -20985800000.0 -18668100000.0 -14980900000.0 -19671500000.0 -14080600000.0 -16843200000.0 -18760900000.0 -19276100000.0 -15694300000.0 -12585800000.0 -14127200000.0 -12788100000.0 -15271000000.0 -13179600000.0 -21254700000.0 -18675900000.0 -25939800000.0 -14781500000.0 -16718700000.0 -16328500000.0 -17362300000.0 -16430300000.0 -14765300000.0 -13673100000.0 -17631000000.0 -13155700000.0 -14820000000.0 -13671400000.0 -15215400000.0 -14692800000.0 -14117000000.0 -16052800000.0 -19052400000.0 -25398300000.0 -30992700000.0 -25305100000.0 -31067500000.0 -28103800000.0 -14650600000.0 -16203800000.0 -13528600000.0 -15812500000.0 -13848400000.0 -12549700000.0 -14920900000.0 -13964400000.0 -34275500000.0 -16081900000.0 -17169100000.0 -19293800000.0 -12549700000.0 -20991600000.0 -14147400000.0 -25169300000.0 -17750000000.0 -18671200000.0 -28265900000.0 -20118300000.0 -34387100000.0 -21382200000.0 -22562400000.0 -24083200000.0 -18085600000.0 -25691500000.0 -21891800000.0 -30488500000.0 -20291500000.0 -17372800000.0 -34561600000.0 -34001500000.0 -18678200000.0 -16675900000.0 -24147200000.0 -18175900000.0 -16480500000.0 -20221800000.0 -25548500000.0 -12744000000.0 -13732700000.0 -15472800000.0 -12598300000.0 -23218800000.0 -16511900000.0 -35068600000.0 -36581400000.0 -21151000000.0 -15858000000.0 -14329000000.0 -15068800000.0 -28811200000.0 -12549700000.0 -20821500000.0 -20302400000.0 -20537600000.0 -20161800000.0 -13139000000.0 -13735400000.0 -14860600000.0 -14050300000.0 -17968300000.0 -18749900000.0 -19750900000.0 -13827200000.0 -19279100000.0 -18761300000.0 -13697600000.0 -16698300000.0 -20077800000.0 -20287300000.0 -19224200000.0 -18930800000.0 -22363800000.0 -26042800000.0 -20575800000.0 -22313200000.0 -26632000000.0 -18247300000.0 -18434500000.0 -23185700000.0 -27066800000.0 -26570800000.0 -24355900000.0 -22333500000.0 -24929200000.0 -24693600000.0 -25974200000.0 -26808700000.0 -21121400000.0 -24109200000.0 -32877200000.0 -12549700000.0 -23575900000.0 -21529100000.0 -28564700000.0 -15139800000.0 -25482200000.0 -25650800000.0 -12902400000.0 -27281400000.0 -24946200000.0 -21493400000.0 -22118500000.0 -25503300000.0 -23225400000.0 -13610000000.0 -14339600000.0 -15166400000.0 -12661700000.0 -18938100000.0 -19875600000.0 -20716300000.0 -26288800000.0 -21025700000.0 -23624900000.0 -14631800000.0 -12549700000.0 -27641000000.0 -17727900000.0 -26600800000.0 -18902100000.0 -19137100000.0 -27788200000.0 -25195300000.0 -35439700000.0 -40735600000.0 -12549700000.0 -45532700000.0 -37389800000.0 -30645000000.0 -21299100000.0 -12806800000.0 -12839400000.0 -26091900000.0 -18027100000.0 -12750600000.0 -23080000000.0 -16608900000.0 -25758100000.0 -13861000000.0 -20015800000.0 -24574800000.0 -15035300000.0 -17874100000.0 -13004900000.0 -32895200000.0 -26850100000.0 -12837600000.0 -13306400000.0 -16129300000.0 -30297600000.0 -18785200000.0 -17399200000.0 -12696600000.0 -12707100000.0 -14789200000.0 -17043000000.0 -13770200000.0 -12890000000.0 -12549700000.0 -17911600000.0 -19880000000.0 -18270000000.0 -17146400000.0 -12805800000.0 -18280300000.0 -15220000000.0 -19869400000.0 -17603200000.0 -12647600000.0 -13315500000.0 -15133100000.0 -13951300000.0 -12568600000.0 -22014900000.0 -22540300000.0 -12576000000.0 -23998300000.0 -13424300000.0 -19138300000.0 -12549700000.0 -12553800000.0 -17569300000.0 -12728800000.0 -21017600000.0 -12549700000.0 -12590300000.0 -13243800000.0 -20138200000.0 -19650800000.0 -22343800000.0 -32230500000.0 -12549700000.0 -22122800000.0 -23571800000.0 -13197100000.0 -13510400000.0 -27924300000.0 -19993800000.0 -21851000000.0 -31211600000.0 -14592800000.0 -12735600000.0 -17606500000.0 -21339100000.0 -14261000000.0 -19492000000.0 -15069300000.0 -25623400000.0 -17881900000.0 -23912400000.0 -20410000000.0 -27629200000.0 -27012400000.0 -33578700000.0 -52556300000.0 -48903200000.0 -45618300000.0 -45165700000.0 -43643900000.0 -46237100000.0 -44702800000.0 -46853400000.0 -52859200000.0 -51148800000.0 -65936500000.0 -30429300000.0 -66981300000.0 -28597100000.0 -34065700000.0 -22192300000.0 -19591500000.0 -14691900000.0 -25864100000.0 -18076200000.0 -17686100000.0 -16421700000.0 -23751000000.0 -12882800000.0 -19180700000.0 -20419500000.0 -14275100000.0 -16673700000.0 -18479200000.0 -15432400000.0 -13547000000.0 -34586400000.0 -29191000000.0 -12761100000.0 -27721200000.0 -16352000000.0 -17284800000.0 -29123200000.0 -12549700000.0 -17852400000.0 -13646200000.0 -14537400000.0 -13571200000.0 -12862700000.0 -20087900000.0 -18764000000.0 -15508400000.0 -15503100000.0 -19033300000.0 -15281900000.0 -24069700000.0 -17119300000.0 -14342600000.0 -19584700000.0 -16933400000.0 -16033100000.0 -17254500000.0 -12814200000.0 -16103400000.0 -16358500000.0 -12765400000.0 -16466900000.0 -13149700000.0 -15623900000.0 -12631600000.0 -26482200000.0 -12707000000.0 -18476100000.0 -17935800000.0 -22843300000.0 -21615300000.0 -12611700000.0 -12698300000.0 -18189800000.0 -17924200000.0 -25492700000.0 -13301600000.0 -13355900000.0 -15801800000.0 -15823400000.0 -18111000000.0 -16157600000.0 -19067700000.0 -15616700000.0 -16005300000.0 -35728700000.0 -29020100000.0 -28966900000.0 -33455900000.0 -42298400000.0 -30943000000.0 -35623100000.0 -31261900000.0 -22318300000.0 -18167700000.0 -18153200000.0 -19272200000.0 -18788300000.0 -20673300000.0 -32107500000.0 -29122700000.0 -16637100000.0 -21715000000.0 -29924600000.0 -12994800000.0 -18352100000.0 -12551000000.0 -33372800000.0 -21501700000.0 -18526300000.0 -22126200000.0 -13936400000.0 -27783900000.0 -24712100000.0 -16378900000.0 -34105000000.0 -13027200000.0 -16754800000.0 -37812800000.0 -35376800000.0 -32000300000.0 -38766000000.0 -12549700000.0 -29264000000.0 -12549700000.0 -24683100000.0 -36779300000.0 -21784900000.0 -13213900000.0 -13117500000.0 -23173200000.0 -14493400000.0 -18375200000.0 -18033200000.0 -21035600000.0 -28179200000.0 -12663800000.0 -21227400000.0 -18886400000.0 -20081900000.0 -41511200000.0 -24376000000.0 -12748900000.0 -34302400000.0 -35333100000.0 -22564600000.0 -22194800000.0 -21638200000.0 -26333000000.0 -24638300000.0 -24040600000.0 -25289400000.0 -16686900000.0 -18084500000.0 -23101000000.0 -28486500000.0 -13091700000.0 -25105200000.0 -19652200000.0 -19237600000.0 -24369100000.0 -21103000000.0 -22190000000.0 -20539300000.0 -22815300000.0 -12549700000.0 -14381000000.0 -28845700000.0 -13137200000.0 -15467400000.0 -16026400000.0 -24665300000.0 -24194600000.0 -18578200000.0 -21717000000.0 -15751200000.0 -13047900000.0 -25063100000.0 -12549700000.0 -12606000000.0 -23982600000.0 -20678700000.0 -17916300000.0 -33217600000.0 -12549700000.0 -12549700000.0 -30231000000.0 -34875800000.0 -32857600000.0 -13395500000.0 -28385900000.0 -24274500000.0 -20643200000.0 -25208000000.0 -19238800000.0 -18160100000.0 -14803000000.0 -19799300000.0 -12657000000.0 -23529000000.0 -31478900000.0 -26508400000.0 -16604300000.0 -32811500000.0 -31607500000.0 -42618100000.0 -18036600000.0 -19997100000.0 -25688600000.0 -13129200000.0 -38380700000.0 -17334700000.0 -19838300000.0 -30128900000.0 -15320600000.0 -18249800000.0 -14503100000.0 -12764800000.0 -38289200000.0 -19984200000.0 -43962100000.0 -27972000000.0 -27617300000.0 -30917600000.0 -41285300000.0 -18747600000.0 -33397300000.0 -31752800000.0 -39099200000.0 -33059400000.0 -41313700000.0 -32073400000.0 -23226800000.0 -33609700000.0 -51901200000.0 -48654600000.0 -51715000000.0 -68997400000.0 -28904600000.0 -39061100000.0 -17807400000.0 -19733100000.0 -16689300000.0 -19074200000.0 -17691100000.0 -17333700000.0 -14018300000.0 -13932400000.0 -14499800000.0 -25264000000.0 -22044500000.0 -20948900000.0 -21379400000.0 -37580400000.0 -19590800000.0 -23455900000.0 -25017000000.0 -18118300000.0 -21047800000.0 -19575600000.0 -26385700000.0 -26660300000.0 -25338700000.0 -29079200000.0 -23550800000.0 -24731500000.0 -23312900000.0 -25250500000.0 -12961600000.0 -29658800000.0 -19255700000.0 -15025700000.0 -17779700000.0 -17416900000.0 -18052900000.0 -22034600000.0 -26750700000.0 -23754700000.0 -34492800000.0 -21567900000.0 -26077800000.0 -36225000000.0 -12549700000.0 -59260700000.0 -33811500000.0 -41746200000.0 -25813300000.0 -50261300000.0 -28268100000.0 -19263700000.0 -19014600000.0 -16157800000.0 -23467800000.0 -27237200000.0 -21662300000.0 -21348500000.0 -19603100000.0 -34440900000.0 -15427100000.0 -12837300000.0 -14809200000.0 -23964300000.0 -24113500000.0 -12562400000.0 -12627000000.0 -26258200000.0 -30389000000.0 -51560700000.0 -29390700000.0 -15845100000.0 -26457300000.0 -16635400000.0 -15743200000.0 -13803500000.0 -13313900000.0 -43262200000.0 -25472400000.0 -49348900000.0 -20552900000.0 -14881300000.0 -21527300000.0 -13230600000.0 -22319900000.0 -15180700000.0 -13157000000.0 -12843200000.0 -22547400000.0 -22035800000.0 -25525600000.0 -29757400000.0 -24777800000.0 -26536200000.0 -16487500000.0 -12785900000.0 -12552600000.0 -12576500000.0 -12549700000.0 -50043900000.0 -15603200000.0 -17774900000.0 -18702200000.0 -17030300000.0 -20642000000.0 -13729400000.0 -15985000000.0 -13363300000.0 -12862000000.0 -19027400000.0 -19602000000.0 -14145700000.0 -14965400000.0 -14457700000.0 -16575500000.0 -18125100000.0 -12549700000.0 -26515700000.0 -26582700000.0 -20780800000.0 -25978800000.0 -22956200000.0 -22186700000.0 -29157000000.0 -19060500000.0 -20887800000.0 -14003300000.0 -23376300000.0 -16913000000.0 -27102400000.0 -20366300000.0 -15657500000.0 -12687700000.0 -27707800000.0 -14983500000.0 -12829200000.0 -13128500000.0 -15632400000.0 -17154400000.0 -13367800000.0 -30918700000.0 -12635700000.0 -15633100000.0 -12873400000.0 -27776100000.0 -16210500000.0 -39605300000.0 -17413200000.0 -12796800000.0 -41143100000.0 -53368100000.0 -24864900000.0 -25608100000.0 -13816900000.0 -13596200000.0 -59521300000.0 -38446800000.0 -25182000000.0 -21719900000.0 -20240700000.0 -12972000000.0 -18320400000.0 -13124900000.0 -14454900000.0 -17256700000.0 -13409400000.0 -13194900000.0 -30745400000.0 -15871700000.0 -20404300000.0 -24034100000.0 -25401300000.0 -33266800000.0 -12640900000.0 -35117100000.0 -31243600000.0 -21788600000.0 -23345100000.0 -30051000000.0 -26156500000.0 -24627800000.0 -35565300000.0 -18805500000.0 -12648300000.0 -18589200000.0 -12797100000.0 -30650300000.0 -32280800000.0 -28105900000.0 -52875500000.0 -39402700000.0 -44808500000.0 -30258700000.0 -29010300000.0 -19550300000.0 -43745300000.0 -34100100000.0 -22622700000.0 -30667200000.0 -15154700000.0 -16331200000.0 -13324600000.0 -12887000000.0 -12989000000.0 -12740400000.0 -18459400000.0 -56151900000.0 -30050700000.0 -27795400000.0 -17669800000.0 -14916300000.0 -15765400000.0 -24815600000.0 -20271600000.0 -15396200000.0 -15211100000.0 -22330700000.0 -12984600000.0 -13798100000.0 -12784000000.0 -15402600000.0 -17163000000.0 -15818800000.0 -26259800000.0 -14156900000.0 -13213100000.0 -15911300000.0 -12765100000.0 -14966100000.0 -12624700000.0 -23449800000.0 -18618900000.0 -32880400000.0 -40705300000.0 -19455700000.0 -13180000000.0 -25914400000.0 -17145400000.0 -20057900000.0 -14035400000.0 -13021600000.0 -15089300000.0 -32489700000.0 -14292200000.0 -16377200000.0 -12674100000.0 -31219900000.0 -31495900000.0 -37184700000.0 -31842700000.0 -13228000000.0 -43177500000.0 -61447600000.0 -54049000000.0 -49245800000.0 -16224400000.0 -13069700000.0 -44153700000.0 -45395800000.0 -14818700000.0 -13104400000.0 -15772800000.0 -26425800000.0 -14937000000.0 -14848200000.0 -15711200000.0 -18899800000.0 -16761900000.0 -38996600000.0 -35198500000.0 -23393500000.0 -32195100000.0 -23359300000.0 -20865900000.0 -20545200000.0 -38893900000.0 -15291600000.0 -16251600000.0 -19430400000.0 -12631400000.0 -20235300000.0 -29197600000.0 -12770300000.0 -23191100000.0 -37416000000.0 -20485400000.0 -21542700000.0 -25166000000.0 -33503400000.0 -23536700000.0 -31900700000.0 -24984800000.0 -31409400000.0 -23631700000.0 -30659700000.0 -37961900000.0 -40524000000.0 -12549700000.0 -26695300000.0 -12586300000.0 -29426300000.0 -19656600000.0 -23567800000.0 -26812800000.0 -15663600000.0 -13315700000.0 -13676600000.0 -13778300000.0 -14041100000.0 -17372300000.0 -46821500000.0 -26658900000.0 -16981800000.0 -12549700000.0 -23434900000.0 -20451000000.0 -17678800000.0 -19995000000.0 -20482000000.0 -20903900000.0 -21820000000.0 -21146800000.0 -18045500000.0 -16298100000.0 -26951400000.0 -12549700000.0 -17265300000.0 -13271800000.0 -12611000000.0 -16267800000.0 -22253500000.0 -12641300000.0 -14398200000.0 -12549800000.0 -19747100000.0 -19381700000.0 -16615200000.0 -15821000000.0 -25762200000.0 -23566500000.0 -18668100000.0 -19520100000.0 -24078600000.0 -27522500000.0 -15985500000.0 -17377800000.0 -16587800000.0 -15959600000.0 -13311000000.0 -37482000000.0 -19958900000.0 -13639600000.0 -23028900000.0 -13754000000.0 -30490800000.0 -24755500000.0 -21464000000.0 -19355600000.0 -29967600000.0 -23319500000.0 -84631000000.0 -34292800000.0 -13491900000.0 -13138600000.0 -35785000000.0 -40541000000.0 -18201400000.0 -23986300000.0 -33185800000.0 -19322700000.0 -28136100000.0 -13752100000.0 -35633300000.0 -26886800000.0 -12549700000.0 -13202000000.0 -17495800000.0 -12549700000.0 -18373600000.0 -19084200000.0 -21745700000.0 -36064500000.0 -13303100000.0 -13195100000.0 -23261500000.0 -29529100000.0 -25236300000.0 -18152100000.0 -16011500000.0 -30203900000.0 -20536600000.0 -17469900000.0 -30680400000.0 -15788600000.0 -17221400000.0 -39034100000.0 -24861800000.0 -29680600000.0 -12836700000.0 -14819300000.0 -15729900000.0 -24259100000.0 -12549700000.0 -20177900000.0 -16761000000.0 -22660300000.0 -13862000000.0 -28052900000.0 -14719700000.0 -12710600000.0 -13846000000.0 -12722700000.0 -12927900000.0 -15526800000.0 -27507400000.0 -28440100000.0 -22535200000.0 -12570800000.0 -24353600000.0 -18220600000.0 -16143200000.0 -18235900000.0 -14549600000.0 -16753000000.0 -17146700000.0 -13900500000.0 -14647000000.0 -14936400000.0 -13787000000.0 -21735600000.0 -21069100000.0 -21162800000.0 -23770800000.0 -25718500000.0 -14476200000.0 -15596200000.0 -14602300000.0 -22421100000.0 -16590100000.0 -22190000000.0 -29180200000.0 -22777500000.0 -19418800000.0 -20068400000.0 -15145400000.0 -21009800000.0 -12549700000.0 -23902800000.0 -45123500000.0 -26764800000.0 -24907700000.0 -30912500000.0 -15491900000.0 -27162100000.0 -25105200000.0 -24342100000.0 -40156200000.0 -45958400000.0 -46196100000.0 -33233400000.0 -34227800000.0 -69943300000.0 -18409100000.0 -43059000000.0 -23398300000.0 -50459500000.0 -28299600000.0 -26071800000.0 -25000700000.0 -22034400000.0 -23468100000.0 -21764000000.0 -18576000000.0 -30614300000.0 -17987900000.0 -16864100000.0 -30158000000.0 -24015800000.0 -12549700000.0 -12598800000.0 -21807200000.0 -19368500000.0 -31797300000.0 -24528400000.0 -20709000000.0 -33001000000.0 -12850100000.0 -12569100000.0 -37093300000.0 -19152400000.0 -21887600000.0 -23749200000.0 -32822100000.0 -29517600000.0 -32623900000.0 -29297800000.0 -16998700000.0 -29111300000.0 -12782600000.0 -26142900000.0 -30747300000.0 -14421600000.0 -13359000000.0 -13643900000.0 -13569800000.0 -13454200000.0 -12744300000.0 -13963200000.0 -14997900000.0 -12898900000.0 -26684400000.0 -25405500000.0 -20616400000.0 -16149600000.0 -13736500000.0 -13426400000.0 -15244200000.0 -13124900000.0 -13487900000.0 -18582700000.0 -18677800000.0 -16767400000.0 -17139700000.0 -17921800000.0 -18498200000.0 -13988600000.0 -12874400000.0 -12633500000.0 -12733400000.0 -13624200000.0 -24052500000.0 -13459300000.0 -22965500000.0 -20040700000.0 -30188000000.0 -12549700000.0 -20592200000.0 -23820600000.0 -26831200000.0 -19539300000.0 -14711500000.0 -14952700000.0 -28943700000.0 -28587900000.0 -12549700000.0 -21115300000.0 -46442700000.0 -26843300000.0 -12676900000.0 -12657400000.0 -20400000000.0 -17101500000.0 -12555600000.0 -32788600000.0 -32815000000.0 -20201700000.0 -108333000000.0 -13389300000.0 -44950700000.0 -56170700000.0 -30294900000.0 -33678700000.0 -31562900000.0 -35606300000.0 -45878400000.0 -12729100000.0 -28157800000.0 -27600200000.0 -14722600000.0 -18329100000.0 -27084000000.0 -12549700000.0 -19404000000.0 -15708200000.0 -14737100000.0 -15981300000.0 -19267700000.0 -24382600000.0 -26872800000.0 -16396400000.0 -13173500000.0 -12549700000.0 -12660400000.0 -12864400000.0 -14461800000.0 -17669400000.0 -21771100000.0 -24401400000.0 -20708400000.0 -17285400000.0 -31506500000.0 -21236100000.0 -31958300000.0 -14825900000.0 -14757100000.0 -12914300000.0 -18716300000.0 -17850700000.0 -18518300000.0 -13037600000.0 -19456900000.0 -32667800000.0 -32557200000.0 -45250800000.0 -13551300000.0 -13319100000.0 -12549700000.0 -12549700000.0 -13665700000.0 -12759400000.0 -12749200000.0 -12767500000.0 -13036900000.0 -14549200000.0 -20342300000.0 -17595400000.0 -22392800000.0 -12875400000.0 -19511300000.0 -15744900000.0 -13422600000.0 -13290200000.0 -14504200000.0 -13370700000.0 -14115600000.0 -13100400000.0 -13459400000.0 -13034900000.0 -13451000000.0 -13302900000.0 -13985200000.0 -15189400000.0 -12731300000.0 -12613700000.0 -12640200000.0 -12549700000.0 -12606500000.0 -18304600000.0 -18665100000.0 -12692700000.0 -13025200000.0 -21417700000.0 -23231600000.0 -31582300000.0 -34832600000.0 -47009400000.0 -16217800000.0 -38638500000.0 -25785000000.0 -17471500000.0 -34725200000.0 -37107900000.0 -35048100000.0 -34615700000.0 -33410500000.0 -20225400000.0 -27753300000.0 -16908200000.0 -62538100000.0 -48021500000.0 -58006300000.0 -71517800000.0 -49143300000.0 -61039600000.0 -67748100000.0 -14739800000.0 -22124900000.0 -36397200000.0 -45034700000.0 -51469700000.0 -33271600000.0 -47393200000.0 -57857300000.0 -23923600000.0 -18363100000.0 -26189500000.0 -21600300000.0 -22046800000.0 -15535200000.0 -16442700000.0 -12946800000.0 -16552600000.0 -18305500000.0 -18637100000.0 -12578200000.0 -12549700000.0 -15729000000.0 -16556400000.0 -13989100000.0 -14215200000.0 -13716700000.0 -18000400000.0 -13218200000.0 -25918500000.0 -15292900000.0 -25917600000.0 -12549700000.0 -27796800000.0 -22336600000.0 -19135800000.0 -21697200000.0 -17471700000.0 -16791800000.0 -20945800000.0 -20091200000.0 -33671800000.0 -26446700000.0 -27487700000.0 -25483200000.0 -19843300000.0 -13979600000.0 -16457800000.0 -16177700000.0 -16240200000.0 -13863700000.0 -15407700000.0 -12916300000.0 -15109800000.0 -15249000000.0 -21386300000.0 -12549700000.0 -19390000000.0 -14767400000.0 -14801100000.0 -13176700000.0 -12673800000.0 -16884300000.0 -12549700000.0 -14263500000.0 -16175000000.0 -18687400000.0 -12944700000.0 -12588800000.0 -12841400000.0 -12600300000.0 -12782000000.0 -13297400000.0 -13249200000.0 -12554300000.0 -13675800000.0 -12610100000.0 -12761600000.0 -12578600000.0 -12743700000.0 -12583200000.0 -12762800000.0 -15083900000.0 -14961900000.0 -21939200000.0 -20092000000.0 -12761300000.0 -31315500000.0 -17499600000.0 -14922500000.0 -16124800000.0 -41784400000.0 -39737000000.0 -18042000000.0 -14773700000.0 -35684100000.0 -41502500000.0 -68881400000.0 -16326200000.0 -37966600000.0 -37313600000.0 -59611300000.0 -22361600000.0 -13212500000.0 -13079600000.0 -41974200000.0 -24668700000.0 -87810400000.0 -61147700000.0 -64967200000.0 -63901900000.0 -17873300000.0 -69488500000.0 -38586700000.0 -44631800000.0 -29159900000.0 -23248400000.0 -12896800000.0 -54916100000.0 -13574100000.0 -13934100000.0 -21739700000.0 -14642600000.0 -15661200000.0 -13237200000.0 -15264400000.0 -13933300000.0 -12762700000.0 -16358500000.0 -17724200000.0 -17070000000.0 -15543400000.0 -12726500000.0 -13505800000.0 -14513600000.0 -13773800000.0 -18975300000.0 -17031200000.0 -17229400000.0 -14915800000.0 -19245800000.0 -17085700000.0 -25778800000.0 -23760700000.0 -16985300000.0 -14378700000.0 -15689500000.0 -16799400000.0 -16802300000.0 -17343700000.0 -13259200000.0 -17697100000.0 -23564800000.0 -18839500000.0 -12846000000.0 -12568200000.0 -34377400000.0 -16984300000.0 -16252300000.0 -12575300000.0 -13241100000.0 -15396100000.0 -13085100000.0 -13595200000.0 -19479500000.0 -18381000000.0 -16712300000.0 -16712300000.0 -15430200000.0 -16146100000.0 -14021200000.0 -12549700000.0 -12578700000.0 -12786800000.0 -14282500000.0 -14942600000.0 -12857400000.0 -14274900000.0 -13175200000.0 -12735300000.0 -13878400000.0 -15029600000.0 -13836900000.0 -16151900000.0 -13036100000.0 -12606300000.0 -22489800000.0 -18695500000.0 -31125600000.0 -26527200000.0 -30511000000.0 -40866800000.0 -22009300000.0 -19120600000.0 -17642300000.0 -31689600000.0 -24972400000.0 -25016200000.0 -36924900000.0 -66183400000.0 -36565800000.0 -57189600000.0 -36224600000.0 -23525400000.0 -87367000000.0 -13755200000.0 -128238000000.0 -18371500000.0 -14621200000.0 -68322200000.0 -24672700000.0 -18471400000.0 -29475900000.0 -12549700000.0 -43000600000.0 -24798700000.0 -18843100000.0 -18588300000.0 -13906900000.0 -13183100000.0 -15090400000.0 -14920300000.0 -15800300000.0 -18382300000.0 -14557400000.0 -14907800000.0 -12622100000.0 -14121300000.0 -15029100000.0 -12994400000.0 -14699600000.0 -13070000000.0 -14425600000.0 -14958400000.0 -12549700000.0 -17685100000.0 -18002200000.0 -28514000000.0 -12549700000.0 -14236200000.0 -15941500000.0 -12679100000.0 -12600000000.0 -12563000000.0 -14301200000.0 -16763600000.0 -16136800000.0 -18109800000.0 -22835700000.0 -16301800000.0 -18376300000.0 -29030300000.0 -17541700000.0 -14739900000.0 -13998700000.0 -12584000000.0 -12754400000.0 -13203500000.0 -13488200000.0 -13016000000.0 -13369700000.0 -13388200000.0 -13180100000.0 -12549700000.0 -14891400000.0 -14150000000.0 -13601900000.0 -13818900000.0 -14038200000.0 -14339500000.0 -15303100000.0 -16159500000.0 -15301000000.0 -13825400000.0 -14106100000.0 -14117600000.0 -14634300000.0 -14053700000.0 -14558600000.0 -15250000000.0 -16789200000.0 -18415300000.0 -17073300000.0 -26847200000.0 -22293900000.0 -27740300000.0 -14398000000.0 -19237600000.0 -13132700000.0 -32542400000.0 -34087100000.0 -38747100000.0 -16442400000.0 -19635200000.0 -56982100000.0 -39914000000.0 -37508700000.0 -13373100000.0 -27013100000.0 -68597200000.0 -12549700000.0 -47526300000.0 -42670200000.0 -26935000000.0 -46298600000.0 -14298400000.0 -15099300000.0 -92355400000.0 -15228000000.0 -19745200000.0 -12549700000.0 -42768900000.0 -25262100000.0 -54218500000.0 -39368800000.0 -23667700000.0 -13122500000.0 -21485700000.0 -23032700000.0 -20912000000.0 -14075500000.0 -19524800000.0 -18807000000.0 -13585600000.0 -20490200000.0 -15007800000.0 -13765800000.0 -16722400000.0 -19081800000.0 -13150500000.0 -13083400000.0 -15019300000.0 -14085400000.0 -14325100000.0 -12643100000.0 -18433400000.0 -14550100000.0 -14455600000.0 -16554500000.0 -13742900000.0 -14707100000.0 -20336600000.0 -17999400000.0 -14157900000.0 -16589700000.0 -15675900000.0 -12972200000.0 -13322300000.0 -16473500000.0 -12631500000.0 -15411000000.0 -24828800000.0 -14529600000.0 -14668100000.0 -13438500000.0 -12550100000.0 -12551000000.0 -12604500000.0 -12948300000.0 -12756600000.0 -12674000000.0 -12591900000.0 -12549700000.0 -12549700000.0 -13010200000.0 -12549700000.0 -13024400000.0 -12599700000.0 -12552500000.0 -12549700000.0 -12549700000.0 -12578600000.0 -12549700000.0 -12679400000.0 -13505300000.0 -13583100000.0 -15050700000.0 -14762600000.0 -12570500000.0 -14635100000.0 -13289800000.0 -13825800000.0 -14077100000.0 -14285700000.0 -14335500000.0 -24588300000.0 -12820200000.0 -18352400000.0 -15087200000.0 -13604200000.0 -24377800000.0 -18328200000.0 -19611700000.0 -21588000000.0 -12777300000.0 -34381600000.0 -43517900000.0 -29760900000.0 -14220100000.0 -33047900000.0 -47337300000.0 -53864100000.0 -25941100000.0 -65554900000.0 -99318400000.0 -55607600000.0 -96217400000.0 -22839600000.0 -14608300000.0 -97116000000.0 -12765700000.0 -29034700000.0 -52276700000.0 -86175000000.0 -32555500000.0 -44402500000.0 -20578600000.0 -58373900000.0 -19402900000.0 -22799900000.0 -12652200000.0 -15777100000.0 -12549700000.0 -14677300000.0 -17363700000.0 -18226300000.0 -20663400000.0 -18652600000.0 -13890600000.0 -13823800000.0 -12914000000.0 -12553900000.0 -13223500000.0 -12549700000.0 -15767300000.0 -13406700000.0 -13791600000.0 -12786800000.0 -14362200000.0 -22799600000.0 -14052500000.0 -12824400000.0 -14047700000.0 -15074800000.0 -13547700000.0 -12549700000.0 -13073100000.0 -13097900000.0 -15881700000.0 -12744200000.0 -19391200000.0 -18354800000.0 -16620700000.0 -14881900000.0 -12806400000.0 -12686600000.0 -12919600000.0 -12549700000.0 -12554800000.0 -12599500000.0 -12820400000.0 -12590600000.0 -12549700000.0 -12549700000.0 -12549700000.0 -12787700000.0 -12566500000.0 -12549700000.0 -12549700000.0 -12549700000.0 -12587200000.0 -13147700000.0 -12864800000.0 -12833200000.0 -12849300000.0 -12849700000.0 -12657800000.0 -13173600000.0 -12701700000.0 -14460900000.0 -13102500000.0 -14084600000.0 -12928100000.0 -16459200000.0 -14658400000.0 -18744600000.0 -20239700000.0 -22446700000.0 -20178100000.0 -23045600000.0 -22888300000.0 -26387100000.0 -15769200000.0 -52769200000.0 -37246900000.0 -52642800000.0 -43625000000.0 -57210600000.0 -15267600000.0 -32716100000.0 -59554100000.0 -51453300000.0 -109170000000.0 -83902400000.0 -106690000000.0 -60635400000.0 -41649800000.0 -74408600000.0 -43739200000.0 -49144100000.0 -26486400000.0 -48035100000.0 -25392200000.0 -22939800000.0 -19328300000.0 -18087100000.0 -14779100000.0 -16613000000.0 -12839200000.0 -12650600000.0 -12764700000.0 -12791200000.0 -13368300000.0 -15541200000.0 -17042900000.0 -12902700000.0 -15404900000.0 -13684200000.0 -14241000000.0 -13413800000.0 -13085000000.0 -14882300000.0 -12564800000.0 -12633200000.0 -13952500000.0 -12814900000.0 -18956200000.0 -12652400000.0 -14796800000.0 -13235500000.0 -13011500000.0 -13190500000.0 -16855400000.0 -16048700000.0 -19292100000.0 -19771400000.0 -16453300000.0 -13486200000.0 -14358100000.0 -12658400000.0 -12615200000.0 -12549700000.0 -12659900000.0 -12550200000.0 -12551600000.0 -12562800000.0 -12644900000.0 -12637100000.0 -12549700000.0 -12556700000.0 -12607900000.0 -12924300000.0 -12914500000.0 -12623500000.0 -12736200000.0 -12908900000.0 -13642100000.0 -13356800000.0 -12989800000.0 -14234500000.0 -12934700000.0 -13748500000.0 -13334400000.0 -15255700000.0 -15870600000.0 -13830100000.0 -14275200000.0 -27842100000.0 -33913500000.0 -29537700000.0 -73271600000.0 -64758600000.0 -35511500000.0 -63111400000.0 -58969000000.0 -59070500000.0 -57666700000.0 -29145200000.0 -50737700000.0 -99394100000.0 -19400900000.0 -47393100000.0 -27197900000.0 -40420500000.0 -67986300000.0 -16031300000.0 -17570500000.0 -15498500000.0 -17654400000.0 -17010400000.0 -12919400000.0 -12608900000.0 -12614100000.0 -12806900000.0 -12874000000.0 -12652200000.0 -14148500000.0 -13746300000.0 -12549700000.0 -12958300000.0 -12945400000.0 -13002000000.0 -13455500000.0 -13692100000.0 -13633100000.0 -14516400000.0 -12553400000.0 -14941500000.0 -14424900000.0 -12753800000.0 -12751000000.0 -12826000000.0 -12749800000.0 -13611800000.0 -12689000000.0 -12701800000.0 -15472800000.0 -15304900000.0 -14120800000.0 -29122000000.0 -22088900000.0 -26322300000.0 -54937700000.0 -46213900000.0 -51328800000.0 -79126600000.0 -49009500000.0 -52999000000.0 -57011700000.0 -58191300000.0 -98887700000.0 -12917600000.0 -45871200000.0 -41016900000.0 -99794600000.0 -37506000000.0 -55318300000.0 -45735200000.0 -54024100000.0 -80171300000.0 -68538300000.0 -17466700000.0 -37993900000.0 -21821900000.0 -34461700000.0 -47139300000.0 -27248000000.0 -33992200000.0 -14356800000.0 -119720000000.0 -51567100000.0 -83232000000.0 -12549700000.0 -53475100000.0 -69743100000.0 -41636300000.0 -213348000000.0 -98557600000.0 -129013000000.0 -64781600000.0 -63789600000.0 -46241200000.0 -18609100000.0 -117401000000.0 -17430100000.0 -46933000000.0 -39348300000.0 -97738200000.0 -44984400000.0 -26231100000.0 -101069000000.0 -143413000000.0 -216584000000.0 -55343200000.0 -93566900000.0 -59020800000.0 -38716000000.0 -13117300000.0 -60528300000.0 -116251000000.0 -16083100000.0 -14063900000.0 -14772700000.0 -14277500000.0 -12549700000.0 -42749600000.0 -26989900000.0 -47569700000.0 -38502400000.0 -110097000000.0 -84762900000.0 -110595000000.0 -14425200000.0 -42570700000.0 -20769500000.0 -12817400000.0 -14298800000.0 -193754000000.0 -84421800000.0 -13977700000.0 -31566600000.0 -117905000000.0 -12965100000.0 -33102000000.0 -60761600000.0 -80136800000.0 -29090600000.0 -14917300000.0 -12549700000.0 -17313600000.0 -60992400000.0 -49538000000.0 -60891300000.0 -94319200000.0 -22525200000.0 -63243100000.0 -49138700000.0 -44182900000.0 -217144000000.0 -57170200000.0 -64270800000.0 -36337500000.0 -67054700000.0 -90200000000.0 -35576600000.0 -17382000000.0 -12549700000.0 -12549700000.0 -12549700000.0 -12549700000.0 -12549700000.0 -12549700000.0 -12549700000.0 -12549700000.0 -12549700000.0 -20170200000.0 -68296500000.0 -34525500000.0 -29978800000.0 -90891400000.0 -12601100000.0 -78852900000.0 -80358000000.0 -49227900000.0 -98086300000.0 -59248600000.0 -48483000000.0 -110488000000.0 -178583000000.0 -50806200000.0 -55352400000.0 -38723100000.0 -20499600000.0 -12549700000.0 -12549700000.0 -12549700000.0 -12549700000.0 -12549700000.0 -12549700000.0 -12549700000.0 -12549700000.0 -12549700000.0 -12549700000.0 -12549700000.0 -12549700000.0 -12549700000.0 -12549700000.0 -12549700000.0 -12549700000.0 -12549700000.0 -12549700000.0 -12549700000.0 -12549700000.0 -12549700000.0 -12549700000.0 -12549700000.0 -12549700000.0 -12549700000.0 -12549700000.0 -12549700000.0 -12549700000.0 -12549700000.0 -12549700000.0 -12549700000.0 -12549700000.0 -12549700000.0 -12549700000.0 -12632500000.0 -12549700000.0 -12549700000.0 -17396600000.0 -72656500000.0 -46447100000.0 -13700900000.0 -24477600000.0 -108936000000.0 -164376000000.0 -149439000000.0 -95140300000.0 -90015400000.0 -275918000000.0 -89376800000.0 -27160000000.0 -81056800000.0 -36056600000.0 -32103700000.0 -161101000000.0 -168966000000.0 -98709100000.0 -26069800000.0 -82463300000.0 -29048400000.0 -102764000000.0 -37403400000.0 -14487500000.0 -12549700000.0 -12549700000.0 -12549700000.0 -12549700000.0 -12549700000.0 -12549700000.0 -12549700000.0 -12549700000.0 -12549700000.0 -12549700000.0 -12549700000.0 -12549700000.0 -29685600000.0 -12549700000.0 -12549700000.0 -12549700000.0 -12549700000.0 -12549700000.0 -12549700000.0 -12549700000.0 -12549700000.0 -12549700000.0 -12549700000.0 -12549700000.0 -12549700000.0 -12549700000.0 -12549700000.0 -12778800000.0 -36481300000.0 -66059700000.0 -94317600000.0 -112637000000.0 -99314800000.0 -73245100000.0 -28636700000.0 -67432500000.0 -64237500000.0 -68836300000.0 -171310000000.0 -295236000000.0 -152902000000.0 -204170000000.0 -168820000000.0 -207379000000.0 -92568000000.0 -25169800000.0 -108089000000.0 -15555700000.0 -23461300000.0 -18050300000.0 -14624200000.0 -14121400000.0 -13338000000.0 -12549700000.0 -12549700000.0 -12549700000.0 -12549700000.0 -12549700000.0 -12549700000.0 -12549700000.0 -12549900000.0 -12549700000.0 -12549700000.0 -12549700000.0 -12549700000.0 -12549700000.0 -12549700000.0 -12549700000.0 -12549700000.0 -12549700000.0 -12549700000.0 -12549700000.0 -12549700000.0 -40671100000.0 -12549700000.0 -12549700000.0 -12549700000.0 -12549700000.0 -12549700000.0 -12549700000.0 -12549700000.0 -12549700000.0 -12549700000.0 -12549700000.0 -12549700000.0 -12549700000.0 -12549700000.0 -12549700000.0 -12549700000.0 -12549700000.0 -12549700000.0 -12549700000.0 -12549700000.0 -12549700000.0 -14660900000.0 -22418300000.0 -27385700000.0 -32152600000.0 -126192000000.0 -17555600000.0 -101240000000.0 -74386200000.0 -123170000000.0 -158333000000.0 -170638000000.0 -241827000000.0 -192417000000.0 -182977000000.0 -242429000000.0 -259109000000.0 -139865000000.0 -183885000000.0 -108219000000.0 -91280000000.0 -127393000000.0 -95582200000.0 -16331300000.0 -12843300000.0 -20771700000.0 -14194500000.0 -12549700000.0 -12549700000.0 -21902500000.0 -31473200000.0 -80520600000.0 -12549700000.0 -23527400000.0 -12547100000.0 -12549700000.0 -12549700000.0 -12549700000.0 -12549700000.0 -12549700000.0 -12549700000.0 -12549700000.0 -12549700000.0 -12549700000.0 -12549700000.0 -12549700000.0 -12549700000.0 -10641300000.0 -27495100000.0 -12549700000.0 -24652600000.0 -13410100000.0 -12554800000.0 -12549700000.0 -12549700000.0 -12549700000.0 -12549700000.0 -12549700000.0 -12549700000.0 -12548500000.0 -12549700000.0 -12549700000.0 -149588000000.0 -249704000000.0 -12549700000.0 -12549700000.0 -12549700000.0 -12549700000.0 -12549600000.0 -12549700000.0 -14019100000.0 -110558000000.0 -13299400000.0 -38931300000.0 -122220000000.0 -154466000000.0 -14928300000.0 -104382000000.0 -221313000000.0 -164434000000.0 -56522000000.0 -187927000000.0 -20690600000.0 -176926000000.0 -302773000000.0 -110732000000.0 -176475000000.0 -127432000000.0 -84065300000.0 -57446200000.0 -57333100000.0 -93172700000.0 -12549700000.0 -12549700000.0 -12549700000.0 -12549700000.0 -165844000000.0 -12549600000.0 -60161600000.0 -15417800000.0 -12549700000.0 -26901300000.0 -14453500000.0 -283493000000.0 -12549700000.0 -12549700000.0 -12549700000.0 -12549700000.0 -12549700000.0 -12549500000.0 -2.76367e+12 -3.08338e+12 -4.91814e+12 -160543000000.0 -19128900000.0 -5.05204e+12 -3.20858e+12 -3.19595e+12 -5.88729e+12 -11881000000.0 -5.50853e+12 -12830700000.0 -94519100000.0 -3.01063e+12 -4.19496e+12 -3.37419e+12 -14794100000.0 -3.10043e+12 -3.32259e+12 -4.16184e+12 -4.37509e+12 -355122000000.0 -3.86167e+12 -6.67036e+12 -4.30142e+12 -3.93437e+12 -5.1418e+12 -5.85067e+12 -6.66916e+12 -2.9283e+12 -3.42394e+12 -5.02805e+12 -2.77513e+12 -3.67959e+12 -300937000000.0 -2.75429e+12 -899358000000.0 -813539000000.0 -1.26832e+12 -2.43447e+12 -4.38293e+12 -5.8398e+12 -2.51373e+12 -12549700000.0 -3.95331e+12 -3.25916e+12 -209188000000.0 -3.04984e+12 -2.8316e+12 -596883000000.0 -1.98958e+12 -12619200000.0 -12549200000.0 -3.72474e+12 -2.79327e+12 -2.19204e+12 -475147000000.0 -6.21568e+12 -4.87079e+12 -3.52612e+12 -120439000000.0 -54219800000.0 -36596200000.0 -17382400000.0 -272616000000.0 -231754000000.0 -177087000000.0 -146438000000.0 -321724000000.0 -85871600000.0 -65676600000.0 -118621000000.0 -251108000000.0 -12562900000.0 -201152000000.0 -235520000000.0 -351906000000.0 -283298000000.0 -60171200000.0 -173288000000.0 -22618600000.0 -3.17243e+12 -2.51308e+12 -3.22615e+12 -6.16197e+12 -4.9184e+12 -856866000000.0 -385511000000.0 -2.58949e+12 -1.68711e+12 -1.58218e+12 -3.49725e+12 -2.98935e+12 -2.92381e+12 -5.3846e+12 -3.23524e+12 -12549700000.0 -3.33731e+12 -12549700000.0 -4.38391e+12 -3.82052e+12 -1.15842e+12 -3.54259e+12 -5.21405e+12 -181975000000.0 -102366000000.0 -3.61739e+12 -6.44952e+12 -4.22544e+12 -2.83662e+12 -37274800000.0 -224905000000.0 -758144000000.0 -1.62102e+12 -3.30123e+12 -3.90474e+12 -12549700000.0 -4.7277e+12 -4.46974e+12 -3.07133e+12 -3.44681e+12 -87240500000.0 -133404000000.0 -729236000000.0 -4.07826e+12 -157879000000.0 -3.58531e+12 -4.43206e+12 -4.20156e+12 -3.3595e+12 -3.65808e+12 -5.2767e+12 -2.45383e+12 -3.61706e+12 -5.23231e+12 -5.07552e+12 -4.51599e+12 -4.13062e+12 -2.43105e+12 -12549600000.0 -3.12556e+12 -3.28024e+12 -5.05014e+12 -4.05258e+12 -9.52818e+12 -5.91838e+12 -5.24408e+12 -4.72477e+12 -4.34249e+12 -4.50957e+12 -5.18156e+12 -4.2845e+12 -4.42642e+12 -4.89175e+12 -5.70977e+12 -3.20256e+12 -4.16454e+12 -3.43737e+12 -8.06913e+12 -4.55715e+12 -5.85629e+12 -5.17072e+12 -5.96653e+12 -8.41477e+12 -5.52855e+12 -7.05192e+12 -2.20656e+12 -4.76391e+12 -5.26113e+12 -4.35414e+12 -4.47919e+12 -7.35901e+12 -6.3293e+12 -5.71733e+12 -8.49026e+12 -9.45899e+12 -6.48587e+12 -5.05846e+12 -1.18054e+13 -3.58722e+12 -8.00374e+12 -8.60256e+12 -8.85839e+12 -8.88261e+12 -4.36481e+12 -5.58876e+12 -7.35324e+12 -5.79007e+12 -3.16928e+12 -5.23076e+12 -9.09134e+12 -5.86859e+12 -4.59604e+12 -5.42695e+12 -1.52922e+12 -6.54403e+12 -6.72917e+12 -3.39351e+12 -5.67869e+12 -3.7498e+12 -589926000000.0 -5.47026e+12 -5.0556e+12 -4.26789e+12 -8.04743e+12 -8.97514e+12 -5.55944e+12 -3.7739e+12 -7.55252e+12 -6.26871e+12 -6.35136e+12 -6.99114e+12 -4.58572e+12 -5.3407e+12 -2.19562e+12 -1.01983e+13 -4.68824e+12 -5.55371e+12 -4.55065e+12 -4.02345e+12 -4.01793e+12 -1.13276e+13 -6.53217e+12 -4.8084e+12 -6.90401e+12 -3.77618e+12 -144042000000.0 -46523000000.0 -236581000000.0 -220041000000.0 -12549700000.0 -91587100000.0 -172894000000.0 -213218000000.0 -52014200000.0 -275779000000.0 -142035000000.0 -143192000000.0 -277361000000.0 -160621000000.0 -55248400000.0 -52080700000.0 -603340000000.0 -588332000000.0 -155019000000.0 -6.38462e+12 -27627400000.0 -6.05527e+12 -8.30255e+12 -4.93528e+12 -7.32891e+12 -5.61188e+12 -4.33292e+12 -6.15668e+12 -3.12442e+12 -5.32928e+12 -5.20971e+12 -4.0761e+12 -7.68422e+12 -5.91175e+12 -8.31569e+12 -1.10563e+13 -2.78523e+12 -5.16145e+12 -3.65986e+12 -4.22433e+12 -7.82336e+12 -1.22775e+13 -5.25803e+12 -4.94445e+12 -6.58519e+12 -4.50741e+12 -5.33809e+12 -4.30481e+12 -3.18632e+12 -4.69767e+12 -2.84378e+12 -5.24452e+12 -5.09226e+12 -5.14497e+12 -4.79355e+12 -4.54202e+12 -6.56585e+12 -5.36785e+12 -5.47686e+12 -7.01216e+12 -5.39914e+12 -4.69059e+12 -6.08907e+12 -8.07748e+12 -4.9937e+12 -4.7995e+12 -4.494e+12 -3.6601e+12 -6.42489e+12 -7.7114e+12 -5.25136e+12 -3.65755e+12 -5.95871e+12 -3.96294e+12 -7.2715e+12 -5.79888e+12 -828696000000.0 -6.17022e+12 -5.84415e+12 -7.47093e+12 -5.54813e+12 -8.54342e+12 -6.06247e+12 -7.4611e+12 -6.73237e+12 -6.4096e+12 -6.34709e+12 -5.7696e+12 -7.70489e+12 -5.38793e+12 -4.13004e+12 -5.57696e+12 -5.64829e+12 -4.6955e+12 -7.57552e+12 -9.43043e+12 -4.94503e+12 -4.89984e+12 -5.08873e+12 -8.58503e+12 -4.84286e+12 -7.75714e+12 -7.38527e+12 -4.03405e+12 -5.71215e+12 -3.04061e+12 -7.90671e+12 -5.84344e+12 -7.43593e+12 -9.60062e+12 -7.2396e+12 -5.39008e+12 -6.40943e+12 -5.20466e+12 -5.4677e+12 -6.26967e+12 -5.2405e+12 -5.88755e+12 -3.87027e+12 -5.22852e+12 -1.97872e+12 -6.81335e+12 -4.61661e+12 -5.02033e+12 -8.11706e+12 -4.69033e+12 -3.12564e+12 -6.95673e+12 -9.94771e+12 -6.4777e+12 -3.61718e+12 -2.99514e+12 -5.24093e+12 -2.74347e+12 -7.1035e+12 -6.37243e+12 -5.29815e+12 -7.77087e+12 -6.55972e+12 -7.30314e+12 -7.5872e+12 -8.63271e+12 -5.98888e+12 -5.87917e+12 -2.88993e+12 -5.14148e+12 -8.3957e+12 -6.13122e+12 -7.01102e+12 -5.10156e+12 -4.70999e+12 -6.18595e+12 -6.19209e+12 -5.88699e+12 -5.97349e+12 -4.39176e+12 -7.9257e+12 -9.81228e+12 -6.51826e+12 -9.19706e+12 -5.85897e+12 -3.94575e+12 -5.42806e+12 -6.12468e+12 -2.2615e+12 -6.85376e+12 -6.34262e+12 -6.08321e+12 -7.28092e+12 -5.14537e+12 -5.9254e+12 -3.94885e+12 -7.60225e+12 -7.12556e+12 -6.06319e+12 -6.01741e+12 -3.05066e+12 -12549600000.0 -138053000000.0 -295787000000.0 -36165300000.0 -103295000000.0 -80654400000.0 -139112000000.0 -89922300000.0 -17948000000.0 -60798100000.0 -143070000000.0 -82805200000.0 -107470000000.0 -92087700000.0 -76208900000.0 -203494000000.0 -13972900000.0 -249348000000.0 -746052000000.0 -817522000000.0 -738579000000.0 -230811000000.0 -6.80228e+12 -5.37758e+12 -3.60357e+12 -7.03539e+12 -6.08431e+12 -7.40196e+12 -2.39343e+12 -4.5615e+12 -3.6175e+12 -7.13366e+12 -7.71634e+12 -3.17542e+12 -4.41068e+12 -7.35969e+12 -6.52911e+12 -6.18276e+12 -3.90206e+12 -8.53377e+12 -7.78015e+12 -8.40282e+12 -9.33362e+12 -7.77147e+12 -4.62537e+12 -5.84286e+12 -5.93685e+12 -6.81249e+12 -3.24334e+12 -3.7918e+12 -9.70365e+12 -6.10541e+12 -7.59627e+12 -7.59132e+12 -8.50752e+12 -2.6877e+12 -6.37088e+12 -5.99218e+12 -6.81641e+12 -5.54111e+12 -6.45584e+12 -5.06366e+12 -8.73519e+12 -7.76322e+12 -7.47764e+12 -7.93228e+12 -9.59226e+12 -5.65153e+12 -3.59706e+12 -3.74535e+12 -4.98645e+12 -3.24674e+12 -8.2245e+12 -6.54724e+12 -8.0562e+12 -8.04818e+12 -7.19494e+12 -6.70221e+12 -7.21946e+12 -3.98799e+12 -5.67185e+12 -5.72867e+12 -8.72901e+12 -6.6102e+12 -9.7891e+12 -7.13498e+12 -3.21704e+12 -3.37002e+12 -4.42636e+12 -5.14799e+12 -5.33227e+12 -7.2197e+12 -5.24153e+12 -5.3925e+12 -6.56126e+12 -5.80649e+12 -9.629e+12 -4.84069e+12 -4.47549e+12 -3.80869e+12 -4.41525e+12 -3.64865e+12 -4.94046e+12 -4.27897e+12 -7.68038e+12 -4.53664e+12 -2.3702e+12 -5.8621e+12 -5.39707e+12 -6.65182e+12 -5.22538e+12 -6.59854e+12 -1.03222e+13 -3.81613e+12 -5.27437e+12 -5.79063e+12 -4.04795e+12 -4.93006e+12 -6.44686e+12 -6.42948e+12 -7.90215e+12 -7.23365e+12 -7.09358e+12 -5.18657e+12 -5.33733e+12 -6.30838e+12 -5.47341e+12 -6.55805e+12 -3.34602e+12 -4.80634e+12 -5.79965e+12 -8.07441e+12 -5.98541e+12 -7.65329e+12 -4.59134e+12 -7.39807e+12 -2.82138e+12 -6.56969e+12 -2.9444e+12 -6.256e+12 -7.69187e+12 -5.3576e+12 -5.58233e+12 -6.17298e+12 -4.26751e+12 -4.34422e+12 -4.56134e+12 -7.86475e+12 -4.02909e+12 -5.20254e+12 -6.24863e+12 -6.1547e+12 -5.72457e+12 -6.69308e+12 -3.51925e+12 -3.00448e+12 -2.58123e+12 -3.86942e+12 -4.25075e+12 -271982000000.0 -179805000000.0 -91386300000.0 -221818000000.0 -205630000000.0 -219301000000.0 -77247500000.0 -102922000000.0 -32053600000.0 -135407000000.0 -41978000000.0 -150540000000.0 -50367600000.0 -50440800000.0 -112005000000.0 -227252000000.0 -57386200000.0 -398175000000.0 -251222000000.0 -236732000000.0 -3.21669e+12 -5.35389e+12 -4.28038e+12 -5.45427e+12 -3.27061e+12 -5.60223e+12 -8.7869e+12 -5.95025e+12 -4.24845e+12 -3.78375e+12 -6.2209e+12 -6.48071e+12 -1.01951e+13 -3.57675e+12 -4.2887e+12 -6.27793e+12 -7.48908e+12 -1.04567e+13 -4.68685e+12 -6.46219e+12 -5.37434e+12 -6.42671e+12 -9.48944e+12 -7.02154e+12 -6.69588e+12 -4.99733e+12 -5.42816e+12 -1.01009e+13 -6.46827e+12 -5.59204e+12 -4.51625e+12 -7.76723e+12 -6.90699e+12 -4.51264e+12 -3.77477e+12 -6.14202e+12 -5.83549e+12 -5.52038e+12 -6.58442e+12 -5.6248e+12 -5.56196e+12 -5.04387e+12 -8.05358e+12 -7.62879e+12 -5.73292e+12 -6.8495e+12 -5.82297e+12 -5.3712e+12 -4.47039e+12 -8.82162e+12 -3.7961e+12 -7.76935e+12 -5.54791e+12 -4.44875e+12 -9.48937e+12 -5.37934e+12 -5.14407e+12 -6.74182e+12 -4.99598e+12 -7.4075e+12 -5.86183e+12 -3.60729e+12 -2.94748e+12 -2.41854e+12 -4.8517e+12 -7.06238e+12 -5.05787e+12 -6.79919e+12 -5.6018e+12 -4.74156e+12 -3.74512e+12 -3.3882e+12 -6.03335e+12 -6.29086e+12 -4.63066e+12 -3.32064e+12 -3.61802e+12 -4.92338e+12 -2.26109e+12 -5.11007e+12 -5.04485e+12 -6.47187e+12 -5.90025e+12 -5.57639e+12 -4.9847e+12 -7.80386e+12 -8.01257e+12 -4.81969e+12 -4.99203e+12 -5.95028e+12 -7.45277e+12 -4.31461e+12 -4.43862e+12 -4.50799e+12 -5.38577e+12 -5.09557e+12 -5.67104e+12 -6.38022e+12 -6.39072e+12 -9.84975e+12 -3.43876e+12 -4.17128e+12 -2.77425e+12 -6.01406e+12 -3.91288e+12 -4.57336e+12 -5.18706e+12 -6.91602e+12 -5.85749e+12 -5.48599e+12 -3.53788e+12 -2.71039e+12 -4.47244e+12 -3.61702e+12 -4.98123e+12 -6.02131e+12 -5.51369e+12 -8.45326e+12 -3.55101e+12 -4.18033e+12 -6.1327e+12 -2.57718e+12 -3.29281e+12 -4.11841e+12 -2.23803e+12 -178921000000.0 -38733200000.0 -119529000000.0 -172399000000.0 -191346000000.0 -209101000000.0 -233513000000.0 -162346000000.0 -92398000000.0 -184091000000.0 -235295000000.0 -355159000000.0 -278810000000.0 -199734000000.0 -254744000000.0 -78145900000.0 -365047000000.0 -185515000000.0 -15633700000.0 -4.82664e+12 -4.44521e+12 -7.03048e+12 -6.69879e+12 -7.86325e+12 -4.73153e+12 -3.82317e+12 -2.5726e+12 -2.17926e+12 -5.8613e+12 -6.0902e+12 -4.32881e+12 -4.16958e+12 -7.25139e+12 -5.83834e+12 -8.18816e+12 -5.26173e+12 -8.13744e+12 -6.0548e+12 -7.55411e+12 -8.99523e+12 -4.14852e+12 -5.65234e+12 -5.86778e+12 -7.47377e+12 -6.16351e+12 -5.73754e+12 -3.60636e+12 -8.08123e+12 -8.44522e+12 -6.89473e+12 -6.67998e+12 -4.15342e+12 -4.08618e+12 -6.5455e+12 -4.77487e+12 -6.34465e+12 -5.27547e+12 -5.18779e+12 -6.03891e+12 -4.77934e+12 -5.04073e+12 -4.15602e+12 -1.45873e+12 -2.30652e+12 -4.14124e+12 -4.06501e+12 -4.91424e+12 -5.35984e+12 -8.57414e+12 -5.58644e+12 -4.57067e+12 -5.53482e+12 -4.60574e+12 -2.43026e+12 -4.40413e+12 -5.81405e+12 -3.39685e+12 -4.93751e+12 -6.36172e+12 -8.5469e+12 -4.09871e+12 -6.12735e+12 -6.38373e+12 -6.71794e+12 -4.48809e+12 -4.40439e+12 -5.90609e+12 -5.56102e+12 -5.3119e+12 -4.65209e+12 -4.43531e+12 -5.23289e+12 -4.618e+12 -5.66287e+12 -3.78039e+12 -8.23434e+12 -2.00201e+12 -5.87617e+12 -4.03633e+12 -1.4866e+12 -2.77394e+12 -5.14033e+12 -5.61413e+12 -4.43671e+12 -4.40279e+12 -4.54368e+12 -5.24649e+12 -5.09008e+12 -4.51553e+12 -5.65857e+12 -5.30098e+12 -3.63097e+12 -4.24789e+12 -4.94088e+12 -3.01211e+12 -4.34753e+12 -7.13104e+12 -6.86779e+12 -5.2065e+12 -5.5956e+12 -6.40912e+12 -4.75137e+12 -3.81346e+12 -5.07538e+12 -5.581e+12 -2.58465e+12 -4.43525e+12 -2.82639e+12 -7.01533e+12 -7.64632e+12 -4.29957e+12 -4.30691e+12 -3.47191e+12 -7.98084e+12 -3.28086e+12 -4.43261e+12 -4.53153e+12 -6.31507e+12 -3.13556e+12 -4.42566e+12 -7.01477e+12 -5.59609e+12 -6.45708e+12 -5.51097e+12 -3.79264e+12 -4.69834e+12 -141116000000.0 -179085000000.0 -162814000000.0 -22175100000.0 -140572000000.0 -18630200000.0 -90831400000.0 -12549700000.0 -149582000000.0 -177898000000.0 -149900000000.0 -157745000000.0 -158891000000.0 -70900500000.0 -299974000000.0 -172197000000.0 -99363900000.0 -173531000000.0 -100003000000.0 -99417700000.0 -57280300000.0 -3.91325e+12 -3.69867e+12 -7.48976e+12 -3.49132e+12 -2.291e+12 -3.31702e+12 -4.52185e+12 -8.42945e+12 -6.25392e+12 -5.917e+12 -5.50774e+12 -2.67355e+12 -8.50691e+12 -4.3428e+12 -3.78344e+12 -5.04308e+12 -3.34535e+12 -3.17495e+12 -4.18513e+12 -6.49154e+12 -5.62934e+12 -3.80555e+12 -4.96093e+12 -3.15949e+12 -5.04021e+12 -5.13218e+12 -6.12963e+12 -7.73938e+12 -3.12164e+12 -2.45977e+12 -5.63002e+12 -3.66518e+12 -4.68118e+12 -6.61747e+12 -3.6809e+12 -5.61052e+12 -4.71756e+12 -4.9648e+12 -5.12121e+12 -5.393e+12 -4.72524e+12 -4.45657e+12 -3.92118e+12 -6.01804e+12 -6.78856e+12 -4.92757e+12 -7.05971e+12 -3.60805e+12 -3.60204e+12 -2.92282e+12 -5.00961e+12 -4.32928e+12 -4.93963e+12 -3.4687e+12 -3.56692e+12 -4.0553e+12 -4.52118e+12 -5.60568e+12 -3.64619e+12 -2.52961e+12 -7.28227e+12 -4.1695e+12 -3.67989e+12 -2.77917e+12 -1.58377e+12 -5.36538e+12 -3.56126e+12 -3.04982e+12 -6.96836e+12 -5.8992e+12 -5.40635e+12 -8.40708e+12 -4.16941e+12 -3.09121e+12 -5.46337e+12 -3.94545e+12 -4.37111e+12 -4.35154e+12 -3.66547e+12 -3.94959e+12 -2.64915e+12 -2.31114e+12 -4.38238e+12 -5.91553e+12 -4.16119e+12 -3.12307e+12 -5.89025e+12 -5.36692e+12 -7.01067e+12 -5.35003e+12 -3.45196e+12 -7.39401e+12 -3.90606e+12 -3.82e+12 -5.58759e+12 -3.75678e+12 -4.64604e+12 -4.41567e+12 -4.40978e+12 -2.97555e+12 -7.34382e+12 -4.97313e+12 -5.05517e+12 -4.01033e+12 -3.48459e+12 -5.49367e+12 -5.20779e+12 -2.58951e+12 -5.43011e+12 -6.56886e+12 -4.01399e+12 -2.45089e+12 -5.59844e+12 -5.15311e+12 -5.06275e+12 -5.84267e+12 -4.83594e+12 -3.28805e+12 -1.78398e+12 -87057800000.0 -140883000000.0 -63644900000.0 -88917700000.0 -124750000000.0 -46152200000.0 -86344500000.0 -120758000000.0 -121008000000.0 -55843200000.0 -72296600000.0 -130513000000.0 -58941400000.0 -90632300000.0 -35825600000.0 -159544000000.0 -250257000000.0 -88335400000.0 -88211900000.0 -37426100000.0 -191386000000.0 -128915000000.0 -173066000000.0 -3.05493e+12 -4.03766e+12 -2.61858e+12 -3.88903e+12 -4.248e+12 -4.79303e+12 -5.57151e+12 -6.36669e+12 -7.07091e+12 -3.68317e+12 -4.97625e+12 -2.41944e+12 -2.78266e+12 -4.53086e+12 -3.31306e+12 -4.30831e+12 -5.92987e+12 -3.80203e+12 -7.39836e+12 -8.30636e+12 -3.06319e+12 -2.47438e+12 -5.21547e+12 -3.09489e+12 -2.76432e+12 -7.35047e+12 -7.04961e+12 -3.07694e+12 -4.2141e+12 -3.76992e+12 -4.47997e+12 -2.63704e+12 -5.98047e+12 -6.59552e+12 -5.2011e+12 -6.05283e+12 -2.69947e+12 -3.47752e+12 -5.40687e+12 -2.69759e+12 -4.93213e+12 -3.76089e+12 -4.45442e+12 -5.13116e+12 -5.24522e+12 -4.12393e+12 -3.64159e+12 -3.83412e+12 -4.53123e+12 -3.55219e+12 -3.93574e+12 -6.16027e+12 -2.68691e+12 -4.74693e+12 -5.19334e+12 -6.45471e+12 -3.46234e+12 -5.38811e+12 -1.72693e+12 -4.77272e+12 -3.63689e+12 -4.17814e+12 -2.00733e+12 -4.12197e+12 -8.05187e+12 -3.48467e+12 -5.7476e+12 -6.69428e+12 -2.94874e+12 -709754000000.0 -3.69316e+12 -3.1847e+12 -3.80509e+12 -8.061e+12 -4.32334e+12 -4.52315e+12 -4.26542e+12 -3.20574e+12 -4.39159e+12 -3.3448e+12 -3.73153e+12 -2.16065e+12 -4.53546e+12 -5.68716e+12 -2.90907e+12 -2.35182e+12 -3.55318e+12 -5.07843e+12 -6.46956e+12 -4.71294e+12 -3.53359e+12 -2.66377e+12 -4.30682e+12 -5.91495e+12 -1.88513e+12 -6.13527e+12 -3.69673e+12 -2.09785e+12 -6.43202e+12 -5.83331e+12 -5.60878e+12 -4.43335e+12 -2.58582e+12 -4.26789e+12 -4.74306e+12 -3.49532e+12 -5.149e+12 -5.98867e+12 -4.07401e+12 -3.09787e+12 -3.95226e+12 -4.71126e+12 -4.79279e+12 -1.97467e+12 -1.59364e+12 -2.40873e+12 -15726600000.0 -82536800000.0 -174106000000.0 -39711500000.0 -61238600000.0 -68681600000.0 -78353000000.0 -90018300000.0 -75204800000.0 -51420000000.0 -105504000000.0 -94515600000.0 -29224200000.0 -122004000000.0 -113130000000.0 -162858000000.0 -53099100000.0 -68716000000.0 -57906900000.0 -113748000000.0 -58985500000.0 -112381000000.0 -12554300000.0 -4.53908e+12 -4.11588e+12 -2.81673e+12 -3.68126e+12 -3.53692e+12 -4.53014e+12 -2.95314e+12 -3.09445e+12 -3.41107e+12 -3.13359e+12 -5.30914e+12 -3.00325e+12 -2.74872e+12 -4.5166e+12 -4.78351e+12 -5.52327e+12 -2.59968e+12 -2.44648e+12 -2.65442e+12 -2.66154e+12 -4.22866e+12 -2.76641e+12 -2.52301e+12 -1.74692e+12 -2.46433e+12 -2.8867e+12 -4.81325e+12 -3.15576e+12 -2.42945e+12 -4.33584e+12 -2.56093e+12 -3.8308e+12 -3.07478e+12 -4.39506e+12 -4.89929e+12 -5.14552e+12 -5.41104e+12 -2.4731e+12 -1.86727e+12 -3.28115e+12 -3.36609e+12 -4.66736e+12 -5.07333e+12 -1.99427e+12 -3.3096e+12 -5.03503e+12 -4.71411e+12 -3.6867e+12 -3.66308e+12 -2.55327e+12 -3.81384e+12 -2.2279e+12 -4.3975e+12 -3.30942e+12 -4.95796e+12 -5.25848e+12 -4.04179e+12 -2.94504e+12 -7.02316e+12 -4.40862e+12 -2.05114e+12 -5.37277e+12 -5.07238e+12 -3.23388e+12 -2.82093e+12 -5.70981e+12 -4.06758e+12 -4.81984e+12 -4.45254e+12 -4.8341e+12 -4.52221e+12 -4.30924e+12 -4.05835e+12 -3.88831e+12 -4.77163e+12 -4.59212e+12 -3.24694e+12 -4.4662e+12 -3.43331e+12 -3.16267e+12 -3.1854e+12 -5.22493e+12 -2.61357e+12 -4.02664e+12 -4.13137e+12 -7.05344e+12 -2.67911e+12 -3.00049e+12 -4.39196e+12 -5.69372e+12 -4.90612e+12 -4.61364e+12 -2.82287e+12 -4.49937e+12 -4.34689e+12 -5.14776e+12 -6.61462e+12 -1.42426e+12 -2.34985e+12 -3.90789e+12 -3.91937e+12 -4.42763e+12 -3.72232e+12 -3.4075e+12 -2.33235e+12 -3.52831e+12 -3.42322e+12 -5.27571e+12 -1.60042e+12 -58619300000.0 -201331000000.0 -33378200000.0 -63549400000.0 -72153700000.0 -72219400000.0 -55303900000.0 -81166800000.0 -72812200000.0 -137703000000.0 -69862800000.0 -25039900000.0 -15207500000.0 -144810000000.0 -13120200000.0 -68686600000.0 -47588600000.0 -60229600000.0 -158430000000.0 -234363000000.0 -3.768e+12 -4.86625e+12 -3.63551e+12 -4.14523e+12 -2.47497e+12 -2.54138e+12 -4.80734e+12 -2.28958e+12 -3.26494e+12 -2.55595e+12 -3.33031e+12 -3.0753e+12 -3.82391e+12 -4.54213e+12 -3.63099e+12 -6.26229e+12 -2.13341e+12 -2.99696e+12 -2.82398e+12 -4.2164e+12 -2.15617e+12 -4.49671e+12 -2.65317e+12 -2.85622e+12 -2.02251e+12 -4.46993e+12 -4.78923e+12 -1.38898e+12 -4.67307e+12 -3.27384e+12 -5.58681e+12 -3.93002e+12 -3.14392e+12 -3.42078e+12 -3.50724e+12 -2.06261e+12 -1.79895e+12 -2.58011e+12 -5.46144e+12 -2.40336e+12 -3.45832e+12 -3.18181e+12 -5.415e+12 -2.62261e+12 -2.17775e+12 -4.45481e+12 -4.502e+12 -5.81588e+12 -2.44786e+12 -4.73888e+12 -3.39396e+12 -3.42325e+12 -2.49872e+12 -2.89816e+12 -2.45487e+12 -2.05842e+12 -3.08239e+12 -3.49235e+12 -4.77752e+12 -1.9863e+12 -2.90072e+12 -2.34263e+12 -4.09662e+12 -4.39288e+12 -4.6989e+12 -3.62831e+12 -2.4885e+12 -3.60139e+12 -2.04246e+12 -2.34908e+12 -2.24687e+12 -3.2937e+12 -4.55094e+12 -3.29767e+12 -692547000000.0 -1.60109e+12 -2.85059e+12 -2.96642e+12 -2.40945e+12 -2.96753e+12 -2.73572e+12 -1.93348e+12 -3.10892e+12 -3.4581e+12 -2.33592e+12 -2.35966e+12 -5.32035e+12 -2.27744e+12 -3.74529e+12 -3.63198e+12 -3.05709e+12 -2.78276e+12 -2.93881e+12 -2.76782e+12 -3.31842e+12 -3.89677e+12 -3.07968e+12 -2.30225e+12 -1.94632e+12 -2.69103e+12 -3.93915e+12 -3.94217e+12 -3.95153e+12 -1.90332e+12 -2.78159e+12 -35094200000.0 -37633200000.0 -17879600000.0 -29608700000.0 -51453000000.0 -52345100000.0 -13979600000.0 -14380800000.0 -75577100000.0 -38555600000.0 -54424300000.0 -57154400000.0 -61297800000.0 -195512000000.0 -58072100000.0 -58977100000.0 -96445500000.0 -12549700000.0 -32420500000.0 -3.60693e+12 -3.89417e+12 -3.36758e+12 -4.10007e+12 -3.27681e+12 -2.22206e+12 -3.13477e+12 -2.76891e+12 -2.87488e+12 -5.35515e+12 -5.31467e+12 -2.57344e+12 -4.72582e+12 -2.30842e+12 -4.28309e+12 -3.39279e+12 -3.92579e+12 -3.1922e+12 -3.06683e+12 -2.06437e+12 -2.6172e+12 -1.99801e+12 -2.90874e+12 -4.10566e+12 -2.39272e+12 -5.22792e+12 -2.39045e+12 -3.08352e+12 -3.21127e+12 -1.46797e+12 -3.96792e+12 -2.70985e+12 -3.91426e+12 -2.59628e+12 -3.71364e+12 -1.59677e+12 -2.70388e+12 -1.97959e+12 -3.23112e+12 -3.9941e+12 -1.09695e+12 -2.83114e+12 -3.12559e+12 -2.18868e+12 -2.41966e+12 -3.14458e+12 -3.3408e+12 -3.44549e+12 -3.31126e+12 -5.24809e+12 -2.16837e+12 -2.88605e+12 -3.66308e+12 -1.73652e+12 -1.49912e+12 -1.92383e+12 -2.33851e+12 -3.92157e+12 -1.61619e+12 -2.21603e+12 -2.30755e+12 -2.01981e+12 -2.62075e+12 -3.46247e+12 -1.15552e+12 -2.15857e+12 -2.01821e+12 -2.976e+12 -2.53141e+12 -3.00872e+12 -2.4852e+12 -2.27219e+12 -3.80949e+12 -2.62996e+12 -2.66706e+12 -2.63608e+12 -2.18259e+12 -2.36019e+12 -4.19816e+12 -2.36616e+12 -1.59169e+12 -2.3254e+12 -1.88062e+12 -1.42367e+12 -3.15652e+12 -3.43592e+12 -3.49334e+12 -2.35697e+12 -2.31627e+12 -3.1277e+12 -2.06215e+12 -2.99871e+12 -2.16809e+12 -2.4092e+12 -1.35047e+12 -2.22723e+12 -3.40346e+12 -1.63201e+12 -3.01234e+12 -3.43524e+12 -1.57523e+12 -3.24901e+12 -2.20856e+12 -2.36142e+12 -2.86861e+12 -2.99976e+12 -3.65619e+12 -1.96802e+12 -155518000000.0 -108050000000.0 -41723000000.0 -14988200000.0 -12569300000.0 -28388600000.0 -27677000000.0 -14400900000.0 -18352200000.0 -50852300000.0 -12549700000.0 -24168600000.0 -21008500000.0 -20746200000.0 -89320200000.0 -104593000000.0 -112258000000.0 -45969500000.0 -32780700000.0 -2.7456e+12 -2.2663e+12 -2.35784e+12 -1.2917e+12 -1.3674e+12 -2.688e+12 -3.65215e+12 -647204000000.0 -3.14513e+12 -2.1773e+12 -2.95242e+12 -2.26742e+12 -3.45548e+12 -1.89652e+12 -4.30281e+12 -1.86801e+12 -4.20109e+12 -5.03044e+12 -3.04413e+12 -1.5428e+12 -1.88509e+12 -2.08691e+12 -3.5185e+12 -1.71324e+12 -1.73032e+12 -1.89259e+12 -3.52619e+12 -836023000000.0 -1.52223e+12 -2.55011e+12 -483885000000.0 -4.48956e+12 -3.51908e+12 -3.59868e+12 -3.48994e+12 -4.81988e+12 -1.94859e+12 -2.86958e+12 -3.15501e+12 -2.75308e+12 -2.51741e+12 -2.52495e+12 -2.81651e+12 -2.79366e+12 -1.35926e+12 -2.42423e+12 -3.15439e+12 -1.60037e+12 -2.48311e+12 -2.26571e+12 -3.63475e+12 -2.99569e+12 -3.04582e+12 -3.63459e+12 -2.6325e+12 -2.1944e+12 -2.21166e+12 -1.86791e+12 -1.71235e+12 -1.80428e+12 -73704200000.0 -1.83558e+12 -1.8206e+12 -1.407e+12 -1.45033e+12 -2.05042e+12 -3.55188e+12 -1.83216e+12 -1.22635e+12 -1.1047e+12 -937942000000.0 -356484000000.0 -2.61862e+12 -2.36244e+12 -2.72211e+12 -2.93287e+12 -2.5644e+12 -3.77099e+12 -2.30712e+12 -2.6512e+12 -3.92409e+12 -2.03819e+12 -3.15068e+12 -1.98459e+12 -2.45274e+12 -1.09238e+12 -4.02942e+12 -1.67208e+12 -2.14841e+12 -3.48194e+12 -3.7369e+12 -2.3307e+12 -1.24414e+12 -2.39417e+12 -2.28281e+12 -1.86694e+12 -1.79507e+12 -2.16963e+12 -1.57054e+12 -1.51861e+12 -1.4123e+12 -1.84221e+12 -3.36728e+12 -1.47949e+12 -3.81986e+12 -323269000000.0 -3.39218e+12 -2.13646e+12 -936035000000.0 -653624000000.0 -2.54674e+12 -12549700000.0 -136247000000.0 -50655000000.0 -15241800000.0 -12549700000.0 -22666800000.0 -22966500000.0 -13609700000.0 -12756900000.0 -42167500000.0 -16139000000.0 -23620600000.0 -18821700000.0 -17365200000.0 -47037800000.0 -40758100000.0 -131534000000.0 -21751800000.0 -203288000000.0 -1.44502e+12 -2.88909e+12 -2.16361e+12 -3.97036e+12 -2.25526e+12 -2.25883e+12 -2.37749e+12 -1.61581e+12 -1.55307e+12 -1.84258e+12 -923931000000.0 -2.32229e+12 -2.486e+12 -1.15315e+12 -1.66518e+12 -2.17248e+12 -2.01037e+12 -2.63515e+12 -1.84954e+12 -1.54165e+12 -3.37511e+12 -2.45172e+12 -3.28023e+12 -2.24825e+12 -2.42068e+12 -2.98904e+12 -2.43538e+12 -1.92441e+12 -2.62457e+12 -1.34968e+12 -2.1584e+12 -1.80664e+12 -2.14497e+12 -3.52873e+12 -3.1272e+12 -2.9948e+12 -1.69949e+12 -3.44196e+12 -2.74032e+12 -1.8099e+12 -959045000000.0 -1.67292e+12 -1.89561e+12 -1.38828e+12 -1.9697e+12 -975580000000.0 -1.16114e+12 -1.5707e+12 -1.72202e+12 -990321000000.0 -1.47693e+12 -782199000000.0 -1.86379e+12 -937926000000.0 -2.76342e+12 -1.32678e+12 -1.16772e+12 -812216000000.0 -365077000000.0 -1.30055e+12 -2.39756e+12 -1.72925e+12 -1.58524e+12 -1.07755e+12 -801365000000.0 -2.5518e+12 -251159000000.0 -1.91255e+12 -2.3366e+12 -1.94357e+12 -2.21402e+12 -1.09243e+12 -1.68743e+12 -1.32435e+12 -1.69241e+12 -3.30879e+12 -1.32732e+12 -1.10375e+12 -2.31021e+12 -1.5637e+12 -1.01541e+12 -1.04066e+12 -1.74457e+12 -1.17583e+12 -1.21439e+12 -2.48624e+12 -1.05502e+12 -1.60733e+12 -1.21351e+12 -1.70377e+12 -2.7118e+12 -1.05177e+12 -1.30914e+12 -61792600000.0 -110002000000.0 -71841000000.0 -26038500000.0 -12549700000.0 -12674100000.0 -15167900000.0 -23360400000.0 -15141100000.0 -15353900000.0 -34023000000.0 -18099100000.0 -15736300000.0 -17362700000.0 -27740000000.0 -20602900000.0 -14128200000.0 -41323100000.0 -23638000000.0 -161283000000.0 -14226100000.0 -39952400000.0 -831088000000.0 -1.47476e+12 -1.96452e+12 -1.96759e+12 -1.9097e+12 -2.19856e+12 -1.11338e+12 -1.18835e+12 -1.97134e+12 -1.4178e+12 -1.68396e+12 -2.41012e+12 -2.4415e+12 -1.10371e+12 -1.54701e+12 -1.7523e+12 -2.00887e+12 -788867000000.0 -1.31764e+12 -1.51444e+12 -2.09284e+12 -2.66383e+12 -3.10817e+12 -1.47078e+12 -2.3039e+12 -1.87089e+12 -1.39741e+12 -3.10454e+12 -1.4893e+12 -907074000000.0 -1.20995e+12 -2.03515e+12 -955966000000.0 -1.38275e+12 -1.53998e+12 -1.30969e+12 -1.54297e+12 -976595000000.0 -2.59393e+12 -2.81118e+12 -2.6532e+12 -1.11439e+12 -1.47804e+12 -1.90421e+12 -1.17287e+12 -754311000000.0 -1.78893e+12 -434030000000.0 -1.7573e+12 -1.29975e+12 -1.96797e+12 -1.26616e+12 -956940000000.0 -1.32685e+12 -1.14825e+12 -588440000000.0 -1.06899e+12 -1.77269e+12 -1.04572e+12 -2.20393e+12 -1.32909e+12 -1.12881e+12 -1.62962e+12 -504626000000.0 -2.25235e+12 -1.01674e+12 -1.29043e+12 -894204000000.0 -1.55209e+12 -1.46251e+12 -498684000000.0 -1.20958e+12 -787691000000.0 -915450000000.0 -1.5771e+12 -1.94742e+12 -1.21545e+12 -2.32087e+12 -721878000000.0 -1.13792e+12 -876232000000.0 -709196000000.0 -1.94525e+12 -1.74904e+12 -1.5428e+12 -1.11344e+12 -1.41621e+12 -1.62248e+12 -1.55885e+12 -221136000000.0 -1.28082e+12 -1.19137e+12 -766922000000.0 -26669400000.0 -28909200000.0 -14601600000.0 -13042400000.0 -12628700000.0 -13285700000.0 -16183700000.0 -12692000000.0 -12549700000.0 -18756200000.0 -14477700000.0 -15760600000.0 -17708600000.0 -24737600000.0 -25466800000.0 -25559100000.0 -32013300000.0 -29626000000.0 -13733600000.0 -35487900000.0 -1.04364e+12 -365991000000.0 -730486000000.0 -2.00681e+12 -834779000000.0 -1.9239e+12 -852512000000.0 -935641000000.0 -1.80351e+12 -1.14134e+12 -2.18947e+12 -973401000000.0 -1.39142e+12 -1.01234e+12 -1.93393e+12 -1.13218e+12 -1.97953e+12 -1.70439e+12 -132045000000.0 -1.43838e+12 -603584000000.0 -1.62583e+12 -835662000000.0 -863702000000.0 -1.42137e+12 -1.11548e+12 -727947000000.0 -1.41421e+12 -783235000000.0 -2.06223e+12 -1.95007e+12 -1.92443e+12 -2.95478e+12 -1.75353e+12 -1.2153e+12 -2.28133e+12 -1.33822e+12 -774680000000.0 -838567000000.0 -1.48259e+12 -868917000000.0 -529175000000.0 -923822000000.0 -817047000000.0 -321403000000.0 -146107000000.0 -873037000000.0 -288742000000.0 -1.3875e+12 -612569000000.0 -439245000000.0 -1.01758e+12 -1.1243e+12 -911056000000.0 -914676000000.0 -1.52453e+12 -1.04047e+12 -950206000000.0 -1.49991e+12 -581163000000.0 -685384000000.0 -474350000000.0 -1.10326e+12 -391990000000.0 -757615000000.0 -956765000000.0 -902837000000.0 -1.35996e+12 -380677000000.0 -575319000000.0 -483091000000.0 -357104000000.0 -817414000000.0 -470712000000.0 -735446000000.0 -209176000000.0 -289246000000.0 -516685000000.0 -711154000000.0 -704708000000.0 -775000000000.0 -543771000000.0 -316964000000.0 -570144000000.0 -379442000000.0 -1.07515e+12 -306086000000.0 -17014900000.0 -380548000000.0 -1.03097e+12 -1.04148e+12 -1.3712e+12 -1.66546e+12 -430545000000.0 -1.48473e+12 -856875000000.0 -416748000000.0 -955483000000.0 -709348000000.0 -480045000000.0 -1.22929e+12 -803429000000.0 -1.36514e+12 -1.41764e+12 -513840000000.0 -904126000000.0 -688905000000.0 -905173000000.0 -226799000000.0 -307165000000.0 -614082000000.0 -533116000000.0 -568348000000.0 -272989000000.0 -639975000000.0 -919911000000.0 -645874000000.0 -486998000000.0 -1.12245e+12 -574777000000.0 -456631000000.0 -941746000000.0 -1.24234e+12 -1.17757e+12 -566926000000.0 -998988000000.0 -1.32456e+12 -217973000000.0 -61889800000.0 -494010000000.0 -458090000000.0 -399348000000.0 -253703000000.0 -171622000000.0 -199963000000.0 -395204000000.0 -190818000000.0 -169038000000.0 -337448000000.0 -237913000000.0 -310294000000.0 -308996000000.0 -157167000000.0 -285867000000.0 -271651000000.0 -347553000000.0 -77266600000.0 -148149000000.0 -123475000000.0 -86726100000.0 -89345500000.0 -264573000000.0 -217434000000.0 -381482000000.0 -307647000000.0 -167487000000.0 -327047000000.0 -138827000000.0 -192071000000.0 -178926000000.0 -238744000000.0 -315003000000.0 -184726000000.0 -399955000000.0 -351618000000.0 -179356000000.0 -105717000000.0 -382588000000.0 -566503000000.0 -413947000000.0 -230930000000.0 -268668000000.0 -256783000000.0 -467863000000.0 -123780000000.0 -214206000000.0 -319385000000.0 -71220300000.0 -505869000000.0 -94762300000.0 -73174700000.0 -146068000000.0 -146443000000.0 -166511000000.0 -143062000000.0 -230506000000.0 -181156000000.0 -320058000000.0 -274754000000.0 -167090000000.0 -170426000000.0 -143822000000.0 -330892000000.0 -392404000000.0 -307264000000.0 -468480000000.0 -386421000000.0 -371296000000.0 -112665000000.0 -155063000000.0 -99549300000.0 