# vtk DataFile Version 2.0
Time step 13
ASCII
DATASET UNSTRUCTURED_GRID
POINTS 5000 float
16751.7 205205.0 0
27683.0 203579.0 0
57009.7 205809.0 0
171833.0 205090.0 0
177739.0 205125.0 0
182944.0 204315.0 0
252673.0 205818.0 0
278879.0 205237.0 0
297321.0 205208.0 0
361827.0 205620.0 0
372011.0 203680.0 0
377026.0 205660.0 0
388125.0 205778.0 0
394012.0 205104.0 0
403634.0 204076.0 0
408575.0 205275.0 0
422722.0 205089.0 0
432493.0 204583.0 0
446273.0 205420.0 0
471637.0 205651.0 0
477072.0 204464.0 0
485848.0 204350.0 0
497601.0 204394.0 0
2397.74 206647.0 0
8476.51 206030.0 0
6037.12 209373.0 0
12438.1 205855.0 0
11067.8 210367.0 0
22243.6 206791.0 0
28492.3 209935.0 0
33166.6 206257.0 0
38154.8 206832.0 0
42674.3 206950.0 0
47484.7 206888.0 0
48245.5 210892.0 0
52137.1 206957.0 0
62763.5 206872.0 0
67994.7 207005.0 0
72698.8 206154.0 0
77500.0 206885.0 0
82500.0 206874.0 0
87409.8 206182.0 0
92500.0 206912.0 0
97203.9 206934.0 0
101304.0 206849.0 0
105961.0 206269.0 0
111929.0 206739.0 0
108250.0 210864.0 0
117843.0 206904.0 0
123323.0 206981.0 0
128337.0 207101.0 0
133420.0 206352.0 0
138116.0 207034.0 0
142500.0 206956.0 0
147500.0 206889.0 0
152501.0 206859.0 0
157585.0 206499.0 0
156891.0 210554.0 0
162554.0 206656.0 0
167017.0 206220.0 0
166539.0 210894.0 0
172952.0 210663.0 0
178356.0 210540.0 0
183513.0 209386.0 0
187402.0 206162.0 0
188584.0 210615.0 0
192500.0 207307.0 0
196093.0 206484.0 0
198236.0 210842.0 0
201753.0 205838.0 0
207653.0 206594.0 0
212991.0 205958.0 0
213693.0 210509.0 0
218130.0 207016.0 0
222482.0 207027.0 0
225809.0 206311.0 0
226822.0 210545.0 0
230431.0 206163.0 0
235810.0 207137.0 0
241170.0 205842.0 0
246500.0 207849.0 0
259041.0 206315.0 0
263768.0 207379.0 0
268745.0 206321.0 0
273940.0 206612.0 0
271650.0 210509.0 0
277015.0 210914.0 0
282031.0 208567.0 0
286327.0 206876.0 0
291719.0 207339.0 0
298231.0 210722.0 0
303655.0 206031.0 0
307743.0 208589.0 0
312123.0 206411.0 0
317924.0 207046.0 0
323241.0 206959.0 0
327578.0 207201.0 0
332204.0 206802.0 0
337221.0 206512.0 0
341017.0 207725.0 0
345899.0 206075.0 0
343295.0 210757.0 0
350702.0 207966.0 0
355288.0 207016.0 0
365143.0 210689.0 0
367956.0 206997.0 0
372935.0 210477.0 0
382607.0 206509.0 0
378835.0 210201.0 0
388357.0 210867.0 0
399180.0 206809.0 0
402971.0 210272.0 0
412481.0 206908.0 0
408357.0 209554.0 0
412837.0 210853.0 0
417500.0 206918.0 0
422133.0 209727.0 0
427274.0 206746.0 0
433384.0 209826.0 0
437537.0 206895.0 0
442112.0 205863.0 0
443200.0 210155.0 0
447581.0 209428.0 0
450682.0 206208.0 0
451922.0 210697.0 0
455226.0 206187.0 0
460248.0 206071.0 0
465803.0 206389.0 0
481332.0 207300.0 0
486607.0 210571.0 0
491674.0 205902.0 0
496838.0 209903.0 0
2279.73 211724.0 0
6751.18 214412.0 0
17306.2 211108.0 0
22978.7 212353.0 0
34944.7 211526.0 0
40316.4 211857.0 0
44439.9 212187.0 0
47561.6 215613.0 0
52500.0 211917.0 0
57982.4 211253.0 0
62839.6 211971.0 0
67505.2 211643.0 0
72136.8 211277.0 0
77500.0 212043.0 0
82116.1 211689.0 0
87902.4 210941.0 0
92500.0 212052.0 0
97189.8 211720.0 0
102467.0 211585.0 0
107926.0 215642.0 0
112500.0 211988.0 0
117500.0 212070.0 0
122500.0 211993.0 0
125874.0 215914.0 0
127725.0 211541.0 0
132492.0 211886.0 0
137520.0 211901.0 0
142772.0 211381.0 0
141009.0 215510.0 0
146954.0 211730.0 0
151965.0 211608.0 0
156262.0 215113.0 0
161325.0 211380.0 0
170012.0 215470.0 0
182197.0 214532.0 0
193554.0 211457.0 0
203922.0 211459.0 0
199985.0 215938.0 0
209357.0 211687.0 0
213296.0 215319.0 0
217616.0 212081.0 0
222049.0 211889.0 0
226881.0 215548.0 0
232227.0 211565.0 0
237709.0 212380.0 0
243307.0 212253.0 0
248442.0 211931.0 0
246871.0 216018.0 0
252659.0 212391.0 0
257245.0 210950.0 0
257707.0 215703.0 0
262325.0 211557.0 0
267112.0 211178.0 0
267455.0 215639.0 0
273011.0 215769.0 0
279897.0 214921.0 0
282827.0 212254.0 0
287500.0 211966.0 0
292882.0 211839.0 0
296767.0 215780.0 0
303094.0 211699.0 0
307463.0 211882.0 0
312501.0 212161.0 0
317499.0 211924.0 0
322452.0 211431.0 0
322517.0 215436.0 0
327500.0 211946.0 0
332500.0 212019.0 0
337700.0 211379.0 0
341400.0 214961.0 0
346825.0 215592.0 0
347726.0 211205.0 0
352664.0 211865.0 0
356024.0 215291.0 0
361467.0 210933.0 0
357787.0 211434.0 0
361249.0 215633.0 0
366513.0 214778.0 0
382022.0 211331.0 0
384373.0 214668.0 0
393536.0 211239.0 0
397215.0 216017.0 0
398120.0 211664.0 0
409229.0 215196.0 0
417498.0 211422.0 0
428245.0 211705.0 0
424077.0 214562.0 0
432223.0 215452.0 0
437500.0 211960.0 0
442307.0 215384.0 0
448219.0 214501.0 0
457150.0 210931.0 0
462424.0 212337.0 0
466604.0 210958.0 0
470202.0 212121.0 0
472367.0 215451.0 0
475194.0 210940.0 0
480812.0 212573.0 0
492091.0 212820.0 0
2238.62 217556.0 0
8045.08 220254.0 0
11848.6 216242.0 0
13461.7 220861.0 0
16325.5 216318.0 0
17742.6 220162.0 0
20503.8 216331.0 0
22404.5 220709.0 0
27011.8 216765.0 0
32598.0 216612.0 0
32028.6 220896.0 0
38225.8 216364.0 0
42934.8 216706.0 0
49064.4 220395.0 0
51782.8 217353.0 0
56535.4 216871.0 0
62095.4 216877.0 0
67674.7 216488.0 0
73686.6 216827.0 0
78216.2 217240.0 0
81959.8 216415.0 0
86965.5 216458.0 0
92531.5 216803.0 0
97547.1 216240.0 0
102630.0 217347.0 0
112499.0 216903.0 0
116739.0 216684.0 0
120857.0 216523.0 0
123408.0 220509.0 0
131168.0 217610.0 0
136455.0 217549.0 0
146324.0 216620.0 0
151849.0 218228.0 0
156816.0 220548.0 0
161717.0 217071.0 0
166535.0 218904.0 0
176309.0 216309.0 0
182232.0 220009.0 0
188062.0 216779.0 0
194273.0 216479.0 0
203044.0 221089.0 0
208106.0 216573.0 0
204286.0 216948.0 0
217709.0 217020.0 0
214360.0 220987.0 0
222571.0 216164.0 0
222087.0 220428.0 0
227570.0 221089.0 0
232458.0 217030.0 0
237451.0 216806.0 0
237796.0 220142.0 0
241808.0 217455.0 0
251818.0 217292.0 0
255892.0 220437.0 0
262691.0 216339.0 0
260356.0 220103.0 0
266383.0 220336.0 0
278360.0 220418.0 0
283583.0 217189.0 0
287244.0 217273.0 0
288765.0 220437.0 0
291052.0 216173.0 0
302260.0 216941.0 0
307722.0 216311.0 0
313222.0 217452.0 0
318207.0 216466.0 0
321040.0 220742.0 0
326817.0 217322.0 0
329894.0 220906.0 0
336503.0 216044.0 0
331861.0 217084.0 0
339788.0 220358.0 0
351883.0 216712.0 0
357355.0 219244.0 0
366585.0 219468.0 0
371111.0 216618.0 0
377677.0 216131.0 0
382814.0 220178.0 0
392422.0 216065.0 0
388354.0 217859.0 0
402851.0 216509.0 0
408063.0 220574.0 0
414379.0 217781.0 0
419080.0 216126.0 0
427659.0 217570.0 0
437305.0 216248.0 0
437156.0 220445.0 0
441861.0 220978.0 0
446573.0 219533.0 0
450884.0 220124.0 0
454109.0 216116.0 0
458934.0 217109.0 0
463080.0 216889.0 0
467503.0 217054.0 0
472656.0 220404.0 0
477775.0 216448.0 0
482612.0 217275.0 0
487502.0 218342.0 0
491514.0 216880.0 0
492130.0 220744.0 0
496596.0 216498.0 0
2182.12 221970.0 0
11871.7 224590.0 0
17122.2 225333.0 0
23010.9 226092.0 0
26948.6 222709.0 0
30191.5 225437.0 0
34844.6 226215.0 0
37544.9 221564.0 0
39735.1 225614.0 0
43171.6 221769.0 0
48490.0 225608.0 0
53807.2 222038.0 0
59209.9 221545.0 0
57188.5 225931.0 0
63605.9 221204.0 0
63062.1 225980.0 0
68062.2 222160.0 0
72601.9 221704.0 0
73349.0 225770.0 0
77066.3 221182.0 0
82134.1 221435.0 0
87330.9 221632.0 0
92267.6 222125.0 0
97734.9 221591.0 0
102766.0 222856.0 0
107695.0 221139.0 0
111312.0 225829.0 0
113095.0 221236.0 0
118129.0 221165.0 0
122101.0 225703.0 0
127500.0 222067.0 0
126923.0 226213.0 0
132682.0 222444.0 0
137732.0 221468.0 0
136578.0 226020.0 0
142522.0 221630.0 0
147009.0 225513.0 0
147996.0 221235.0 0
153387.0 222897.0 0
160407.0 221879.0 0
164427.0 222602.0 0
167059.0 225462.0 0
170842.0 221499.0 0
177034.0 222877.0 0
186628.0 222408.0 0
191646.0 221911.0 0
193679.0 226000.0 0
197216.0 221217.0 0
203168.0 226190.0 0
208742.0 222917.0 0
218735.0 222220.0 0
216339.0 225596.0 0
221197.0 225865.0 0
234266.0 221443.0 0
231995.0 225981.0 0
237941.0 224876.0 0
241825.0 222054.0 0
246296.0 221208.0 0
251537.0 222554.0 0
257741.0 225618.0 0
262649.0 223681.0 0
271777.0 222046.0 0
284357.0 221932.0 0
288841.0 225756.0 0
292989.0 222152.0 0
298947.0 222089.0 0
303985.0 222287.0 0
307500.0 222110.0 0
312166.0 221929.0 0
316218.0 221197.0 0
317026.0 225614.0 0
325839.0 222250.0 0
334374.0 222859.0 0
341459.0 225829.0 0
346083.0 221848.0 0
352838.0 222287.0 0
361683.0 221624.0 0
357887.0 225794.0 0
367128.0 224373.0 0
371937.0 222236.0 0
377882.0 223565.0 0
387357.0 222037.0 0
383269.0 226202.0 0
388172.0 226218.0 0
393034.0 222680.0 0
399502.0 221671.0 0
404307.0 221657.0 0
403070.0 225645.0 0
412364.0 222265.0 0
408170.0 225423.0 0
416954.0 221555.0 0
414629.0 225882.0 0
421355.0 222841.0 0
425628.0 221193.0 0
427469.0 225670.0 0
431032.0 221641.0 0
436057.0 225403.0 0
448265.0 225078.0 0
455486.0 221854.0 0
461282.0 221614.0 0
467053.0 221391.0 0
473815.0 225644.0 0
478891.0 221943.0 0
484751.0 222413.0 0
489144.0 223141.0 0
496761.0 223138.0 0
1501.43 226705.0 0
2744.43 230751.0 0
7120.65 226552.0 0
12631.0 229095.0 0
18071.7 231094.0 0
28622.0 229482.0 0
39074.4 230447.0 0
43619.9 227512.0 0
53081.0 227982.0 0
59672.0 230953.0 0
68318.9 227335.0 0
72194.1 229657.0 0
76347.7 231274.0 0
78249.3 226347.0 0
83540.7 226378.0 0
88349.8 226458.0 0
92500.0 226975.0 0
97257.8 227006.0 0
101216.0 227030.0 0
105609.0 226658.0 0
111054.0 230677.0 0
116646.0 226428.0 0
115393.0 231143.0 0
131222.0 226828.0 0
133303.0 231281.0 0
142211.0 227323.0 0
151789.0 227469.0 0
157924.0 226436.0 0
161420.0 230912.0 0
163678.0 227089.0 0
166776.0 230810.0 0
171002.0 227503.0 0
176731.0 229165.0 0
182920.0 226899.0 0
189190.0 226822.0 0
198241.0 227106.0 0
202603.0 230741.0 0
207332.0 228292.0 0
212123.0 227154.0 0
226326.0 227701.0 0
236068.0 229879.0 0
242858.0 226677.0 0
248052.0 226306.0 0
252910.0 226584.0 0
250954.0 230750.0 0
262868.0 229258.0 0
267625.0 226258.0 0
272715.0 227926.0 0
278485.0 227071.0 0
283577.0 226519.0 0
282093.0 230450.0 0
293492.0 226749.0 0
293041.0 231151.0 0
297510.0 228129.0 0
302639.0 226592.0 0
301887.0 230515.0 0
307160.0 226951.0 0
311986.0 226664.0 0
316899.0 230736.0 0
322353.0 226314.0 0
331011.0 226430.0 0
327213.0 227115.0 0
333909.0 230694.0 0
337080.0 226795.0 0
346791.0 227754.0 0
351708.0 227965.0 0
355664.0 230118.0 0
362973.0 226595.0 0
370230.0 227778.0 0
374600.0 227825.0 0
378596.0 231178.0 0
383481.0 230337.0 0
387299.0 230704.0 0
392190.0 228929.0 0
397933.0 227624.0 0
405312.0 230887.0 0
411950.0 230022.0 0
417901.0 227061.0 0
422444.0 227708.0 0
427234.0 229920.0 0
431184.0 227070.0 0
437045.0 230723.0 0
441929.0 226638.0 0
447089.0 231247.0 0
453987.0 226979.0 0
459399.0 227181.0 0
464928.0 226442.0 0
466530.0 231113.0 0
469583.0 227332.0 0
477640.0 228653.0 0
482003.0 226908.0 0
486786.0 226762.0 0
492185.0 227318.0 0
497462.0 228871.0 0
7839.1 233026.0 0
13596.3 234933.0 0
23720.7 231843.0 0
28746.5 234822.0 0
33581.6 231766.0 0
38494.9 235631.0 0
43664.3 231718.0 0
43214.6 235973.0 0
48609.2 231577.0 0
54111.6 232683.0 0
64826.7 232035.0 0
63403.7 235993.0 0
68257.2 231614.0 0
66997.5 236430.0 0
71716.1 234994.0 0
81972.2 231819.0 0
87915.0 231533.0 0
92661.6 231945.0 0
96927.6 231577.0 0
101510.0 231682.0 0
97984.1 236053.0 0
106453.0 231993.0 0
105811.0 236426.0 0
110792.0 236009.0 0
116668.0 235916.0 0
120877.0 231721.0 0
127447.0 231475.0 0
131260.0 236004.0 0
138725.0 231768.0 0
143741.0 231930.0 0
148386.0 231558.0 0
152800.0 232027.0 0
157001.0 232137.0 0
162055.0 235568.0 0
167193.0 235906.0 0
172253.0 233277.0 0
177049.0 233492.0 0
181333.0 233541.0 0
186852.0 231809.0 0
192381.0 231338.0 0
197820.0 232812.0 0
202624.0 236180.0 0
206597.0 232896.0 0
210633.0 231701.0 0
212123.0 236086.0 0
216371.0 231473.0 0
222671.0 231564.0 0
228325.0 233243.0 0
233994.0 234392.0 0
240985.0 232306.0 0
246463.0 232841.0 0
252321.0 235078.0 0
256806.0 231826.0 0
268283.0 231669.0 0
272902.0 232816.0 0
277862.0 233076.0 0
282800.0 235840.0 0
287111.0 231839.0 0
297890.0 233439.0 0
302620.0 236342.0 0
306193.0 232418.0 0
311448.0 232362.0 0
322365.0 232228.0 0
325952.0 235959.0 0
328021.0 231734.0 0
337645.0 233999.0 0
342310.0 231787.0 0
348081.0 232505.0 0
352391.0 232245.0 0
356089.0 234714.0 0
360574.0 231367.0 0
366568.0 231452.0 0
372571.0 232748.0 0
383555.0 234784.0 0
390850.0 233590.0 0
396058.0 233437.0 0
400398.0 231860.0 0
409439.0 235597.0 0
417743.0 231908.0 0
414402.0 235941.0 0
417697.0 236040.0 0
422930.0 232572.0 0
420885.0 236358.0 0
427642.0 236375.0 0
432193.0 231636.0 0
433314.0 235986.0 0
437898.0 235688.0 0
441826.0 232238.0 0
452630.0 232174.0 0
458094.0 232547.0 0
462539.0 232099.0 0
467756.0 236095.0 0
471795.0 231874.0 0
476951.0 233375.0 0
482269.0 232260.0 0
487743.0 231609.0 0
492494.0 233093.0 0
497465.0 233950.0 0
3043.55 236545.0 0
8738.45 238930.0 0
18354.5 238673.0 0
23852.8 237540.0 0
33686.9 237461.0 0
49635.7 236460.0 0
46369.1 240288.0 0
53666.4 237432.0 0
58555.5 236826.0 0
63609.9 241163.0 0
68645.8 239736.0 0
77993.2 236542.0 0
83418.6 237872.0 0
88046.1 236564.0 0
90110.7 241063.0 0
93055.9 236567.0 0
98537.2 240233.0 0
102089.0 237635.0 0
105604.0 240928.0 0
118255.0 241477.0 0
126517.0 236649.0 0
122686.0 237255.0 0
128411.0 240062.0 0
135282.0 237823.0 0
139800.0 237309.0 0
137802.0 241229.0 0
145148.0 236508.0 0
150886.0 236587.0 0
156911.0 237494.0 0
161815.0 241133.0 0
167169.0 240874.0 0
171468.0 238591.0 0
176194.0 237224.0 0
180983.0 239145.0 0
185797.0 237098.0 0
191578.0 237221.0 0
197325.0 238343.0 0
207592.0 236912.0 0
217204.0 237858.0 0
223337.0 237532.0 0
228967.0 239227.0 0
233397.0 238855.0 0
238444.0 238039.0 0
243827.0 237387.0 0
248919.0 237006.0 0
246517.0 241385.0 0
251472.0 240918.0 0
255545.0 237917.0 0
262548.0 236456.0 0
268734.0 236637.0 0
273488.0 237355.0 0
278392.0 238465.0 0
287962.0 237863.0 0
293196.0 236484.0 0
293278.0 240998.0 0
297717.0 238684.0 0
308399.0 237310.0 0
313173.0 236941.0 0
312009.0 241094.0 0
317435.0 236442.0 0
316747.0 241035.0 0
322169.0 237793.0 0
326403.0 241396.0 0
330109.0 236844.0 0
335169.0 237406.0 0
340433.0 237798.0 0
346028.0 238623.0 0
351158.0 236695.0 0
356430.0 240207.0 0
360889.0 237241.0 0
366501.0 237193.0 0
371195.0 237684.0 0
377273.0 238374.0 0
387811.0 238016.0 0
392742.0 237972.0 0
398334.0 238966.0 0
403828.0 236908.0 0
411594.0 241097.0 0
416995.0 239776.0 0
422653.0 241317.0 0
432964.0 240625.0 0
438680.0 241332.0 0
442671.0 237118.0 0
448494.0 237127.0 0
453968.0 237042.0 0
458500.0 237514.0 0
455599.0 241449.0 0
462944.0 237219.0 0
468730.0 241309.0 0
472950.0 237578.0 0
479914.0 237327.0 0
484240.0 237153.0 0
488484.0 236752.0 0
486625.0 240949.0 0
492583.0 237249.0 0
490674.0 241311.0 0
497776.0 238703.0 0
2142.5 242387.0 0
7211.58 244988.0 0
13681.4 242509.0 0
18591.4 243608.0 0
22326.3 242018.0 0
27476.7 242355.0 0
32323.1 241717.0 0
32580.0 245189.0 0
37264.1 242235.0 0
42423.2 243562.0 0
51391.0 242685.0 0
57374.7 242951.0 0
62173.0 246557.0 0
67937.3 246613.0 0
73521.3 242784.0 0
79784.4 242036.0 0
85089.7 242774.0 0
95000.5 242959.0 0
101261.0 243560.0 0
97835.7 246294.0 0
105728.0 246416.0 0
111305.0 242353.0 0
121635.0 246592.0 0
123858.0 241779.0 0
128141.0 246116.0 0
133287.0 242143.0 0
137502.0 245219.0 0
141891.0 242129.0 0
147409.0 241823.0 0
152980.0 241812.0 0
157259.0 243361.0 0
153555.0 246627.0 0
170780.0 242614.0 0
173372.0 245851.0 0
168456.0 246139.0 0
176910.0 242214.0 0
182357.0 243955.0 0
186916.0 242117.0 0
191562.0 242525.0 0
196378.0 243795.0 0
201693.0 241692.0 0
207223.0 241887.0 0
213061.0 241672.0 0
212117.0 246592.0 0
219819.0 242968.0 0
224928.0 242843.0 0
228668.0 243322.0 0
232651.0 242610.0 0
237002.0 243285.0 0
242057.0 241594.0 0
241272.0 246508.0 0
246716.0 246318.0 0
252413.0 246428.0 0
257753.0 243190.0 0
262726.0 242524.0 0
268235.0 242251.0 0
274048.0 242310.0 0
279355.0 243984.0 0
284584.0 241952.0 0
283957.0 246400.0 0
289646.0 242815.0 0
292601.0 246248.0 0
296649.0 243632.0 0
302364.0 242164.0 0
307427.0 242613.0 0
312217.0 246326.0 0
321300.0 242915.0 0
317483.0 245980.0 0
328019.0 246048.0 0
331711.0 241850.0 0
337291.0 243016.0 0
342892.0 243149.0 0
346849.0 243200.0 0
351247.0 241870.0 0
349608.0 246064.0 0
355414.0 246435.0 0
361760.0 243339.0 0
367048.0 242060.0 0
371727.0 242161.0 0
382257.0 242277.0 0
378415.0 244980.0 0
386929.0 242738.0 0
391476.0 242483.0 0
395539.0 243280.0 0
400526.0 244061.0 0
405860.0 242737.0 0
412558.0 246325.0 0
417230.0 244897.0 0
428232.0 242459.0 0
425374.0 246504.0 0
431957.0 246262.0 0
444649.0 242020.0 0
450456.0 243767.0 0
461288.0 242401.0 0
465787.0 243926.0 0
473168.0 243169.0 0
477811.0 241864.0 0
482455.0 241979.0 0
486703.0 245151.0 0
495023.0 242683.0 0
2231.07 246956.0 0
2122.57 251319.0 0
6948.05 250832.0 0
12426.6 248565.0 0
18033.0 248052.0 0
23262.2 246866.0 0
29025.4 248370.0 0
35992.6 248018.0 0
41034.6 247799.0 0
46976.1 246759.0 0
52811.9 247384.0 0
57584.9 249107.0 0
73628.9 249489.0 0
78099.2 246643.0 0
82819.8 247514.0 0
88761.3 247294.0 0
93947.9 247804.0 0
101254.0 247843.0 0
97470.4 250684.0 0
110251.0 247760.0 0
107201.0 251162.0 0
115528.0 247333.0 0
127777.0 251501.0 0
133708.0 246976.0 0
142031.0 247395.0 0
138535.0 251327.0 0
148124.0 248399.0 0
158002.0 247539.0 0
163121.0 246970.0 0
166885.0 251008.0 0
177764.0 246659.0 0
181600.0 248518.0 0
186462.0 247380.0 0
191578.0 247035.0 0
195898.0 249550.0 0
201133.0 247278.0 0
207154.0 247967.0 0
212761.0 251210.0 0
216837.0 247758.0 0
221602.0 248622.0 0
226053.0 247379.0 0
231002.0 246693.0 0
232480.0 251502.0 0
235860.0 247914.0 0
246829.0 251150.0 0
257588.0 248402.0 0
263765.0 248010.0 0
269657.0 247897.0 0
274630.0 247276.0 0
271791.0 251673.0 0
279888.0 249329.0 0
284230.0 250809.0 0
288540.0 247833.0 0
293526.0 250793.0 0
298648.0 248430.0 0
303577.0 247153.0 0
307718.0 247013.0 0
306723.0 250914.0 0
316891.0 250832.0 0
323371.0 247880.0 0
324934.0 251748.0 0
328759.0 250750.0 0
332732.0 246952.0 0
337366.0 248328.0 0
342019.0 247075.0 0
345588.0 246941.0 0
344269.0 251155.0 0
350229.0 251713.0 0
360741.0 248522.0 0
366581.0 246780.0 0
369476.0 251571.0 0
373514.0 247298.0 0
378331.0 249475.0 0
383175.0 247929.0 0
388103.0 247134.0 0
392606.0 246851.0 0
388184.0 251623.0 0
397134.0 247127.0 0
397999.0 251285.0 0
408110.0 247466.0 0
403405.0 248167.0 0
421047.0 246996.0 0
418472.0 250372.0 0
423608.0 251618.0 0
428767.0 250247.0 0
437657.0 247563.0 0
443635.0 247592.0 0
450690.0 250194.0 0
454458.0 246703.0 0
458742.0 247664.0 0
463883.0 247491.0 0
463174.0 251531.0 0
469228.0 246723.0 0
474295.0 247678.0 0
479017.0 246765.0 0
483660.0 248334.0 0
487552.0 251576.0 0
491500.0 247215.0 0
497411.0 247309.0 0
3066.02 256424.0 0
8507.42 255342.0 0
12529.7 253970.0 0
16008.3 251984.0 0
20032.3 252317.0 0
16367.2 256168.0 0
24878.1 252109.0 0
32183.2 252721.0 0
32660.9 256663.0 0
37649.7 253636.0 0
43292.6 252255.0 0
48664.6 252744.0 0
53547.9 251895.0 0
57413.2 254012.0 0
62541.8 251806.0 0
62514.4 256228.0 0
67215.8 251896.0 0
71124.4 254261.0 0
66943.8 256333.0 0
79034.6 252190.0 0
84449.6 252149.0 0
82295.0 255775.0 0
86337.9 256071.0 0
88517.5 252326.0 0
92508.1 251826.0 0
96570.6 255796.0 0
102462.0 252259.0 0
106458.0 256328.0 0
111847.0 251921.0 0
117997.0 252842.0 0
123260.0 251820.0 0
128401.0 256001.0 0
132830.0 252045.0 0
143152.0 252208.0 0
143921.0 256246.0 0
151871.0 252193.0 0
147983.0 254372.0 0
152604.0 256660.0 0
156559.0 252363.0 0
161570.0 251908.0 0
162821.0 256045.0 0
168097.0 256457.0 0
173235.0 252065.0 0
178593.0 252216.0 0
183583.0 253141.0 0
189467.0 252222.0 0
193913.0 253368.0 0
199741.0 252254.0 0
203872.0 252839.0 0
202918.0 256825.0 0
208364.0 253105.0 0
212070.0 256158.0 0
219036.0 252526.0 0
223358.0 252052.0 0
222467.0 256293.0 0
227639.0 252079.0 0
232490.0 256207.0 0
237885.0 252291.0 0
237140.0 256586.0 0
242426.0 252875.0 0
246157.0 256156.0 0
252012.0 252682.0 0
257455.0 252699.0 0
262276.0 254215.0 0
267720.0 252075.0 0
272485.0 255572.0 0
276127.0 252103.0 0
283083.0 256185.0 0
288511.0 253088.0 0
292628.0 256380.0 0
298742.0 253189.0 0
302553.0 251965.0 0
306802.0 255641.0 0
311745.0 252005.0 0
316064.0 255719.0 0
321384.0 252740.0 0
326157.0 256537.0 0
334231.0 252559.0 0
339672.0 252160.0 0
343362.0 256080.0 0
356825.0 253306.0 0
363350.0 253167.0 0
372397.0 256733.0 0
374981.0 252623.0 0
379784.0 253442.0 0
382171.0 256527.0 0
384054.0 253375.0 0
387204.0 256193.0 0
391671.0 256537.0 0
393243.0 251911.0 0
396273.0 255929.0 0
402048.0 252493.0 0
406629.0 252082.0 0
412754.0 252215.0 0
417758.0 256136.0 0
427996.0 256526.0 0
433870.0 252790.0 0
440180.0 253700.0 0
445477.0 252292.0 0
448657.0 254805.0 0
453255.0 256597.0 0
456110.0 251819.0 0
458526.0 255630.0 0
460026.0 252213.0 0
463224.0 255717.0 0
467427.0 252001.0 0
472512.0 251992.0 0
477833.0 252096.0 0
482722.0 252585.0 0
485533.0 256128.0 0
492476.0 252419.0 0
490400.0 256326.0 0
497812.0 252069.0 0
495393.0 256355.0 0
7505.87 259770.0 0
12195.0 258517.0 0
17061.5 261713.0 0
21248.0 257222.0 0
27398.9 257484.0 0
32812.1 260776.0 0
37647.0 259001.0 0
42173.1 257383.0 0
47928.4 258244.0 0
53255.7 256867.0 0
51642.6 261353.0 0
58925.4 257881.0 0
56193.0 261405.0 0
61457.9 261876.0 0
67318.0 261837.0 0
76222.5 257332.0 0
71430.9 258434.0 0
80910.0 260055.0 0
91206.6 256860.0 0
86755.4 261677.0 0
101335.0 256917.0 0
98401.9 261142.0 0
103697.0 261127.0 0
108550.0 261710.0 0
112408.0 257430.0 0
118090.0 258254.0 0
123246.0 257068.0 0
128463.0 261173.0 0
133260.0 257525.0 0
138721.0 257056.0 0
146850.0 258620.0 0
143113.0 260372.0 0
150637.0 260615.0 0
157905.0 256876.0 0
155608.0 260701.0 0
161150.0 260930.0 0
172577.0 257773.0 0
177264.0 257472.0 0
182442.0 258086.0 0
187107.0 257112.0 0
192282.0 257393.0 0
189256.0 261854.0 0
197945.0 256975.0 0
194194.0 261919.0 0
203770.0 261013.0 0
207325.0 257806.0 0
213108.0 261403.0 0
217216.0 257602.0 0
227455.0 257611.0 0
231672.0 260399.0 0
235663.0 260727.0 0
241420.0 257323.0 0
241057.0 261709.0 0
250407.0 257701.0 0
254585.0 257189.0 0
258869.0 257853.0 0
257745.0 261552.0 0
262645.0 260806.0 0
267418.0 257401.0 0
272403.0 260223.0 0
277149.0 257398.0 0
288088.0 257634.0 0
293313.0 261843.0 0
297239.0 257114.0 0
297987.0 260962.0 0
301956.0 256996.0 0
306707.0 260514.0 0
311371.0 257432.0 0
320422.0 257146.0 0
317211.0 261455.0 0
322924.0 261726.0 0
326756.0 261494.0 0
332590.0 258590.0 0
338285.0 257573.0 0
345171.0 260505.0 0
348110.0 257131.0 0
349875.0 261744.0 0
353216.0 257710.0 0
358619.0 258783.0 0
363220.0 258648.0 0
367657.0 257199.0 0
377400.0 258079.0 0
372550.0 261645.0 0
382843.0 261213.0 0
388982.0 261120.0 0
397173.0 260973.0 0
401324.0 257361.0 0
406476.0 256941.0 0
407466.0 261642.0 0
411855.0 258561.0 0
416939.0 261823.0 0
422225.0 259089.0 0
432106.0 261834.0 0
435904.0 258017.0 0
440095.0 258627.0 0
444896.0 257419.0 0
448950.0 257944.0 0
447857.0 261562.0 0
457781.0 260488.0 0
463150.0 260884.0 0
468264.0 257049.0 0
473575.0 257166.0 0
478504.0 256993.0 0
478132.0 261825.0 0
482025.0 257237.0 0
487734.0 261093.0 0
493277.0 261087.0 0
497802.0 260665.0 0
2829.49 262316.0 0
9587.93 263658.0 0
12425.6 262161.0 0
23475.3 262664.0 0
28400.3 262578.0 0
32599.2 265392.0 0
37926.3 264655.0 0
44139.8 262699.0 0
48928.2 264385.0 0
58144.0 266195.0 0
73063.8 262847.0 0
71438.4 266450.0 0
77968.3 263838.0 0
92906.5 262879.0 0
96735.5 266958.0 0
101910.0 265466.0 0
113686.0 262806.0 0
118738.0 263543.0 0
123601.0 262097.0 0
128611.0 266336.0 0
133114.0 262042.0 0
137621.0 262431.0 0
133585.0 266573.0 0
141676.0 264937.0 0
146707.0 262664.0 0
150770.0 266323.0 0
156850.0 265918.0 0
162692.0 267000.0 0
167138.0 262527.0 0
172929.0 262059.0 0
170962.0 266912.0 0
178064.0 262981.0 0
183549.0 262878.0 0
183101.0 266832.0 0
187172.0 266900.0 0
192548.0 266501.0 0
199077.0 262607.0 0
202888.0 266073.0 0
208260.0 262853.0 0
211019.0 266906.0 0
217823.0 262905.0 0
222500.0 262027.0 0
227501.0 262189.0 0
231673.0 264590.0 0
237682.0 266504.0 0
246269.0 262019.0 0
248980.0 266974.0 0
252710.0 262456.0 0
257368.0 264891.0 0
260306.0 266930.0 0
268550.0 262127.0 0
265506.0 265971.0 0
272387.0 266536.0 0
276575.0 262440.0 0
282706.0 261981.0 0
285549.0 266189.0 0
287773.0 262034.0 0
290191.0 265912.0 0
297285.0 266202.0 0
302103.0 263055.0 0
306784.0 265959.0 0
311427.0 262653.0 0
323499.0 266669.0 0
331438.0 262992.0 0
328147.0 265015.0 0
335574.0 263523.0 0
340723.0 262305.0 0
341045.0 266874.0 0
345801.0 265721.0 0
355446.0 263885.0 0
361538.0 263347.0 0
367138.0 262513.0 0
373335.0 266507.0 0
377570.0 263810.0 0
393362.0 263298.0 0
402292.0 262982.0 0
398492.0 266565.0 0
407703.0 267013.0 0
411928.0 263864.0 0
421522.0 263657.0 0
426056.0 262619.0 0
424577.0 266661.0 0
437889.0 262936.0 0
434103.0 266851.0 0
443238.0 262453.0 0
442753.0 266791.0 0
447683.0 266822.0 0
452705.0 262468.0 0
458281.0 266301.0 0
463571.0 265703.0 0
468235.0 262153.0 0
473115.0 262248.0 0
473573.0 266665.0 0
478154.0 266977.0 0
482767.0 262148.0 0
482815.0 266345.0 0
487501.0 266667.0 0
492498.0 266032.0 0
497558.0 265306.0 0
2490.31 267652.0 0
7220.33 267108.0 0
7679.75 272113.0 0
12043.4 267436.0 0
12006.9 271622.0 0
17500.3 267986.0 0
23296.5 268708.0 0
28700.2 267082.0 0
34024.3 270704.0 0
39365.9 269628.0 0
43237.7 268124.0 0
47671.2 268195.0 0
48694.4 271911.0 0
52831.1 267087.0 0
59423.1 271292.0 0
64093.7 267494.0 0
69195.7 268358.0 0
67576.2 271822.0 0
75183.2 268279.0 0
71661.8 271801.0 0
81051.9 267950.0 0
78385.9 271739.0 0
87048.7 268323.0 0
92008.0 267451.0 0
92037.0 272090.0 0
97036.5 272068.0 0
102165.0 271345.0 0
107425.0 267793.0 0
111100.0 272115.0 0
113358.0 267798.0 0
118416.0 268800.0 0
123403.0 267158.0 0
126570.0 271863.0 0
132448.0 271547.0 0
137990.0 268163.0 0
142284.0 271757.0 0
145512.0 267515.0 0
147723.0 271287.0 0
152608.0 271997.0 0
157497.0 271003.0 0
167211.0 271028.0 0
172470.0 272074.0 0
175311.0 268628.0 0
179565.0 267685.0 0
183436.0 270749.0 0
190331.0 271503.0 0
197900.0 268245.0 0
203293.0 271434.0 0
206848.0 268284.0 0
212402.0 271497.0 0
215675.0 267253.0 0
217636.0 271978.0 0
221139.0 267345.0 0
223406.0 272115.0 0
227085.0 267505.0 0
232858.0 271818.0 0
243933.0 267274.0 0
242392.0 271486.0 0
246718.0 271320.0 0
254234.0 268567.0 0
262665.0 271157.0 0
268093.0 271249.0 0
279484.0 267159.0 0
283950.0 270406.0 0
289017.0 271000.0 0
293526.0 269275.0 0
298737.0 271996.0 0
302226.0 268208.0 0
302736.0 271835.0 0
307512.0 271568.0 0
312358.0 268711.0 0
318345.0 267282.0 0
316370.0 272099.0 0
327581.0 270859.0 0
332384.0 267533.0 0
337143.0 268057.0 0
340769.0 271000.0 0
351085.0 267888.0 0
359239.0 268125.0 0
364363.0 267827.0 0
362703.0 271694.0 0
368949.0 267171.0 0
377211.0 268892.0 0
373250.0 271615.0 0
381324.0 267066.0 0
386945.0 267264.0 0
393327.0 268150.0 0
397588.0 270984.0 0
402838.0 267916.0 0
415800.0 267674.0 0
417767.0 271784.0 0
421111.0 268914.0 0
428946.0 267161.0 0
432075.0 271608.0 0
438703.0 268122.0 0
436734.0 271974.0 0
442704.0 271803.0 0
453000.0 267489.0 0
453378.0 271651.0 0
463543.0 270239.0 0
468159.0 267477.0 0
471789.0 270364.0 0
476391.0 271982.0 0
481038.0 270302.0 0
485583.0 271292.0 0
495980.0 270571.0 0
2474.95 272642.0 0
8235.48 277215.0 0
12740.6 276854.0 0
15775.1 273053.0 0
20838.9 273752.0 0
26801.9 272972.0 0
30882.8 276302.0 0
39992.6 273875.0 0
35854.6 276450.0 0
44644.4 272596.0 0
43595.6 276586.0 0
47717.4 275948.0 0
52993.1 272258.0 0
51765.8 276320.0 0
56786.4 276503.0 0
63870.5 272632.0 0
62532.3 276631.0 0
67123.9 277032.0 0
72472.1 276991.0 0
77948.5 275817.0 0
82517.6 272927.0 0
87179.5 273911.0 0
90185.7 277236.0 0
95248.1 277086.0 0
101150.0 277010.0 0
106970.0 273690.0 0
111820.0 276965.0 0
115804.0 273434.0 0
121082.0 273426.0 0
127604.0 276987.0 0
132193.0 276865.0 0
137139.0 272636.0 0
137214.0 277233.0 0
146402.0 276264.0 0
156129.0 275945.0 0
162017.0 272563.0 0
178157.0 272951.0 0
186096.0 275142.0 0
190927.0 276797.0 0
195320.0 272929.0 0
199688.0 273550.0 0
208001.0 272346.0 0
204846.0 275974.0 0
211830.0 276133.0 0
221893.0 276591.0 0
227804.0 272474.0 0
226897.0 276983.0 0
232082.0 276077.0 0
238226.0 272495.0 0
241621.0 275985.0 0
246942.0 276427.0 0
251515.0 273010.0 0
251601.0 277260.0 0
257665.0 272896.0 0
261551.0 276480.0 0
266358.0 275702.0 0
273472.0 273189.0 0
279507.0 273341.0 0
284955.0 275507.0 0
290084.0 275862.0 0
293757.0 273493.0 0
297286.0 276442.0 0
302520.0 274987.0 0
307402.0 275499.0 0
312864.0 274520.0 0
321273.0 272306.0 0
316929.0 276432.0 0
326193.0 276238.0 0
333536.0 272527.0 0
337859.0 273903.0 0
341721.0 276866.0 0
346465.0 272284.0 0
350384.0 276691.0 0
352470.0 272759.0 0
358064.0 273716.0 0
363444.0 277009.0 0
367623.0 272403.0 0
372678.0 276304.0 0
377769.0 273621.0 0
381313.0 277020.0 0
383140.0 272510.0 0
388888.0 273124.0 0
393914.0 273421.0 0
397832.0 277035.0 0
401991.0 272540.0 0
407548.0 272817.0 0
413349.0 272902.0 0
417341.0 276540.0 0
420771.0 273064.0 0
422301.0 276819.0 0
426100.0 272546.0 0
438872.0 276038.0 0
448750.0 273890.0 0
453651.0 276591.0 0
458462.0 272859.0 0
467779.0 272792.0 0
472193.0 275481.0 0
476460.0 277006.0 0
481520.0 275580.0 0
487327.0 276197.0 0
490653.0 272218.0 0
497274.0 276205.0 0
3184.47 277770.0 0
8051.14 282239.0 0
14954.4 282086.0 0
17383.8 277821.0 0
21985.0 278343.0 0
26191.8 277748.0 0
39930.1 279563.0 0
47186.1 281224.0 0
52656.5 280508.0 0
63751.5 281977.0 0
69573.8 282355.0 0
78851.4 280556.0 0
82589.2 277351.0 0
86351.0 277979.0 0
82760.2 282187.0 0
98815.1 282348.0 0
106588.0 278708.0 0
118295.0 278114.0 0
123242.0 277860.0 0
124119.0 282195.0 0
128431.0 281603.0 0
132895.0 281193.0 0
136884.0 281925.0 0
141679.0 278544.0 0
146506.0 282226.0 0
151518.0 278696.0 0
156632.0 282304.0 0
161849.0 278862.0 0
169299.0 277399.0 0
175991.0 278737.0 0
181629.0 277817.0 0
189259.0 281309.0 0
193623.0 282142.0 0
195688.0 277601.0 0
197474.0 281965.0 0
200441.0 278840.0 0
208495.0 277976.0 0
206476.0 280447.0 0
212428.0 281856.0 0
216703.0 277338.0 0
216984.0 281857.0 0
221143.0 281420.0 0
225913.0 282031.0 0
231140.0 280433.0 0
236208.0 277308.0 0
235778.0 282227.0 0
240658.0 281213.0 0
248481.0 281227.0 0
252736.0 280916.0 0
256296.0 278035.0 0
260103.0 281099.0 0
265430.0 280933.0 0
270527.0 278053.0 0
272853.0 281494.0 0
276608.0 278073.0 0
275597.0 282031.0 0
281970.0 281006.0 0
288370.0 280661.0 0
293693.0 278084.0 0
298778.0 280842.0 0
304654.0 279600.0 0
310262.0 277885.0 0
309264.0 281542.0 0
313968.0 279555.0 0
317770.0 281403.0 0
321555.0 278280.0 0
327712.0 280774.0 0
331766.0 277496.0 0
336618.0 277848.0 0
332500.0 282091.0 0
346560.0 278080.0 0
351670.0 281357.0 0
354455.0 277801.0 0
357610.0 281410.0 0
368548.0 277626.0 0
368507.0 281887.0 0
377010.0 278767.0 0
382613.0 281004.0 0
385803.0 277606.0 0
391589.0 278153.0 0
395869.0 281741.0 0
400725.0 282190.0 0
403457.0 277502.0 0
405912.0 281856.0 0
408203.0 277931.0 0
412658.0 277979.0 0
422165.0 281709.0 0
427060.0 279232.0 0
433121.0 277545.0 0
437991.0 281454.0 0
443917.0 277378.0 0
448489.0 279735.0 0
453549.0 281819.0 0
457816.0 278674.0 0
462965.0 277334.0 0
462248.0 282334.0 0
468032.0 277577.0 0
472251.0 280633.0 0
478251.0 281734.0 0
483453.0 280682.0 0
487736.0 280859.0 0
492208.0 278632.0 0
497017.0 281793.0 0
2743.18 283198.0 0
6668.23 287173.0 0
11772.6 284721.0 0
19950.1 282633.0 0
16460.5 287281.0 0
25369.7 282601.0 0
22185.9 287435.0 0
26852.3 287173.0 0
32697.4 283060.0 0
42477.1 284516.0 0
47182.2 286354.0 0
52162.2 285905.0 0
57757.1 282733.0 0
62686.8 287353.0 0
74689.5 282847.0 0
72716.3 287384.0 0
77857.6 286820.0 0
83344.8 286900.0 0
87405.3 282426.0 0
88710.6 287389.0 0
93065.1 282491.0 0
93471.6 287349.0 0
97416.0 286982.0 0
103876.0 282859.0 0
107202.0 282722.0 0
111615.0 282827.0 0
107419.0 285970.0 0
116366.0 285550.0 0
120325.0 282855.0 0
125904.0 286539.0 0
131785.0 285920.0 0
137418.0 286802.0 0
141100.0 282731.0 0
151893.0 284081.0 0
148495.0 287178.0 0
157368.0 287293.0 0
160772.0 284421.0 0
166704.0 283656.0 0
163302.0 286835.0 0
172246.0 282387.0 0
170856.0 285820.0 0
175904.0 286383.0 0
179226.0 282367.0 0
184110.0 283039.0 0
189101.0 286554.0 0
194229.0 286969.0 0
202902.0 282665.0 0
199440.0 286306.0 0
207372.0 285282.0 0
216174.0 287347.0 0
221728.0 285695.0 0
226461.0 287325.0 0
232407.0 286458.0 0
238391.0 286259.0 0
244859.0 285525.0 0
251481.0 285987.0 0
256183.0 283028.0 0
261812.0 285720.0 0
270063.0 284894.0 0
277957.0 285053.0 0
283324.0 287355.0 0
288869.0 285993.0 0
293518.0 282760.0 0
297144.0 285697.0 0
302928.0 286048.0 0
308733.0 286890.0 0
312917.0 284280.0 0
318328.0 286690.0 0
323279.0 283494.0 0
328778.0 285974.0 0
336858.0 282456.0 0
339536.0 287102.0 0
342146.0 282437.0 0
344871.0 286901.0 0
347151.0 282449.0 0
349922.0 286432.0 0
354382.0 285019.0 0
363231.0 283354.0 0
368150.0 286592.0 0
373399.0 283112.0 0
379148.0 283155.0 0
382495.0 286664.0 0
387101.0 283207.0 0
392338.0 284340.0 0
396164.0 287153.0 0
406710.0 287006.0 0
411206.0 283145.0 0
416949.0 282376.0 0
415511.0 287424.0 0
421172.0 287291.0 0
426388.0 284787.0 0
431419.0 283257.0 0
443866.0 283237.0 0
449044.0 284087.0 0
458341.0 282860.0 0
456123.0 286551.0 0
461521.0 287385.0 0
467282.0 282590.0 0
472915.0 285832.0 0
478077.0 287200.0 0
482500.0 285138.0 0
487833.0 285985.0 0
492382.0 283621.0 0
498095.0 286439.0 0
2121.48 288021.0 0
8179.2 292108.0 0
10910.8 288380.0 0
12950.0 291476.0 0
16389.7 292110.0 0
20441.9 292014.0 0
31219.0 290861.0 0
37986.9 288545.0 0
43992.8 289024.0 0
53033.2 292294.0 0
57340.9 288824.0 0
63553.9 292506.0 0
67618.4 287682.0 0
68256.8 292078.0 0
72443.5 292231.0 0
77178.9 291923.0 0
82027.9 292010.0 0
86312.9 291017.0 0
91297.1 291916.0 0
96809.9 291382.0 0
102454.0 288071.0 0
111822.0 289185.0 0
116494.0 291897.0 0
120449.0 288675.0 0
132157.0 292300.0 0
137855.0 292442.0 0
143346.0 287637.0 0
147566.0 291732.0 0
152940.0 288593.0 0
157608.0 292282.0 0
162775.0 291334.0 0
168088.0 289069.0 0
172608.0 291555.0 0
177977.0 291620.0 0
181647.0 288241.0 0
186459.0 290956.0 0
192215.0 291542.0 0
196774.0 292075.0 0
203614.0 288197.0 0
201274.0 291724.0 0
206927.0 291670.0 0
210860.0 288923.0 0
212749.0 292067.0 0
221832.0 290355.0 0
226865.0 292397.0 0
231614.0 292096.0 0
236486.0 291291.0 0
241280.0 290649.0 0
245838.0 290881.0 0
250503.0 291866.0 0
256939.0 287552.0 0
255245.0 291685.0 0
260808.0 291890.0 0
266239.0 288994.0 0
274189.0 287614.0 0
271151.0 291267.0 0
278051.0 290987.0 0
288331.0 291277.0 0
293128.0 288292.0 0
298293.0 290907.0 0
303348.0 291597.0 0
308074.0 291889.0 0
314229.0 291944.0 0
319144.0 291549.0 0
324039.0 288929.0 0
328931.0 291605.0 0
334028.0 287767.0 0
333111.0 291974.0 0
336742.0 291876.0 0
342532.0 292264.0 0
347842.0 291575.0 0
353157.0 291102.0 0
358623.0 288092.0 0
363880.0 288941.0 0
372336.0 287700.0 0
367739.0 292261.0 0
376984.0 287667.0 0
373510.0 292389.0 0
382598.0 291916.0 0
378285.0 292234.0 0
387497.0 287704.0 0
387500.0 292240.0 0
392145.0 288447.0 0
390894.0 292031.0 0
394269.0 291646.0 0
401245.0 287654.0 0
398049.0 291591.0 0
411232.0 288014.0 0
417933.0 292179.0 0
423058.0 292534.0 0
428474.0 288342.0 0
427926.0 292247.0 0
430903.0 287712.0 0
435877.0 287471.0 0
442095.0 289177.0 0
446706.0 287584.0 0
447174.0 291897.0 0
451327.0 288800.0 0
456266.0 291500.0 0
466961.0 287993.0 0
470959.0 290788.0 0
476144.0 292209.0 0
482641.0 291138.0 0
488885.0 291545.0 0
493628.0 287503.0 0
497018.0 291209.0 0
2821.58 292810.0 0
2392.0 297257.0 0
7488.63 296956.0 0
11917.8 295433.0 0
17738.5 296365.0 0
25337.8 293192.0 0
22208.6 296963.0 0
33501.4 296454.0 0
37246.8 293897.0 0
41738.4 292883.0 0
47385.2 293009.0 0
51593.6 297644.0 0
58676.9 294113.0 0
67529.7 296813.0 0
72520.3 296841.0 0
81282.1 297134.0 0
87025.9 296033.0 0
92328.4 297179.0 0
101404.0 293969.0 0
97274.8 297208.0 0
107507.0 294142.0 0
113043.0 294006.0 0
121261.0 293414.0 0
117613.0 297447.0 0
126000.0 292677.0 0
123407.0 297213.0 0
134061.0 297347.0 0
137961.0 297071.0 0
142169.0 297002.0 0
142873.0 293002.0 0
147590.0 297529.0 0
152675.0 293232.0 0
158955.0 296685.0 0
162903.0 296753.0 0
167380.0 294107.0 0
172105.0 295931.0 0
177835.0 297151.0 0
182396.0 293316.0 0
188320.0 295932.0 0
193977.0 296772.0 0
199133.0 296499.0 0
204238.0 296876.0 0
209582.0 296768.0 0
214085.0 295556.0 0
217673.0 293248.0 0
217552.0 297621.0 0
222171.0 295844.0 0
226318.0 296313.0 0
230546.0 297602.0 0
235776.0 296025.0 0
240078.0 294004.0 0
243656.0 295005.0 0
250437.0 297252.0 0
256538.0 297189.0 0
262582.0 297532.0 0
266659.0 294489.0 0
272493.0 296899.0 0
278290.0 296791.0 0
283168.0 294119.0 0
289876.0 296758.0 0
293347.0 293190.0 0
294799.0 297628.0 0
299251.0 296267.0 0
303520.0 295591.0 0
307689.0 297039.0 0
317774.0 296366.0 0
322732.0 294631.0 0
327765.0 296601.0 0
332966.0 296252.0 0
338800.0 297455.0 0
346932.0 295124.0 0
344122.0 297546.0 0
351198.0 297224.0 0
357711.0 293730.0 0
362450.0 293737.0 0
367588.0 297622.0 0
377591.0 296912.0 0
383031.0 297075.0 0
387671.0 296766.0 0
390602.0 297588.0 0
394686.0 296268.0 0
400662.0 295995.0 0
405865.0 293031.0 0
412304.0 292635.0 0
432840.0 292619.0 0
428624.0 297024.0 0
433404.0 297431.0 0
437725.0 293112.0 0
441822.0 293843.0 0
448827.0 296789.0 0
444226.0 297669.0 0
452062.0 293977.0 0
461175.0 293031.0 0
462857.0 297459.0 0
466195.0 292581.0 0
470818.0 295975.0 0
488684.0 296979.0 0
492860.0 294329.0 0
497145.0 297058.0 0
2827.27 301104.0 0
7660.86 301417.0 0
13263.1 299846.0 0
17489.4 301255.0 0
22069.0 301249.0 0
25738.7 297721.0 0
29661.2 299484.0 0
26010.3 301669.0 0
33847.2 302428.0 0
36843.9 298851.0 0
38555.5 302320.0 0
41280.9 298112.0 0
46293.2 298257.0 0
47500.0 302053.0 0
56821.4 298356.0 0
62246.3 297946.0 0
68947.8 301909.0 0
73794.8 301338.0 0
76633.1 297923.0 0
77214.8 301779.0 0
80665.7 302231.0 0
86295.4 302333.0 0
92822.4 302187.0 0
98253.2 302471.0 0
102433.0 299120.0 0
106771.0 299284.0 0
111803.0 297970.0 0
108971.0 302501.0 0
113118.0 302112.0 0
122444.0 302008.0 0
126565.0 302620.0 0
128785.0 297728.0 0
131873.0 302076.0 0
136854.0 301622.0 0
144071.0 302279.0 0
152962.0 298159.0 0
150548.0 302057.0 0
157121.0 301913.0 0
163040.0 301138.0 0
167190.0 298734.0 0
173131.0 301551.0 0
183340.0 297989.0 0
183116.0 302639.0 0
186749.0 301304.0 0
191896.0 301659.0 0
196838.0 300820.0 0
201820.0 301909.0 0
207340.0 301834.0 0
213752.0 299830.0 0
216958.0 302740.0 0
220550.0 300693.0 0
225440.0 300180.0 0
229443.0 302651.0 0
235858.0 301503.0 0
240011.0 298123.0 0
245219.0 301043.0 0
252637.0 302211.0 0
257348.0 302621.0 0
262245.0 302289.0 0
267367.0 299999.0 0
277756.0 301794.0 0
282896.0 299668.0 0
289677.0 301525.0 0
293316.0 301205.0 0
297768.0 302099.0 0
303666.0 300718.0 0
309211.0 302546.0 0
312892.0 298123.0 0
320007.0 300767.0 0
324294.0 299251.0 0
328677.0 302167.0 0
334573.0 301517.0 0
342791.0 302744.0 0
348313.0 302002.0 0
354586.0 301948.0 0
358169.0 298104.0 0
358844.0 302120.0 0
362897.0 298640.0 0
362334.0 302706.0 0
366761.0 302673.0 0
372833.0 298016.0 0
376902.0 300736.0 0
380659.0 301366.0 0
386671.0 301886.0 0
391404.0 300971.0 0
396461.0 301968.0 0
400524.0 300370.0 0
404251.0 299280.0 0
409759.0 298471.0 0
416398.0 297993.0 0
422851.0 298183.0 0
426922.0 301780.0 0
431463.0 301718.0 0
438589.0 298369.0 0
447573.0 301909.0 0
452129.0 297965.0 0
452826.0 302153.0 0
457255.0 297840.0 0
461640.0 301681.0 0
466821.0 298715.0 0
470869.0 301748.0 0
476432.0 298583.0 0
482915.0 297869.0 0
480572.0 302298.0 0
492901.0 298043.0 0
497367.0 302547.0 0
2102.89 305269.0 0
6789.6 306899.0 0
12524.5 305211.0 0
18523.6 306286.0 0
24346.6 306009.0 0
30112.9 306399.0 0
35415.7 307822.0 0
39837.2 306388.0 0
43309.8 303177.0 0
47428.6 306205.0 0
51946.1 303288.0 0
58847.4 302913.0 0
64433.1 303163.0 0
66609.2 307641.0 0
71666.2 306249.0 0
77164.9 305402.0 0
82268.5 307201.0 0
93308.0 306295.0 0
97500.0 307087.0 0
103085.0 303085.0 0
102244.0 306887.0 0
107102.0 306670.0 0
112341.0 306391.0 0
117545.0 303156.0 0
117491.0 307770.0 0
122472.0 306128.0 0
132621.0 306878.0 0
127694.0 307580.0 0
137667.0 306562.0 0
140251.0 303871.0 0
142144.0 306947.0 0
147683.0 306786.0 0
153103.0 306116.0 0
157517.0 307803.0 0
161607.0 305968.0 0
167739.0 303378.0 0
165718.0 307600.0 0
171364.0 307453.0 0
176360.0 307477.0 0
178909.0 303222.0 0
180449.0 307865.0 0
185105.0 306396.0 0
190294.0 305939.0 0
195446.0 306444.0 0
201361.0 307363.0 0
206629.0 307733.0 0
212394.0 305627.0 0
218163.0 307197.0 0
222913.0 305153.0 0
232569.0 306307.0 0
238107.0 307023.0 0
240309.0 303117.0 0
243727.0 307333.0 0
248591.0 306026.0 0
255141.0 306347.0 0
259918.0 306592.0 0
266642.0 307032.0 0
272562.0 302994.0 0
276466.0 306495.0 0
281545.0 305459.0 0
285950.0 303228.0 0
287004.0 307811.0 0
292764.0 306018.0 0
303476.0 306012.0 0
307680.0 307209.0 0
315110.0 303597.0 0
319029.0 307737.0 0
323584.0 304095.0 0
328103.0 307806.0 0
332577.0 306140.0 0
338182.0 303687.0 0
337130.0 307454.0 0
346955.0 307460.0 0
352956.0 307218.0 0
358280.0 305952.0 0
363831.0 307114.0 0
372029.0 303413.0 0
368645.0 306766.0 0
377277.0 305006.0 0
372500.0 307348.0 0
383141.0 306343.0 0
392815.0 305708.0 0
388498.0 307562.0 0
396741.0 307431.0 0
401679.0 305433.0 0
407511.0 303933.0 0
413237.0 303771.0 0
418143.0 303081.0 0
417500.0 306986.0 0
422150.0 303333.0 0
423616.0 307260.0 0
429112.0 305990.0 0
432842.0 307246.0 0
436319.0 303720.0 0
442128.0 303011.0 0
439544.0 307444.0 0
445082.0 307031.0 0
449562.0 306704.0 0
453920.0 307049.0 0
457520.0 303818.0 0
461736.0 306312.0 0
465895.0 302784.0 0
466257.0 307494.0 0
472030.0 307773.0 0
476663.0 304505.0 0
481390.0 306923.0 0
485123.0 302921.0 0
491132.0 302826.0 0
497597.0 307579.0 0
3506.0 312351.0 0
8912.68 312180.0 0
12818.9 310627.0 0
18049.4 312496.0 0
23737.2 311375.0 0
29009.1 312186.0 0
33720.7 311983.0 0
38523.7 312304.0 0
43462.9 308487.0 0
47736.9 310964.0 0
51723.4 308126.0 0
52032.5 312678.0 0
56684.1 307960.0 0
61939.9 307981.0 0
61813.9 312690.0 0
66415.0 312235.0 0
71648.8 312134.0 0
78225.3 312609.0 0
84133.6 311931.0 0
88456.4 308636.0 0
94099.4 310524.0 0
99296.1 311788.0 0
108334.0 311633.0 0
113651.0 311242.0 0
122435.0 310521.0 0
118206.0 312256.0 0
126954.0 312529.0 0
131395.0 311657.0 0
135481.0 310361.0 0
140054.0 311254.0 0
145280.0 311937.0 0
151765.0 312227.0 0
157548.0 312909.0 0
162326.0 311385.0 0
167943.0 311888.0 0
178737.0 311815.0 0
183582.0 311940.0 0
188948.0 310070.0 0
193502.0 312713.0 0
198243.0 311130.0 0
202317.0 312670.0 0
207097.0 312898.0 0
212468.0 312005.0 0
217404.0 311663.0 0
222019.0 310486.0 0
227496.0 307857.0 0
226350.0 312597.0 0
231280.0 311713.0 0
236069.0 312183.0 0
240748.0 312019.0 0
247349.0 311277.0 0
251771.0 309259.0 0
256825.0 311542.0 0
262233.0 311755.0 0
272619.0 307899.0 0
272604.0 312643.0 0
277766.0 311173.0 0
282660.0 310933.0 0
294100.0 312651.0 0
298691.0 307949.0 0
299560.0 312788.0 0
304047.0 311038.0 0
308848.0 312372.0 0
312513.0 308878.0 0
320327.0 312740.0 0
323699.0 308397.0 0
333087.0 312297.0 0
341650.0 307964.0 0
339071.0 312846.0 0
343365.0 311974.0 0
347300.0 312264.0 0
351744.0 312748.0 0
357513.0 311298.0 0
362978.0 312144.0 0
368173.0 311597.0 0
373357.0 311071.0 0
378025.0 310112.0 0
382768.0 312490.0 0
392142.0 310664.0 0
397089.0 311811.0 0
402903.0 312107.0 0
407588.0 312060.0 0
408680.0 308519.0 0
412994.0 308734.0 0
416307.0 311925.0 0
421530.0 311711.0 0
427083.0 311040.0 0
436296.0 310961.0 0
442651.0 312308.0 0
449585.0 312331.0 0
457974.0 308390.0 0
454967.0 311729.0 0
459061.0 312725.0 0
462532.0 310493.0 0
466502.0 312360.0 0
470854.0 312946.0 0
477067.0 309195.0 0
475106.0 312745.0 0
487092.0 308069.0 0
492806.0 308721.0 0
491407.0 312933.0 0
7871.3 316247.0 0
13209.3 316535.0 0
22913.7 317019.0 0
28303.0 317330.0 0
33681.1 316892.0 0
38739.1 317243.0 0
43679.2 313244.0 0
42468.7 317077.0 0
47500.0 316862.0 0
52533.0 317080.0 0
56996.0 313364.0 0
62772.5 317160.0 0
67038.5 317061.0 0
82589.4 317007.0 0
87697.4 313710.0 0
87059.4 317623.0 0
92061.2 315837.0 0
97667.0 317063.0 0
103857.0 313195.0 0
102289.0 316862.0 0
107398.0 317459.0 0
113336.0 316657.0 0
121257.0 315766.0 0
117547.0 318002.0 0
129892.0 315945.0 0
135611.0 316133.0 0
141864.0 316134.0 0
152877.0 317581.0 0
157017.0 317381.0 0
162617.0 317497.0 0
168664.0 317409.0 0
173558.0 313097.0 0
178576.0 316896.0 0
188094.0 315946.0 0
193489.0 317445.0 0
197990.0 316155.0 0
202823.0 316862.0 0
206636.0 317287.0 0
210508.0 316571.0 0
215969.0 316160.0 0
222111.0 316516.0 0
227960.0 317051.0 0
232950.0 316141.0 0
237650.0 316696.0 0
243163.0 316554.0 0
248545.0 316769.0 0
251791.0 313267.0 0
254314.0 316972.0 0
259167.0 316550.0 0
262971.0 317837.0 0
266634.0 314340.0 0
270831.0 316890.0 0
276856.0 315739.0 0
282625.0 317063.0 0
287482.0 313246.0 0
298126.0 317089.0 0
305833.0 316640.0 0
310041.0 318045.0 0
315325.0 313644.0 0
311347.0 315297.0 0
318381.0 316953.0 0
326027.0 313118.0 0
322500.0 317148.0 0
328883.0 317745.0 0
336966.0 316664.0 0
341068.0 316624.0 0
346125.0 316791.0 0
357122.0 316617.0 0
361932.0 317060.0 0
372158.0 315689.0 0
377856.0 316136.0 0
387971.0 313221.0 0
389037.0 318070.0 0
392973.0 315884.0 0
398548.0 317254.0 0
404601.0 317276.0 0
411402.0 313070.0 0
408300.0 317313.0 0
411596.0 317364.0 0
415644.0 316719.0 0
420770.0 317198.0 0
427258.0 317586.0 0
431804.0 313362.0 0
432710.0 317423.0 0
437830.0 317487.0 0
453733.0 316555.0 0
458606.0 316814.0 0
462392.0 314958.0 0
466475.0 317240.0 0
471688.0 317608.0 0
476779.0 317299.0 0
479850.0 313212.0 0
482191.0 318062.0 0
485499.0 313732.0 0
489750.0 317063.0 0
496510.0 313049.0 0
3164.55 319013.0 0
11598.9 322647.0 0
18016.6 318479.0 0
17536.7 322942.0 0
22465.1 322690.0 0
27691.4 322391.0 0
32847.5 322273.0 0
37853.0 321777.0 0
42860.5 321884.0 0
47500.0 321946.0 0
52500.0 321865.0 0
57784.0 318682.0 0
57477.7 323144.0 0
62274.2 322217.0 0
67614.2 321447.0 0
72935.3 318184.0 0
78321.1 318408.0 0
77015.0 322300.0 0
81641.2 321912.0 0
86251.6 321745.0 0
91743.3 322249.0 0
97810.9 322451.0 0
102676.0 321442.0 0
111196.0 321522.0 0
115542.0 322311.0 0
120822.0 321641.0 0
125822.0 318395.0 0
131584.0 321926.0 0
137612.0 322321.0 0
147684.0 318248.0 0
143059.0 322689.0 0
152422.0 321499.0 0
156860.0 322061.0 0
165972.0 321969.0 0
170918.0 322388.0 0
173727.0 318446.0 0
176404.0 322983.0 0
183171.0 318532.0 0
181255.0 322090.0 0
190930.0 320805.0 0
196092.0 321807.0 0
202301.0 320531.0 0
207228.0 322283.0 0
212888.0 320713.0 0
217551.0 320514.0 0
221509.0 322012.0 0
226279.0 321916.0 0
232025.0 321183.0 0
240945.0 320850.0 0
246433.0 322777.0 0
252580.0 322256.0 0
257644.0 320501.0 0
262284.0 323007.0 0
267282.0 320084.0 0
272591.0 321031.0 0
277775.0 320441.0 0
287893.0 318438.0 0
289758.0 322992.0 0
292219.0 318195.0 0
295918.0 322259.0 0
301976.0 321347.0 0
308299.0 322120.0 0
313941.0 318644.0 0
318341.0 321520.0 0
325773.0 321458.0 0
333221.0 318688.0 0
336296.0 322357.0 0
342209.0 322017.0 0
347977.0 322956.0 0
352098.0 318855.0 0
357673.0 322409.0 0
363327.0 321991.0 0
367452.0 318417.0 0
372099.0 321805.0 0
377566.0 322098.0 0
383972.0 318527.0 0
388171.0 322943.0 0
393828.0 321565.0 0
403557.0 323076.0 0
413394.0 321554.0 0
417996.0 322197.0 0
422311.0 322244.0 0
432984.0 321679.0 0
437051.0 322413.0 0
443873.0 318556.0 0
448914.0 318442.0 0
447415.0 321826.0 0
451708.0 322404.0 0
455872.0 320829.0 0
461842.0 322109.0 0
468613.0 322826.0 0
474677.0 322700.0 0
480001.0 322122.0 0
486636.0 322291.0 0
493006.0 319077.0 0
497152.0 319040.0 0
2175.01 324261.0 0
6288.63 323213.0 0
6704.61 327096.0 0
17237.7 327440.0 0
21689.8 327564.0 0
26626.1 327593.0 0
32271.3 327727.0 0
37800.8 326848.0 0
42911.0 327000.0 0
48373.5 326819.0 0
53049.3 327047.0 0
57491.5 327429.0 0
62500.0 327032.0 0
67351.0 327056.0 0
72220.4 323904.0 0
72974.1 328241.0 0
77098.8 327229.0 0
80954.1 327215.0 0
86605.7 326917.0 0
98143.5 327495.0 0
106908.0 323605.0 0
102895.0 326453.0 0
112148.0 326834.0 0
117794.0 326703.0 0
126036.0 323228.0 0
127511.0 326951.0 0
135074.0 325817.0 0
148622.0 324046.0 0
153502.0 327357.0 0
161342.0 323241.0 0
159495.0 327770.0 0
165993.0 327183.0 0
171490.0 327625.0 0
186326.0 323994.0 0
191997.0 325529.0 0
201438.0 325518.0 0
212087.0 326473.0 0
217819.0 325221.0 0
222998.0 326695.0 0
228699.0 326946.0 0
233702.0 326188.0 0
236995.0 323429.0 0
237066.0 327650.0 0
241269.0 326176.0 0
251907.0 327704.0 0
257068.0 324994.0 0
268711.0 326049.0 0
275955.0 324559.0 0
278905.0 327457.0 0
283317.0 324070.0 0
288347.0 327742.0 0
293390.0 327876.0 0
299878.0 327429.0 0
304899.0 325606.0 0
308520.0 327821.0 0
313570.0 323773.0 0
316592.0 326799.0 0
320493.0 328231.0 0
322095.0 324103.0 0
330984.0 323247.0 0
326609.0 327887.0 0
333846.0 328194.0 0
338659.0 326766.0 0
342793.0 327498.0 0
347410.0 327928.0 0
352466.0 324509.0 0
357811.0 328193.0 0
362645.0 326829.0 0
367570.0 324490.0 0
371818.0 327215.0 0
377389.0 327991.0 0
382639.0 324826.0 0
391987.0 327740.0 0
397820.0 325385.0 0
406999.0 328021.0 0
409209.0 323852.0 0
411823.0 327545.0 0
417036.0 326744.0 0
422602.0 327947.0 0
427437.0 324334.0 0
432160.0 328245.0 0
437958.0 327632.0 0
442548.0 324037.0 0
448181.0 326865.0 0
455995.0 326723.0 0
466244.0 327339.0 0
477560.0 327538.0 0
481995.0 326092.0 0
493185.0 323451.0 0
498364.0 323360.0 0
497016.0 328154.0 0
2645.17 328542.0 0
11883.2 329434.0 0
92664.2 328844.0 0
107108.0 328955.0 0
123047.0 328361.0 0
131657.0 328715.0 0
139834.0 328388.0 0
146683.0 329253.0 0
162839.0 330818.0 0
177317.0 329211.0 0
183242.0 329214.0 0
188886.0 329625.0 0
196088.0 329340.0 0
201337.0 330949.0 0
206619.0 328948.0 0
210977.0 332123.0 0
216604.0 330944.0 0
222637.0 332434.0 0
228116.0 332355.0 0
234232.0 330975.0 0
240495.0 331949.0 0
246363.0 329201.0 0
253436.0 332531.0 0
258226.0 329970.0 0
263249.0 328595.0 0
261164.0 332890.0 0
270359.0 331600.0 0
274123.0 328732.0 0
278316.0 332914.0 0
284274.0 330448.0 0
289627.0 332294.0 0
296693.0 332690.0 0
304717.0 329703.0 0
301945.0 333173.0 0
313119.0 328707.0 0
352854.0 329333.0 0
367031.0 328844.0 0
382625.0 329180.0 0
386621.0 328442.0 0
396559.0 329504.0 0
401659.0 329800.0 0
427265.0 330140.0 0
442922.0 329591.0 0
452077.0 330014.0 0
461579.0 328667.0 0
471927.0 329024.0 0
481361.0 329937.0 0
486490.0 329567.0 0
491856.0 328553.0 0
199999.0 335963.0 0
204631.0 333450.0 0
204933.0 337568.0 0
210040.0 337189.0 0
216019.0 337048.0 0
221418.0 337834.0 0
226890.0 337760.0 0
231774.0 335493.0 0
236768.0 334369.0 0
235573.0 337545.0 0
244609.0 335187.0 0
240470.0 337987.0 0
248941.0 333870.0 0
252267.0 337433.0 0
257800.0 335505.0 0
262042.0 336193.0 0
265517.0 333547.0 0
271094.0 336713.0 0
276069.0 338251.0 0
280577.0 338104.0 0
283164.0 335050.0 0
286977.0 336534.0 0
292906.0 337264.0 0
299162.0 338045.0 0
201001.0 342247.0 0
207255.0 342084.0 0
212797.0 341485.0 0
218464.0 342733.0 0
223611.0 341762.0 0
231955.0 340779.0 0
236827.0 341249.0 0
246094.0 340252.0 0
250867.0 341856.0 0
256647.0 341852.0 0
262705.0 340264.0 0
267791.0 340928.0 0
273112.0 343032.0 0
278589.0 342109.0 0
284220.0 339334.0 0
283095.0 343210.0 0
288419.0 341844.0 0
293893.0 342771.0 0
297947.0 342727.0 0
202742.0 348584.0 0
208680.0 347600.0 0
213941.0 346577.0 0
219010.0 348094.0 0
224041.0 347874.0 0
227561.0 343874.0 0
228525.0 348402.0 0
231934.0 346138.0 0
236372.0 345310.0 0
241155.0 343671.0 0
240788.0 347758.0 0
246442.0 346136.0 0
252238.0 346644.0 0
257221.0 347779.0 0
261510.0 345047.0 0
266522.0 346166.0 0
271849.0 347835.0 0
280661.0 346060.0 0
276517.0 347127.0 0
285472.0 346967.0 0
291241.0 346685.0 0
297157.0 347386.0 0
10310.7 351989.0 0
206665.0 353108.0 0
210806.0 351526.0 0
215639.0 352070.0 0
221217.0 352498.0 0
226901.0 353373.0 0
231547.0 350734.0 0
237135.0 350761.0 0
243219.0 350649.0 0
248832.0 351521.0 0
254587.0 351804.0 0
261709.0 350357.0 0
268197.0 352632.0 0
274398.0 351265.0 0
279307.0 349811.0 0
283329.0 351950.0 0
288905.0 351360.0 0
293672.0 350853.0 0
297174.0 353752.0 0
309756.0 353519.0 0
341742.0 349653.0 0
174681.0 358438.0 0
202397.0 355790.0 0
206796.0 358416.0 0
212025.0 356676.0 0
217546.0 357558.0 0
222787.0 357293.0 0
228262.0 357947.0 0
232580.0 355776.0 0
237485.0 356122.0 0
242328.0 356156.0 0
248065.0 357419.0 0
253646.0 357050.0 0
258692.0 355247.0 0
262752.0 357814.0 0
272792.0 357625.0 0
278577.0 353899.0 0
282266.0 356076.0 0
286365.0 358100.0 0
292164.0 356288.0 0
389098.0 358509.0 0
404603.0 356775.0 0
421499.0 358046.0 0
443009.0 357694.0 0
455114.0 358075.0 0
472319.0 358818.0 0
497243.0 357643.0 0
6878.9 361799.0 0
48261.5 359413.0 0
56374.4 363327.0 0
63868.7 363336.0 0
96187.4 363603.0 0
100416.0 363050.0 0
126005.0 362770.0 0
167796.0 361661.0 0
177380.0 362624.0 0
191569.0 363643.0 0
202168.0 360580.0 0
205920.0 363409.0 0
211063.0 362324.0 0
216123.0 362520.0 0
220634.0 361730.0 0
225802.0 361543.0 0
231702.0 361880.0 0
237810.0 361032.0 0
248210.0 363429.0 0
253939.0 362390.0 0
258835.0 360424.0 0
263569.0 362978.0 0
267354.0 358907.0 0
269163.0 363989.0 0
274207.0 362859.0 0
278868.0 359609.0 0
283521.0 363406.0 0
287980.0 362694.0 0
291897.0 361561.0 0
296967.0 360177.0 0
317422.0 361738.0 0
322449.0 363146.0 0
357807.0 361245.0 0
362467.0 359662.0 0
368610.0 359444.0 0
374583.0 362086.0 0
437044.0 361336.0 0
461586.0 361936.0 0
476569.0 362062.0 0
481239.0 363155.0 0
492537.0 359795.0 0
14254.8 366352.0 0
22436.4 367669.0 0
30427.9 367751.0 0
36537.1 368105.0 0
68827.6 364355.0 0
75161.9 366391.0 0
79658.9 365090.0 0
85031.3 365788.0 0
107589.0 364787.0 0
111005.0 366632.0 0
115161.0 365089.0 0
121008.0 364982.0 0
131871.0 367092.0 0
137545.0 366118.0 0
142332.0 368417.0 0
154054.0 365392.0 0
158565.0 364786.0 0
178281.0 366603.0 0
196244.0 364571.0 0
201816.0 365072.0 0
205067.0 368090.0 0
209005.0 366552.0 0
213528.0 367395.0 0
218065.0 366400.0 0
222571.0 366019.0 0
227680.0 366830.0 0
233248.0 367619.0 0
238364.0 367077.0 0
242515.0 364147.0 0
241927.0 368908.0 0
245534.0 367917.0 0
251090.0 368317.0 0
258960.0 364833.0 0
255590.0 366919.0 0
261720.0 367245.0 0
267177.0 368976.0 0
272982.0 367098.0 0
277698.0 366750.0 0
281970.0 367448.0 0
287190.0 366887.0 0
292374.0 366540.0 0
296871.0 365147.0 0
309917.0 365024.0 0
322874.0 367837.0 0
327026.0 368559.0 0
391310.0 365188.0 0
396056.0 366626.0 0
423600.0 365997.0 0
449230.0 367708.0 0
462807.0 368405.0 0
466739.0 367199.0 0
471802.0 365797.0 0
497839.0 367094.0 0
1673.05 375767.0 0
6382.35 375075.0 0
11524.0 375147.0 0
15390.4 375057.0 0
17612.6 369711.0 0
19299.8 375377.0 0
25909.8 375807.0 0
22861.6 375365.0 0
29573.0 375265.0 0
33592.2 375140.0 0
40454.7 375118.0 0
36644.7 375515.0 0
44863.3 375077.0 0
47593.2 371651.0 0
52074.4 370271.0 0
52730.3 375410.0 0
56668.8 375287.0 0
60943.4 375708.0 0
65003.4 375276.0 0
69400.7 375547.0 0
73889.9 375286.0 0
78580.0 375607.0 0
87059.4 375449.0 0
83754.6 375590.0 0
89804.4 375123.0 0
92712.3 376099.0 0
93745.4 371349.0 0
95189.0 375776.0 0
98150.7 375057.0 0
105424.0 375132.0 0
102002.0 375300.0 0
109146.0 375256.0 0
113555.0 375237.0 0
118968.0 374054.0 0
123359.0 370438.0 0
123726.0 375477.0 0
127002.0 375192.0 0
131100.0 375498.0 0
134728.0 375206.0 0
138374.0 375759.0 0
142310.0 375932.0 0
146220.0 372697.0 0
150906.0 370667.0 0
154771.0 375027.0 0
163009.0 375386.0 0
159598.0 375136.0 0
166978.0 375633.0 0
170738.0 374447.0 0
173197.0 368984.0 0
177674.0 371402.0 0
179569.0 375042.0 0
184387.0 375200.0 0
189289.0 375176.0 0
198319.0 375030.0 0
194179.0 375315.0 0
204692.0 373206.0 0
209733.0 371015.0 0
215526.0 372814.0 0
220573.0 370196.0 0
226491.0 371856.0 0
231268.0 372525.0 0
236641.0 372066.0 0
241637.0 372670.0 0
247404.0 373361.0 0
253429.0 372808.0 0
257885.0 370807.0 0
262771.0 371451.0 0
271615.0 371495.0 0
280255.0 371550.0 0
275784.0 373520.0 0
284151.0 369772.0 0
287645.0 371767.0 0
292266.0 371412.0 0
296384.0 369418.0 0
300991.0 373971.0 0
304605.0 375266.0 0
307134.0 376167.0 0
309079.0 374992.0 0
312494.0 375083.0 0
316460.0 375013.0 0
321493.0 375467.0 0
325662.0 375373.0 0
331233.0 369056.0 0
329909.0 375347.0 0
335573.0 371133.0 0
340615.0 369025.0 0
344216.0 372761.0 0
347164.0 375217.0 0
351206.0 375258.0 0
355400.0 375363.0 0
360470.0 375196.0 0
365495.0 375295.0 0
368729.0 375461.0 0
372702.0 375168.0 0
377001.0 375393.0 0
381798.0 375144.0 0
386380.0 375124.0 0
388361.0 370509.0 0
390821.0 375036.0 0
393105.0 371846.0 0
396192.0 375141.0 0
399432.0 375149.0 0
403243.0 375284.0 0
407516.0 372175.0 0
412764.0 375181.0 0
416942.0 367972.0 0
416309.0 375645.0 0
422244.0 371471.0 0
426478.0 369567.0 0
425343.0 375843.0 0
428838.0 375405.0 0
432225.0 370292.0 0
436181.0 372292.0 0
439663.0 368584.0 0
444219.0 370814.0 0
446504.0 375459.0 0
453813.0 375608.0 0
450255.0 375330.0 0
458485.0 370567.0 0
460250.0 375725.0 0
463617.0 375423.0 0
467743.0 375691.0 0
471183.0 375632.0 0
474491.0 375180.0 0
478868.0 375162.0 0
481953.0 368375.0 0
483526.0 375443.0 0
486521.0 369653.0 0
490323.0 373474.0 0
493903.0 375567.0 0
497842.0 375272.0 0
623.647 378955.0 0
3556.13 379126.0 0
9504.17 377366.0 0
10731.3 379695.0 0
6946.2 380280.0 0
13354.6 377838.0 0
14136.7 381722.0 0
16994.8 378186.0 0
18689.3 381536.0 0
24816.3 378590.0 0
21671.9 378789.0 0
28509.1 379966.0 0
32557.9 378077.0 0
36019.2 378514.0 0
33112.3 382039.0 0
39533.2 378744.0 0
37105.7 381717.0 0
42860.9 377708.0 0
43856.0 380163.0 0
41030.5 381319.0 0
47121.8 377598.0 0
49644.4 375412.0 0
46566.7 381807.0 0
50074.7 379921.0 0
52455.7 378063.0 0
55725.0 378988.0 0
59223.6 379425.0 0
57165.7 381708.0 0
62406.9 378893.0 0
66063.2 378815.0 0
63355.0 381657.0 0
69381.1 379449.0 0
72612.4 378213.0 0
75741.1 379244.0 0
80118.6 380459.0 0
83950.3 379860.0 0
87393.7 378374.0 0
90596.4 378929.0 0
94753.0 379810.0 0
97495.2 377853.0 0
100589.0 378281.0 0
99086.6 381987.0 0
104119.0 378145.0 0
107073.0 377684.0 0
107413.0 380301.0 0
104191.0 381699.0 0
111057.0 378748.0 0
116262.0 378693.0 0
121315.0 377772.0 0
119642.0 380594.0 0
124708.0 378085.0 0
123443.0 380537.0 0
126765.0 381772.0 0
127706.0 378312.0 0
131030.0 379194.0 0
135098.0 378810.0 0
133196.0 381767.0 0
139159.0 379645.0 0
147148.0 377801.0 0
143196.0 379983.0 0
146345.0 381367.0 0
150323.0 376066.0 0
152465.0 379234.0 0
155534.0 379019.0 0
157887.0 377120.0 0
160872.0 378158.0 0
158249.0 380604.0 0
162387.0 380630.0 0
164837.0 378609.0 0
168557.0 378676.0 0
166528.0 381660.0 0
171875.0 377963.0 0
175035.0 375437.0 0
174645.0 379865.0 0
181147.0 377773.0 0
177489.0 377257.0 0
180718.0 380218.0 0
177914.0 380474.0 0
187178.0 378784.0 0
183695.0 379445.0 0
191500.0 379295.0 0
196365.0 379326.0 0
199591.0 377621.0 0
199700.0 381765.0 0
209249.0 376148.0 0
204757.0 378702.0 0
213533.0 379109.0 0
218896.0 377865.0 0
222638.0 374403.0 0
223216.0 378277.0 0
227020.0 376675.0 0
232215.0 377767.0 0
237560.0 377463.0 0
242692.0 377298.0 0
252289.0 377746.0 0
257616.0 376228.0 0
262648.0 376117.0 0
267182.0 374358.0 0
272199.0 377492.0 0
278480.0 377263.0 0
284016.0 376123.0 0
290511.0 376911.0 0
295841.0 374312.0 0
300713.0 377791.0 0
303961.0 378099.0 0
304408.0 380944.0 0
301160.0 381721.0 0
307319.0 378827.0 0
310834.0 377388.0 0
307196.0 381796.0 0
311237.0 381193.0 0
314150.0 377761.0 0
315653.0 380503.0 0
318699.0 378231.0 0
321395.0 380929.0 0
323353.0 378418.0 0
326289.0 379214.0 0
328562.0 377989.0 0
330447.0 379780.0 0
333948.0 376744.0 0
338493.0 376027.0 0
339802.0 380048.0 0
341878.0 375904.0 0
341829.0 378927.0 0
344385.0 377062.0 0
345262.0 380286.0 0
347696.0 377868.0 0
348708.0 380813.0 0
351842.0 378995.0 0
355286.0 378095.0 0
358454.0 379472.0 0
364568.0 378089.0 0
362061.0 380482.0 0
365700.0 381750.0 0
368677.0 379017.0 0
372658.0 378580.0 0
376750.0 379232.0 0
372650.0 381531.0 0
381108.0 378929.0 0
385214.0 377668.0 0
388786.0 376501.0 0
384574.0 381975.0 0
391414.0 378400.0 0
388321.0 379584.0 0
393202.0 376251.0 0
396365.0 378693.0 0
393069.0 381179.0 0
399976.0 377448.0 0
400471.0 380505.0 0
403461.0 378808.0 0
404368.0 381512.0 0
406668.0 377259.0 0
409703.0 377008.0 0
411253.0 380316.0 0
419269.0 376697.0 0
414719.0 378883.0 0
422385.0 376473.0 0
421138.0 380386.0 0
424408.0 379487.0 0
428690.0 379163.0 0
432532.0 375848.0 0
432403.0 379936.0 0
435849.0 377376.0 0
439265.0 379590.0 0
439277.0 375709.0 0
442772.0 376178.0 0
442602.0 380047.0 0
446382.0 379095.0 0
450028.0 378350.0 0
453311.0 379045.0 0
457118.0 376193.0 0
456528.0 380385.0 0
459948.0 379561.0 0
463209.0 378794.0 0
466640.0 379802.0 0
472990.0 377953.0 0
470350.0 378970.0 0
473510.0 381072.0 0
476836.0 378966.0 0
481135.0 378760.0 0
485040.0 379701.0 0
487075.0 376474.0 0
488756.0 378588.0 0
488328.0 381483.0 0
491268.0 378092.0 0
494966.0 378506.0 0
498921.0 378256.0 0
498097.0 381363.0 0
1551.41 382022.0 0
4826.58 383332.0 0
1740.78 385455.0 0
9600.13 383883.0 0
13400.8 385609.0 0
16738.2 384613.0 0
19890.6 385379.0 0
22194.8 382903.0 0
24955.6 381889.0 0
23306.1 385659.0 0
26239.5 384667.0 0
29336.3 383754.0 0
32415.0 385898.0 0
35531.8 384408.0 0
39332.0 384903.0 0
43428.6 383847.0 0
42782.3 387351.0 0
49810.7 384130.0 0
46214.2 385935.0 0
53791.3 381987.0 0
53494.2 386095.0 0
60229.7 382778.0 0
57235.1 384624.0 0
60176.4 386600.0 0
63326.8 385249.0 0
67081.6 382852.0 0
66257.7 386658.0 0
70065.1 386107.0 0
72445.2 382280.0 0
75154.6 385987.0 0
76665.0 382746.0 0
79570.2 385734.0 0
82606.7 383559.0 0
83613.0 386604.0 0
86835.3 383171.0 0
91245.2 382895.0 0
95026.5 385141.0 0
102330.0 385261.0 0
106150.0 385852.0 0
112911.0 381838.0 0
109068.0 383080.0 0
109150.0 386510.0 0
112584.0 386008.0 0
116316.0 383177.0 0
121969.0 382303.0 0
119787.0 383953.0 0
120954.0 386967.0 0
123808.0 384562.0 0
127697.0 385865.0 0
130301.0 382626.0 0
130997.0 385718.0 0
135197.0 382031.0 0
137459.0 382559.0 0
134183.0 384409.0 0
137451.0 386066.0 0
141335.0 383992.0 0
146146.0 384791.0 0
149691.0 381573.0 0
151667.0 385057.0 0
154826.0 382358.0 0
156911.0 386123.0 0
160122.0 383438.0 0
163853.0 383625.0 0
165183.0 386269.0 0
166961.0 384517.0 0
170924.0 382861.0 0
175393.0 383583.0 0
178915.0 383617.0 0
182510.0 382501.0 0
181887.0 386643.0 0
185992.0 381945.0 0
185047.0 384727.0 0
189780.0 384153.0 0
194382.0 382805.0 0
197295.0 383320.0 0
194593.0 386682.0 0
208971.0 381262.0 0
204421.0 384252.0 0
212369.0 383915.0 0
217163.0 384026.0 0
221968.0 382130.0 0
226721.0 381550.0 0
231361.0 383092.0 0
237258.0 383396.0 0
242907.0 382319.0 0
247392.0 379727.0 0
247629.0 384152.0 0
251275.0 382793.0 0
255883.0 381500.0 0
261849.0 382066.0 0
265929.0 379866.0 0
269950.0 383621.0 0
276225.0 383004.0 0
281512.0 380743.0 0
286384.0 381710.0 0
295750.0 380473.0 0
291427.0 384071.0 0
305045.0 384004.0 0
301041.0 385833.0 0
309353.0 385218.0 0
314360.0 384459.0 0
318179.0 383048.0 0
317574.0 386571.0 0
321558.0 385156.0 0
324762.0 382368.0 0
326532.0 385870.0 0
328257.0 381927.0 0
330544.0 384138.0 0
332850.0 381372.0 0
336785.0 380835.0 0
334609.0 384994.0 0
339975.0 384943.0 0
342691.0 381882.0 0
346099.0 383280.0 0
344363.0 385129.0 0
349776.0 384045.0 0
354583.0 382899.0 0
359646.0 383493.0 0
363193.0 384265.0 0
367015.0 384712.0 0
369911.0 382866.0 0
375461.0 383030.0 0
372850.0 384721.0 0
379699.0 382303.0 0
381537.0 385049.0 0
378266.0 385034.0 0
387135.0 385286.0 0
389716.0 382813.0 0
393082.0 385042.0 0
397528.0 383297.0 0
402055.0 383397.0 0
407695.0 381349.0 0
405688.0 385387.0 0
413586.0 382866.0 0
410079.0 384222.0 0
417566.0 381264.0 0
416016.0 384852.0 0
423420.0 383230.0 0
419703.0 385033.0 0
426874.0 382257.0 0
426809.0 385771.0 0
430735.0 383539.0 0
435727.0 382230.0 0
436941.0 385092.0 0
440046.0 383742.0 0
445076.0 383664.0 0
448072.0 385952.0 0
449495.0 382287.0 0
453429.0 383115.0 0
450925.0 385733.0 0
457313.0 383993.0 0
460477.0 383139.0 0
463534.0 382138.0 0
463281.0 386052.0 0
466745.0 383782.0 0
470126.0 382421.0 0
469940.0 385846.0 0
474024.0 384990.0 0
477953.0 382766.0 0
481794.0 381943.0 0
481083.0 385095.0 0
485452.0 384172.0 0
491392.0 381426.0 0
494328.0 382025.0 0
490429.0 385162.0 0
494484.0 385199.0 0
498398.0 384587.0 0
2405.49 389265.0 0
6342.99 386875.0 0
6883.72 391122.0 0
11027.4 388756.0 0
16450.7 388570.0 0
21159.9 389005.0 0
25240.0 388440.0 0
28808.6 387482.0 0
27773.5 391399.0 0
32111.9 390109.0 0
35709.3 387432.0 0
39721.0 389016.0 0
36523.3 391001.0 0
45386.4 389566.0 0
42398.3 390440.0 0
49537.0 388847.0 0
53354.7 389661.0 0
56814.6 388158.0 0
60084.2 390593.0 0
63650.9 388733.0 0
67472.9 389983.0 0
72798.8 390130.0 0
77002.2 388752.0 0
79409.9 389435.0 0
77303.1 391882.0 0
81738.6 388797.0 0
85104.9 390463.0 0
90900.0 387238.0 0
87438.1 387678.0 0
89883.5 391536.0 0
94311.4 389535.0 0
98960.7 387167.0 0
98415.0 391202.0 0
103416.0 389403.0 0
108746.0 390290.0 0
117096.0 387183.0 0
113575.0 390022.0 0
116868.0 390369.0 0
120303.0 390193.0 0
124846.0 389206.0 0
129690.0 389265.0 0
133814.0 388390.0 0
137242.0 390027.0 0
140167.0 387923.0 0
141275.0 391687.0 0
143766.0 388145.0 0
146295.0 390830.0 0
148648.0 387908.0 0
153194.0 389387.0 0
150029.0 391447.0 0
158058.0 391213.0 0
161660.0 387335.0 0
162709.0 390853.0 0
165845.0 389326.0 0
168968.0 386993.0 0
173628.0 387189.0 0
171105.0 389216.0 0
169033.0 391096.0 0
172904.0 391333.0 0
177561.0 387085.0 0
176496.0 391016.0 0
180217.0 390480.0 0
186644.0 387362.0 0
183912.0 389357.0 0
187551.0 391065.0 0
191210.0 388934.0 0
198953.0 386665.0 0
195600.0 390725.0 0
199146.0 390612.0 0
208895.0 386871.0 0
213643.0 388477.0 0
222638.0 387252.0 0
228068.0 387411.0 0
233429.0 387969.0 0
244374.0 387688.0 0
249727.0 387504.0 0
254115.0 388442.0 0
259175.0 386310.0 0
263954.0 388486.0 0
265415.0 384717.0 0
268047.0 388046.0 0
272634.0 388032.0 0
277762.0 389310.0 0
282189.0 385688.0 0
287394.0 387643.0 0
292386.0 389242.0 0
295832.0 386095.0 0
305365.0 387675.0 0
301673.0 390285.0 0
305815.0 390972.0 0
309434.0 389374.0 0
313397.0 388046.0 0
320043.0 388100.0 0
316923.0 390623.0 0
321327.0 390435.0 0
323236.0 388054.0 0
326306.0 390433.0 0
330689.0 388422.0 0
334142.0 388526.0 0
337011.0 388154.0 0
340230.0 390234.0 0
344077.0 388425.0 0
347282.0 386646.0 0
347954.0 390041.0 0
351902.0 387915.0 0
351842.0 391761.0 0
355967.0 390958.0 0
357387.0 387193.0 0
361153.0 387254.0 0
360865.0 391033.0 0
365301.0 388304.0 0
370432.0 387323.0 0
369384.0 390960.0 0
375102.0 387587.0 0
373432.0 390928.0 0
377197.0 391324.0 0
379188.0 388495.0 0
380818.0 391312.0 0
384231.0 388231.0 0
389899.0 386795.0 0
388396.0 390253.0 0
392902.0 389833.0 0
396294.0 387301.0 0
398275.0 391313.0 0
401034.0 387039.0 0
401903.0 390499.0 0
404879.0 389725.0 0
412819.0 386782.0 0
408998.0 388139.0 0
412165.0 390869.0 0
416314.0 388537.0 0
423351.0 386976.0 0
420540.0 390157.0 0
425730.0 390143.0 0
430109.0 388178.0 0
433807.0 390848.0 0
434155.0 386213.0 0
438308.0 388212.0 0
442899.0 386810.0 0
442767.0 390850.0 0
446138.0 388114.0 0
449753.0 388574.0 0
452378.0 391392.0 0
454474.0 387506.0 0
457833.0 391470.0 0
459378.0 387302.0 0
463003.0 390959.0 0
467159.0 388127.0 0
471606.0 389499.0 0
478334.0 387352.0 0
475053.0 388771.0 0
483027.0 387761.0 0
480549.0 390490.0 0
484403.0 391540.0 0
487626.0 388580.0 0
492785.0 389850.0 0
497726.0 388616.0 0
1484.81 392463.0 0
4518.56 393405.0 0
1656.51 395457.0 0
7899.22 395554.0 0
10538.1 392748.0 0
14639.7 392468.0 0
12387.8 396199.0 0
19275.6 392782.0 0
16768.7 396361.0 0
23773.0 392271.0 0
26671.3 395152.0 0
30422.9 393995.0 0
33861.2 393419.0 0
33378.0 396603.0 0
40295.5 392445.0 0
37217.0 394653.0 0
43912.7 392893.0 0
41538.2 396447.0 0
47534.4 392460.0 0
49260.8 394915.0 0
46351.1 396416.0 0
51493.8 392852.0 0
55959.7 392301.0 0
54206.1 395980.0 0
58875.1 395766.0 0
63876.5 393835.0 0
68604.5 393817.0 0
71655.2 393807.0 0
75015.9 394730.0 0
81334.5 392562.0 0
78617.7 395585.0 0
86216.2 394610.0 0
82992.7 396146.0 0
90143.5 396730.0 0
94144.9 393862.0 0
98623.4 395600.0 0
102017.0 393321.0 0
105630.0 393122.0 0
111969.0 393854.0 0
108335.0 395564.0 0
115384.0 392908.0 0
115566.0 396286.0 0
118600.0 393277.0 0
122992.0 393312.0 0
127833.0 393119.0 0
132995.0 392870.0 0
130716.0 396470.0 0
137507.0 393926.0 0
141078.0 395977.0 0
144312.0 394002.0 0
149096.0 395205.0 0
153566.0 393627.0 0
157160.0 395770.0 0
161840.0 394642.0 0
166022.0 393108.0 0
166306.0 396624.0 0
170734.0 395055.0 0
175059.0 394412.0 0
183263.0 392724.0 0
178953.0 394740.0 0
183318.0 396575.0 0
187518.0 394999.0 0
191939.0 393356.0 0
195837.0 394180.0 0
198856.0 393424.0 0
198317.0 396824.0 0
203812.0 389853.0 0
202575.0 394457.0 0
208956.0 392308.0 0
214345.0 393745.0 0
218497.0 390509.0 0
223563.0 392169.0 0
220456.0 394278.0 0
229411.0 392447.0 0
234308.0 393131.0 0
238700.0 389736.0 0
242823.0 393233.0 0
247956.0 392327.0 0
252248.0 391816.0 0
256194.0 392938.0 0
260997.0 391817.0 0
265549.0 392400.0 0
270002.0 392078.0 0
274746.0 394085.0 0
282675.0 391128.0 0
287627.0 393441.0 0
292912.0 394086.0 0
300787.0 394083.0 0
296845.0 390047.0 0
296917.0 394046.0 0
304532.0 393865.0 0
308616.0 392950.0 0
307357.0 396379.0 0
310989.0 395096.0 0
312685.0 392134.0 0
315490.0 395912.0 0
319710.0 394053.0 0
323398.0 392905.0 0
322794.0 396007.0 0
330357.0 392725.0 0
326613.0 395225.0 0
335443.0 392449.0 0
335104.0 396533.0 0
340486.0 393981.0 0
338597.0 396578.0 0
344137.0 392548.0 0
348720.0 394807.0 0
354280.0 394995.0 0
358404.0 394294.0 0
361928.0 395879.0 0
365594.0 393051.0 0
370887.0 394393.0 0
375385.0 394314.0 0
379629.0 394220.0 0
384796.0 393520.0 0
390263.0 393785.0 0
394430.0 393600.0 0
397779.0 395364.0 0
402877.0 394328.0 0
408062.0 392603.0 0
407830.0 396546.0 0
411733.0 394748.0 0
415612.0 392537.0 0
415491.0 396630.0 0
419384.0 394238.0 0
424018.0 394281.0 0
428461.0 396298.0 0
429232.0 392626.0 0
433099.0 394835.0 0
438158.0 393517.0 0
443169.0 395031.0 0
447459.0 392059.0 0
446840.0 396305.0 0
450787.0 395307.0 0
454599.0 394406.0 0
458293.0 396246.0 0
461479.0 394674.0 0
467784.0 392522.0 0
464956.0 395802.0 0
471750.0 393337.0 0
473885.0 396130.0 0
476476.0 392501.0 0
481187.0 394345.0 0
489068.0 392945.0 0
485543.0 394841.0 0
493392.0 394806.0 0
497705.0 393054.0 0
1682.79 398674.0 0
4803.56 396772.0 0
1339.02 401386.0 0
9835.35 398865.0 0
5838.26 400907.0 0
13938.2 400081.0 0
18525.4 400740.0 0
22131.9 396830.0 0
29508.7 397726.0 0
26276.2 398926.0 0
32260.9 400687.0 0
36820.3 398565.0 0
40655.4 400677.0 0
44567.0 400112.0 0
50864.4 397049.0 0
48789.0 399969.0 0
53531.2 400390.0 0
56245.8 398169.0 0
58198.7 400502.0 0
62367.3 398964.0 0
65563.3 402021.0 0
71125.5 397067.0 0
66944.6 397848.0 0
70112.8 400860.0 0
75198.7 399382.0 0
80727.3 399250.0 0
85950.9 399241.0 0
90358.3 401338.0 0
94980.8 398873.0 0
100193.0 398885.0 0
103873.0 397058.0 0
103051.0 401637.0 0
112002.0 398179.0 0
107540.0 399653.0 0
116480.0 400718.0 0
120026.0 397097.0 0
121691.0 401394.0 0
125550.0 397723.0 0
132711.0 398908.0 0
129455.0 399788.0 0
134570.0 396790.0 0
137939.0 397473.0 0
136122.0 400875.0 0
140749.0 399662.0 0
144696.0 397726.0 0
149141.0 399753.0 0
153429.0 397710.0 0
157253.0 399836.0 0
159607.0 397966.0 0
162584.0 398129.0 0
160682.0 401059.0 0
165189.0 400688.0 0
169805.0 399623.0 0
175212.0 399122.0 0
179824.0 398441.0 0
182949.0 400090.0 0
187512.0 399188.0 0
190754.0 397106.0 0
191838.0 400029.0 0
194136.0 397021.0 0
195510.0 400156.0 0
199079.0 399929.0 0
207941.0 397643.0 0
212548.0 398277.0 0
217855.0 397914.0 0
223070.0 397278.0 0
226906.0 395721.0 0
231055.0 397245.0 0
238610.0 394719.0 0
235918.0 398039.0 0
240696.0 398329.0 0
245940.0 397790.0 0
252038.0 396151.0 0
256954.0 397944.0 0
262081.0 396778.0 0
267574.0 397003.0 0
272629.0 399036.0 0
277837.0 398603.0 0
281480.0 395592.0 0
285077.0 398268.0 0
290482.0 398756.0 0
296165.0 398483.0 0
302187.0 397644.0 0
306262.0 400178.0 0
311429.0 398845.0 0
319991.0 398174.0 0
316508.0 401651.0 0
323695.0 398568.0 0
324421.0 400943.0 0
321743.0 401532.0 0
331231.0 396937.0 0
327388.0 399321.0 0
330660.0 401546.0 0
334988.0 400415.0 0
340006.0 400055.0 0
343539.0 397213.0 0
348382.0 400044.0 0
352724.0 398154.0 0
357552.0 398462.0 0
367389.0 397962.0 0
362401.0 400417.0 0
370997.0 400849.0 0
373185.0 397989.0 0
377805.0 398062.0 0
382688.0 397716.0 0
380842.0 401634.0 0
387954.0 397861.0 0
385191.0 400847.0 0
393457.0 397940.0 0
399429.0 398636.0 0
402780.0 401191.0 0
404131.0 398115.0 0
407206.0 401071.0 0
411560.0 398681.0 0
416109.0 401161.0 0
420070.0 397868.0 0
421331.0 401759.0 0
424580.0 398593.0 0
428655.0 400629.0 0
432067.0 398292.0 0
436319.0 397420.0 0
434527.0 399590.0 0
436118.0 400846.0 0
440290.0 397143.0 0
439376.0 400260.0 0
444062.0 399599.0 0
449613.0 400124.0 0
454225.0 398016.0 0
458266.0 400254.0 0
454410.0 401679.0 0
462004.0 398322.0 0
469563.0 397073.0 0
465771.0 399926.0 0
474404.0 399953.0 0
470085.0 400720.0 0
478253.0 397202.0 0
479330.0 401009.0 0
483413.0 398436.0 0
488886.0 397328.0 0
493216.0 399207.0 0
497882.0 397049.0 0
497764.0 400890.0 0
2229.34 404572.0 0
6764.68 406292.0 0
10483.2 402842.0 0
15100.0 404693.0 0
20070.9 404651.0 0
23770.0 402117.0 0
28391.6 401745.0 0
26964.5 405036.0 0
31391.2 405601.0 0
36260.4 403240.0 0
40204.1 403456.0 0
39824.7 406763.0 0
43160.4 403589.0 0
42943.0 406760.0 0
46674.4 402730.0 0
50756.0 404007.0 0
46097.9 406525.0 0
56206.4 404442.0 0
61224.9 403565.0 0
64944.4 406909.0 0
68752.5 404488.0 0
73188.4 404338.0 0
78163.1 403187.0 0
76847.3 406726.0 0
80945.7 406496.0 0
83219.8 403018.0 0
85405.2 406802.0 0
87062.8 403265.0 0
94477.1 403871.0 0
98595.5 401693.0 0
99108.2 405267.0 0
103348.0 405762.0 0
107287.0 404042.0 0
111604.0 402199.0 0
110897.0 406487.0 0
114737.0 404367.0 0
119207.0 405228.0 0
126731.0 403234.0 0
122963.0 404482.0 0
131692.0 401962.0 0
130292.0 404540.0 0
134360.0 405767.0 0
140012.0 404782.0 0
144743.0 401821.0 0
145089.0 405724.0 0
148908.0 403979.0 0
152221.0 406584.0 0
153730.0 402497.0 0
158394.0 403944.0 0
162940.0 404265.0 0
168057.0 403835.0 0
172087.0 402876.0 0
175294.0 404724.0 0
179737.0 402898.0 0
185301.0 402967.0 0
188256.0 405782.0 0
189577.0 402510.0 0
193300.0 403995.0 0
198294.0 403550.0 0
203418.0 399895.0 0
208206.0 402868.0 0
214219.0 403471.0 0
219701.0 402684.0 0
223633.0 404337.0 0
226871.0 400786.0 0
231860.0 402381.0 0
237205.0 403068.0 0
242897.0 401982.0 0
247865.0 403652.0 0
251929.0 400731.0 0
255861.0 403005.0 0
260281.0 401178.0 0
264982.0 401857.0 0
269580.0 402399.0 0
275492.0 403707.0 0
281880.0 403210.0 0
288107.0 403916.0 0
293843.0 403634.0 0
301316.0 402176.0 0
305200.0 403885.0 0
310319.0 403545.0 0
306582.0 406454.0 0
314128.0 404889.0 0
320909.0 405254.0 0
316619.0 406531.0 0
326549.0 404656.0 0
332964.0 405402.0 0
338089.0 403701.0 0
340540.0 405801.0 0
343904.0 403188.0 0
349396.0 404610.0 0
354023.0 402413.0 0
353180.0 407056.0 0
358810.0 402640.0 0
362076.0 405046.0 0
366777.0 403184.0 0
371356.0 404139.0 0
375630.0 402424.0 0
379547.0 405674.0 0
384471.0 404388.0 0
389732.0 402709.0 0
395559.0 402144.0 0
393844.0 406835.0 0
399701.0 402675.0 0
398399.0 405216.0 0
402985.0 405367.0 0
407663.0 404889.0 0
411689.0 402982.0 0
415088.0 405955.0 0
418996.0 404917.0 0
425215.0 402653.0 0
428521.0 405271.0 0
432756.0 402469.0 0
433311.0 406469.0 0
437487.0 404102.0 0
441830.0 402804.0 0
446441.0 404414.0 0
451996.0 404598.0 0
457677.0 405119.0 0
461798.0 401833.0 0
464504.0 403597.0 0
468085.0 403750.0 0
472571.0 404196.0 0
476705.0 403228.0 0
476012.0 406369.0 0
483289.0 402728.0 0
480339.0 405493.0 0
488062.0 401999.0 0
485164.0 405935.0 0
488829.0 406235.0 0
493097.0 404087.0 0
497933.0 405050.0 0
2187.59 408543.0 0
9621.77 409508.0 0
6231.51 411311.0 0
11154.6 406799.0 0
13505.6 409420.0 0
18274.8 409040.0 0
23466.4 407101.0 0
27730.2 409177.0 0
33046.5 411282.0 0
35706.0 407571.0 0
38504.1 410914.0 0
42655.8 409687.0 0
49598.4 408523.0 0
46167.6 411231.0 0
53212.8 407433.0 0
59884.2 407599.0 0
56218.8 409224.0 0
62774.2 410466.0 0
69548.4 408222.0 0
66929.2 411880.0 0
70713.3 411710.0 0
73622.9 408920.0 0
78446.6 410728.0 0
83202.8 409549.0 0
90162.4 406965.0 0
87015.0 410912.0 0
95585.3 408879.0 0
100927.0 409615.0 0
106695.0 409229.0 0
110871.0 410471.0 0
115186.0 408553.0 0
120182.0 409675.0 0
124023.0 407565.0 0
126585.0 411003.0 0
129369.0 407809.0 0
137515.0 409600.0 0
133230.0 409948.0 0
143214.0 409879.0 0
148365.0 408045.0 0
152301.0 410032.0 0
155897.0 407096.0 0
156336.0 411159.0 0
160452.0 408132.0 0
165794.0 407740.0 0
164114.0 410952.0 0
171347.0 407568.0 0
168546.0 411881.0 0
178492.0 407925.0 0
174940.0 409859.0 0
183295.0 406855.0 0
181960.0 411707.0 0
186859.0 409933.0 0
191659.0 408268.0 0
197288.0 408385.0 0
193965.0 411577.0 0
203451.0 405895.0 0
208538.0 407877.0 0
213116.0 409182.0 0
218418.0 407105.0 0
222942.0 408835.0 0
228034.0 406635.0 0
233134.0 406810.0 0
237378.0 408477.0 0
241432.0 406099.0 0
245309.0 408555.0 0
249646.0 408454.0 0
254494.0 408361.0 0
260821.0 406933.0 0
267532.0 407028.0 0
273054.0 408770.0 0
278544.0 408565.0 0
282829.0 408155.0 0
286439.0 408482.0 0
291103.0 408288.0 0
297110.0 408028.0 0
302204.0 406983.0 0
301640.0 411349.0 0
309375.0 407754.0 0
306214.0 409989.0 0
310682.0 410740.0 0
312971.0 407626.0 0
315372.0 411211.0 0
319282.0 409103.0 0
323969.0 409911.0 0
329897.0 409512.0 0
334668.0 411224.0 0
337297.0 407733.0 0
342391.0 408352.0 0
346527.0 407270.0 0
345369.0 409913.0 0
350084.0 408206.0 0
348447.0 411401.0 0
352789.0 410411.0 0
357551.0 406927.0 0
361796.0 410197.0 0
365540.0 407293.0 0
369322.0 406886.0 0
368452.0 411371.0 0
374414.0 408096.0 0
379759.0 410124.0 0
382969.0 407958.0 0
383835.0 411448.0 0
387722.0 408130.0 0
396258.0 410933.0 0
399054.0 408557.0 0
402713.0 410242.0 0
406457.0 408411.0 0
405600.0 411591.0 0
410952.0 407404.0 0
414589.0 410937.0 0
418771.0 409038.0 0
423429.0 406426.0 0
422684.0 411233.0 0
426617.0 409413.0 0
429959.0 408872.0 0
433223.0 410964.0 0
437282.0 408536.0 0
441910.0 406718.0 0
440940.0 410831.0 0
445781.0 410269.0 0
449488.0 407813.0 0
453881.0 408577.0 0
457866.0 409642.0 0
462021.0 405520.0 0
461508.0 409156.0 0
465548.0 407728.0 0
468984.0 410704.0 0
469759.0 407027.0 0
473095.0 408597.0 0
478084.0 410351.0 0
482653.0 408821.0 0
486777.0 409995.0 0
492238.0 408896.0 0
497563.0 409046.0 0
1655.23 412146.0 0
3207.8 416274.0 0
8367.17 415096.0 0
11026.4 412414.0 0
14985.6 413136.0 0
12280.9 416320.0 0
19097.6 413335.0 0
23241.9 411903.0 0
27888.1 414165.0 0
37589.0 415066.0 0
40160.7 416572.0 0
41940.8 413800.0 0
46212.4 415125.0 0
52052.6 413289.0 0
58729.7 412751.0 0
63245.5 414122.0 0
70119.2 415560.0 0
74079.9 412853.0 0
73807.8 415708.0 0
77886.9 415850.0 0
83004.1 413846.0 0
91706.6 412488.0 0
87408.8 415364.0 0
94424.4 415483.0 0
97716.8 413778.0 0
103752.0 413778.0 0
108941.0 413797.0 0
113357.0 413156.0 0
117148.0 412300.0 0
116992.0 415887.0 0
119950.0 413392.0 0
123081.0 412418.0 0
126755.0 415278.0 0
130356.0 412626.0 0
130413.0 416570.0 0
134813.0 414421.0 0
139809.0 413543.0 0
144466.0 415709.0 0
148319.0 412259.0 0
152749.0 414055.0 0
149109.0 415992.0 0
157014.0 416103.0 0
160653.0 413086.0 0
164995.0 414180.0 0
177705.0 411929.0 0
173515.0 414589.0 0
178853.0 415507.0 0
182801.0 416017.0 0
186092.0 414389.0 0
190390.0 412825.0 0
193847.0 415000.0 0
196281.0 412994.0 0
197989.0 415952.0 0
199095.0 412365.0 0
202585.0 412574.0 0
205217.0 410224.0 0
208803.0 412482.0 0
213178.0 413985.0 0
217514.0 411888.0 0
222050.0 413519.0 0
227050.0 412203.0 0
232005.0 411409.0 0
236535.0 413560.0 0
241377.0 411484.0 0
246314.0 413661.0 0
251297.0 412434.0 0
256620.0 414188.0 0
263198.0 413501.0 0
268424.0 412137.0 0
272594.0 413917.0 0
277369.0 413732.0 0
282458.0 412667.0 0
286778.0 412083.0 0
289997.0 414242.0 0
294250.0 412011.0 0
298102.0 412818.0 0
305300.0 413804.0 0
301910.0 416444.0 0
308648.0 413495.0 0
312148.0 414540.0 0
320008.0 413284.0 0
316480.0 415641.0 0
323616.0 414967.0 0
327011.0 413402.0 0
331608.0 415064.0 0
339480.0 411788.0 0
336758.0 415458.0 0
341570.0 415829.0 0
343949.0 412348.0 0
346646.0 415680.0 0
356601.0 411628.0 0
352105.0 414752.0 0
356911.0 415619.0 0
360279.0 414525.0 0
363981.0 413911.0 0
367158.0 416359.0 0
371563.0 415528.0 0
373191.0 412559.0 0
376875.0 412539.0 0
375172.0 414896.0 0
380998.0 413368.0 0
378809.0 415593.0 0
387086.0 413044.0 0
383852.0 416293.0 0
391676.0 412105.0 0
388978.0 416484.0 0
396031.0 413919.0 0
393487.0 416467.0 0
399765.0 413310.0 0
397662.0 416962.0 0
404260.0 414873.0 0
409365.0 412316.0 0
413287.0 415950.0 0
418787.0 414727.0 0
423462.0 415311.0 0
425953.0 412969.0 0
427351.0 416482.0 0
429106.0 412384.0 0
432138.0 415235.0 0
437210.0 413415.0 0
442778.0 414474.0 0
439494.0 416195.0 0
447541.0 415073.0 0
450655.0 411924.0 0
452578.0 416321.0 0
455481.0 412853.0 0
459889.0 413016.0 0
461947.0 415892.0 0
464599.0 412603.0 0
468828.0 414881.0 0
473391.0 413058.0 0
478083.0 416137.0 0
482500.0 412880.0 0
486147.0 414585.0 0
490251.0 413744.0 0
495108.0 412969.0 0
498765.0 412669.0 0
498132.0 416037.0 0
8577.18 419351.0 0
13086.5 421826.0 0
17757.2 417979.0 0
23409.0 416778.0 0
22909.5 421472.0 0
27566.8 419225.0 0
32884.4 417044.0 0
37693.7 419965.0 0
43062.5 418584.0 0
48408.1 417847.0 0
52486.4 419486.0 0
56608.6 416812.0 0
60841.6 417387.0 0
57668.4 421452.0 0
65875.0 417107.0 0
63322.1 421610.0 0
69228.8 421089.0 0
73859.5 419076.0 0
78253.7 420562.0 0
82310.3 418447.0 0
86724.6 420220.0 0
91461.8 418031.0 0
96067.4 418242.0 0
100854.0 418468.0 0
106479.0 418187.0 0
112304.0 417685.0 0
122097.0 417202.0 0
117771.0 420014.0 0
127376.0 420489.0 0
133512.0 420002.0 0
139144.0 418354.0 0
144126.0 420849.0 0
147909.0 419130.0 0
152497.0 418952.0 0
157795.0 421361.0 0
162376.0 418049.0 0
165824.0 420524.0 0
168294.0 417340.0 0
172387.0 419526.0 0
176524.0 419377.0 0
181201.0 419489.0 0
185467.0 418781.0 0
189710.0 417184.0 0
188754.0 421918.0 0
194246.0 419504.0 0
198894.0 419566.0 0
203563.0 416899.0 0
209308.0 417894.0 0
214646.0 418137.0 0
218562.0 416440.0 0
222439.0 417757.0 0
226618.0 417079.0 0
231959.0 417161.0 0
237744.0 417815.0 0
241786.0 416545.0 0
247118.0 418651.0 0
251762.0 416953.0 0
257538.0 419026.0 0
261062.0 418353.0 0
268277.0 417262.0 0
273220.0 418372.0 0
279609.0 418017.0 0
284394.0 417522.0 0
288529.0 418390.0 0
292746.0 418079.0 0
296688.0 415936.0 0
302655.0 421226.0 0
307940.0 418318.0 0
313294.0 418083.0 0
320351.0 417397.0 0
317047.0 419822.0 0
321187.0 421483.0 0
324077.0 418775.0 0
327129.0 417073.0 0
329933.0 419792.0 0
334459.0 419178.0 0
339037.0 419230.0 0
343895.0 419721.0 0
349373.0 419827.0 0
354272.0 419183.0 0
358822.0 418761.0 0
361821.0 421468.0 0
362685.0 417452.0 0
365905.0 420506.0 0
370310.0 419416.0 0
375266.0 418636.0 0
379965.0 419369.0 0
383491.0 420695.0 0
387178.0 420356.0 0
391937.0 420736.0 0
395671.0 419390.0 0
401178.0 417699.0 0
398753.0 421695.0 0
408309.0 416762.0 0
404940.0 420253.0 0
410763.0 420895.0 0
416639.0 419594.0 0
422082.0 419410.0 0
426938.0 420864.0 0
430925.0 419065.0 0
430003.0 421844.0 0
436043.0 418775.0 0
440846.0 418367.0 0
444473.0 418732.0 0
449272.0 419815.0 0
457643.0 417478.0 0
454215.0 421026.0 0
461874.0 419933.0 0
465302.0 416988.0 0
468777.0 418711.0 0
472942.0 417690.0 0
475808.0 420662.0 0
483477.0 417610.0 0
479971.0 421071.0 0
488455.0 418353.0 0
493689.0 417472.0 0
492141.0 421280.0 0
497601.0 419986.0 0
3181.04 422136.0 0
8592.42 424686.0 0
18319.3 423942.0 0
23062.2 426581.0 0
27026.1 423838.0 0
32219.2 422533.0 0
36782.8 425476.0 0
41679.7 423621.0 0
47412.3 422247.0 0
53046.2 424144.0 0
56629.8 425815.0 0
60354.5 425293.0 0
66302.8 424706.0 0
74583.8 423906.0 0
78653.9 423818.0 0
82381.6 423093.0 0
86729.0 425031.0 0
91225.5 422770.0 0
90422.7 426729.0 0
95128.8 425938.0 0
97378.9 422068.0 0
100353.0 426144.0 0
103695.0 422543.0 0
109391.0 422991.0 0
114541.0 421824.0 0
114248.0 425589.0 0
121927.0 422556.0 0
117695.0 423868.0 0
130641.0 424243.0 0
135304.0 424918.0 0
139836.0 422969.0 0
144224.0 425474.0 0
148931.0 423368.0 0
153458.0 423162.0 0
158503.0 426830.0 0
163265.0 423628.0 0
166999.0 426414.0 0
169144.0 422823.0 0
174220.0 423520.0 0
179172.0 423330.0 0
184122.0 423173.0 0
193006.0 424965.0 0
198046.0 423096.0 0
201914.0 423440.0 0
205447.0 421653.0 0
212630.0 422467.0 0
216934.0 421797.0 0
221181.0 422119.0 0
226610.0 422252.0 0
231523.0 422265.0 0
236781.0 422714.0 0
243008.0 421931.0 0
247819.0 422694.0 0
251810.0 421495.0 0
256344.0 422923.0 0
261084.0 422641.0 0
266044.0 422482.0 0
271158.0 422137.0 0
276285.0 422075.0 0
282556.0 422030.0 0
287060.0 422014.0 0
291649.0 422897.0 0
296984.0 420482.0 0
302171.0 426147.0 0
307462.0 424311.0 0
312518.0 422165.0 0
317319.0 424608.0 0
322481.0 425943.0 0
326353.0 422730.0 0
332341.0 423613.0 0
336693.0 422440.0 0
337119.0 426379.0 0
340856.0 423237.0 0
346112.0 424112.0 0
351199.0 424496.0 0
356759.0 423617.0 0
361091.0 424795.0 0
365101.0 425372.0 0
368826.0 423151.0 0
372853.0 423096.0 0
375264.0 426826.0 0
377295.0 422812.0 0
381294.0 423499.0 0
379118.0 426473.0 0
385390.0 424590.0 0
389793.0 424885.0 0
394717.0 424996.0 0
402698.0 424656.0 0
407579.0 425706.0 0
411978.0 425328.0 0
414827.0 423281.0 0
415163.0 426514.0 0
419069.0 424373.0 0
424248.0 424435.0 0
432886.0 422692.0 0
429315.0 425253.0 0
436643.0 423590.0 0
438882.0 426602.0 0
440762.0 422173.0 0
442516.0 425814.0 0
445535.0 423141.0 0
450821.0 425211.0 0
458198.0 422488.0 0
455259.0 424724.0 0
462139.0 424688.0 0
466065.0 422103.0 0
471527.0 423006.0 0
476661.0 425777.0 0
481578.0 424962.0 0
485187.0 422280.0 0
488922.0 422114.0 0
494985.0 423474.0 0
490502.0 426882.0 0
498429.0 423582.0 0
3165.82 428036.0 0
8488.16 429380.0 0
13672.1 427424.0 0
18740.5 428207.0 0
21266.1 430291.0 0
25264.4 431181.0 0
27939.5 427886.0 0
32230.1 427461.0 0
35354.4 429877.0 0
40112.1 429726.0 0
45094.7 427313.0 0
44438.8 431816.0 0
49789.5 426603.0 0
48691.5 430768.0 0
53737.9 429008.0 0
58651.6 429109.0 0
63955.2 428564.0 0
70197.5 427109.0 0
74813.2 428960.0 0
78107.9 426951.0 0
79069.6 430930.0 0
82776.3 427783.0 0
87454.5 430135.0 0
92832.3 429932.0 0
97623.5 429817.0 0
105501.0 426987.0 0
102671.0 430334.0 0
107029.0 430840.0 0
110529.0 428538.0 0
116123.0 430119.0 0
120165.0 426754.0 0
121434.0 430586.0 0
125806.0 426865.0 0
131568.0 428825.0 0
136132.0 429185.0 0
139865.0 427359.0 0
139234.0 431576.0 0
143595.0 430175.0 0
147912.0 428153.0 0
151160.0 431005.0 0
152993.0 426980.0 0
155752.0 431457.0 0
160324.0 431293.0 0
163683.0 428719.0 0
173061.0 428118.0 0
168793.0 430374.0 0
177013.0 426826.0 0
176969.0 431116.0 0
181713.0 427865.0 0
187651.0 427348.0 0
184995.0 431416.0 0
193124.0 430310.0 0
197850.0 427713.0 0
202625.0 427208.0 0
208303.0 427079.0 0
213511.0 428736.0 0
215935.0 425867.0 0
220352.0 427093.0 0
225490.0 427743.0 0
230809.0 426932.0 0
235635.0 428136.0 0
240248.0 427598.0 0
246050.0 427687.0 0
253009.0 427934.0 0
259388.0 427491.0 0
264315.0 427910.0 0
269357.0 427087.0 0
273758.0 426664.0 0
278556.0 427128.0 0
283531.0 426524.0 0
287363.0 426658.0 0
291703.0 428317.0 0
296439.0 425376.0 0
302119.0 430946.0 0
306093.0 428931.0 0
309165.0 430629.0 0
312240.0 427501.0 0
317168.0 429537.0 0
325421.0 428565.0 0
322018.0 430837.0 0
328864.0 427031.0 0
331178.0 431582.0 0
333142.0 427611.0 0
335899.0 430571.0 0
342235.0 428271.0 0
348309.0 429241.0 0
354041.0 428759.0 0
360262.0 429186.0 0
365974.0 430764.0 0
370238.0 427503.0 0
373708.0 430392.0 0
378329.0 430640.0 0
382506.0 428150.0 0
387351.0 429504.0 0
391685.0 428150.0 0
391671.0 431608.0 0
394824.0 429119.0 0
398835.0 427520.0 0
400701.0 430524.0 0
403782.0 429185.0 0
408462.0 428999.0 0
411983.0 429342.0 0
417459.0 430116.0 0
421730.0 428178.0 0
426392.0 429440.0 0
430968.0 429869.0 0
434009.0 427117.0 0
437157.0 430872.0 0
442274.0 430163.0 0
446111.0 427441.0 0
449017.0 430220.0 0
453975.0 429699.0 0
458304.0 427121.0 0
459166.0 431563.0 0
462605.0 428969.0 0
466570.0 426851.0 0
471018.0 427907.0 0
474022.0 429543.0 0
477149.0 430967.0 0
481131.0 429052.0 0
485035.0 426936.0 0
485735.0 431698.0 0
493973.0 431140.0 0
497186.0 427488.0 0
1694.35 432495.0 0
2880.05 436634.0 0
5634.86 432623.0 0
8535.29 435107.0 0
11867.8 432561.0 0
17078.4 432387.0 0
19527.1 435529.0 0
21896.0 433714.0 0
25537.0 435513.0 0
28719.1 436160.0 0
30670.5 432402.0 0
36513.1 434545.0 0
41779.1 434655.0 0
46770.4 434446.0 0
49306.4 436875.0 0
52031.7 433524.0 0
56654.0 433090.0 0
60997.7 432555.0 0
64458.9 435249.0 0
67797.1 431978.0 0
72131.2 431753.0 0
75586.3 433977.0 0
80480.9 435783.0 0
83302.5 431992.0 0
86286.3 435750.0 0
90794.3 433719.0 0
95423.9 433398.0 0
100074.0 433752.0 0
105092.0 434271.0 0
110963.0 433739.0 0
116582.0 435757.0 0
121626.0 434788.0 0
125403.0 432389.0 0
130094.0 433935.0 0
134978.0 432687.0 0
139512.0 435668.0 0
142443.0 433495.0 0
147200.0 433211.0 0
144017.0 436726.0 0
152171.0 435009.0 0
156152.0 435825.0 0
160331.0 435381.0 0
164519.0 433430.0 0
168407.0 434846.0 0
172839.0 434365.0 0
181175.0 432675.0 0
184312.0 436407.0 0
189197.0 433342.0 0
193998.0 434348.0 0
197732.0 432638.0 0
203173.0 431954.0 0
208922.0 434095.0 0
213616.0 432192.0 0
217385.0 431883.0 0
222011.0 432071.0 0
227132.0 432684.0 0
232595.0 432327.0 0
238301.0 432336.0 0
242790.0 432025.0 0
248043.0 433312.0 0
251988.0 432809.0 0
255999.0 433341.0 0
261047.0 432557.0 0
266139.0 431893.0 0
271986.0 432756.0 0
277034.0 431602.0 0
282205.0 431952.0 0
287690.0 431401.0 0
291914.0 433662.0 0
296704.0 431063.0 0
302156.0 435197.0 0
306010.0 432984.0 0
309906.0 434168.0 0
313336.0 432172.0 0
318040.0 435074.0 0
323913.0 435480.0 0
326578.0 432100.0 0
334671.0 435364.0 0
339874.0 433407.0 0
344432.0 432438.0 0
347782.0 434638.0 0
351739.0 432702.0 0
356572.0 433801.0 0
362343.0 434868.0 0
370392.0 432397.0 0
367111.0 434973.0 0
370641.0 436407.0 0
374632.0 434347.0 0
379225.0 434896.0 0
382991.0 432591.0 0
387389.0 434503.0 0
392735.0 436497.0 0
397297.0 432626.0 0
402266.0 433419.0 0
407712.0 433009.0 0
413602.0 434246.0 0
418748.0 435412.0 0
422278.0 432379.0 0
428092.0 434120.0 0
433036.0 433788.0 0
437424.0 434919.0 0
440690.0 434373.0 0
445623.0 434104.0 0
450873.0 434452.0 0
455750.0 434318.0 0
463126.0 432992.0 0
460035.0 436765.0 0
468191.0 432102.0 0
473462.0 433376.0 0
477096.0 434509.0 0
480785.0 433533.0 0
483978.0 436179.0 0
490391.0 433498.0 0
494463.0 435143.0 0
497919.0 432245.0 0
498145.0 436173.0 0
2702.26 441860.0 0
7569.65 439410.0 0
12264.0 437317.0 0
14475.6 441402.0 0
17002.9 437597.0 0
21831.4 437896.0 0
23066.7 441241.0 0
27330.5 440193.0 0
31996.6 437565.0 0
35837.6 439503.0 0
40145.7 438745.0 0
44978.4 438124.0 0
50090.4 440191.0 0
54337.7 438028.0 0
59720.0 436807.0 0
63477.7 440131.0 0
70338.4 437442.0 0
76198.8 438589.0 0
79634.6 440017.0 0
83148.2 439601.0 0
91588.6 438892.0 0
96956.5 437453.0 0
102197.0 439079.0 0
108070.0 438390.0 0
112491.0 438260.0 0
115678.0 440803.0 0
120759.0 439575.0 0
125857.0 437507.0 0
134444.0 438199.0 0
140446.0 440597.0 0
145545.0 441000.0 0
148710.0 437887.0 0
153566.0 439777.0 0
158414.0 439111.0 0
163480.0 437950.0 0
167054.0 437978.0 0
171013.0 439030.0 0
178163.0 436751.0 0
174589.0 439749.0 0
181668.0 440677.0 0
186442.0 441673.0 0
188989.0 437843.0 0
192300.0 436746.0 0
192185.0 441292.0 0
197047.0 437897.0 0
202395.0 436839.0 0
206508.0 439802.0 0
214359.0 436519.0 0
218751.0 437176.0 0
222500.0 437258.0 0
226814.0 438362.0 0
232365.0 437422.0 0
237222.0 437524.0 0
242401.0 436808.0 0
247151.0 438124.0 0
252500.0 437261.0 0
256152.0 438067.0 0
260981.0 437787.0 0
266654.0 437553.0 0
272101.0 438611.0 0
276798.0 436204.0 0
281326.0 438870.0 0
286417.0 436412.0 0
291052.0 439066.0 0
296431.0 437192.0 0
301582.0 439066.0 0
306730.0 438336.0 0
312585.0 437732.0 0
316847.0 440895.0 0
321774.0 439389.0 0
329124.0 437044.0 0
334544.0 439718.0 0
338699.0 438231.0 0
343521.0 437144.0 0
343562.0 441798.0 0
347783.0 439527.0 0
352146.0 437064.0 0
357355.0 439463.0 0
362491.0 439597.0 0
367125.0 439224.0 0
372138.0 440983.0 0
376842.0 438548.0 0
382661.0 437448.0 0
380221.0 441285.0 0
387493.0 439672.0 0
397012.0 440392.0 0
399545.0 436843.0 0
404405.0 438319.0 0
410259.0 438454.0 0
415560.0 439264.0 0
420495.0 441067.0 0
424036.0 437556.0 0
430154.0 438872.0 0
435530.0 438164.0 0
442372.0 438151.0 0
447848.0 439038.0 0
453844.0 438541.0 0
457520.0 441506.0 0
462716.0 441499.0 0
465495.0 436990.0 0
467952.0 441344.0 0
470594.0 437156.0 0
472862.0 441460.0 0
475247.0 437605.0 0
477307.0 441483.0 0
479882.0 437985.0 0
483989.0 440812.0 0
488057.0 437598.0 0
492480.0 438487.0 0
493391.0 442039.0 0
496863.0 440013.0 0
1026.97 445343.0 0
6731.92 443961.0 0
10575.6 443128.0 0
14156.8 446390.0 0
19162.9 441904.0 0
18811.1 446239.0 0
23105.9 445090.0 0
28442.7 446039.0 0
32409.6 442284.0 0
38361.5 443743.0 0
42888.3 441968.0 0
46974.2 442447.0 0
53096.2 443664.0 0
58573.6 441785.0 0
62613.7 445064.0 0
67277.3 442217.0 0
71224.3 443284.0 0
76168.2 443411.0 0
81178.0 443399.0 0
86780.0 442046.0 0
91136.4 444652.0 0
96714.2 442910.0 0
101732.0 444163.0 0
106238.0 443180.0 0
111209.0 442467.0 0
109252.0 446603.0 0
114378.0 445635.0 0
118777.0 444333.0 0
123728.0 443815.0 0
129309.0 442505.0 0
135641.0 444564.0 0
139971.0 444497.0 0
143650.0 445244.0 0
149564.0 442134.0 0
153110.0 445218.0 0
157431.0 442957.0 0
161942.0 441794.0 0
163646.0 445976.0 0
167287.0 442451.0 0
172838.0 443823.0 0
177583.0 441975.0 0
177551.0 446355.0 0
182515.0 445402.0 0
189347.0 445257.0 0
193596.0 446320.0 0
197660.0 443232.0 0
202500.0 442134.0 0
208485.0 444341.0 0
212957.0 441977.0 0
217500.0 442090.0 0
222500.0 441959.0 0
228081.0 443651.0 0
232781.0 442106.0 0
237840.0 442421.0 0
242667.0 441352.0 0
247531.0 442506.0 0
251780.0 441622.0 0
256112.0 442298.0 0
260527.0 442818.0 0
265306.0 442799.0 0
270493.0 443778.0 0
276577.0 442579.0 0
281437.0 444240.0 0
285783.0 442263.0 0
291098.0 444333.0 0
297124.0 443739.0 0
303064.0 443185.0 0
307821.0 443563.0 0
312180.0 442651.0 0
316604.0 445452.0 0
320925.0 444003.0 0
326003.0 442050.0 0
331199.0 442422.0 0
328602.0 446639.0 0
338164.0 443425.0 0
347779.0 444432.0 0
352245.0 442081.0 0
356310.0 444723.0 0
360521.0 443480.0 0
364658.0 442959.0 0
368596.0 445120.0 0
376433.0 442750.0 0
379458.0 445860.0 0
384070.0 443668.0 0
392379.0 442799.0 0
397294.0 445533.0 0
401178.0 442579.0 0
407490.0 443098.0 0
403692.0 446682.0 0
412293.0 443059.0 0
417196.0 444246.0 0
422354.0 445248.0 0
426255.0 442477.0 0
430378.0 444005.0 0
433904.0 441929.0 0
438652.0 441997.0 0
434855.0 446660.0 0
443916.0 442890.0 0
448719.0 444264.0 0
451913.0 441726.0 0
454140.0 446279.0 0
460653.0 446906.0 0
465538.0 445287.0 0
470350.0 446110.0 0
475753.0 445791.0 0
480600.0 444596.0 0
485028.0 445380.0 0
489160.0 442741.0 0
493617.0 445814.0 0
497848.0 444276.0 0
3923.7 447658.0 0
1308.23 450797.0 0
9084.73 447461.0 0
12002.2 451229.0 0
17660.4 451228.0 0
23263.4 450052.0 0
27897.4 451348.0 0
33871.6 447128.0 0
38388.8 449017.0 0
43093.3 447065.0 0
48611.0 447148.0 0
45990.2 451337.0 0
53248.6 448670.0 0
57725.8 446982.0 0
61862.6 450236.0 0
66156.6 451636.0 0
67675.8 447022.0 0
70397.9 451701.0 0
73224.9 447704.0 0
78861.1 448010.0 0
84842.5 447658.0 0
90096.4 449170.0 0
94644.7 448264.0 0
99330.8 447584.0 0
104294.0 448024.0 0
108557.0 451408.0 0
117099.0 448182.0 0
113500.0 450049.0 0
121090.0 448452.0 0
127013.0 449244.0 0
132593.0 448481.0 0
136603.0 450322.0 0
139888.0 447539.0 0
141295.0 451448.0 0
144350.0 449318.0 0
146325.0 451493.0 0
148305.0 447730.0 0
152964.0 451015.0 0
158531.0 448117.0 0
163849.0 450902.0 0
168167.0 447725.0 0
173494.0 450073.0 0
178047.0 449893.0 0
181726.0 450659.0 0
186728.0 448991.0 0
197928.0 447688.0 0
198077.0 451761.0 0
202520.0 446902.0 0
206920.0 448473.0 0
212266.0 447343.0 0
217524.0 446859.0 0
222408.0 446977.0 0
226499.0 448131.0 0
231497.0 446883.0 0
236448.0 447119.0 0
241667.0 445991.0 0
247311.0 447652.0 0
253482.0 447031.0 0
258694.0 447236.0 0
262674.0 446817.0 0
266992.0 447813.0 0
273617.0 447800.0 0
278058.0 447959.0 0
282810.0 447498.0 0
287441.0 447637.0 0
291754.0 449059.0 0
296751.0 450212.0 0
303621.0 447728.0 0
301701.0 451169.0 0
307877.0 447678.0 0
306027.0 451711.0 0
310438.0 451721.0 0
312610.0 447707.0 0
319616.0 449233.0 0
324179.0 446993.0 0
330532.0 451199.0 0
333669.0 447100.0 0
338215.0 448807.0 0
343026.0 447131.0 0
352167.0 447222.0 0
347820.0 449361.0 0
357117.0 449949.0 0
363299.0 448047.0 0
368960.0 451161.0 0
373937.0 447150.0 0
383514.0 448515.0 0
388432.0 447021.0 0
393246.0 447683.0 0
394875.0 451690.0 0
399850.0 450281.0 0
404384.0 450514.0 0
408268.0 447776.0 0
413169.0 448083.0 0
418232.0 448957.0 0
422607.0 450169.0 0
427042.0 447126.0 0
430770.0 449514.0 0
436785.0 451581.0 0
440771.0 447306.0 0
446331.0 448926.0 0
457093.0 451368.0 0
466915.0 450876.0 0
473598.0 451346.0 0
479424.0 449602.0 0
484076.0 449258.0 0
488693.0 447852.0 0
493027.0 451187.0 0
497682.0 448575.0 0
2368.24 454175.0 0
6893.19 452134.0 0
5625.92 456263.0 0
10644.0 456911.0 0
21966.6 454728.0 0
26777.8 456445.0 0
32742.0 452211.0 0
37333.8 453398.0 0
41600.0 452160.0 0
50734.0 452456.0 0
56420.3 452297.0 0
63480.3 455406.0 0
68319.4 455686.0 0
75721.4 451999.0 0
72807.8 455738.0 0
81330.5 453476.0 0
87434.6 452535.0 0
89243.7 456482.0 0
92693.6 453012.0 0
97953.6 452238.0 0
103318.0 453549.0 0
107744.0 456577.0 0
112291.0 454337.0 0
115611.0 456912.0 0
118154.0 452570.0 0
119787.0 456941.0 0
123091.0 454211.0 0
128296.0 455053.0 0
132301.0 452920.0 0
137577.0 455278.0 0
143956.0 455913.0 0
148723.0 454093.0 0
157959.0 454241.0 0
163501.0 455788.0 0
168495.0 452655.0 0
167772.0 457088.0 0
172443.0 455909.0 0
177882.0 453790.0 0
183047.0 455393.0 0
186908.0 453573.0 0
192206.0 451921.0 0
196858.0 456541.0 0
202854.0 451848.0 0
207876.0 452975.0 0
212903.0 452520.0 0
217756.0 451945.0 0
221882.0 451939.0 0
225700.0 452387.0 0
230690.0 452346.0 0
236499.0 452338.0 0
242350.0 451960.0 0
247989.0 453210.0 0
252272.0 452180.0 0
256749.0 451819.0 0
261629.0 451962.0 0
266933.0 453613.0 0
272512.0 452390.0 0
277965.0 453248.0 0
283449.0 451810.0 0
288825.0 453031.0 0
293624.0 454309.0 0
297825.0 455328.0 0
302661.0 455663.0 0
308913.0 457034.0 0
315031.0 452593.0 0
319868.0 454350.0 0
324988.0 452229.0 0
335237.0 451954.0 0
332357.0 455712.0 0
341599.0 453398.0 0
351765.0 452569.0 0
347106.0 453460.0 0
356292.0 455640.0 0
361570.0 453936.0 0
369147.0 456170.0 0
373374.0 455034.0 0
378787.0 452035.0 0
385091.0 452939.0 0
382332.0 455893.0 0
389983.0 452199.0 0
388007.0 457061.0 0
393181.0 456371.0 0
398277.0 455435.0 0
403059.0 454235.0 0
407810.0 452561.0 0
414171.0 453198.0 0
419005.0 453398.0 0
423256.0 455991.0 0
427118.0 452300.0 0
432386.0 454091.0 0
437417.0 456436.0 0
441549.0 452878.0 0
446314.0 453891.0 0
451469.0 452351.0 0
457256.0 455911.0 0
461799.0 452316.0 0
466739.0 456124.0 0
477332.0 456075.0 0
481913.0 454004.0 0
487211.0 453141.0 0
491489.0 456317.0 0
497950.0 452980.0 0
495640.0 456198.0 0
17185.7 457574.0 0
32270.9 457562.0 0
37617.8 458197.0 0
41637.2 456311.0 0
46838.5 457006.0 0
53319.2 456837.0 0
58468.0 457248.0 0
77116.2 457303.0 0
84884.1 456972.0 0
93808.7 458003.0 0
99134.2 457547.0 0
103738.0 458208.0 0
125523.0 457920.0 0
132129.0 458565.0 0
152843.0 456675.0 0
160164.0 459172.0 0
189400.0 457294.0 0
314838.0 457675.0 0
319577.0 459301.0 0
323469.0 457041.0 0
327784.0 457635.0 0
337144.0 458072.0 0
342989.0 459153.0 0
347022.0 457376.0 0
351621.0 457935.0 0
360035.0 458759.0 0
365298.0 457533.0 0
371311.0 458997.0 0
377280.0 457329.0 0
405817.0 457909.0 0
410791.0 457111.0 0
416460.0 458095.0 0
428177.0 457344.0 0
443616.0 457716.0 0
448322.0 457607.0 0
453031.0 458018.0 0
461898.0 457343.0 0
471791.0 457326.0 0
487679.0 458223.0 0
POINT_DATA 5000
SCALARS Radius float 1
LOOKUP_TABLE default
5253.55 5782.6 5379.87 6044.04 5415.48 5120.0 7513.1 5580.89 6810.52 7613.27 5529.52 5255.32 5096.78 6756.95 6324.23 3843.58 4270.53 5191.63 4216.92 6268.1 4861.06 5320.28 4797.52 4796.58 3979.26 4298.67 3471.03 5960.66 5820.48 7034.11 4862.21 5113.21 3929.19 4107.03 4043.57 4478.15 5925.6 4501.51 4792.73 4736.58 4931.38 3485.26 4329.05 4151.94 4049.23 5337.48 6124.89 4929.8 5708.81 5252.48 4780.03 5495.39 3996.0 3856.1 4665.12 3383.4 4133.88 4094.62 4834.9 3850.77 5546.39 5325.36 5484.83 5085.53 3863.18 5351.6 2356.98 4998.37 4715.55 6182.6 5492.18 5258.36 3951.75 5061.3 3642.12 3163.97 5542.27 5812.43 5122.66 5906.14 5484.19 5254.28 4436.4 5733.48 4672.91 4182.53 5903.42 3588.44 5645.7 5176.86 4366.19 5840.26 3672.51 6110.27 5561.06 5073.35 3615.22 5670.04 4380.59 3589.27 6716.79 3997.1 3607.45 5759.91 4333.2 4951.03 7199.21 6037.08 4523.7 5091.39 4129.43 6142.94 3320.52 4727.24 4602.25 4194.5 5082.47 5344.25 5445.87 4593.7 4150.99 4704.72 4177.94 4742.68 4571.7 4344.58 5634.83 5495.84 5374.51 7042.12 6739.08 6326.39 4569.12 5873.69 6608.73 5011.84 6261.42 4502.5 3771.48 5499.11 4271.69 5681.38 4138.42 3708.04 5513.6 3240.09 4556.36 6082.81 3191.99 4685.34 5601.05 4651.28 3586.91 3103.0 3554.9 5481.78 4015.92 5542.21 4487.31 3936.02 5043.05 4044.71 5980.74 5109.54 4927.02 5945.65 5538.89 4730.36 5867.73 6059.59 5013.56 5701.86 4499.64 4375.68 4468.59 5054.98 6030.06 5170.02 3557.27 5200.76 4927.31 4688.68 4862.64 4402.52 4517.56 4432.58 6684.56 3968.64 3955.56 3761.32 4118.05 6166.5 5553.16 2938.66 4940.78 4231.61 4008.92 4003.05 3942.53 3379.84 4827.82 5227.21 5697.78 3260.67 5123.52 4091.31 3038.33 4392.68 6372.62 4295.38 2240.39 5923.5 5293.9 4973.83 3912.37 6691.39 4790.08 4763.45 5344.0 6045.46 3815.26 5908.1 6048.7 5896.46 5022.8 3784.5 3780.23 4166.08 6481.79 5224.12 4819.73 4471.58 6098.14 4962.09 4472.17 3999.48 4203.26 4359.62 5188.81 6946.21 2586.12 6057.22 5433.8 4011.77 4527.08 3633.87 5922.5 5198.77 5987.17 6013.14 2765.2 4901.41 5110.37 5664.98 4382.74 5927.43 4384.42 3693.63 4516.43 4948.92 5637.59 4937.14 5816.2 5693.81 4174.52 6483.19 3829.13 6759.9 5418.62 7021.47 5416.38 5926.61 4955.55 2720.68 3563.63 5836.15 4238.81 4345.55 6704.06 5885.03 2837.58 3871.88 5325.02 5017.13 5279.39 5185.34 3673.74 5205.43 7447.37 4688.67 2635.86 4385.06 5292.64 5065.13 5936.02 5305.17 4861.08 5399.73 5390.22 3888.21 4805.87 4712.33 6038.78 4667.36 4254.17 5090.24 5615.42 7565.34 5530.87 4612.68 4281.49 6342.25 4187.56 4840.84 5135.69 4020.32 4245.72 4156.38 5316.75 4541.21 4164.68 6133.92 3719.84 4178.4 3095.48 5762.59 4123.6 4850.14 5163.55 3382.7 3954.91 6817.32 4319.79 3637.61 6222.42 5654.31 4730.41 3745.84 5690.26 5062.71 4156.2 6125.34 5965.78 5347.48 4850.01 4810.12 3970.25 5643.58 5147.67 3979.82 4292.06 5011.31 5138.31 5264.06 4659.59 6327.9 4048.37 6355.42 5492.26 4362.19 5690.56 5762.84 3115.91 3937.74 4493.48 3307.12 6084.86 5924.89 4778.34 4002.16 4138.16 3486.22 4684.5 3091.3 6230.49 6458.82 4601.27 5493.32 3641.64 5740.68 4277.89 6051.14 3261.21 4195.44 5539.32 3653.41 6496.85 5600.93 3856.01 5246.2 4390.66 5728.85 4827.23 6116.18 4924.6 6257.19 4733.32 7184.19 2899.43 2924.37 3867.67 4290.3 4695.45 4660.72 5891.05 5308.1 6902.81 6644.76 5629.19 5655.21 4786.6 5740.84 6445.94 4310.18 5542.14 4218.06 7134.64 5978.9 3629.62 4716.19 4997.27 5514.76 4301.06 3456.98 4877.67 4290.14 3066.13 6562.18 6006.16 7055.53 5669.65 5934.22 5624.49 4970.88 7092.87 4666.81 3703.1 6471.55 2965.01 5499.39 6643.85 5501.93 5463.38 4938.74 5607.14 4497.59 4374.35 6396.74 5215.05 3821.72 4986.77 5577.04 5006.58 4602.86 3688.8 4548.16 3369.23 5449.18 4220.88 5244.78 4515.71 4749.8 5082.6 5478.92 5551.36 6894.71 4467.94 4414.54 4850.81 5789.98 6138.47 7054.71 5489.43 5747.75 4727.62 5054.25 4796.33 5360.19 4794.96 4874.39 5541.59 4124.71 5083.08 6337.56 4911.47 5803.39 5863.59 4381.97 4024.3 3255.82 5555.28 5242.73 2812.98 4737.14 4065.69 5603.15 5556.96 6052.7 3921.18 3798.62 6392.01 3666.57 4907.89 4937.02 4073.93 4645.41 4433.59 4320.28 6122.55 2739.94 4931.53 5480.13 6308.71 6695.82 6405.76 3498.2 5105.16 5448.61 4302.5 4827.33 6009.88 5513.57 5013.67 5826.04 5339.78 4538.95 4143.78 4763.66 4636.5 4940.42 5923.4 5085.71 5644.82 6343.14 5945.21 5750.71 5696.88 4831.47 3923.03 4643.85 5975.63 5252.34 4138.46 4274.61 2775.04 2965.79 6898.19 6318.18 5586.81 3948.17 4621.75 4551.24 4581.13 5358.59 3610.4 6387.01 5367.52 6519.71 6640.13 5210.03 5810.84 4230.54 5094.44 3748.24 4655.49 4933.21 5375.47 6038.14 2540.31 6029.66 5527.54 5573.7 5697.4 6038.2 4270.95 4055.8 5206.78 7325.81 5280.17 6425.26 5143.58 6186.19 4839.34 2980.99 6834.49 5525.39 3998.5 5938.34 5380.13 6394.38 5169.36 5932.23 4686.65 5834.74 5788.23 3043.85 5581.75 3599.45 6730.19 4907.06 3735.44 5163.9 6043.3 5952.75 6332.36 6155.31 4223.33 5911.67 3323.28 5835.78 5794.24 4127.74 2476.04 4678.38 3942.07 7443.72 5050.65 3937.08 5260.34 5206.48 5729.23 5226.0 3365.82 5724.64 5965.15 4780.2 6090.91 4946.42 5019.93 5081.78 6116.33 6263.44 5774.97 5462.21 5470.77 4004.04 6062.05 4289.17 5564.02 6072.45 4410.55 6035.6 5137.34 4481.53 5423.0 5330.45 3856.59 4219.07 5413.79 6202.55 3092.35 4322.15 4714.54 3629.96 5478.47 3320.11 5351.39 6142.37 6061.47 6163.38 4566.18 4723.12 5120.49 5201.36 5262.61 6302.8 5409.61 4005.44 5555.88 6732.43 5028.96 3866.16 6362.12 4484.76 4840.01 5152.36 4511.82 5611.2 7933.0 4455.12 5173.87 4894.16 5711.87 5118.27 3372.79 4941.22 5791.61 3369.13 4669.66 4479.66 4808.52 5367.2 5607.24 5461.13 4726.76 5839.13 5495.68 5489.34 5002.48 5708.14 5537.72 3920.42 8332.24 4553.56 5329.64 6049.55 5709.62 5991.09 5133.97 6600.94 5371.02 6155.1 4709.35 6586.45 4373.3 4750.78 5029.78 4163.5 4888.6 5078.86 5100.1 3561.29 4963.34 4219.78 3295.83 3885.86 4459.28 4260.92 6250.23 5960.56 4118.84 4020.95 6313.06 3474.39 3493.7 6470.3 4200.03 5082.74 6915.83 5092.37 6444.77 7099.43 5526.14 5198.29 5077.33 4746.52 3689.45 5572.95 6338.89 5584.06 5025.39 7111.16 5893.5 4547.19 5030.91 6022.17 5119.37 3982.23 4583.31 3459.9 4853.39 4997.27 4964.09 4809.42 5024.9 4306.53 5659.17 5094.81 5972.06 5713.22 4312.67 5861.71 4359.04 3183.98 3794.63 4524.28 3778.1 6175.81 4727.24 6677.09 5826.64 4220.65 6820.42 4816.2 6321.41 4896.52 4089.76 4751.02 3192.41 5184.56 5282.64 4715.72 5804.71 5046.33 4764.96 4242.52 5053.92 6352.26 3847.38 3818.59 4863.72 4143.08 7500.97 6623.85 4262.82 5102.36 4342.9 5065.11 5069.84 4051.44 4241.89 5054.74 5941.72 4656.78 5126.91 4788.58 5131.24 5196.67 5876.71 6262.72 6515.84 2990.77 4739.14 4918.77 4371.99 4188.3 5235.29 4479.94 4255.31 5453.3 6413.02 4863.27 5862.86 6049.79 5374.98 4719.7 6939.12 4735.33 5411.85 6314.07 4287.63 5315.4 6449.45 3975.31 3824.16 5125.78 3868.18 4373.47 6723.16 3686.21 3817.13 5507.24 5023.15 6851.54 4503.89 5806.08 5243.29 4093.08 4449.22 5543.27 4717.05 5287.2 6135.57 5998.38 5013.13 5423.8 4270.24 4989.15 5017.78 4164.13 5015.69 4947.52 4305.57 6959.81 4829.35 5201.67 3791.79 4424.7 4754.05 5526.55 6084.93 5215.15 4987.87 3315.57 4739.42 5020.12 5727.3 2631.9 5281.28 5356.51 4277.88 3057.03 4087.15 4758.21 7228.46 3948.23 5228.18 5978.82 5787.31 3927.99 5868.82 4050.9 4978.31 4948.98 4099.77 4414.48 4537.32 4981.9 3600.43 4906.82 5687.83 5004.23 6496.67 5474.8 6607.87 3664.11 5117.47 4925.63 3293.56 5882.65 4434.19 5187.7 4623.61 5511.6 6261.75 5177.64 6134.99 4094.73 4407.9 3492.19 4584.5 4440.57 5122.63 4703.08 2315.64 6345.13 5274.19 5516.95 4406.4 4413.85 4844.57 3999.94 4027.46 4470.98 4864.22 5776.37 4516.28 3921.08 4190.31 3627.82 4044.45 5262.19 5344.43 6070.58 5045.38 5350.88 5372.61 5402.24 6480.17 4377.07 3844.9 3813.22 5101.59 3963.86 5570.3 4336.42 4306.11 5935.47 7589.94 3130.65 5628.24 5856.11 3327.49 4109.88 4234.94 3960.8 4562.29 4980.85 5080.66 3417.33 5110.45 4926.42 5248.77 4642.34 4083.97 4520.1 5153.74 5874.89 4293.03 5813.4 4389.21 4128.98 4925.44 6246.22 4951.47 5246.61 4307.28 3697.96 4723.48 5538.93 4899.11 4745.45 7267.18 6255.18 4668.71 5269.18 6362.14 6719.88 4454.63 5266.5 4523.88 3279.1 4066.38 4403.98 4560.84 5227.52 4729.43 4092.24 5163.02 7144.24 5598.74 7493.3 6442.69 6320.71 4648.04 3464.83 6413.11 4721.32 4305.16 3163.78 5092.28 5274.14 4903.82 5746.28 4082.47 4453.64 4338.08 4517.73 4378.3 5469.47 4989.56 4718.54 6736.03 5548.29 6766.43 5916.16 4390.41 5226.56 5599.49 5313.22 4097.57 3905.51 5017.5 5563.79 6171.13 5759.46 3901.8 5083.41 5678.96 7055.42 4244.9 6048.86 4285.32 5490.43 6034.41 5452.83 5130.91 4948.5 4519.22 6445.22 3695.36 4564.34 4871.44 3848.93 5076.35 6020.48 3402.32 5903.66 4528.49 5004.67 5365.89 5419.37 5992.26 4466.03 4511.54 5070.39 4923.9 5714.58 5208.32 3296.27 4713.25 4607.02 4204.84 3895.51 4528.09 4165.81 3556.85 5441.96 6291.51 5174.89 5882.89 4188.32 5774.81 4100.38 3746.31 5344.77 5027.98 5097.87 4278.07 6475.1 4969.21 2691.29 6256.02 5320.92 4305.43 4406.1 5450.44 5034.59 4942.77 4263.33 5080.18 5912.61 5381.16 6193.35 6086.96 5233.78 5776.57 4562.74 5046.21 5683.26 5894.61 5139.5 5944.09 4814.55 3527.05 5698.77 2477.07 4497.31 5529.42 5257.12 4965.89 5659.95 4152.85 5551.9 2908.7 6415.61 4687.64 4419.71 5660.16 3838.47 2588.37 6235.57 3623.87 3087.09 6934.37 6113.95 4050.08 5328.22 5511.88 2395.5 4512.11 5486.68 5683.61 5100.25 5022.28 5197.52 4959.34 5383.07 4527.02 4531.14 4591.87 5013.42 3838.56 6552.22 5651.07 6248.81 6375.99 5200.05 5273.35 5234.29 5313.66 2651.49 5512.23 5275.32 5409.33 4898.94 5196.0 4613.31 4973.78 3329.99 3947.47 5091.68 7531.29 6243.0 5048.89 6673.96 3161.47 3991.03 3435.9 6390.78 7435.25 4288.3 5370.52 4788.87 4652.29 4495.87 6022.72 5498.32 5527.33 5346.27 4989.09 2845.98 4880.14 5289.52 5314.85 3848.54 5941.4 6510.17 5742.65 5592.32 4470.61 5565.13 3701.27 5653.9 4806.34 5612.21 4929.14 3979.54 5304.13 3306.14 5833.06 4863.79 4923.41 3830.46 6031.67 5384.76 6138.12 4428.78 5243.43 4537.14 4345.67 4765.72 3757.34 4642.66 4752.14 5329.59 4888.12 5037.06 4541.8 5512.16 5175.29 3197.63 5842.56 5887.15 5412.31 7480.41 3423.15 4890.5 3981.07 3731.84 5452.42 5186.3 6853.85 3497.9 4151.76 5941.61 4020.4 5782.48 3493.47 6248.6 3836.45 5443.58 4558.46 5805.86 6894.26 4470.4 4986.51 5339.38 5178.99 6169.11 5615.35 4790.78 6422.84 4247.15 4502.18 5379.09 4602.85 5872.05 4853.02 4091.8 4645.58 5181.4 5670.2 5985.29 4247.23 4178.15 4694.83 4733.04 5509.42 6119.09 4354.08 5788.66 5936.36 5069.25 3903.75 4755.47 5935.03 5475.8 5314.69 6826.57 4249.46 5965.81 3702.37 5660.85 4643.31 2330.66 4177.19 6917.52 5402.21 3587.05 6718.19 4982.31 4307.48 4425.84 5331.02 4871.96 4863.23 3555.86 4402.67 4631.83 4996.99 4384.88 6887.27 6008.49 4220.46 4287.53 5945.08 3169.67 4968.03 5490.58 5395.14 4702.06 3967.48 6213.04 4689.15 3685.13 4655.16 5409.66 3867.19 5857.79 4039.91 5276.7 6119.63 4950.97 4752.9 4287.16 4863.96 5191.08 5203.08 5374.07 5163.77 4588.7 4488.85 3766.55 4579.69 4901.07 3554.48 6496.52 3436.15 5005.85 4216.17 6484.17 4721.02 4596.75 4933.65 4031.78 6098.1 5708.99 4049.02 5346.68 5311.03 5255.12 4285.66 4896.11 4027.09 5172.53 5801.99 5210.48 4962.77 6259.23 5088.44 4998.21 4711.62 4114.24 4268.65 5349.31 4649.22 5094.52 4256.43 4946.74 2682.24 4520.62 5229.48 5475.7 4485.99 4016.18 5127.16 5435.74 4244.99 6050.81 5543.46 6185.89 3997.96 4750.17 3460.94 3990.25 3691.0 4752.51 6229.37 4236.14 4407.87 5282.91 3797.33 5945.89 7256.35 4105.55 4800.69 6566.1 6065.22 6386.78 4456.39 4896.39 3633.79 6081.14 5480.83 4607.85 6070.3 5128.57 6000.7 5604.21 5204.04 3361.92 4750.58 6710.88 5235.11 6622.11 4590.55 6790.73 5251.4 5097.69 3988.3 6543.13 5149.72 5036.58 5464.25 5411.02 5301.47 4617.55 5199.44 4062.5 4435.51 5683.95 6027.62 5010.2 5966.61 5711.11 4938.72 4254.37 3374.08 3546.71 5950.04 5687.85 5296.29 4611.53 2681.29 5094.48 3872.61 4238.4 4135.62 6132.95 5534.94 4860.33 7644.38 7552.94 6101.92 5323.3 4635.6 4256.67 4662.56 3457.48 5166.79 2976.22 3405.98 5417.15 5394.55 3688.16 4681.72 4945.39 5996.33 5928.32 3950.63 5415.19 4612.62 3619.07 5526.75 4275.57 6385.23 5327.45 2983.99 5560.26 2614.4 6363.92 6205.93 4439.35 5830.72 6184.4 3758.07 3828.81 4373.45 4082.57 5733.62 5169.9 5282.51 4460.92 3004.16 4042.28 4421.12 4340.76 5254.49 4221.28 4303.19 5514.84 3914.2 5421.53 5937.08 4135.08 5620.74 5233.29 4778.82 4312.56 4612.06 5053.95 5926.11 6667.68 5767.9 5211.38 5089.62 5869.4 4741.26 5920.32 4186.6 4255.85 4732.09 6136.49 4356.25 4216.95 5776.96 5742.74 5486.48 4947.24 3645.12 5424.88 6200.54 5415.85 5148.58 4199.45 8659.64 5469.13 4233.8 5765.42 6123.03 4997.83 4575.94 5325.44 5021.88 5956.65 5768.57 4498.25 5564.23 4188.87 3735.24 4231.83 2435.33 6401.43 4074.48 4558.47 5020.71 5997.88 5839.71 5576.92 4318.48 5266.22 3930.79 5226.97 3685.13 6004.68 3312.06 4051.34 3361.26 6799.4 3627.55 6239.84 5865.39 4427.28 3931.07 6079.11 6430.39 7440.72 3949.6 5703.6 6326.18 5661.62 6631.19 6648.68 4467.04 5626.61 5817.25 5061.98 6632.99 4537.6 4923.24 4419.61 7177.44 4563.46 5309.98 6553.94 5255.18 5460.65 4767.78 5463.41 5235.17 5225.33 4779.5 4929.75 4435.36 6649.96 5134.39 5784.3 4256.57 5442.32 6088.68 4643.56 4863.01 5657.36 6124.08 5467.84 5029.47 6306.21 5266.01 5253.37 6515.8 3685.65 3701.16 4916.22 6022.7 5895.77 5750.07 4809.67 4757.74 6045.67 4209.49 3821.94 4244.21 5367.73 3875.05 3540.11 3456.47 4652.01 7234.66 6599.66 4055.54 4976.12 6098.95 5453.98 4893.49 3991.42 4388.63 5102.75 4597.29 4200.09 5931.77 5151.21 6574.95 6333.29 4477.04 5731.57 5662.55 5737.92 6408.83 5365.24 4004.35 4763.96 5754.18 5180.76 3418.99 4480.95 5278.36 4409.63 5521.25 3661.9 3082.32 5370.85 5949.46 3658.37 3178.54 5376.71 4448.13 5070.29 4807.28 4867.08 4266.03 5280.69 4713.74 4220.03 6923.84 5407.78 4084.49 5449.46 6179.96 6113.54 5147.36 6260.79 3963.76 5528.53 6799.88 3062.43 5726.66 5426.78 5652.0 2967.38 4159.35 6477.91 4237.98 6439.37 6045.22 4614.3 3532.3 5580.92 5769.98 5973.33 5067.46 3583.21 2221.99 2511.46 3580.58 4011.37 2775.69 5356.79 4785.25 3619.79 5424.46 4857.84 2978.76 4908.49 2040.66 7016.27 5884.9 3876.21 4673.35 5689.26 4992.42 4940.84 4833.46 5933.7 7248.4 5280.12 3946.28 5984.81 5439.9 3498.16 4409.27 4640.06 5471.74 5421.64 3548.39 4858.51 4207.54 4886.12 6419.12 6107.89 4817.16 5148.08 4834.87 5760.22 5938.17 4795.43 5398.64 5097.95 6817.57 3614.96 3886.68 6853.04 5703.74 4745.43 4747.55 3056.7 3755.95 4360.23 6234.32 5293.51 4446.06 3450.93 5008.63 5132.68 6595.03 4993.35 6218.95 5222.16 5107.23 5136.08 5558.68 3776.94 4765.02 4010.57 5629.39 2684.03 6157.04 4768.61 2261.36 5075.55 5506.19 6719.94 4950.67 5227.59 6166.29 5453.6 5703.07 5294.77 4662.43 4709.05 4630.82 4043.66 4813.08 4540.86 5990.52 4835.83 5604.35 6316.56 3091.67 4332.87 6420.81 4081.97 5401.99 5151.52 4347.74 5291.9 4009.62 2081.58 6505.78 5461.55 6519.43 5876.64 4962.21 4684.44 4749.59 4858.44 3468.42 3809.69 5571.72 4771.13 5297.19 4184.23 4351.38 5550.75 5466.33 4444.97 5721.05 4247.69 4514.39 4588.99 4321.21 4344.34 3673.28 4928.27 3583.49 5052.84 3375.28 4366.74 5625.65 4301.61 3184.64 4446.84 5660.55 3718.69 4514.79 3672.21 2216.82 4509.89 6752.75 5269.38 5607.3 5108.06 3573.73 4693.52 4222.4 4000.43 3420.08 4912.04 5831.96 4539.07 5464.68 5591.76 4586.19 4585.31 6625.18 5323.91 4270.74 6293.89 4558.15 2761.07 4983.39 5366.52 4690.55 5533.72 5533.42 4802.32 3678.08 4599.38 5246.47 4187.31 6191.29 4522.21 7422.36 5161.01 4298.15 4628.4 5832.37 4642.93 5409.63 4263.16 3077.84 6024.75 6109.49 5567.93 5860.67 5332.65 3764.1 6451.33 5413.31 6400.08 4743.59 5208.14 4715.58 3317.83 4450.7 3763.05 5092.24 5369.08 3101.75 4518.04 4766.06 4874.18 5435.19 3298.2 4270.15 6865.76 6449.64 6464.8 4406.05 4680.94 5799.69 5236.43 3208.96 5285.07 7051.9 4608.41 4144.57 5980.59 6834.41 6226.14 3796.15 3000.29 5271.02 4209.31 5718.28 6242.79 5950.45 5713.03 5849.65 5134.67 4165.21 5297.16 4936.96 5206.33 5530.49 5653.03 4304.41 6192.0 4940.28 5885.28 3004.34 3022.6 2928.82 4811.76 4914.45 4698.87 4568.41 4661.03 3624.7 4691.91 5262.35 4475.83 2685.81 4510.8 5889.35 5010.04 4394.56 4570.98 5097.45 4275.07 5825.38 4185.61 5737.75 4047.87 5742.47 3778.02 6552.21 5417.8 5146.37 7132.12 4836.16 5518.57 5463.48 5730.33 3240.51 5545.46 4527.99 4376.7 5190.61 8325.01 6051.83 4440.81 5941.9 3973.12 5434.47 6642.76 4497.78 4243.79 5987.42 5433.65 4442.22 4887.76 4669.06 3012.99 4811.32 6184.88 5829.32 4396.25 5551.95 5549.49 3918.87 5423.42 2275.45 6605.86 5012.5 4383.56 3562.79 7093.13 4953.1 5818.95 4093.99 3604.14 3940.49 4452.54 5089.1 2711.19 5828.35 5876.72 4028.32 4099.92 4884.59 3858.06 4680.14 4083.79 4187.94 5263.27 6300.92 5021.77 5599.29 4801.8 7216.98 4807.4 7013.17 3805.67 4601.74 6506.86 5088.57 5580.34 3852.6 5775.31 4215.0 4603.5 4481.76 4647.67 5452.78 5065.26 4356.36 4892.44 5578.94 7610.49 4286.17 6579.31 5323.55 5375.1 5313.12 5351.56 5160.59 3984.88 4732.09 4320.42 4255.34 5064.79 5480.3 7509.24 4146.81 5896.26 5388.78 4573.72 5099.21 4917.99 5636.4 4367.78 4350.12 5227.02 5670.0 4232.16 5300.96 5151.11 4344.51 5680.94 3781.77 5581.55 5193.01 4543.1 6550.44 3860.83 3764.06 5732.27 4523.39 5278.56 6917.62 5829.22 4013.38 5631.14 4343.78 5811.18 4909.65 4008.15 7693.4 4286.49 4326.48 4437.07 3449.37 5491.9 6405.0 4659.16 5789.55 4633.05 4901.2 5711.62 4990.79 5166.79 6479.39 2895.63 4516.53 4122.92 5079.22 5381.54 5810.77 5474.15 7519.2 6355.68 4511.7 4478.6 3953.55 4304.63 4469.54 4314.56 4173.54 3928.53 6038.68 5046.12 3834.47 4590.01 6101.86 5993.0 4803.57 5966.42 4110.59 4706.5 3332.49 5354.66 4214.44 5375.12 4787.97 3746.36 4777.03 3684.56 4246.61 6028.09 5452.36 4172.6 3804.5 6486.37 5498.42 5318.53 3344.57 4281.98 7165.9 5344.83 3427.63 4863.97 6342.48 5756.75 6101.13 5599.7 6969.28 3665.95 5698.96 4095.75 3603.51 4298.45 5222.51 6609.84 5135.96 3834.43 5658.37 4707.06 6074.94 3474.5 5491.37 4250.88 3783.54 6348.03 3475.67 4792.39 7038.89 5146.37 5067.56 6137.8 2735.53 5263.3 3352.35 3747.03 6523.86 2783.85 4356.49 3994.07 4219.94 5907.46 4264.91 5399.29 4909.31 6522.59 4798.17 3568.28 5425.98 5996.66 4405.42 4997.91 2995.67 3598.08 4599.81 5698.23 7300.58 4714.83 3608.06 6633.61 5484.36 4277.24 4063.9 5291.05 5161.1 4619.2 5606.51 5166.41 5740.65 5067.56 6349.67 6329.53 6541.45 4227.41 4750.49 5078.31 5391.48 4923.43 5131.15 4847.14 3950.27 5116.66 5378.23 3566.79 5374.67 4981.43 6789.23 3989.7 4215.2 5069.89 4157.29 6813.72 5327.75 4609.02 4638.18 4196.37 6448.66 5220.76 6945.98 5138.2 7046.11 5783.48 4449.98 4504.35 4840.44 5093.82 4587.67 5951.81 4163.74 3924.14 4296.69 6238.32 3319.67 6471.42 5283.8 4076.59 4428.14 5164.1 6464.15 4972.17 6685.4 5699.53 4222.77 6332.01 5268.38 5527.23 4805.33 3863.67 5980.95 4814.12 6193.08 6069.3 5887.01 5116.6 5388.39 5335.47 4526.81 5048.19 6799.23 4888.27 6740.71 6487.56 4854.11 5971.22 5533.19 5417.21 6602.43 5583.61 6063.64 7382.3 5522.21 3772.3 4855.01 4923.57 3340.09 5217.95 4867.7 2279.05 4829.35 4075.28 8137.11 5484.32 6650.77 4067.96 7104.73 2596.96 5701.75 4350.15 4139.3 3516.27 4263.78 4643.9 5228.75 6047.14 5009.83 5210.38 5717.8 3629.44 5003.78 3299.24 6246.56 4741.28 4061.6 2603.64 5107.0 6212.15 4783.07 4896.65 4946.23 6083.28 5211.6 4453.97 3556.79 3503.41 4701.5 7001.83 4771.65 5012.97 5589.37 5439.49 6918.35 4834.3 6804.79 6372.13 5369.5 5404.01 6016.19 4124.49 4479.11 3230.13 5714.25 5325.96 4850.06 7044.29 4234.18 4049.16 7085.01 3936.95 6153.94 6836.82 3862.77 4631.99 5168.35 3185.39 5128.77 3728.18 5633.61 7122.87 5797.36 4243.26 4153.84 5119.86 4592.15 5084.17 4901.44 4998.22 5096.43 6156.21 6104.26 6171.71 4986.71 4668.88 4022.56 5027.43 5522.75 5867.64 6208.9 6059.93 5602.53 6061.63 6545.43 6760.92 4711.04 4506.18 4824.12 6162.3 3272.75 5971.21 4264.54 7043.44 6502.97 4852.58 5806.31 5456.71 7317.04 6412.67 4036.91 6639.64 5212.43 5454.12 6348.54 4066.57 5642.35 5156.76 6357.47 6101.57 4891.38 5535.91 5955.86 6176.67 4848.46 5412.24 5016.02 2779.99 4581.37 4920.21 6942.34 5851.61 5478.11 5526.31 3858.17 5030.15 4740.98 5089.26 3776.8 2460.79 4653.83 3628.89 6589.82 4438.58 5073.02 3472.91 4989.2 7144.05 2970.9 6542.5 4383.47 6318.23 4206.98 4058.87 5174.75 5932.07 4984.46 5948.71 4793.65 2949.12 3856.53 4532.89 5460.89 4533.37 5260.85 5742.09 2884.65 5887.38 5807.46 4648.21 4393.16 3658.05 4549.69 6423.81 6192.77 6413.15 6103.11 5048.55 6459.51 4024.31 5844.72 3992.97 6040.74 4054.22 7228.94 5393.65 4961.99 6551.93 4595.12 3311.29 3110.13 6484.43 4625.67 3485.54 6735.97 5305.59 5416.45 4330.58 5754.6 4955.16 3288.01 4904.51 4147.31 5989.05 2202.77 5751.15 5950.88 4149.55 4441.22 5853.89 3380.69 4386.8 4140.4 5446.4 4725.01 5966.75 3104.96 5244.78 3636.15 6114.89 5135.63 6384.7 4355.83 6870.97 5351.86 6056.87 5474.01 6201.86 7554.58 5166.89 3639.44 5491.63 5725.37 3868.62 5138.33 3477.1 4729.42 5216.26 4844.83 5377.37 5652.87 5483.7 5018.69 3152.86 5952.38 3896.27 5807.52 5963.36 5230.02 5307.35 4342.18 6016.08 4731.21 3124.7 6064.71 6102.98 5096.24 5769.14 3381.82 4831.93 4023.93 5494.28 5493.89 5261.19 4811.22 4918.76 4208.41 3758.22 4268.19 4788.08 6379.14 3687.65 5478.95 4749.96 4658.24 5869.67 4311.48 4899.73 5457.66 6394.19 5973.89 6193.73 5518.11 5087.14 5712.35 5169.48 5701.52 4743.9 6776.22 5321.17 3719.11 4467.13 6060.17 5934.82 4501.78 5415.45 4385.81 6592.93 6350.71 7107.63 5868.89 4099.26 5206.47 4834.39 3831.52 6106.43 6761.81 5467.63 5826.78 2856.55 6214.73 4553.68 4532.7 3205.68 5561.74 6100.73 4908.75 6556.26 3971.08 4593.7 4349.13 3634.5 3851.85 4019.34 4869.48 3623.19 4906.11 4387.39 4564.1 5825.55 5509.51 4848.14 5366.22 3199.4 4316.5 5254.24 3742.11 4192.21 3597.43 5144.56 4158.91 5311.55 3360.86 4869.25 5545.21 3877.8 6418.11 4922.49 3572.94 5039.12 4824.81 5135.5 5788.97 3274.85 5007.21 5545.59 4057.17 5262.47 7066.96 4991.35 4587.7 4263.65 5196.92 4807.35 4258.98 5644.81 3903.91 5666.95 4568.64 4642.2 4127.53 5210.75 3683.86 6555.44 5293.75 5658.14 5730.61 5473.72 7124.45 2205.51 6358.93 5175.89 3894.64 5361.87 3703.49 5232.85 4757.2 4374.74 4504.86 5975.23 6816.66 4473.29 4198.94 4745.79 5470.04 4211.82 5212.37 6003.78 6204.65 4482.9 6550.4 5110.11 3766.69 4891.67 5513.8 6818.91 3503.65 4887.52 6631.28 5350.88 4392.65 6571.31 5429.3 5510.96 6653.07 4745.16 4584.81 5071.98 5719.79 4371.08 7261.51 4968.14 4914.03 5086.29 5139.18 5551.43 4278.57 3034.16 5049.99 4201.03 4333.87 4458.64 4312.15 3644.78 3657.69 4078.93 6015.02 5244.22 5832.29 5001.58 5585.14 4820.17 6456.58 5244.98 3886.72 5792.98 4983.3 7778.01 4034.05 5127.82 5690.96 5798.38 6436.74 4456.11 5366.11 3419.87 4384.28 4456.26 3908.98 5113.6 5944.3 6328.42 7307.21 3563.14 5640.72 3619.72 5347.9 4646.51 4565.93 4504.52 5615.84 4464.73 5043.14 4928.85 4717.73 6440.38 3904.07 5556.0 5748.9 3742.31 4954.81 5610.53 4580.06 5755.15 4835.97 6419.64 3926.11 5464.83 2781.96 5414.58 3512.94 4431.23 5577.41 4467.0 5917.34 4994.65 5740.98 3787.08 5601.55 6545.99 5334.36 4728.55 5630.9 4929.6 4554.68 3919.62 4368.28 4140.92 5750.35 4489.99 4692.32 4945.0 4474.83 4548.45 4658.11 3127.83 4551.26 5114.07 4212.15 4385.49 4508.18 4263.18 7142.95 4559.74 5064.67 4383.68 6618.21 2617.39 5144.44 6666.67 4062.56 3717.47 4051.18 6063.44 6200.63 5969.37 5034.69 4928.35 3217.67 3844.54 5849.53 5079.64 4509.46 6163.54 3538.53 4680.69 5684.25 6500.49 2628.22 5438.92 5058.51 3352.34 4244.49 4050.03 4901.29 4124.76 5036.98 4120.07 4775.04 5188.53 4882.66 4813.33 4027.63 4521.75 3429.57 4952.52 5569.2 3840.21 6746.66 5410.33 5420.67 4642.74 4944.51 5603.68 5610.95 5532.72 4697.91 3220.8 5179.17 5579.39 5270.51 5148.1 5224.64 5949.73 4312.48 5527.13 6370.33 5081.08 6318.25 6864.06 5001.87 5510.9 4583.52 3743.76 5153.18 4505.28 4883.63 3425.69 6711.21 3492.83 4971.29 6280.13 5510.45 3684.15 4730.14 2606.51 4438.76 7039.98 6006.89 2955.36 3814.65 4128.1 4159.81 3965.3 4960.64 4446.58 5372.82 4402.17 5401.4 5053.15 4775.49 4681.29 5910.86 5124.17 6239.68 3220.29 5805.1 3862.91 4125.9 7320.78 4064.58 4834.44 4234.88 5782.43 5667.51 4027.33 4708.31 4810.98 3873.92 5026.76 5091.22 4833.67 6282.38 5023.41 4092.07 4213.05 4546.44 5657.55 5851.63 4184.21 5727.79 4700.07 5212.92 5188.82 5235.87 5273.37 4732.37 4985.3 5072.5 4966.07 5713.36 4749.18 5553.94 3663.0 4546.96 4316.0 6304.49 5134.72 4921.1 4608.34 3814.16 4271.07 4420.6 5695.79 3622.8 5287.25 4770.51 4184.47 4920.88 6511.37 4216.44 3999.5 4012.92 4346.07 4462.87 4013.86 4177.47 4218.16 4933.49 2918.64 6139.64 4512.07 3990.94 5984.8 4896.43 5236.24 5463.06 4585.04 4639.8 3986.41 5260.52 5678.58 3185.09 6102.49 6570.35 5114.23 4242.63 5495.0 3269.54 4489.29 7407.91 5836.26 6015.22 4454.74 5512.44 4583.94 4826.52 2904.46 6449.06 5046.31 1937.5 4337.32 4685.4 5241.75 4731.53 4651.99 3763.9 996.652 4420.11 4788.7 4577.73 5863.0 6127.39 5965.58 5640.12 4972.18 6638.25 5329.76 4607.18 3899.7 2403.72 7200.89 4147.49 4802.98 4833.55 5760.98 4081.34 3646.95 7224.99 4954.76 3908.56 5384.86 4526.34 5635.32 4316.45 5409.08 5042.75 4598.92 5241.22 6647.08 4979.52 5490.75 3422.29 4407.79 5214.63 3495.68 5783.94 5352.24 7362.42 4202.77 5836.14 6008.81 5473.05 4763.4 6273.6 5902.67 5454.11 4236.86 4708.17 5393.76 4941.02 5806.61 3994.39 4983.1 3864.92 6119.99 6010.59 7123.04 4618.73 4009.24 3668.93 5906.57 7541.76 4932.29 4990.23 3784.94 5499.59 5749.6 3125.13 3845.9 4141.21 4506.66 4174.44 4439.71 4564.41 6331.74 4198.9 5431.29 5951.86 4659.88 4252.18 5325.91 3791.41 5157.38 5853.12 4224.3 4841.7 5702.4 6203.03 952.938 5473.89 6089.45 3450.07 5810.17 5265.21 3306.84 4657.24 4400.14 3669.32 5866.42 4762.1 4704.92 3987.69 6502.99 5424.55 4392.75 4287.25 6219.34 4191.01 4475.38 5674.63 5340.05 4589.06 5995.4 5890.25 5322.11 5700.79 6710.14 5759.79 4598.54 5218.42 4816.51 5345.73 4770.63 4841.23 5188.22 4756.8 2804.54 5477.8 4176.32 4462.35 6069.78 4241.68 5532.75 6949.65 3469.18 3372.95 4095.83 2945.34 5676.61 5064.23 4301.93 5846.95 5268.15 6061.85 5701.63 5819.0 6347.72 5120.92 4924.07 3200.6 4629.02 6240.42 5146.0 5721.14 4608.62 4288.45 5407.96 5084.5 4987.28 4918.64 6206.98 4071.75 6562.03 5078.59 4815.47 4759.99 5134.33 5419.57 2646.13 4368.12 4365.58 5162.67 5214.4 4636.53 4705.68 3629.49 5766.05 5469.35 6334.53 5117.64 3835.81 4827.61 5285.75 5481.64 5673.75 5360.67 6263.3 4501.05 4537.03 6548.29 4114.2 3990.96 4326.06 5034.46 5757.29 5793.12 5469.17 5061.75 4373.2 5136.87 5684.05 3667.93 5638.7 5024.32 2741.2 5813.79 4644.88 3779.45 5790.42 5784.37 3142.09 3682.35 5591.77 5182.13 3756.96 5003.3 6110.48 4168.52 5800.81 6245.52 3954.77 5106.46 6793.1 6016.87 4068.31 5077.29 5166.05 3671.06 5515.73 3612.44 6715.73 5209.55 4850.5 5866.91 5426.4 6405.69 5763.05 2820.07 5129.68 5076.84 5357.39 4825.73 5247.01 4208.37 6296.54 5797.21 5685.74 6019.35 5069.9 6740.35 4678.7 6028.63 3673.6 4550.92 5146.1 6215.87 6485.77 5191.26 6060.06 5544.27 5393.43 5308.33 3484.81 4666.12 4685.65 5377.01 6023.07 6470.23 6506.63 4140.04 3495.3 4668.8 5125.17 4697.49 5735.08 4859.01 4726.2 5524.45 5034.05 4426.02 4711.15 3825.48 4474.39 3810.68 4658.59 4196.62 6478.35 4357.11 2809.19 5453.77 5005.6 5486.89 4916.7 5589.53 7208.19 4549.51 3587.93 4975.85 5695.25 4517.29 5323.95 4495.75 6171.01 5716.42 5796.26 4603.04 4620.95 5368.93 4870.94 3460.93 4488.39 5124.86 4927.73 5914.5 6006.16 4602.57 5710.33 3622.48 5344.44 6432.8 4626.72 5131.77 5549.71 4410.82 4967.51 6443.99 3889.98 5399.43 5193.58 5490.64 5034.34 5695.44 3422.21 3916.42 5036.14 5661.6 3242.31 6099.28 5372.25 5385.03 4169.15 3234.26 4778.37 5134.17 5968.54 4904.35 5592.54 3247.97 5124.34 4904.37 4358.81 4651.64 5729.92 5016.46 6224.13 4761.84 4493.79 3769.24 3661.67 4932.56 4279.44 5192.49 3487.31 4899.19 6643.4 5058.34 4028.22 3918.94 5293.13 5575.11 7350.26 3852.82 3768.46 4507.36 5167.53 7145.73 5403.97 4795.08 5648.78 6562.92 5501.73 4697.24 4983.43 7035.54 5233.76 4683.28 4217.36 6549.8 5679.74 4851.18 4165.36 5288.33 5368.52 4871.77 5811.26 5205.38 5062.77 4884.93 6075.99 5262.79 5927.2 4494.15 5035.71 4419.79 5407.69 3869.39 5960.5 5152.78 4117.9 4753.76 6896.55 4638.09 5330.26 4441.91 5828.25 5939.22 4215.05 4271.93 3626.86 4604.1 6371.96 5076.11 5990.75 7133.44 4750.81 3953.26 5467.51 5459.92 4625.53 4096.47 4104.04 5114.67 5353.66 2638.82 5030.33 5593.79 5234.2 5196.08 5025.42 4965.24 6379.38 6257.79 4849.5 5353.23 6229.83 4468.26 5578.18 5106.33 5271.88 5293.37 5933.54 6121.56 5559.79 7168.2 3419.07 3763.85 3565.32 4096.86 5740.78 4796.12 5001.51 5385.86 5115.42 4082.4 3186.07 4369.86 4209.0 5482.76 5173.82 7212.97 3720.7 4211.36 5698.53 3769.2 3604.31 4507.46 4450.49 3468.45 4898.29 4431.06 5730.2 4830.13 3494.16 5370.9 4074.16 4529.77 4325.13 6172.27 5390.33 5078.73 5278.54 5729.0 5192.92 5275.57 4179.87 4786.66 5891.25 5370.1 5537.34 5884.99 5726.42 4674.9 7025.09 3392.26 2549.95 4433.12 5487.63 5461.72 4361.24 6599.28 5138.93 6224.85 6406.8 4556.19 5368.66 6875.73 6170.9 4436.48 5226.42 6081.3 5117.52 5615.35 6311.89 3967.76 6734.39 5942.45 4228.53 4150.76 6123.46 5005.72 6142.88 5155.28 5111.26 5388.73 4949.55 4764.83 4600.71 1969.87 3132.34 3957.38 4841.28 5507.38 6889.5 4710.88 5300.17 4416.87 4057.4 5534.23 4896.67 6025.77 3934.11 4781.9 4466.22 6815.96 5339.6 5917.08 4725.11 5483.37 5418.12 5934.05 5322.07 5770.07 5101.6 5600.21 4282.11 4656.01 5781.62 6589.13 2347.41 5602.62 4542.16 2030.03 3543.37 5628.97 5714.51 5527.27 5104.39 5847.91 4612.13 5846.6 5327.05 4109.44 4903.84 5438.55 4290.49 4434.65 5977.66 4523.81 5209.5 5065.74 5791.25 5198.94 4873.23 4028.35 5464.05 5879.24 2980.31 4571.74 3148.79 6348.93 6824.53 5997.91 4332.64 4742.82 4422.23 6791.86 4820.68 4930.72 5728.58 3745.02 4887.73 6297.99 5378.24 4538.89 3856.73 5817.74 5887.71 5265.63 5684.88 6523.78 4645.86 4045.67 5620.88 4941.52 5900.0 4262.74 6241.77 3783.79 5317.19 4248.14 5279.19 4016.6 5821.49 7050.08 5580.44 5998.13 6022.78 4087.32 6647.85 4009.68 2569.12 5161.74 4161.32 7336.37 5932.28 5099.9 2960.5 6945.69 5118.86 7086.69 4183.4 4304.64 4733.79 5833.78 4823.06 5758.98 5254.49 5288.64 6213.24 5987.88 6883.86 3579.59 3350.99 6161.94 4065.28 5057.59 4461.14 5285.6 4574.54 5615.06 5490.54 5061.74 5203.54 4047.95 6142.94 5001.69 6581.56 4052.43 3980.46 5383.9 5158.44 3886.56 4288.5 4496.51 5715.51 6153.71 4511.05 3456.3 6561.94 5259.21 5092.93 2803.01 5881.93 4714.66 4444.0 6771.18 4984.17 5327.39 7415.84 4037.86 4981.81 4138.59 4938.33 4970.55 4484.78 5157.73 4621.33 4541.22 4934.66 4946.08 3539.68 4984.01 6217.33 4557.1 6688.53 4605.39 5927.1 6175.27 5876.51 4103.76 6731.89 4733.41 5410.6 5264.83 5453.2 5136.51 3901.53 6815.51 5232.16 4457.05 3989.26 5189.91 6031.22 5485.84 3618.64 6424.77 5703.84 5453.69 4335.79 5918.95 5797.32 5432.04 5689.56 6556.86 3921.27 5764.52 4390.64 5150.84 4608.01 5087.97 6005.95 4308.49 4930.17 4581.1 4745.44 4085.96 5762.82 7360.12 6223.98 5462.6 5617.29 3035.06 4262.19 4597.88 5095.52 5517.65 5129.4 3303.49 5114.51 4655.37 4622.73 5585.25 5256.75 6351.89 6530.78 5059.37 5560.23 4975.32 4298.7 3043.77 3902.48 5237.55 3909.94 6030.39 6589.8 4905.53 3799.01 6920.92 7392.65 5319.1 3757.23 4181.93 6828.8 3820.19 4979.5 4586.82 4745.37 3133.28 5939.29 6200.05 5418.98 5575.11 5859.17 4034.41 4052.49 5522.34 5326.03 6189.67 4420.35 5717.45 4948.96 5256.82 4013.86 4061.87 4645.93 5165.31 5448.64 3798.09 4585.37 6417.61 3721.69 5783.69 6074.39 5317.83 4256.08 6738.9 4460.89 4399.52 4554.24 4157.1 3939.96 6182.19 5910.66 4637.3 1458.87 5141.03 4840.44 8123.59 5765.14 4767.54 5121.08 4696.03 2927.84 5688.77 6177.68 6270.59 4698.7 2848.44 6045.26 6500.45 4907.55 4094.63 4286.61 5084.76 2932.52 4603.66 4757.87 4969.68 3557.46 6636.43 5431.14 6298.8 5313.86 5178.07 3689.24 5151.19 5777.26 4171.02 3530.82 7012.36 5028.06 4002.99 4886.99 5159.67 3572.73 3161.1 4864.38 3702.45 3402.44 3770.22 4848.98 4491.96 5184.98 4467.51 5339.82 4519.03 5460.57 5110.27 5703.34 4612.68 6668.98 6649.52 4232.33 4939.56 4747.68 5770.92 3093.38 4845.91 4878.93 2002.78 4746.15 6275.25 3720.38 4758.84 5023.61 4731.37 3976.0 4672.86 6463.71 5783.38 4742.35 5394.79 4139.39 5645.54 5088.64 6264.03 4526.87 3562.8 4151.74 5192.82 4174.22 3729.16 3783.36 3573.84 3038.91 4067.89 3922.28 6294.09 6570.43 4571.57 3445.92 5131.07 5236.69 4121.07 5524.28 6026.04 5731.43 6353.81 3414.67 3518.14 5444.36 4150.44 5044.68 5771.98 5899.78 2649.69 5000.74 5117.83 5772.57 5268.27 4813.81 3882.37 5244.95 4634.25 5901.8 6351.48 5395.12 3830.7 6210.0 5350.9 3483.61 4262.52 5992.06 5545.68 8052.53 4867.12 4970.12 6044.01 6520.19 5973.57 5734.07 3997.68 6033.28 4819.83 4801.16 5957.82 5071.38 6286.27 6327.54 5616.66 4802.36 5368.28 5466.13 6229.64 4220.43 6263.87 5743.8 6666.34 6605.11 4645.91 6834.92 6379.33 5971.95 5652.73 3979.46 6321.97 6412.84 6509.54 2589.19 6119.0 3792.06 5128.59 4993.49 4293.3 5587.3 5310.33 6583.37 3688.83 5537.61 6084.88 4397.06 4199.44 4053.12 4479.5 6261.67 3435.13 5065.78 4431.46 4521.42 3207.84 3977.98 6043.34 4128.93 4959.72 4712.17 3808.04 4723.71 4461.67 5631.32 6892.33 4505.3 4452.36 4491.26 4609.65 4511.34 4068.41 4832.21 5009.21 4574.03 5290.37 5850.38 5264.08 4227.66 4730.97 4691.01 4594.89 5245.95 5821.42 4515.02 3463.53 4924.52 6126.03 2970.24 4197.87 6044.69 5105.54 5658.05 6593.1 5462.1 6032.45 5011.37 4026.03 2827.92 6908.32 3467.11 4817.75 6153.26 5637.53 4848.15 5523.81 4095.4 4718.61 5188.57 3873.79 5357.33 5717.67 5252.37 5432.4 4499.54 5037.58 7430.48 5640.67 6080.69 5555.89 4967.93 6369.66 5678.08 5922.62 6241.48 5125.45 3784.68 4188.16 3717.22 5507.07 2943.17 5327.71 4880.78 5257.38 4322.56 5509.09 5075.23 5625.02 4975.56 7282.36 3826.01 4829.77 5581.01 3928.99 4125.75 5749.53 5130.57 5090.48 5402.45 3985.93 5945.25 6071.59 3856.4 6079.55 5485.61 4937.36 5308.4 6581.13 4569.32 3228.27 4721.98 5252.82 3543.98 5056.26 5878.55 4014.44 6604.72 6002.77 3794.47 4610.55 4967.02 4614.49 5400.69 4462.5 5573.31 5004.68 4023.88 5348.11 4405.61 6126.5 6322.0 5793.14 6345.2 5488.96 5704.61 5410.73 4379.91 5087.3 4942.63 6139.74 4975.57 7066.26 3057.3 6150.31 3677.85 5214.71 4996.91 4677.84 4811.11 3920.44 5379.52 4866.8 5314.67 5563.47 5651.46 4066.36 4000.51 3162.27 6033.93 5516.37 4441.44 5092.44 4232.44 4612.4 5336.61 3312.3 5563.09 6381.58 4439.09 3282.57 4798.13 5648.59 6697.45 6296.36 4432.32 5515.59 3224.81 3775.38 7885.41 4046.22 6457.89 4844.2 6572.17 3751.73 3374.62 4926.62 4766.47 4871.1 3917.09 6009.93 5872.45 4083.1 4414.09 5270.1 5191.29 4947.64 6305.9 6649.21 3470.69 4654.92 4859.95 5286.55 5522.18 5223.1 3873.72 5212.05 4592.49 3625.98 5479.86 6474.5 4444.92 4702.32 6959.88 5971.9 3746.62 5247.73 4532.67 4876.37 5034.02 4769.62 5582.28 5260.13 4649.5 5181.31 4696.06 5985.75 4137.16 5475.83 6189.29 5984.55 4329.8 5672.46 5803.3 3956.24 7558.99 3393.59 4142.1 5043.14 5333.04 5445.91 4521.99 4812.59 6842.54 7115.67 5675.45 3361.11 6038.56 2807.46 5599.16 4179.8 3488.34 5658.35 5428.24 5108.84 4034.88 3511.5 6007.1 5067.92 3188.21 5357.14 5128.03 5919.27 3720.92 4793.06 6637.38 6188.33 6111.23 6916.18 5786.06 5873.62 3868.69 5447.74 4450.51 6033.72 3768.62 3692.99 3851.47 4966.74 2329.93 4959.94 1635.31 5639.4 6185.73 4083.24 6520.96 3771.91 5432.2 5217.62 6178.19 4746.19 4616.81 5715.25 5212.2 4362.94 4611.21 5108.42 4630.5 3354.94 4404.87 5237.27 4451.76 5767.65 4750.76 5782.25 4104.97 5497.27 4575.72 4081.77 5114.61 6118.13 2181.29 4420.3 4202.12 2694.25 6332.64 6492.44 4613.32 3482.73 3996.93 5130.56 4957.99 4063.26 5345.05 4997.89 4542.62 5093.28 6131.52 4132.08 6009.88 4699.77 4850.49 4981.55 5144.23 6188.62 6153.07 4414.06 4763.04 5944.52 4413.56 5050.2 2513.38 5316.05 4821.41 4908.32 3995.08 5019.84 4810.74 3900.93 5784.38 4149.17 6260.58 5728.27 3074.49 5202.33 5580.95 6598.99 3549.92 4032.06 5246.81 5089.1 5888.95 5394.78 3463.34 5122.38 2853.68 5262.85 4998.37 5329.84 6559.82 3879.83 6565.95 4577.98 5043.34 5886.81 4487.51 4582.12 4295.25 4520.14 7394.47 4729.45 4850.95 5374.09 6271.22 3421.81 5378.75 3920.64 6186.24 5822.7 4137.41 3780.07 4159.89 5466.49 4038.17 5007.41 4907.48 6818.23 6213.74 4369.87 6938.87 5412.07 5512.57 4806.99 4813.55 5856.43 3465.03 3839.0 5349.85 5799.86 5172.1 4469.82 6052.22 6545.78 4870.14 2932.2 5105.72 4082.01 5003.49 3964.03 4907.03 4216.33 5832.72 5617.91 4948.21 4721.2 4987.01 4706.31 3124.49 6265.48 4735.99 4203.68 4739.56 5145.39 3352.46 6351.95 5195.09 5200.1 7679.2 4881.51 2626.41 4311.92 6729.99 5093.41 6842.35 5464.34 3621.63 4777.96 5801.89 5908.57 7296.47 5742.39 4780.16 4924.53 5616.11 4499.52 3874.12 4028.13 4457.73 6476.35 3113.64 4304.75 5480.86 4067.24 3053.19 6139.9 6571.26 4313.38 5827.3 5250.56 3633.58 2468.16 6294.14 4339.97 5203.75 5169.09 4691.15 2459.88 4210.24 5470.67 5901.71 5225.11 5342.9 5252.22 5733.12 4962.35 6436.29 4246.24 6805.02 5354.48 5640.63 4900.26 6261.13 4167.55 4720.34 5244.47 4865.11 4731.16 5510.89 6470.87 4495.33 5282.67 5747.9 5178.55 5146.69 4287.93 6203.24 5081.65 4488.41 6679.12 5652.19 5806.74 3878.8 6578.62 6284.12 4796.04 5229.56 6011.4 4672.34 5056.32 5533.52 5376.41 5410.33 5003.63 4747.24 4695.7 4380.86 4944.08 5576.16 5269.39 4305.35 3308.75 5210.22 2451.27 3903.9 4444.95 5606.22 5161.02 3943.77 5242.38 6081.35 5003.81 6262.18 3818.37 4701.03 6225.05 5434.04 5125.53 3997.52 4444.54 5779.9 4909.74 5310.33 5299.03 6664.54 3922.98 5161.73 5259.48 4025.08 4008.67 5254.93 4803.4 6833.5 6608.94 2613.78 5417.07 3834.01 5738.37 4433.23 4813.24 4739.41 5759.19 5847.27 4490.2 4706.59 5734.84 3982.31 4950.07 4720.22 2832.83 4084.87 6036.99 3010.1 3825.98 4589.22 5087.03 4667.84 3906.41 4123.08 4512.6 4260.38 4636.45 4932.27 5638.51 6793.49 3563.33 6060.19 5536.0 6786.37 5402.81 4600.81 4919.13 4124.33 5168.97 5783.88 5002.38 5093.51 6705.93 5449.09 5502.14 4605.61 4465.56 4131.08 5386.95 3864.19 5332.11 5315.71 6158.93 5373.78 4823.14 5438.5 5345.65 4621.32 5699.4 5237.76 4698.94 4286.84 3948.21 5669.15 6423.96 5296.05 5263.86 3330.85 6988.4 6635.51 4060.17 6051.35 5302.53 4909.13 4287.61 5648.02 4604.34 4439.17 5677.42 2701.42 4929.35 5051.39 6673.92 5151.68 4884.94 5459.52 4609.98 5566.5 5663.36 4752.31 4276.59 5579.04 5405.6 3929.35 5994.21 4884.93 5403.81 5082.25 6964.78 4374.05 5036.84 4565.36 5813.68 5732.11 3618.53 5040.9 4770.21 8013.28 3846.55 5283.65 3796.73 4644.68 3082.16 2892.36 5656.84 5981.54 6789.66 5416.41 5312.2 6760.64 2515.5 5177.88 5551.79 4582.24 3916.15 4474.96 4758.76 4790.63 5259.29 3584.05 4916.75 4818.53 5097.85 5584.64 6189.04 6224.64 4221.03 3799.55 5082.66 4550.77 4337.93 3550.88 4345.51 4048.73 6223.33 4333.23 3860.8 4328.76 5145.13 3747.96 5561.63 5940.5 4358.06 5004.22 5647.93 4280.92 6201.49 5154.74 4696.92 6437.99 6898.8 6632.04 6540.57 4893.72 6004.72 4072.4 4983.56 5699.51 2489.44 4489.18 5863.36 4632.75 4752.94 4994.98 3950.53 4501.1 6058.13 5894.69 4987.01 6094.34 6779.82 5543.67 3999.81 4867.13 6377.45 4863.27 4502.12 5442.79 3255.93 6853.07 4633.59 5733.59 5362.15 4455.61 4738.72 5240.97 5569.85 5523.96 4223.53 4759.38 4733.37 6960.97 4287.15 4523.9 5282.51 5504.65 5669.41 4951.02 3919.47 4602.7 5596.68 3783.35 4868.66 4004.39 5159.9 4987.48 5943.61 4248.58 5911.29 4542.25 4694.27 4414.23 5233.88 4849.21 4785.55 3793.83 6981.47 6189.81 5367.05 4449.73 5647.11 4088.72 3945.62 3743.85 6236.46 5342.17 6379.3 5015.67 3795.63 5189.4 4576.71 6538.04 4894.15 6157.59 5201.3 5848.41 4090.28 4246.83 5438.6 7370.52 5611.29 4521.88 6568.45 4601.54 4963.88 7263.57 5705.96 3832.09 5267.65 5739.69 3509.34 5360.88 7360.62 4977.64 3166.37 4985.45 5369.42 5207.08 5205.53 4714.52 5499.37 4883.13 4836.76 5333.16 5551.09 5755.98 5392.85 5581.47 4384.91 6550.61 4277.54 4713.56 4531.46 5448.68 4739.5 6210.48 4491.62 4182.05 3865.5 6327.61 5575.8 5268.93 3695.72 6874.6 5106.9 5306.31 4535.94 3037.72 5126.08 5604.0 3760.4 4037.16 6395.63 5479.17 5020.37 5245.4 4726.5 5467.05 3724.23 5103.3 5888.94 4727.98 4122.2 5175.88 4516.26 4790.16 3647.26 3731.58 4587.19 5543.05 6028.89 4888.17 5077.2 4274.05 5275.27 5529.09 5925.82 4072.95 
SCALARS Velocity float 1
LOOKUP_TABLE default
1.19723 1.19494 1.19279 1.19305 1.19293 1.19341 1.19185 1.19187 1.19231 1.19322 1.19526 1.19557 1.1926 1.1932 1.19608 1.19496 1.19745 1.19374 1.19198 1.19438 1.19486 1.19182 1.19262 1.19373 1.19404 1.19544 1.19343 1.19311 1.19178 1.19509 1.19451 1.19378 1.19175 1.19366 1.19416 1.19178 1.19178 1.19178 1.19264 1.19178 1.19178 1.19272 1.19178 1.19177 1.19169 1.19375 1.19311 1.19396 1.19176 1.19178 1.19168 1.19185 1.19174 1.19178 1.19178 1.19178 1.19253 1.1929 1.19259 1.19423 1.19436 1.19337 1.19312 1.19359 1.193 1.19359 1.19178 1.19275 1.19378 1.19225 1.19177 1.19365 1.19366 1.19178 1.19172 1.19513 1.19502 1.19391 1.19245 1.19244 1.19277 1.19328 1.19172 1.19359 1.19309 1.19538 1.1954 1.19168 1.19181 1.19227 1.19248 1.19428 1.19341 1.19188 1.19176 1.19313 1.19169 1.19178 1.19191 1.19188 1.19298 1.19238 1.19077 1.19467 1.19651 1.19597 1.19456 1.19418 1.19503 1.19264 1.19578 1.1959 1.19428 1.19489 1.19445 1.19178 1.19764 1.19209 1.19425 1.19178 1.19381 1.19449 1.19201 1.19316 1.1938 1.19607 1.19847 1.19398 1.19296 1.19396 1.19281 1.19262 1.19675 1.19468 1.19731 1.19428 1.19429 1.19557 1.19372 1.19419 1.19178 1.19301 1.19172 1.19178 1.19275 1.19178 1.19178 1.19278 1.19178 1.19431 1.19178 1.19383 1.19178 1.19178 1.19178 1.1925 1.1922 1.19177 1.19178 1.19193 1.19238 1.19204 1.19197 1.19277 1.19317 1.1949 1.19424 1.19208 1.1923 1.19296 1.19326 1.19358 1.19144 1.19407 1.1949 1.19244 1.19196 1.1947 1.19321 1.19426 1.19261 1.1932 1.19324 1.19178 1.19442 1.1947 1.1963 1.19277 1.19175 1.19178 1.1928 1.19319 1.19415 1.19343 1.19178 1.19177 1.1933 1.19331 1.19178 1.19178 1.19316 1.19251 1.19475 1.19464 1.19149 1.19403 1.1932 1.19465 1.1931 1.19674 1.19471 1.19489 1.19221 1.19198 1.19172 1.19479 1.19103 1.19316 1.19842 1.19456 1.19178 1.19422 1.19216 1.19704 1.19156 1.19393 1.19307 1.19344 1.19415 1.19286 1.19375 1.19178 1.19467 1.19529 1.19532 1.19725 1.19723 1.19478 1.19512 1.19478 1.19489 1.19471 1.19493 1.19107 1.19356 1.19259 1.19297 1.19447 1.19182 1.19355 1.19172 1.19179 1.19291 1.19178 1.19431 1.19178 1.19234 1.19256 1.19178 1.19191 1.19253 1.19149 1.19194 1.19237 1.19473 1.19319 1.19423 1.19403 1.19416 1.19377 1.19173 1.19386 1.19179 1.19406 1.19178 1.19338 1.19409 1.19441 1.19436 1.19244 1.19196 1.19261 1.19164 1.1931 1.19421 1.19173 1.19327 1.19529 1.19249 1.19204 1.19293 1.19342 1.19428 1.19449 1.19343 1.19481 1.19595 1.19733 1.19335 1.1955 1.19329 1.19542 1.19273 1.19179 1.19384 1.19659 1.19448 1.19482 1.19456 1.19243 1.195 1.19558 1.19739 1.19543 1.19168 1.19575 1.19928 1.19927 1.1946 1.19402 1.19955 1.19502 1.19144 1.19247 1.19519 1.193 1.19526 1.193 1.19168 1.19364 1.19384 1.19417 1.19178 1.19593 1.1967 1.19487 1.19432 1.19445 1.19438 1.19462 1.19353 1.19095 1.19277 1.19178 1.19275 1.19234 1.1943 1.19413 1.19127 1.19389 1.19429 1.19218 1.19173 1.1929 1.1913 1.19423 1.19611 1.19369 1.1933 1.19252 1.19281 1.19212 1.19178 1.19869 1.19282 1.19179 1.19196 1.19268 1.1926 1.19249 1.19313 1.1929 1.19392 1.19337 1.19485 1.19401 1.19342 1.1937 1.19432 1.19261 1.1938 1.19138 1.18896 1.19298 1.18884 1.1944 1.19663 1.19243 1.19136 1.19453 1.19354 1.19415 1.19369 1.19662 1.19226 1.19335 1.19347 1.19362 1.19178 1.19178 1.19178 1.19638 1.19538 1.19326 1.19385 1.19161 1.19478 1.1918 1.19275 1.19148 1.19652 1.19453 1.19375 1.19456 1.19352 1.19432 1.18928 1.19462 1.19178 1.19213 1.19506 1.19729 1.19553 1.19526 1.19412 1.19596 1.19619 1.19465 1.19766 1.19597 1.19285 1.19681 1.19571 1.19498 1.19496 1.19318 1.19302 1.19403 1.19357 1.19401 1.19424 1.19617 1.19609 1.19447 1.19295 1.19747 1.18816 1.19302 1.19128 1.1942 1.19541 1.19353 1.19242 1.19343 1.19178 1.19426 1.19155 1.19412 1.19326 1.1931 1.19312 1.19311 1.19287 1.19267 1.19346 1.19233 1.19271 1.19405 1.19257 1.19455 1.1937 1.19179 1.19297 1.19215 1.19219 1.19089 1.19067 1.19216 1.19302 1.18946 1.19574 1.19375 1.19456 1.19353 1.19369 1.19632 1.19247 1.19224 1.19224 1.19292 1.19191 1.19338 1.19178 1.19184 1.1917 1.19138 1.19522 1.19606 1.1964 1.19351 1.19805 1.19572 1.19191 1.19294 1.19422 1.19302 1.19455 1.19488 1.19514 1.19334 1.19501 1.1895 1.19611 1.19259 1.19698 1.19152 1.19423 1.19612 1.19446 1.19671 1.19453 1.19633 1.19069 1.19401 1.19207 1.19127 1.19671 1.18871 1.19547 1.19374 1.1942 1.19387 1.19178 1.19547 1.1945 1.19434 1.19419 1.1927 1.19719 1.19681 1.19273 1.18831 1.19146 1.19217 1.19736 1.19174 1.19432 1.19381 1.19377 1.19396 1.19408 1.19237 1.19477 1.1939 1.19361 1.19186 1.19283 1.19218 1.19849 1.19463 1.19282 1.19243 1.19397 1.19195 1.19234 1.19222 1.1925 1.19385 1.19376 1.19423 1.19254 1.19348 1.19202 1.19035 1.19062 1.19197 1.19223 1.19124 1.19167 1.19197 1.19133 1.19336 1.1924 1.19551 1.19407 1.19542 1.1959 1.19204 1.19264 1.19311 1.19061 1.18963 1.19046 1.19001 1.19573 1.206 1.1939 1.19263 1.19052 1.19049 1.19308 1.19438 1.19398 1.1932 1.19437 1.19335 1.19085 1.19496 1.19224 1.19472 1.19715 1.19898 1.19694 1.19477 1.19281 1.19279 1.19382 1.19303 1.1959 1.19405 1.19121 1.19449 1.19178 1.19168 1.19445 1.18886 1.19524 1.1936 1.18915 1.19357 1.1937 1.1927 1.19525 1.19434 1.19316 1.19203 1.19313 1.18856 1.19328 1.19221 1.19199 1.19278 1.19084 1.19361 1.19482 1.19423 1.19483 1.18796 1.19306 1.19214 1.19248 1.19522 1.19194 1.19484 1.19222 1.19085 1.19159 1.19291 1.19235 1.19174 1.19232 1.19302 1.19424 1.19431 1.19283 1.19368 1.19213 1.19063 1.19107 1.19155 1.1917 1.19115 1.19166 1.19537 1.1951 1.19603 1.19322 1.19327 1.19496 1.1954 1.19544 1.19198 1.19252 1.19185 1.19682 1.18968 1.18952 1.19178 1.19134 1.1926 1.1922 1.19514 1.19766 1.1909 1.19151 1.1909 1.19652 1.19142 1.19103 1.19326 1.19298 1.19457 1.19317 1.19618 1.19393 1.19566 1.19172 1.19361 1.1972 1.19137 1.19249 1.19602 1.19289 1.19643 1.19175 1.19441 1.19256 1.18889 1.19028 1.19132 1.19222 1.19176 1.19562 1.19774 1.18925 1.19197 1.19316 1.19178 1.1914 1.18938 1.19472 1.19423 1.18877 1.19381 1.19357 1.18994 1.19299 1.1926 1.19287 1.19244 1.19216 1.19092 1.19336 1.19102 1.19702 1.19278 1.19431 1.19269 1.19237 1.19328 1.1948 1.19372 1.1929 1.19467 1.19397 1.19182 1.19402 1.18998 1.1938 1.19226 1.1915 1.19153 1.19401 1.19371 1.19241 1.1936 1.19227 1.19386 1.19094 1.19508 1.19446 1.19291 1.19115 1.19173 1.19008 1.19183 1.19247 1.19269 1.19578 1.19271 1.19285 1.1946 1.19531 1.19496 1.1916 1.19552 1.19463 1.19276 1.19382 1.19072 1.19531 1.19178 1.19149 1.19399 1.18702 1.19671 1.19387 1.18602 1.19178 1.19733 1.19138 1.1915 1.19125 1.19296 1.19268 1.19425 1.19186 1.1918 1.19625 1.19427 1.19721 1.19525 1.19704 1.1921 1.19669 1.19293 1.19187 1.19186 1.19429 1.1933 1.19591 1.18364 1.19606 1.19353 1.19129 1.19753 1.19294 1.19117 1.19084 1.19116 1.18896 1.19395 1.19402 1.19241 1.19005 1.19379 1.1929 1.19225 1.19242 1.1909 1.19403 1.1918 1.19024 1.19474 1.19255 1.19409 1.19084 1.19231 1.19043 1.19352 1.19279 1.19385 1.19427 1.19199 1.18996 1.19166 1.19118 1.19429 1.19303 1.19216 1.19354 1.19219 1.19351 1.18954 1.19508 1.19321 1.19458 1.19131 1.19221 1.1971 1.19136 1.1954 1.19183 1.19368 1.19454 1.19413 1.19405 1.19147 1.19431 1.19238 1.1943 1.19485 1.19685 1.19661 1.1992 1.18843 1.19237 1.19023 1.1959 1.19315 1.18597 1.19168 1.1995 1.19952 1.19097 1.19271 1.1926 1.19262 1.19347 1.1917 1.19178 1.19603 1.1942 1.19538 1.19712 1.1961 1.19459 1.19145 1.20203 1.202 1.19263 1.1887 1.19583 1.19364 1.19265 1.1926 1.1934 1.19495 1.19466 1.18792 1.19013 1.19477 1.18748 1.18676 1.19631 1.19335 1.19046 1.19088 1.18859 1.18705 1.1925 1.19033 1.19332 1.19169 1.19636 1.1909 1.19529 1.19256 1.19215 1.19194 1.19346 1.19344 1.19332 1.19078 1.19343 1.19475 1.19378 1.19564 1.1913 1.19 1.19178 1.19381 1.19195 1.19205 1.19064 1.19059 1.19304 1.19329 1.1927 1.19359 1.19355 1.19241 1.19186 1.1934 1.18952 1.192 1.19223 1.19089 1.19096 1.19176 1.191 1.19192 1.192 1.19176 1.19247 1.19257 1.1908 1.19566 1.19375 1.19178 1.19271 1.19178 1.19706 1.1876 1.1867 1.19495 1.19475 1.19262 1.19186 1.19284 1.19428 1.19449 1.19337 1.19389 1.19767 1.19379 1.1948 1.19242 1.19908 1.19086 1.18764 1.19189 1.19049 1.19177 1.18203 1.19814 1.1949 1.19178 1.19233 1.19346 1.19141 1.18721 1.18338 1.19264 1.18905 1.19348 1.19806 1.19087 1.19351 1.19164 1.1905 1.19456 1.19281 1.19229 1.19298 1.19214 1.19357 1.19278 1.19167 1.1911 1.1943 1.18851 1.1913 1.19515 1.18762 1.19191 1.19658 1.19705 1.19328 1.19517 1.19057 1.18846 1.1906 1.19261 1.19451 1.19658 1.19062 1.19394 1.19207 1.19178 1.19167 1.19043 1.18856 1.19127 1.19356 1.19288 1.19018 1.19684 1.18915 1.19052 1.19153 1.19249 1.19521 1.19128 1.19047 1.18941 1.19278 1.19302 1.19231 1.19407 1.1923 1.19382 1.19424 1.19144 1.19557 1.19244 1.19328 1.18962 1.19015 1.19233 1.19239 1.19205 1.19187 1.1928 1.19059 1.19196 1.19265 1.19413 1.19063 1.19943 1.19085 1.19382 1.19325 1.18867 1.19304 1.19463 1.19183 1.19597 1.19408 1.19454 1.19331 1.19743 1.1931 1.19429 1.19377 1.18913 1.19876 1.18738 1.19095 1.19142 1.19111 1.19733 1.18986 1.19027 1.19954 1.18877 1.18868 1.19067 1.19175 1.19155 1.19404 1.1914 1.19199 1.1885 1.19066 1.19028 1.18916 1.19333 1.1936 1.19004 1.19012 1.19164 1.19091 1.19009 1.19178 1.19161 1.19164 1.18813 1.1917 1.19392 1.18788 1.19075 1.19382 1.19335 1.18213 1.19498 1.19846 1.19648 1.19022 1.19178 1.18861 1.19287 1.19482 1.19309 1.19 1.1917 1.19133 1.18943 1.19314 1.19604 1.1931 1.19063 1.19233 1.19451 1.19006 1.1888 1.19245 1.19298 1.19201 1.19373 1.1921 1.19317 1.19178 1.19408 1.19488 1.19145 1.19033 1.19316 1.19229 1.18937 1.19161 1.19173 1.18958 1.19126 1.19009 1.19352 1.19229 1.1897 1.19427 1.19178 1.19061 1.19928 1.19496 1.19182 1.19336 1.19079 1.19178 1.19178 1.19448 1.19599 1.19213 1.19259 1.19408 1.19824 1.19679 1.19323 1.19434 1.19576 1.19618 1.18736 1.19113 1.18886 1.19795 1.19171 1.19195 1.19117 1.1947 1.18418 1.19061 1.19174 1.19168 1.19137 1.18941 1.18888 1.19306 1.19127 1.18953 1.19102 1.19315 1.19359 1.18803 1.19291 1.19208 1.19031 1.18792 1.19359 1.19192 1.19366 1.18768 1.18945 1.18964 1.19318 1.19318 1.19318 1.19438 1.19763 1.19602 1.18988 1.19183 1.19153 1.19188 1.19182 1.19042 1.19218 1.19458 1.18872 1.19013 1.19157 1.19115 1.19134 1.19356 1.1898 1.19214 1.18668 1.18742 1.19691 1.19127 1.18973 1.19374 1.19037 1.1899 1.1898 1.19204 1.19376 1.19076 1.19184 1.18976 1.18856 1.19208 1.19182 1.19236 1.18903 1.18703 1.1902 1.19201 1.19561 1.19542 1.19393 1.19383 1.19218 1.19057 1.1921 1.19057 1.19046 1.19498 1.1849 1.19491 1.1958 1.19716 1.19591 1.1929 1.18943 1.19196 1.19737 1.19869 1.19505 1.1892 1.19497 1.19581 1.19167 1.19694 1.19176 1.19045 1.19677 1.19539 1.20333 1.19811 1.18745 1.19154 1.18588 1.19074 1.19644 1.18893 1.19085 1.19448 1.18838 1.1902 1.1903 1.19146 1.19127 1.19103 1.19013 1.19027 1.18919 1.19384 1.18819 1.18958 1.18557 1.18886 1.19129 1.18839 1.1879 1.18951 1.18919 1.19326 1.19265 1.19318 1.1875 1.18931 1.19313 1.19307 1.19376 1.19507 1.18952 1.19163 1.19244 1.19182 1.19178 1.18572 1.18759 1.19018 1.18903 1.19185 1.19212 1.19155 1.1934 1.19372 1.19188 1.19201 1.19147 1.19066 1.19103 1.19253 1.189 1.19003 1.19052 1.19176 1.19347 1.19178 1.19088 1.18789 1.18833 1.192 1.19379 1.19018 1.1901 1.19055 1.19544 1.19081 1.1911 1.19166 1.19015 1.18927 1.18927 1.18886 1.19549 1.19614 1.19586 1.18911 1.19129 1.19251 1.19319 1.19908 1.19484 1.18957 1.18947 1.19322 1.19646 1.19806 1.19259 1.19128 1.19495 1.19132 1.19017 1.19606 1.20291 1.19808 1.18667 1.1911 1.19634 1.19082 1.19722 1.18937 1.19182 1.19497 1.19751 1.1971 1.18948 1.18941 1.18976 1.19085 1.19092 1.19207 1.1922 1.18853 1.18856 1.18722 1.18932 1.19141 1.19366 1.1979 1.18916 1.18968 1.19344 1.19088 1.18425 1.19077 1.19053 1.18752 1.19316 1.19111 1.1948 1.19303 1.18644 1.194 1.1894 1.19165 1.19197 1.19217 1.19136 1.18527 1.18901 1.19159 1.19338 1.19072 1.19143 1.19188 1.18895 1.19021 1.19227 1.19187 1.19121 1.1882 1.18862 1.19213 1.19287 1.19379 1.19001 1.19157 1.18999 1.18916 1.19031 1.19062 1.19344 1.19136 1.19354 1.19084 1.18753 1.18896 1.19869 1.19483 1.18211 1.19086 1.19178 1.1986 1.19793 1.19592 1.19294 1.19112 1.18889 1.18897 1.19783 1.19597 1.19328 1.19499 1.19585 1.19861 1.19698 1.19861 1.18956 1.18945 1.19372 1.19297 1.19 1.19656 1.19845 1.1886 1.18766 1.19897 1.19442 1.19073 1.19281 1.19655 1.18723 1.19178 1.19031 1.19178 1.19095 1.1955 1.18982 1.18971 1.19061 1.18779 1.19021 1.18865 1.18593 1.18913 1.1904 1.19121 1.19203 1.19042 1.189 1.19067 1.18917 1.19055 1.18761 1.18415 1.1908 1.18457 1.19283 1.19313 1.18537 1.19178 1.18969 1.1919 1.19263 1.18839 1.19318 1.18925 1.19208 1.19301 1.19276 1.19102 1.18608 1.1922 1.1865 1.18554 1.18821 1.19159 1.19178 1.19109 1.19023 1.18959 1.18875 1.1926 1.19224 1.19117 1.1912 1.19046 1.19037 1.19177 1.18864 1.19179 1.19015 1.1917 1.19175 1.18928 1.19453 1.19403 1.1895 1.19177 1.1886 1.19151 1.18974 1.19125 1.19255 1.195 1.19368 1.19331 1.19134 1.19098 1.19468 1.19082 1.1906 1.18829 1.19886 1.19275 1.19615 1.19715 1.1938 1.19278 1.19537 1.19644 1.19552 1.19491 1.19686 1.19994 1.19044 1.19413 1.19305 1.18992 1.19532 1.19702 1.19605 1.19756 1.19518 1.1925 1.19162 1.18712 1.19188 1.19169 1.19115 1.19068 1.19025 1.19519 1.18908 1.18961 1.18975 1.18865 1.19068 1.19088 1.18934 1.18951 1.19044 1.19012 1.19259 1.19333 1.18882 1.19088 1.19049 1.18723 1.18442 1.18388 1.18751 1.19355 1.18563 1.19178 1.18944 1.19124 1.19262 1.18841 1.191 1.18904 1.19226 1.19349 1.19231 1.19094 1.19274 1.1855 1.18792 1.18784 1.1859 1.19051 1.19009 1.19096 1.19086 1.18865 1.19188 1.1924 1.1916 1.19062 1.19172 1.18877 1.18965 1.18807 1.18678 1.19179 1.18959 1.19126 1.19134 1.18751 1.18975 1.19511 1.19214 1.19178 1.18972 1.19482 1.19358 1.19622 1.1887 1.19152 1.19534 1.20009 1.19276 1.19178 1.19697 1.19171 1.19303 1.19592 1.19232 1.19683 1.19488 1.19471 1.19343 1.19752 1.19678 1.19569 1.1913 1.19966 1.19255 1.19124 1.19536 1.19689 1.19552 1.19091 1.19203 1.19155 1.19143 1.19412 1.19418 1.19178 1.19139 1.19925 1.18965 1.19339 1.18881 1.18419 1.18951 1.18645 1.18365 1.19066 1.19167 1.19178 1.19178 1.18921 1.18928 1.19236 1.18879 1.1894 1.18995 1.19033 1.18741 1.19379 1.19462 1.19217 1.18976 1.18703 1.18681 1.18996 1.18783 1.18749 1.18562 1.18983 1.18848 1.1911 1.19204 1.18749 1.19022 1.18889 1.18926 1.19178 1.19156 1.1918 1.18945 1.19197 1.1863 1.18838 1.18735 1.18858 1.18649 1.19023 1.19244 1.18851 1.19251 1.19131 1.19032 1.19016 1.19093 1.18834 1.18921 1.18703 1.18857 1.19209 1.19145 1.19216 1.19178 1.19178 1.19069 1.1911 1.18725 1.19049 1.19668 1.1924 1.18861 1.1895 1.19436 1.19305 1.19066 1.19309 1.19077 1.20152 1.1977 1.19573 1.19508 1.19673 1.19582 1.19223 1.19547 1.19163 1.19442 1.19468 1.20072 1.1991 1.19448 1.19008 1.19928 1.19341 1.19143 1.19117 1.19026 1.19528 1.19647 1.19531 1.19117 1.18885 1.18924 1.19359 1.18664 1.19908 1.19092 1.19106 1.18794 1.18819 1.18927 1.19178 1.19037 1.19477 1.19199 1.19246 1.19047 1.19012 1.18917 1.18907 1.19178 1.18862 1.18959 1.18682 1.19225 1.18843 1.18865 1.19296 1.19018 1.19178 1.18976 1.18836 1.18917 1.18997 1.19003 1.19178 1.19226 1.19167 1.19203 1.18968 1.18848 1.1929 1.19264 1.18483 1.18502 1.18733 1.18938 1.19178 1.18966 1.18944 1.19214 1.19015 1.18922 1.19178 1.19216 1.19082 1.19031 1.19099 1.19019 1.18826 1.1883 1.1905 1.1901 1.19178 1.19174 1.19177 1.19175 1.19192 1.18989 1.18678 1.18867 1.19035 1.19658 1.19175 1.18868 1.19379 1.19536 1.19296 1.1927 1.19151 1.19016 1.19963 1.19789 1.19379 1.19669 1.1962 1.19243 1.19528 1.19879 1.1919 1.19218 1.19973 1.19887 1.19167 1.19879 1.19374 1.19036 1.18895 1.19094 1.19538 1.19117 1.19086 1.19603 1.19207 1.18798 1.19146 1.19306 1.18966 1.19128 1.18773 1.19385 1.18806 1.1885 1.18969 1.18345 1.19183 1.19075 1.19216 1.19203 1.19245 1.19042 1.18908 1.18849 1.19206 1.18693 1.18736 1.18837 1.18986 1.18774 1.18863 1.18876 1.19244 1.19064 1.19011 1.18848 1.1881 1.19094 1.19357 1.18877 1.18979 1.1905 1.19088 1.19247 1.1913 1.1911 1.19213 1.19138 1.18567 1.1876 1.19052 1.18639 1.19028 1.19074 1.19001 1.19178 1.19205 1.19099 1.19042 1.19178 1.19025 1.19177 1.19219 1.19162 1.18849 1.18844 1.19428 1.19178 1.19175 1.19182 1.18844 1.18891 1.19191 1.1917 1.19168 1.19207 1.19073 1.18897 1.18871 1.19125 1.18958 1.1886 1.19369 1.19257 1.19328 1.19005 1.19267 1.19627 1.19633 1.19586 1.195 1.19535 1.20276 1.18918 1.19332 1.19614 1.20291 1.19197 1.1888 1.18623 1.19619 1.19604 1.19588 1.18831 1.19514 1.1917 1.19489 1.18126 1.18393 1.1876 1.1907 1.18686 1.18614 1.19183 1.19112 1.19272 1.18876 1.18392 1.19115 1.18997 1.19178 1.19121 1.19214 1.19066 1.18883 1.18996 1.1879 1.18857 1.19433 1.19178 1.18667 1.18845 1.18757 1.19178 1.19001 1.18941 1.19382 1.19094 1.1918 1.19176 1.1871 1.19474 1.19138 1.19148 1.18856 1.18792 1.19445 1.19138 1.18836 1.18966 1.191 1.19193 1.19198 1.19129 1.19109 1.1917 1.19133 1.19139 1.18874 1.1903 1.18635 1.18607 1.19099 1.19138 1.19143 1.19006 1.19177 1.19145 1.19029 1.19015 1.19135 1.19194 1.19219 1.19227 1.19428 1.1913 1.19193 1.19081 1.19533 1.19064 1.19389 1.19166 1.18866 1.19118 1.18727 1.1872 1.19332 1.194 1.19522 1.19175 1.19108 1.19242 1.19502 1.19616 1.19592 1.19794 1.1977 1.19518 1.19175 1.19171 1.18785 1.192 1.19815 1.19471 1.18824 1.18759 1.20668 1.19534 1.18863 1.19044 1.19169 1.1958 1.19887 1.19534 1.1802 1.19152 1.19017 1.19216 1.19228 1.19083 1.1919 1.19067 1.19265 1.18848 1.19131 1.19226 1.18998 1.19111 1.19226 1.19095 1.19004 1.18714 1.18749 1.18854 1.19031 1.18963 1.18624 1.19432 1.1913 1.19198 1.18763 1.19177 1.19083 1.1928 1.19143 1.18894 1.19111 1.19185 1.1891 1.18839 1.18862 1.19208 1.19165 1.19178 1.19169 1.19129 1.19141 1.19047 1.19066 1.19178 1.18634 1.19084 1.19164 1.19178 1.19178 1.19012 1.18999 1.19123 1.19116 1.19034 1.19021 1.19183 1.19218 1.19222 1.19207 1.19167 1.19257 1.19255 1.19185 1.18837 1.1912 1.18752 1.1899 1.18686 1.19348 1.191 1.1919 1.19061 1.19246 1.19494 1.19525 1.19178 1.1983 1.19285 1.19226 1.1937 1.18801 1.19196 1.19572 1.20636 1.18214 1.19179 1.18822 1.20583 1.19401 1.19178 1.19064 1.19694 1.18183 1.18536 1.18699 1.19417 1.18932 1.19178 1.18865 1.18994 1.19229 1.19178 1.1926 1.18829 1.19209 1.19192 1.18782 1.19178 1.19213 1.19178 1.19077 1.19024 1.1918 1.19025 1.19018 1.18949 1.18584 1.19009 1.1895 1.19085 1.19183 1.19076 1.19207 1.19142 1.18904 1.19005 1.18942 1.18894 1.1886 1.18882 1.18929 1.19098 1.19146 1.19178 1.19178 1.19177 1.19169 1.19132 1.19152 1.19178 1.19178 1.19178 1.19103 1.19108 1.19165 1.19178 1.19178 1.19146 1.19174 1.19177 1.19005 1.19123 1.19113 1.19187 1.19122 1.19064 1.19133 1.18886 1.1915 1.1927 1.19088 1.18863 1.18982 1.1884 1.18918 1.19193 1.18963 1.18738 1.18655 1.18903 1.19022 1.19234 1.18969 1.19143 1.19123 1.19119 1.19113 1.20117 1.19224 1.19444 1.18935 1.19677 1.20282 1.19387 1.19438 1.19843 1.20378 1.18307 1.18623 1.19108 1.19406 1.20669 1.19727 1.18586 1.19415 1.18928 1.18983 1.18964 1.19191 1.19122 1.19039 1.18994 1.18848 1.19128 1.19164 1.19186 1.19089 1.19201 1.19234 1.19091 1.19053 1.19244 1.18984 1.1895 1.19074 1.19124 1.19146 1.19178 1.19157 1.1919 1.19061 1.19124 1.18962 1.18724 1.18933 1.18996 1.18907 1.19097 1.19099 1.19178 1.19178 1.19178 1.19168 1.19131 1.19152 1.19178 1.19178 1.19178 1.19107 1.19178 1.19178 1.19178 1.19178 1.19178 1.19176 1.19003 1.19113 1.19178 1.1915 1.19185 1.19194 1.18887 1.18928 1.19233 1.19065 1.19185 1.18768 1.18685 1.18913 1.19211 1.18591 1.18872 1.19099 1.19056 1.19056 1.19157 1.20222 1.19292 1.19592 1.19287 1.19412 1.19785 1.20341 1.19469 1.19563 1.1907 1.19339 1.18269 1.18705 1.2019 1.19402 1.19068 1.1848 1.20229 1.18694 1.18631 1.19036 1.19013 1.19097 1.19193 1.19175 1.19124 1.19028 1.1899 1.19178 1.18989 1.18927 1.19054 1.19193 1.1923 1.19054 1.19078 1.19187 1.19144 1.19284 1.18774 1.18561 1.18755 1.18992 1.19083 1.19066 1.19125 1.19134 1.19144 1.18676 1.18982 1.1891 1.19057 1.19098 1.19145 1.19124 1.19151 1.19147 1.1905 1.18912 1.18957 1.18883 1.18773 1.18339 1.18719 1.18745 1.19066 1.1898 1.18955 1.19052 1.19149 1.20213 1.19185 1.19444 1.18862 1.19867 1.20236 1.19349 1.1933 1.19535 1.19294 1.18932 1.19329 1.19378 1.19297 1.19738 1.18598 1.18445 1.19026 1.19021 1.19178 1.19023 1.19079 1.19121 1.19168 1.1909 1.18973 1.19059 1.18992 1.18692 1.18748 1.18953 1.19168 1.18845 1.18802 1.19135 1.19085 1.19222 1.19312 1.19646 1.1884 1.19137 1.19775 1.1914 1.1893 1.19587 1.20154 1.20691 1.19316 1.19605 1.18842 1.18848 1.19166 1.19244 1.19865 1.19135 1.19051 1.18551 1.19517 1.19108 1.19285 1.1954 1.19472 1.1958 1.20009 1.19759 1.20778 1.19977 1.19032 1.18685 1.18932 1.20005 1.19435 1.18932 1.19095 1.19091 1.18562 1.19596 1.19077 1.20885 1.20304 1.19111 1.19269 1.2073 1.18986 1.1932 1.19564 1.20173 1.19871 1.19759 1.19935 1.19377 1.19143 1.1991 1.18761 1.1868 1.19258 1.19178 1.1829 1.18084 1.19614 1.21371 1.19066 1.18998 1.20759 1.19362 1.19816 1.20107 1.19709 1.19836 1.20441 1.19234 1.18961 1.17899 1.18362 1.20179 1.19178 1.19178 1.19178 1.19433 1.18267 1.22683 1.19642 1.20861 1.19178 1.18785 1.20533 1.19576 1.19896 1.20461 1.19722 1.18466 1.19946 1.19228 1.18562 1.21425 1.19416 1.19178 1.19178 1.19178 1.19178 1.19178 1.19178 1.19178 1.19178 1.19178 1.19178 1.19178 1.19178 1.19178 1.19178 1.19178 1.19178 1.19178 1.19416 1.19758 1.22659 1.21449 1.19993 1.22031 1.18843 1.20283 1.19735 1.20418 1.19527 1.1858 1.19745 1.1893 1.21137 1.19014 1.22301 1.21815 1.19165 1.19953 1.1918 1.20439 1.19178 1.19178 1.19178 1.19178 1.19178 1.19178 1.19178 1.19178 1.19178 1.19178 1.19178 1.19178 1.19178 1.19178 1.19178 1.19178 1.19178 1.19178 1.19178 1.19178 1.19178 1.19178 1.19178 1.19178 1.19178 1.19178 1.19192 1.19178 1.2281 1.20582 1.28663 1.20655 1.21664 1.19974 1.23164 1.19042 1.19654 1.20721 1.18804 1.20069 1.20325 1.19566 1.20576 1.18578 1.18472 1.20292 1.19799 1.23863 1.21762 1.18842 1.19854 1.19178 1.24357 1.20182 1.19178 1.19178 1.19178 1.19178 1.27049 1.21018 1.2279 1.19178 0.346109 0.474965 0.249367 0.412391 1.19178 0.374005 0.491828 0.571735 0.556937 0.506084 0.466232 0.378088 1.14993 1.54868 1.19077 0.430541 0.331758 0.267807 0.349241 0.274148 0.390194 0.620546 0.306787 0.574873 0.203755 0.318203 1.20675 0.410043 0.463975 0.283163 0.0987747 0.509787 0.361638 4.02356 1.192 0.686975 0.321965 0.200368 0.589881 0.670892 0.903321 3.61781 2.05643 0.122928 0.334869 0.230932 0.787424 4.50643 1.45739 1.71138 1.00819 0.3074 0.301747 0.206747 0.0960191 1.19198 1.30198 1.19967 1.20939 1.23374 1.18583 1.19289 1.18783 1.20276 1.20438 1.20625 1.18874 1.1979 1.22245 1.24674 1.25672 1.20469 1.18796 1.17854 4.63032 0.962822 0.718775 1.49198 0.297119 0.279285 0.0802713 0.181904 1.36151 0.596629 1.07702 2.30484 3.27461 0.463026 0.378823 0.33737 0.184211 0.0933844 0.0129506 0.258811 0.497739 0.832649 1.30399 1.19077 0.970885 1.32666 0.620069 0.347583 0.656247 2.68416 0.694064 1.37368 0.75954 1.35914 1.26035 0.857937 0.620809 1.67485 2.30601 1.19177 1.19193 0.616309 0.316495 0.559253 1.16645 0.367739 0.716428 0.568904 0.410478 0.112599 0.258259 1.19178 0.867814 1.6741 3.64437 1.15857 0.512742 0.629522 1.08488 0.324993 0.595874 0.727674 0.550323 0.256196 0.180344 0.372414 0.199337 0.272508 0.407651 0.319124 0.219333 0.23866 0.142377 0.174204 0.801967 0.472182 0.475582 0.650465 1.21837 0.265935 0.41096 0.919152 0.862905 0.663507 0.345717 0.455332 0.40508 0.369295 0.349454 0.729294 0.408849 0.387497 0.51043 0.507481 0.764596 0.508615 0.388733 0.241977 0.259277 0.465191 0.826855 0.265477 0.410573 0.230504 1.37237 1.75032 0.406198 0.178363 0.793895 0.264302 0.458507 0.344241 0.414365 0.410616 0.597401 2.17093 0.736572 1.79222 1.13447 1.00215 0.169949 0.0862268 0.360838 0.250598 0.405201 0.270932 1.29266 0.202958 1.38519 0.454424 0.172691 0.863387 0.112547 0.534038 0.378347 0.499506 0.292137 0.492499 0.261283 0.197648 0.0606963 1.30123 1.22279 1.10261 1.23884 1.23853 1.24183 1.23815 1.18625 1.19086 1.19148 1.20385 1.20538 1.19096 1.19374 1.23332 1.21615 1.19799 1.21148 1.19754 1.8791 0.94183 0.307544 0.657138 0.613602 0.369886 0.293222 0.599033 0.0839558 0.616859 0.576541 0.418594 0.166658 0.278705 0.554907 0.701551 0.984317 1.11126 0.369339 1.53126 0.652816 2.33936 1.50649 0.269922 0.314598 0.0874428 0.331534 0.279042 0.117962 0.205259 0.226772 0.157928 0.311567 0.178235 0.28844 0.0184237 0.474873 0.897052 0.524785 1.25804 0.625525 0.559657 0.844812 0.364543 0.572376 0.471914 0.322953 0.0629276 2.26928 1.29119 0.749962 1.00819 0.257551 0.387221 0.892882 0.976293 0.425692 1.10666 1.12501 1.34189 0.524507 0.786819 0.501403 0.704643 0.502298 0.206046 0.348755 0.703145 1.02693 0.292716 1.00637 0.081758 0.296934 0.40045 0.432667 0.3507 0.584166 0.79092 1.50715 1.23397 1.18059 2.42913 0.170596 0.502714 0.493892 0.401141 0.430369 0.113336 0.341876 0.280275 0.359487 0.472522 0.5372 0.443556 0.314033 0.217037 0.273227 0.320183 0.283851 0.370846 0.179523 0.440848 0.503212 0.196505 0.325538 0.359032 0.302334 0.387416 0.315788 0.176066 0.107261 0.184858 0.281161 0.264531 0.156994 0.214052 0.352943 0.648906 0.556759 0.478232 0.842071 0.542428 0.285061 0.321982 0.824633 0.330664 0.172063 0.422744 0.534089 0.569832 0.641173 0.159379 0.366993 0.364987 0.448901 0.588881 0.133795 0.437573 0.264892 0.38058 0.0950392 0.590651 1.04319 0.615339 0.937717 0.715514 0.47074 0.373443 0.378836 0.215459 0.378291 0.117343 0.218832 0.0717334 0.244818 0.393837 0.0106197 0.403582 0.636162 0.768231 0.279045 1.15042 1.14922 1.0803 1.10162 1.24069 1.23868 1.18652 1.1872 1.19166 1.19909 1.19661 1.19457 1.203 1.21495 1.19122 1.18037 1.20622 1.22446 1.2839 1.04564 1.1258 0.232729 0.146421 0.334759 0.308575 0.120521 0.351207 0.31233 0.313556 0.565419 0.651679 0.432339 0.636966 0.841744 0.528148 0.70813 0.393248 0.878551 0.328392 0.226544 0.204425 0.298231 0.27969 0.264786 0.152178 0.206685 0.149678 0.132389 0.451986 0.0439595 0.575285 0.569135 0.541302 0.486477 0.793021 1.42934 0.715899 0.545396 0.806362 0.694235 0.722648 0.927304 0.70632 0.787758 0.732634 0.721141 0.987752 0.969125 0.48946 0.703984 0.499683 0.258613 0.449993 0.424187 0.823481 0.255549 0.581095 0.371135 0.237864 0.40893 0.405564 0.443405 0.215353 0.520085 0.288239 0.507568 1.33965 0.266393 0.853737 0.405366 0.459652 0.424336 0.384934 0.374022 0.207129 0.347169 0.35491 0.227448 0.276341 0.364611 0.394555 0.423315 0.377843 0.45495 0.414215 0.500809 0.470541 0.406477 0.372519 0.36068 0.276746 0.263679 0.268907 0.315702 0.367058 0.314559 0.409568 0.507432 0.654073 0.526229 0.535635 0.551871 0.522515 0.589678 0.371946 0.223229 0.271814 0.43039 0.278181 0.155857 0.39266 0.481996 0.387003 0.472265 0.469499 0.487694 0.40832 0.391536 0.29201 0.582811 0.439947 0.597916 0.363761 0.446635 0.430659 0.350129 0.325866 0.310622 0.350824 0.373287 0.302537 0.357045 0.285954 0.195052 0.419617 0.333501 0.379468 0.571527 0.409331 0.582465 1.2289 1.05991 1.22953 1.19862 1.18711 1.18918 1.1976 1.21582 1.20488 1.17066 1.18602 1.17774 1.18946 1.20211 1.24039 1.08537 1.1416 1.1682 0.256382 0.175154 0.272908 0.369495 0.375724 0.429137 0.439287 0.446907 0.3225 0.491019 0.447609 0.544857 0.534337 0.647621 0.57956 0.634525 0.526149 0.393382 0.434114 0.414666 0.319946 0.301735 0.350194 0.301751 0.195991 0.224992 0.205155 0.252345 0.313319 0.329887 0.401555 0.590462 0.79707 0.724418 0.528397 0.508563 0.58811 0.740874 0.606126 0.594465 0.70196 0.649031 0.610136 0.687714 0.782057 0.708814 0.667479 0.679797 0.665448 0.865362 0.761029 0.456815 0.565391 0.552301 0.508406 0.473978 0.486584 0.374798 0.49539 0.440316 0.323205 0.481876 0.373093 0.443231 0.339837 0.438135 0.397133 0.520836 0.420357 0.416112 0.578701 0.514853 0.528968 0.435716 0.331187 0.376241 0.394618 0.329664 0.366238 0.330231 0.396914 0.394037 0.449917 0.507797 0.488212 0.497173 0.446471 0.45596 0.52733 0.522296 0.475101 0.448019 0.446748 0.387686 0.402635 0.329869 0.296193 0.317523 0.307656 0.364948 0.347218 0.445304 0.350337 0.504766 0.555016 0.507763 0.512615 0.469001 0.472947 0.479385 0.408287 0.387428 0.248744 0.406959 0.430778 0.400619 0.37203 0.418037 0.462396 0.469356 0.410321 0.51227 0.559048 0.480429 0.375844 0.409054 0.344594 0.287237 0.407653 0.285605 0.483924 0.420173 0.478621 0.43944 0.503551 0.505958 1.07202 1.19178 1.20608 1.10279 1.16514 1.19178 1.13989 1.19938 1.1869 1.17824 1.17151 1.18104 1.2237 1.18745 1.1713 1.1651 1.18146 1.18615 1.25179 1.10999 1.17094 0.163585 1.18655 1.33669 0.25446 0.38978 0.395781 0.442634 0.431264 0.466486 0.47894 0.554701 0.522405 0.424776 0.486017 0.531699 0.526573 0.594554 0.543552 0.547247 0.487904 0.435882 0.436419 0.414416 0.341647 0.295709 0.348899 0.381741 0.524572 0.56757 0.559037 0.525285 0.504834 0.586901 0.50487 0.586571 0.629384 0.578404 0.660953 0.607414 0.621672 0.632005 0.579377 0.639334 0.575617 0.549609 0.539074 0.53012 0.434998 0.436599 0.4482 0.441664 0.509518 0.52952 0.468191 0.43775 0.45304 0.445598 0.406825 0.400394 0.385396 0.535841 0.51897 0.555628 0.421802 0.491282 0.399452 0.399804 0.37548 0.419602 0.408134 0.544853 0.525663 0.53169 0.475661 0.526616 0.484072 0.448079 0.314223 0.373792 0.368113 0.353738 0.319552 0.330698 0.349722 0.347561 0.355666 0.410381 0.462687 0.530514 0.565772 0.498589 0.419517 0.505502 0.572193 0.422488 0.368323 0.383467 0.405461 0.398111 0.391018 0.384386 0.43633 0.43581 0.431908 0.470951 0.439518 0.495859 0.535101 0.514641 0.47425 0.527522 0.446202 0.309079 0.225774 0.438061 0.555985 0.459097 0.469086 0.418848 0.45866 0.510479 0.481791 1.22288 1.15373 1.11542 1.1404 1.20627 1.19516 1.17531 1.17844 1.18131 1.17799 1.20977 1.18295 1.17653 1.16586 1.17946 1.19594 1.20098 1.1251 1.16694 1.23887 0.301899 0.446755 0.453775 0.474015 0.489129 0.523411 0.537041 0.510084 0.48375 0.504276 0.487348 0.532464 0.556563 0.553178 0.519393 0.469524 0.465533 0.396621 0.448433 0.46825 0.387721 0.413897 0.486244 0.493642 0.49074 0.50378 0.515513 0.448206 0.41593 0.427755 0.459953 0.51694 0.572715 0.609332 0.571991 0.588469 0.603515 0.570973 0.577496 0.588066 0.579173 0.611846 0.572711 0.563422 0.507651 0.459176 0.507781 0.486727 0.507027 0.527906 0.577123 0.50131 0.551822 0.470126 0.467692 0.436459 0.439385 0.43431 0.416017 0.461715 0.54081 0.529114 0.420276 0.443261 0.430604 0.417443 0.456937 0.50101 0.545911 0.556248 0.528324 0.530503 0.517585 0.507785 0.493023 0.46575 0.506412 0.455574 0.368407 0.356375 0.371123 0.386094 0.395966 0.422732 0.43393 0.423162 0.482297 0.463928 0.485972 0.718493 0.806924 0.464653 0.637386 0.558465 0.541592 0.498433 0.472639 0.438143 0.440281 0.448161 0.495789 0.46743 0.449772 0.461858 0.472368 0.460495 0.467849 0.48625 0.541696 0.525142 0.383403 0.194578 0.0587624 0.474785 0.550519 0.470626 0.435705 0.491269 0.48721 1.13908 1.22964 1.18656 1.1556 1.15226 1.1481 1.22272 1.18993 1.17579 1.18166 1.2073 1.1767 1.19638 1.18624 1.21363 1.16937 1.15915 1.18503 1.2259 0.390274 0.496385 0.508556 0.525166 0.538509 0.51518 0.522805 0.520695 0.502118 0.562408 0.577151 0.571403 0.547063 0.500426 0.509738 0.500809 0.471766 0.445086 0.494629 0.449057 0.541124 0.500312 0.461469 0.429626 0.411162 0.420731 0.421281 0.450641 0.477261 0.532808 0.554871 0.555496 0.596818 0.585387 0.582678 0.582573 0.568676 0.547649 0.541949 0.525134 0.533887 0.566857 0.632625 0.579926 0.530183 0.487722 0.497363 0.456202 0.481373 0.46228 0.477796 0.488404 0.46231 0.496056 0.543939 0.524616 0.537683 0.404904 0.491966 0.470503 0.523632 0.567066 0.547018 0.549388 0.548666 0.510175 0.501818 0.512881 0.497585 0.435333 0.507045 0.421017 0.38676 0.350904 0.454441 0.441676 0.455884 0.495483 0.511662 0.526956 0.65323 0.587203 0.51646 0.536714 0.54287 0.543483 0.490858 0.545195 0.50858 0.490341 0.504298 0.487496 0.487925 0.481961 0.52233 0.538477 0.536983 0.523411 0.535026 0.244941 0.530966 0.65512 1.10619 0.572821 0.435166 0.444845 0.488715 0.535642 0.598361 1.11082 1.19539 1.17784 1.18043 1.15725 1.1661 1.21513 1.1845 1.16917 1.16358 1.18195 1.16641 1.20118 1.1977 1.17575 1.18049 1.1596 1.20382 1.19178 1.14737 0.466918 0.515599 0.525605 0.523403 0.539759 0.536129 0.54228 0.538825 0.529768 0.533786 0.628906 0.581913 0.577273 0.58918 0.596533 0.582622 0.584273 0.562285 0.552182 0.469742 0.454886 0.483806 0.502773 0.50248 0.59509 0.542292 0.546861 0.462815 0.388872 0.420316 0.46723 0.495865 0.516898 0.525473 0.572228 0.575698 0.598315 0.601156 0.589062 0.572508 0.568872 0.564285 0.550504 0.557502 0.550631 0.545933 0.550118 0.559205 0.626398 0.599851 0.621546 0.618236 0.573795 0.527922 0.505915 0.500025 0.509803 0.505961 0.527411 0.531498 0.53668 0.575079 0.601883 0.536977 0.629906 0.461678 0.630254 0.589068 0.552993 0.685919 0.540433 0.520681 0.543088 0.53639 0.478826 0.507252 0.487939 0.475657 0.488628 0.518412 0.625043 0.571289 0.649474 0.592886 0.530184 0.543566 0.548719 0.575752 0.596831 0.576904 0.550547 0.563721 0.528675 0.558404 0.5337 0.512986 0.510822 0.492798 0.500789 0.5135 0.514137 0.53095 0.502021 0.586489 0.904399 0.589693 0.475541 0.418271 0.422591 0.628623 0.634572 0.562028 0.531267 1.12432 1.06658 1.19357 1.17026 1.20303 1.15494 1.17658 1.19178 1.1828 1.17592 1.16213 1.17638 1.15897 1.19799 1.19314 1.17909 1.22367 1.19036 1.2129 1.06508 1.21384 1.19178 0.53327 0.532721 0.54023 0.55094 0.549484 0.561888 0.553798 0.505819 0.571999 0.600009 0.63589 0.624073 0.599271 0.605566 0.646352 0.58457 0.656677 0.434071 0.517519 0.514331 0.517186 0.517054 0.50423 0.514512 0.597955 0.49642 0.541244 0.601683 0.406944 0.593651 0.364334 0.355474 0.392147 0.281562 0.499326 0.557235 0.612155 0.605586 0.601466 0.57912 0.539313 0.554304 0.545206 0.550144 0.563002 0.550231 0.557379 0.556127 0.564508 0.566704 0.6179 0.660969 0.636787 0.700677 0.521944 0.544215 0.536081 0.550526 0.535085 0.535025 0.546486 0.554223 0.53767 0.494685 0.55776 0.681035 0.672838 0.675254 0.593546 0.589975 0.563379 0.577347 0.55268 0.57235 0.581004 0.588811 0.722667 0.704788 0.624347 0.450537 0.522511 0.550018 0.599061 0.610478 0.696312 0.446173 0.580687 0.568212 0.589298 0.618738 0.594644 0.57599 0.535551 0.539214 0.533801 0.518343 0.521081 0.505814 0.554649 0.552779 0.749754 0.729748 0.58661 0.470039 0.419217 0.505611 0.546878 0.577167 1.11692 1.17345 1.16016 1.20536 1.15065 1.17742 1.1685 1.17588 1.17398 1.16585 1.17578 1.16387 1.18539 1.19261 1.17708 1.19596 1.17228 1.15423 1.14734 1.29627 0.558465 0.557098 0.563294 0.561791 0.578225 0.580978 0.577752 0.493923 0.516924 0.621793 0.671727 0.641378 0.619766 0.632276 0.650413 0.575856 0.516892 0.51002 0.513 0.512396 0.504795 0.569125 0.682112 0.683001 0.168768 0.470117 0.431277 0.579471 0.570688 0.633133 0.649248 0.630942 0.545857 0.538168 0.520047 0.543966 0.546034 0.559257 0.558697 0.638105 0.581382 0.707275 0.597158 0.759538 0.507855 0.42492 0.590462 0.653172 0.560571 0.547792 0.557723 0.570965 0.577756 0.46099 0.591249 0.678776 0.702218 0.645742 0.668273 0.552773 0.653695 0.60672 0.612006 0.668054 0.656975 0.49986 0.55454 0.606935 0.629835 0.62598 0.666687 0.32435 0.722577 0.797057 0.598652 0.582592 0.587778 0.597997 0.627027 0.632073 0.603522 0.598044 0.558583 0.573827 0.547048 0.535891 0.551609 0.551433 0.611787 0.608485 0.694194 0.679962 0.585135 0.573683 0.578648 1.0883 1.13829 1.17451 1.27294 1.1508 1.17881 1.16763 1.16473 1.18157 1.1676 1.17687 1.16588 1.18532 1.18574 1.17388 1.16378 1.17912 1.17088 1.14991 1.19178 0.582773 0.554487 0.573891 0.610398 0.594241 0.573758 0.571151 0.698641 0.735647 0.684103 0.654528 0.650759 0.646943 0.600477 0.532029 0.514676 0.515725 0.532025 0.520171 0.480773 0.540727 0.599332 0.521282 0.788434 0.600352 0.62882 0.689733 0.675192 0.662911 0.662431 0.614939 0.522472 0.521004 0.538333 0.550322 0.550476 0.546493 0.55679 0.56237 0.62037 0.578794 0.711024 0.945591 0.599593 0.767533 0.662853 0.617183 0.546392 0.583367 0.54869 0.587766 0.582292 0.368946 0.550316 0.639336 0.680036 0.715447 0.725858 0.66026 0.692058 0.73727 0.642666 0.664906 0.724117 0.729561 0.631831 0.675156 0.679099 0.695722 0.700254 0.565569 0.612525 0.614179 0.602912 0.603923 0.609695 0.579145 0.719993 0.632375 0.609399 0.611519 0.637875 0.651459 0.643355 0.603973 0.6308 0.582605 0.604018 0.618115 0.603395 0.613598 0.55734 0.592908 0.591624 0.559291 0.671572 0.61615 0.695739 0.731561 0.690664 0.593544 0.687621 0.602971 0.604406 1.22952 1.14026 1.19855 1.26754 1.15868 1.18692 1.17273 1.17035 1.20604 1.17947 1.17881 1.1906 1.19178 1.2136 1.19355 1.18513 1.19178 1.19178 1.13893 1.19166 0.573134 0.594575 0.658173 0.568103 0.622526 0.668214 0.609714 0.609409 0.617573 0.579534 0.666213 0.733303 0.67564 0.688348 0.625141 0.500186 0.526134 0.533502 0.569576 0.618971 0.598054 0.607068 0.648857 0.824508 0.895553 0.878365 0.661328 0.610838 0.688075 0.651255 0.645626 0.61309 0.712736 0.51714 0.573337 0.555027 0.554239 0.447892 0.660635 0.67607 0.793967 0.770451 0.94215 0.599857 0.74306 0.740309 0.707342 0.657587 0.676899 0.572907 0.605114 0.653323 0.686158 0.422976 0.749573 0.554831 0.660274 0.655797 0.682111 0.723676 0.710581 0.707199 0.742333 0.746639 0.720327 0.598087 0.620147 0.684852 0.717752 0.801198 0.734503 0.707142 0.716214 0.623038 0.598655 0.568767 0.547758 0.703709 0.664523 0.715299 0.639718 0.617977 0.683808 0.644012 0.524932 0.665377 0.679833 0.654351 0.636674 0.460122 0.645148 0.625156 0.674407 0.519651 0.612572 0.768723 0.715442 0.714288 0.747678 0.636263 0.626786 1.19213 1.13177 1.18447 1.19923 1.19561 1.18723 1.16874 1.19178 1.19178 1.17485 1.18383 1.16651 1.18281 1.22575 1.17972 1.20624 1.12876 1.08297 1.13299 1.19298 0.576959 0.598904 0.680665 0.580739 0.65363 0.630236 0.675367 0.67457 0.65612 0.872156 0.668198 0.711553 0.71604 0.619859 0.554768 0.480762 0.609933 0.546116 0.642191 0.631565 0.61756 0.737741 0.845603 0.795507 0.662253 0.668629 0.637664 0.645457 0.677267 0.743442 0.581251 0.646589 0.700266 0.517007 0.809079 0.67683 0.60933 0.794854 0.79026 0.772784 0.690878 0.703677 0.837517 0.536614 0.624345 0.649267 0.478378 0.831937 0.502623 0.65886 0.687637 0.690958 0.682907 0.728941 0.730871 0.760836 0.759384 0.758139 0.629916 0.683991 0.733758 0.80592 0.722996 0.737229 0.636216 0.614594 0.668 0.67737 0.682395 0.702735 0.624474 0.584911 0.693752 0.644409 0.71866 0.557237 0.490504 0.577396 0.643796 0.63811 0.750439 0.727156 0.833656 0.76626 0.855368 0.742784 0.731968 0.744169 0.756769 0.763856 0.645078 1.19573 1.15216 1.18399 1.19022 1.19178 1.18644 1.16881 1.19178 1.19327 1.17262 1.19178 1.16672 1.18287 1.20257 1.17436 1.20385 1.23439 1.20282 1.17212 1.18316 0.589718 0.605683 0.758155 0.671572 0.666916 0.641031 0.675022 0.674288 0.628052 0.672409 0.685489 0.712684 0.726163 0.622607 0.417019 0.698914 0.696309 0.645398 0.663109 0.653609 0.795823 0.83674 0.792213 0.682151 0.649456 0.989916 0.684759 0.715496 0.679748 0.733088 0.543106 0.76523 0.630427 0.724944 0.748636 0.751178 0.794852 0.776591 0.785196 0.774015 0.69471 0.747188 0.797378 0.440561 0.518854 0.617807 0.491773 0.75962 0.860317 0.72296 0.716063 0.725199 0.673097 0.751962 0.740582 0.781635 0.75937 0.737919 0.709633 0.750037 0.80902 0.683443 0.727636 0.770608 0.630806 0.821844 0.680565 0.669867 0.683396 0.677389 0.688268 0.676685 0.898194 0.664281 0.831671 0.764481 0.671246 0.596347 0.617083 0.556094 0.705665 0.648821 0.716074 0.79135 0.733524 0.847682 0.848889 0.882359 0.761034 0.748761 0.794703 0.65438 1.19178 1.1741 1.1829 1.19178 1.19178 1.18762 1.1721 1.19178 1.19361 1.17609 1.19324 1.16628 1.18089 1.19702 1.16496 1.18772 1.10883 1.21063 1.13587 1.17347 0.59557 0.602616 0.788074 0.655502 0.690186 0.710712 0.780352 0.756194 0.702186 0.717533 0.746155 0.747529 0.633049 0.597545 0.816183 0.755782 0.670417 0.668265 0.7669 0.811554 0.780121 0.762242 0.718951 0.674128 0.639471 0.954467 0.752476 0.694483 0.691719 0.74227 0.724282 0.66764 0.505754 1.02991 0.931947 0.749073 0.67249 0.75368 0.803254 0.810838 0.749157 0.789799 0.52969 0.587976 0.749014 0.817681 0.774446 0.721622 0.729165 0.677847 0.768594 0.741671 0.819919 0.892067 0.767 0.822149 0.734196 0.752351 0.817101 0.670182 0.688833 0.744054 0.74868 0.862192 0.824626 0.661095 0.68696 0.688176 0.667593 0.670155 0.732826 0.973929 0.49096 0.765466 0.745809 0.684513 0.594472 0.58979 0.6356 0.663158 0.673007 0.784593 0.675964 0.851805 0.699813 0.874117 0.891359 0.773421 0.78601 0.665671 0.679878 1.19178 1.181 1.18363 1.19178 1.19196 1.18827 1.17971 1.19079 1.19562 1.17804 1.19399 1.18461 1.21473 1.16379 1.18891 1.19163 1.16685 1.1472 1.14174 1.15346 0.599775 0.547789 0.635842 0.61868 0.733142 0.795462 0.69483 0.74624 0.777461 0.785899 0.722575 0.681669 0.758277 0.758522 0.764808 0.623095 0.820916 0.8907 0.640936 0.772417 0.775818 0.697502 0.765589 0.737757 0.782148 0.674328 0.613038 0.97954 0.763833 0.822891 0.856321 0.695193 0.561253 0.859507 0.957423 0.774727 0.832972 0.788459 0.787459 0.558801 0.585525 0.826164 0.752861 0.771205 0.717865 0.686199 0.779176 0.752925 0.839294 0.794577 0.823987 0.760395 0.746267 0.795746 0.731665 0.722749 0.846428 0.726986 0.858404 0.68098 0.696411 0.660671 0.672034 0.896398 0.54693 0.725189 0.737012 0.90594 0.731157 0.759837 0.767302 0.943044 1.05046 0.702222 0.841537 0.716937 0.730165 0.896898 0.811684 0.777983 0.798789 0.800247 0.71297 1.19178 1.18384 1.18435 1.19178 1.19191 1.18833 1.17871 1.19084 1.19178 1.17952 1.19235 1.19229 1.19482 1.16221 1.19544 1.18198 1.14267 1.14814 1.1654 1.14885 0.558977 0.685761 0.820949 0.695584 0.75423 0.774364 0.776119 0.692888 0.778839 0.803714 0.766607 0.666123 0.804104 0.667648 0.756186 0.56451 0.664592 0.722898 0.655639 0.659745 0.762152 0.853014 0.775284 0.761133 0.682151 0.591921 0.758361 1.01368 0.82698 0.718029 0.536612 0.890944 0.849256 0.677227 0.925667 0.772239 0.845004 0.810763 0.650125 0.586521 0.765979 0.729967 0.758035 0.841646 0.804284 0.817918 0.841683 0.691194 0.86402 1.07831 0.71937 0.746265 0.690401 0.898687 0.774302 0.897958 0.78525 0.815437 0.820664 0.691164 0.815666 1.03103 0.699601 0.708106 0.83647 0.795772 0.679204 0.70875 0.744207 0.733189 0.897281 0.814109 0.706889 0.84913 0.623249 0.450366 0.912881 0.656921 0.780564 0.840821 
SCALARS Stress float 1
LOOKUP_TABLE default
-14746700000.0 -14168300000.0 -12944900000.0 -13247200000.0 -12998500000.0 -13083200000.0 -12746000000.0 -12624500000.0 -12892900000.0 -14567400000.0 -15135200000.0 -15866900000.0 -16760800000.0 -16495800000.0 -15144900000.0 -13116600000.0 -13768900000.0 -13241600000.0 -12781000000.0 -17160400000.0 -14777900000.0 -12609700000.0 -12814400000.0 -13365900000.0 -13010800000.0 -18216900000.0 -12879100000.0 -20298900000.0 -12549700000.0 -23690400000.0 -13672200000.0 -13537400000.0 -12681700000.0 -12887300000.0 -13667900000.0 -12549700000.0 -12549700000.0 -12549700000.0 -12798600000.0 -12549700000.0 -12549700000.0 -12693400000.0 -12549700000.0 -12610900000.0 -12746600000.0 -13439700000.0 -13858800000.0 -15840300000.0 -13322100000.0 -13074300000.0 -12896200000.0 -12736900000.0 -12593000000.0 -12549700000.0 -12549700000.0 -12549700000.0 -12686800000.0 -13707500000.0 -12783800000.0 -13085900000.0 -15550400000.0 -15055700000.0 -15405100000.0 -15176800000.0 -12771900000.0 -14978500000.0 -12549700000.0 -12867500000.0 -13989900000.0 -12824700000.0 -12580800000.0 -13164700000.0 -14107100000.0 -12571600000.0 -12596900000.0 -12977200000.0 -16454600000.0 -14270200000.0 -14138100000.0 -13556400000.0 -13827900000.0 -13122300000.0 -12599600000.0 -13580500000.0 -13354800000.0 -13427900000.0 -15700800000.0 -12615000000.0 -12624800000.0 -12788400000.0 -13378600000.0 -13711600000.0 -12854600000.0 -12690100000.0 -12640200000.0 -13044700000.0 -12699900000.0 -12707000000.0 -12695100000.0 -12700600000.0 -13587100000.0 -13802400000.0 -13416300000.0 -14462000000.0 -17761300000.0 -18060100000.0 -18250200000.0 -16948500000.0 -20602300000.0 -13769500000.0 -16640900000.0 -24702400000.0 -12848900000.0 -16030800000.0 -16163900000.0 -12549700000.0 -17659600000.0 -12659500000.0 -14938900000.0 -12549700000.0 -13007600000.0 -14307800000.0 -12711900000.0 -13355500000.0 -15013000000.0 -13872500000.0 -17625700000.0 -17117200000.0 -15868600000.0 -22715500000.0 -13768500000.0 -15263200000.0 -19617500000.0 -26142900000.0 -26734000000.0 -23601100000.0 -21284600000.0 -13983000000.0 -13335000000.0 -17560700000.0 -12549700000.0 -13952500000.0 -12625200000.0 -12549700000.0 -13468900000.0 -12549700000.0 -12550000000.0 -13321100000.0 -12549700000.0 -13175900000.0 -12549700000.0 -16813600000.0 -12549700000.0 -12549700000.0 -12549700000.0 -13184900000.0 -12653700000.0 -12567900000.0 -12549700000.0 -12578900000.0 -13314600000.0 -12777500000.0 -13338400000.0 -14624500000.0 -14857100000.0 -20531600000.0 -15164500000.0 -13486600000.0 -13944600000.0 -17117100000.0 -13781500000.0 -16410600000.0 -12930900000.0 -13652000000.0 -18119700000.0 -12939500000.0 -14385100000.0 -14551300000.0 -14166500000.0 -18012300000.0 -13710700000.0 -14105900000.0 -14638800000.0 -12549700000.0 -14467500000.0 -16029400000.0 -20861500000.0 -14791900000.0 -12581500000.0 -12549700000.0 -13088100000.0 -16998600000.0 -15707600000.0 -13173800000.0 -12549700000.0 -12550500000.0 -13478500000.0 -15826100000.0 -12549700000.0 -12549700000.0 -12942600000.0 -17171600000.0 -17992800000.0 -12925900000.0 -12627100000.0 -17303000000.0 -16635900000.0 -16842300000.0 -17912600000.0 -21458800000.0 -12892000000.0 -15873300000.0 -13098800000.0 -13844500000.0 -12648000000.0 -28753000000.0 -15191200000.0 -13495800000.0 -26573000000.0 -20039100000.0 -12549700000.0 -19025700000.0 -16090500000.0 -26785300000.0 -17982200000.0 -17207500000.0 -17092700000.0 -17739700000.0 -20988800000.0 -22047800000.0 -23548300000.0 -12549700000.0 -28126900000.0 -21775800000.0 -13508200000.0 -26359500000.0 -25868900000.0 -16828400000.0 -26793100000.0 -26697800000.0 -12819700000.0 -26386700000.0 -23855400000.0 -15964700000.0 -17068400000.0 -16059300000.0 -17209600000.0 -14447900000.0 -12817400000.0 -14583400000.0 -12564200000.0 -12652400000.0 -14209100000.0 -12549700000.0 -14440100000.0 -12549700000.0 -12669500000.0 -12685800000.0 -12549700000.0 -13293100000.0 -13384700000.0 -13086000000.0 -13748300000.0 -14627200000.0 -13609900000.0 -17193900000.0 -16331700000.0 -17105200000.0 -19797900000.0 -17005400000.0 -14878800000.0 -29029500000.0 -12590100000.0 -12812500000.0 -12549700000.0 -23183700000.0 -14247500000.0 -18697000000.0 -26713600000.0 -13183800000.0 -13377100000.0 -13731000000.0 -12715500000.0 -16038800000.0 -19051800000.0 -12803800000.0 -12924700000.0 -20661700000.0 -15301600000.0 -14325000000.0 -13940300000.0 -16167100000.0 -16212400000.0 -24444800000.0 -20674400000.0 -21259600000.0 -17234300000.0 -18772000000.0 -17000100000.0 -19210400000.0 -18116500000.0 -18089100000.0 -18720200000.0 -16503200000.0 -24692300000.0 -30569200000.0 -31927900000.0 -44943700000.0 -51620900000.0 -14015100000.0 -14828800000.0 -39165000000.0 -13745600000.0 -29192400000.0 -22761200000.0 -26940600000.0 -17915000000.0 -18941000000.0 -20956500000.0 -16906900000.0 -29655200000.0 -27478300000.0 -12802300000.0 -15092800000.0 -12942300000.0 -31076400000.0 -13393600000.0 -20723000000.0 -20892900000.0 -20654500000.0 -13210400000.0 -24118100000.0 -12549700000.0 -15128200000.0 -31134600000.0 -28749900000.0 -13702300000.0 -20500600000.0 -13947800000.0 -28145300000.0 -26590300000.0 -12887100000.0 -21369400000.0 -12549700000.0 -16472300000.0 -16573300000.0 -16721400000.0 -16467300000.0 -15637400000.0 -17382800000.0 -16249500000.0 -14349400000.0 -14364700000.0 -16225300000.0 -13788300000.0 -17584700000.0 -14685400000.0 -19335000000.0 -17140500000.0 -12972400000.0 -13413900000.0 -15608700000.0 -12549700000.0 -16218000000.0 -13598500000.0 -12622200000.0 -14542700000.0 -12981200000.0 -13762900000.0 -12741200000.0 -15312500000.0 -16627800000.0 -14704700000.0 -15429100000.0 -26716600000.0 -26717100000.0 -28834800000.0 -24515900000.0 -15899400000.0 -24794000000.0 -16134400000.0 -28462900000.0 -20314800000.0 -15614100000.0 -19659300000.0 -14407900000.0 -39886400000.0 -16409400000.0 -12890700000.0 -18207200000.0 -12931800000.0 -25244000000.0 -21285100000.0 -29934400000.0 -14793400000.0 -19976100000.0 -14266100000.0 -25413700000.0 -12549700000.0 -12549700000.0 -12549700000.0 -19004500000.0 -22030600000.0 -21447100000.0 -20364800000.0 -24711000000.0 -30332700000.0 -31889700000.0 -26478100000.0 -26047800000.0 -28322400000.0 -16316700000.0 -29428700000.0 -47647700000.0 -13093000000.0 -25131800000.0 -45010900000.0 -51315500000.0 -12619000000.0 -51676000000.0 -29542300000.0 -46902600000.0 -24934800000.0 -13206000000.0 -27544000000.0 -23263500000.0 -13039300000.0 -37608800000.0 -52434700000.0 -48440700000.0 -19057000000.0 -25501000000.0 -27323700000.0 -15852100000.0 -35924000000.0 -19902500000.0 -13240000000.0 -21862100000.0 -12745600000.0 -31225400000.0 -38117500000.0 -33426300000.0 -37657700000.0 -22846500000.0 -27182400000.0 -23449400000.0 -16731100000.0 -21564400000.0 -14240900000.0 -17920600000.0 -18504400000.0 -14336900000.0 -13152300000.0 -15451700000.0 -12549700000.0 -17402400000.0 -13009300000.0 -20995000000.0 -24018900000.0 -16736500000.0 -25096300000.0 -15739800000.0 -21469500000.0 -15603600000.0 -20435100000.0 -18584900000.0 -17795800000.0 -14191400000.0 -12782000000.0 -28593000000.0 -42715700000.0 -34405400000.0 -19193700000.0 -16530000000.0 -12835800000.0 -16400900000.0 -24116300000.0 -25533300000.0 -36741100000.0 -15633400000.0 -22498400000.0 -14427400000.0 -40458300000.0 -25409300000.0 -13986600000.0 -32696500000.0 -17239200000.0 -15965000000.0 -19792600000.0 -14519000000.0 -30478200000.0 -31559000000.0 -12549700000.0 -23714400000.0 -12799900000.0 -13584400000.0 -36415100000.0 -31018400000.0 -15472100000.0 -14531000000.0 -38768500000.0 -23696600000.0 -13370300000.0 -18542600000.0 -22331000000.0 -25984700000.0 -31146600000.0 -35473400000.0 -33130500000.0 -13873000000.0 -32396600000.0 -31188100000.0 -34315700000.0 -26783000000.0 -46235900000.0 -12615800000.0 -22240100000.0 -32568600000.0 -26600300000.0 -33335200000.0 -49516800000.0 -36805000000.0 -31447500000.0 -34949900000.0 -26237800000.0 -15406400000.0 -19750500000.0 -14702600000.0 -33158000000.0 -27908900000.0 -23723800000.0 -29668700000.0 -12549700000.0 -61139400000.0 -46987600000.0 -56412500000.0 -23790300000.0 -31048800000.0 -27316100000.0 -34918400000.0 -18843300000.0 -17905100000.0 -13793600000.0 -13072900000.0 -13601600000.0 -12568800000.0 -29469300000.0 -21583000000.0 -23885000000.0 -20407000000.0 -23819500000.0 -18855300000.0 -19775600000.0 -31041200000.0 -25435800000.0 -14497200000.0 -20686500000.0 -27193600000.0 -31435100000.0 -30726600000.0 -20607400000.0 -21920700000.0 -22812500000.0 -12587000000.0 -12713700000.0 -28253500000.0 -30366300000.0 -54056300000.0 -15107000000.0 -14042000000.0 -18958600000.0 -17332300000.0 -17156700000.0 -14450000000.0 -14003400000.0 -12588100000.0 -13299400000.0 -23084000000.0 -20594000000.0 -15549900000.0 -19014600000.0 -40288200000.0 -39003300000.0 -13171600000.0 -55126100000.0 -22685800000.0 -37321000000.0 -19178900000.0 -31152400000.0 -33774500000.0 -16121900000.0 -23079800000.0 -28295000000.0 -32335200000.0 -55417900000.0 -16775300000.0 -36900900000.0 -32654800000.0 -21542800000.0 -20502000000.0 -22496700000.0 -62665900000.0 -33802900000.0 -32512700000.0 -22001700000.0 -61159200000.0 -21193400000.0 -24306200000.0 -13001100000.0 -61082500000.0 -37113100000.0 -27592800000.0 -27926600000.0 -51971000000.0 -33734700000.0 -34850700000.0 -20423300000.0 -30084900000.0 -49595300000.0 -44571600000.0 -25090900000.0 -26502500000.0 -12549700000.0 -24713800000.0 -22422500000.0 -20179200000.0 -40828700000.0 -31207600000.0 -28906600000.0 -34965200000.0 -45328800000.0 -85124700000.0 -36435800000.0 -50571800000.0 -46108200000.0 -13753200000.0 -41211600000.0 -13388600000.0 -19589700000.0 -35061600000.0 -36495300000.0 -21032900000.0 -13628700000.0 -17287900000.0 -32764200000.0 -17071700000.0 -19466100000.0 -14370400000.0 -27058200000.0 -23545400000.0 -12631700000.0 -13325600000.0 -26016900000.0 -31429700000.0 -32509300000.0 -12643500000.0 -35640700000.0 -43769100000.0 -42083300000.0 -33059700000.0 -26531600000.0 -38200200000.0 -21211200000.0 -20915900000.0 -18885900000.0 -16049700000.0 -15035900000.0 -13833000000.0 -23928000000.0 -24519000000.0 -17805200000.0 -21536100000.0 -24952700000.0 -14090100000.0 -25366200000.0 -19280900000.0 -27048600000.0 -22637600000.0 -45905700000.0 -33491900000.0 -49320300000.0 -38094900000.0 -20298600000.0 -20229700000.0 -13657000000.0 -21118500000.0 -19345300000.0 -12549700000.0 -16420200000.0 -12815100000.0 -14241900000.0 -42854200000.0 -21038900000.0 -22993800000.0 -21766100000.0 -50307800000.0 -54660300000.0 -47471900000.0 -12946200000.0 -51407700000.0 -47989900000.0 -45678300000.0 -56596500000.0 -47876000000.0 -52890200000.0 -61625500000.0 -48902800000.0 -38900600000.0 -30974900000.0 -40502900000.0 -26856500000.0 -60617300000.0 -29775500000.0 -40067800000.0 -32713400000.0 -38542400000.0 -30115200000.0 -19491700000.0 -19392200000.0 -13063600000.0 -35289200000.0 -13310800000.0 -14057500000.0 -15826200000.0 -12890200000.0 -12654900000.0 -30430300000.0 -12549700000.0 -53795200000.0 -40744400000.0 -55107800000.0 -48614800000.0 -26499300000.0 -30578700000.0 -19021800000.0 -38953900000.0 -38028300000.0 -44224500000.0 -52575800000.0 -25296000000.0 -25383000000.0 -33164700000.0 -32266900000.0 -32309800000.0 -28314900000.0 -19644500000.0 -26086800000.0 -28121900000.0 -14340500000.0 -25090900000.0 -26643100000.0 -15333900000.0 -28546100000.0 -19163300000.0 -15820100000.0 -13042900000.0 -17664600000.0 -13637700000.0 -26039900000.0 -44205000000.0 -41251300000.0 -29132800000.0 -16583600000.0 -22094600000.0 -20362200000.0 -21173500000.0 -20403600000.0 -13895900000.0 -14910000000.0 -21789700000.0 -31710700000.0 -13609600000.0 -16633500000.0 -14585700000.0 -17151100000.0 -18564200000.0 -14908000000.0 -25070600000.0 -31664300000.0 -49373900000.0 -33958600000.0 -46792800000.0 -32251700000.0 -46692500000.0 -43084400000.0 -15549700000.0 -36540800000.0 -15543500000.0 -12900000000.0 -17705000000.0 -13805500000.0 -12549700000.0 -34195600000.0 -54164400000.0 -40341400000.0 -15065800000.0 -23822000000.0 -26657000000.0 -12549700000.0 -30658300000.0 -14650900000.0 -27344800000.0 -28589000000.0 -37479200000.0 -25454600000.0 -30296500000.0 -44117600000.0 -27794600000.0 -54371600000.0 -35098100000.0 -32060800000.0 -33806100000.0 -22224000000.0 -46425400000.0 -33986800000.0 -33274300000.0 -67107600000.0 -12675000000.0 -70861000000.0 -36471600000.0 -42559900000.0 -19873100000.0 -28462800000.0 -38953800000.0 -13274900000.0 -20065900000.0 -35366200000.0 -29065200000.0 -26357300000.0 -27598100000.0 -53799200000.0 -55741600000.0 -28290500000.0 -17795300000.0 -22279500000.0 -16087600000.0 -43471900000.0 -13495500000.0 -31851600000.0 -29407400000.0 -17838700000.0 -19169500000.0 -15230200000.0 -14366900000.0 -28934300000.0 -22832400000.0 -16984200000.0 -23161600000.0 -27269500000.0 -18373900000.0 -23440700000.0 -28242700000.0 -23047900000.0 -28678400000.0 -25325300000.0 -33570500000.0 -35259100000.0 -31636000000.0 -40879700000.0 -22344300000.0 -21417100000.0 -27451400000.0 -33796700000.0 -32740300000.0 -14415700000.0 -28072600000.0 -32273900000.0 -32155900000.0 -34680600000.0 -13648700000.0 -37499400000.0 -31773200000.0 -12561200000.0 -35998800000.0 -28226100000.0 -44667700000.0 -13911600000.0 -19631200000.0 -27237300000.0 -31643700000.0 -50507800000.0 -41556200000.0 -34667700000.0 -33357100000.0 -17978300000.0 -25421400000.0 -30339000000.0 -35500800000.0 -24668900000.0 -17747300000.0 -18014600000.0 -12765600000.0 -26614600000.0 -47608700000.0 -45340000000.0 -31831500000.0 -27639800000.0 -82591200000.0 -39061500000.0 -15733800000.0 -12549700000.0 -39065400000.0 -26556900000.0 -76940300000.0 -39545600000.0 -82393800000.0 -27368500000.0 -25014300000.0 -41431600000.0 -63861600000.0 -51459400000.0 -74087400000.0 -66713000000.0 -58613200000.0 -40555600000.0 -13329900000.0 -13315100000.0 -37980300000.0 -39475100000.0 -33469000000.0 -18167900000.0 -35990100000.0 -23765100000.0 -26170100000.0 -41057200000.0 -15162600000.0 -23564300000.0 -18969200000.0 -25323400000.0 -14110800000.0 -49650200000.0 -16040600000.0 -39436800000.0 -12577800000.0 -12876100000.0 -20464200000.0 -19325900000.0 -47464800000.0 -25917700000.0 -26969400000.0 -12979900000.0 -15814100000.0 -12834300000.0 -20006000000.0 -18040500000.0 -19290500000.0 -18267200000.0 -23595900000.0 -19731200000.0 -13132600000.0 -12549700000.0 -25739600000.0 -29848000000.0 -36956000000.0 -22289900000.0 -13168100000.0 -23318900000.0 -24035200000.0 -30239800000.0 -13083900000.0 -13723800000.0 -14168600000.0 -18558000000.0 -12869000000.0 -15400100000.0 -12598400000.0 -12760000000.0 -44931300000.0 -35402100000.0 -12628400000.0 -36405700000.0 -14481900000.0 -21571300000.0 -12580000000.0 -12684400000.0 -14857300000.0 -17112900000.0 -21578300000.0 -26445200000.0 -12549700000.0 -14457800000.0 -12549700000.0 -18637200000.0 -27703900000.0 -24135300000.0 -26637000000.0 -18508500000.0 -50487600000.0 -12662100000.0 -33497400000.0 -29374400000.0 -13533400000.0 -44305400000.0 -39796600000.0 -25230600000.0 -43881500000.0 -15236500000.0 -12824000000.0 -26680300000.0 -14063800000.0 -23325000000.0 -18800900000.0 -49370400000.0 -40368400000.0 -31668400000.0 -32465400000.0 -59677000000.0 -87278300000.0 -31864300000.0 -79450200000.0 -75187500000.0 -16935600000.0 -72246200000.0 -36120900000.0 -42075200000.0 -82630300000.0 -20728700000.0 -93251400000.0 -92740900000.0 -122935000000.0 -55571000000.0 -53977400000.0 -116195000000.0 -33645700000.0 -66165500000.0 -22049100000.0 -26967900000.0 -32176400000.0 -19512600000.0 -26996000000.0 -28201400000.0 -29444500000.0 -22670600000.0 -33437200000.0 -13597900000.0 -22911700000.0 -29691000000.0 -23367500000.0 -16029300000.0 -30234800000.0 -24766700000.0 -18459400000.0 -26715000000.0 -53503500000.0 -43799800000.0 -41179900000.0 -24486500000.0 -20120100000.0 -44338700000.0 -12549700000.0 -30874500000.0 -28392500000.0 -30451000000.0 -42438500000.0 -37162400000.0 -13463200000.0 -16053300000.0 -28836500000.0 -18158600000.0 -24368000000.0 -21240300000.0 -37945700000.0 -13675600000.0 -36110200000.0 -24025700000.0 -17233100000.0 -26468000000.0 -31843000000.0 -21357000000.0 -22690900000.0 -21085200000.0 -22666100000.0 -21114200000.0 -13874300000.0 -19955600000.0 -17218400000.0 -12910600000.0 -25135700000.0 -23468600000.0 -34080600000.0 -27268700000.0 -37496900000.0 -14997600000.0 -31610500000.0 -23663700000.0 -24135200000.0 -13394700000.0 -33355700000.0 -14877700000.0 -17654800000.0 -20393300000.0 -25720700000.0 -28508300000.0 -18281000000.0 -57031800000.0 -45062200000.0 -12596800000.0 -46832300000.0 -42918200000.0 -44875500000.0 -62174900000.0 -45214500000.0 -34078700000.0 -26180300000.0 -24969800000.0 -20091600000.0 -28381000000.0 -21340800000.0 -28512800000.0 -28478400000.0 -25586000000.0 -13037900000.0 -52452400000.0 -21836200000.0 -50290900000.0 -13313500000.0 -56353900000.0 -25600500000.0 -12821700000.0 -45345000000.0 -23956600000.0 -28401700000.0 -33349500000.0 -17806600000.0 -63904400000.0 -19939100000.0 -53538700000.0 -15860700000.0 -28539100000.0 -26646100000.0 -15788300000.0 -50732000000.0 -29939400000.0 -66260100000.0 -12549700000.0 -58712300000.0 -12603900000.0 -39533800000.0 -45225700000.0 -54308600000.0 -17008500000.0 -13162800000.0 -30718700000.0 -50323100000.0 -15779500000.0 -53439700000.0 -36483800000.0 -38242100000.0 -17667600000.0 -28642100000.0 -24175100000.0 -65147400000.0 -32311000000.0 -12877300000.0 -59891000000.0 -55747900000.0 -32107700000.0 -24501000000.0 -37384900000.0 -16657000000.0 -39508300000.0 -26818800000.0 -31717100000.0 -49019000000.0 -28488800000.0 -26472400000.0 -34897100000.0 -33995300000.0 -33577300000.0 -28660300000.0 -38473600000.0 -36695600000.0 -12549700000.0 -41221100000.0 -40182800000.0 -47778100000.0 -49674400000.0 -13713000000.0 -37404900000.0 -18153900000.0 -19192400000.0 -36427300000.0 -47876800000.0 -23171100000.0 -28683800000.0 -21583300000.0 -18132600000.0 -21988200000.0 -32932600000.0 -12549700000.0 -12709300000.0 -30086600000.0 -50626100000.0 -20128500000.0 -26807500000.0 -46610000000.0 -12549700000.0 -12549700000.0 -37566300000.0 -87310400000.0 -49319400000.0 -58497900000.0 -14826700000.0 -32791900000.0 -35722800000.0 -38040400000.0 -31691100000.0 -39290200000.0 -31470900000.0 -29696100000.0 -31340300000.0 -13111700000.0 -18518800000.0 -55101400000.0 -42920400000.0 -17925500000.0 -21231400000.0 -52460000000.0 -67509200000.0 -28233200000.0 -14495700000.0 -41460300000.0 -22793200000.0 -53522700000.0 -32034100000.0 -18013400000.0 -30089500000.0 -12899400000.0 -57288900000.0 -18312900000.0 -75812600000.0 -44596000000.0 -56583600000.0 -42695400000.0 -17513200000.0 -48619600000.0 -13355200000.0 -26924800000.0 -40828400000.0 -36073100000.0 -13270400000.0 -29354800000.0 -36905300000.0 -20484100000.0 -35793600000.0 -25401800000.0 -29956100000.0 -53264000000.0 -82302800000.0 -13171900000.0 -76407200000.0 -12560200000.0 -82282600000.0 -113214000000.0 -39082700000.0 -62079900000.0 -22090800000.0 -24116900000.0 -19950100000.0 -24066400000.0 -25842200000.0 -16787900000.0 -25277100000.0 -16373800000.0 -14649100000.0 -17091200000.0 -13479800000.0 -40374100000.0 -27335800000.0 -35017500000.0 -32969100000.0 -17020000000.0 -21801800000.0 -25617600000.0 -67717700000.0 -39398200000.0 -33492900000.0 -43042000000.0 -42998000000.0 -32653400000.0 -29984800000.0 -36510500000.0 -50813200000.0 -41684200000.0 -27242900000.0 -29090000000.0 -16559400000.0 -44625800000.0 -30335800000.0 -39899000000.0 -39192400000.0 -12788500000.0 -37257500000.0 -18157100000.0 -13473900000.0 -20408700000.0 -13353600000.0 -28793500000.0 -43378800000.0 -35457500000.0 -12813000000.0 -30569900000.0 -13122800000.0 -21877700000.0 -17002900000.0 -21434300000.0 -37176200000.0 -75459600000.0 -13983400000.0 -70822600000.0 -77972500000.0 -62513800000.0 -30787700000.0 -26445800000.0 -19885400000.0 -13241300000.0 -13669900000.0 -40402000000.0 -29822400000.0 -15021300000.0 -43371200000.0 -51670600000.0 -13421100000.0 -17898700000.0 -16301200000.0 -30309400000.0 -31462900000.0 -15057300000.0 -13690400000.0 -39943400000.0 -42352800000.0 -44904200000.0 -82568500000.0 -35598300000.0 -26680600000.0 -31257100000.0 -24536800000.0 -13863000000.0 -19885400000.0 -68139700000.0 -39777200000.0 -90202100000.0 -41127000000.0 -115608000000.0 -32486800000.0 -52293400000.0 -36818400000.0 -17728400000.0 -13007100000.0 -46688500000.0 -35309500000.0 -46409400000.0 -47806900000.0 -22654000000.0 -14265700000.0 -13514200000.0 -12570300000.0 -12549700000.0 -80519800000.0 -95965600000.0 -19046100000.0 -40791900000.0 -21892600000.0 -20661800000.0 -20183600000.0 -28615100000.0 -16598800000.0 -37946900000.0 -20906300000.0 -28244100000.0 -17213600000.0 -18150100000.0 -28436600000.0 -15473800000.0 -18777700000.0 -13182200000.0 -19280300000.0 -23703600000.0 -12549700000.0 -42904100000.0 -43207900000.0 -27753200000.0 -15097700000.0 -13532500000.0 -28760800000.0 -16845000000.0 -39485000000.0 -33241000000.0 -21435500000.0 -18723000000.0 -12589200000.0 -32206000000.0 -18343900000.0 -14082400000.0 -15255200000.0 -19156500000.0 -18250000000.0 -17258200000.0 -18084100000.0 -21049800000.0 -12741300000.0 -42841800000.0 -57097100000.0 -53329600000.0 -13773600000.0 -44234700000.0 -43516000000.0 -61714200000.0 -16913600000.0 -22064400000.0 -22720500000.0 -101518000000.0 -29305200000.0 -31069600000.0 -13221900000.0 -22980800000.0 -16294900000.0 -23120200000.0 -19559500000.0 -20260500000.0 -33899800000.0 -36531800000.0 -23249200000.0 -45721200000.0 -35774800000.0 -24161400000.0 -35604800000.0 -48022000000.0 -53932100000.0 -46894000000.0 -21243700000.0 -28966400000.0 -12859100000.0 -27233300000.0 -56152600000.0 -47705100000.0 -40502400000.0 -35950000000.0 -17507600000.0 -19571100000.0 -38682000000.0 -15657400000.0 -60334900000.0 -53071100000.0 -74155100000.0 -84161700000.0 -37998500000.0 -49209900000.0 -30446200000.0 -72164700000.0 -45940800000.0 -36891000000.0 -46437900000.0 -19443900000.0 -47204300000.0 -22419600000.0 -13114900000.0 -13070700000.0 -13547800000.0 -13092600000.0 -22046600000.0 -36188300000.0 -20749000000.0 -18910700000.0 -30544800000.0 -24468600000.0 -34689600000.0 -13470700000.0 -16140400000.0 -30609700000.0 -32401200000.0 -20654900000.0 -16424500000.0 -14059100000.0 -12683800000.0 -15440600000.0 -14392800000.0 -16290600000.0 -12682900000.0 -29960500000.0 -26025000000.0 -18932500000.0 -49404300000.0 -73563000000.0 -24095600000.0 -13381400000.0 -35625900000.0 -18543500000.0 -18951200000.0 -21096800000.0 -22974900000.0 -15938400000.0 -13904100000.0 -12549700000.0 -47617200000.0 -52572000000.0 -23482800000.0 -27800900000.0 -43907900000.0 -43849400000.0 -16738400000.0 -33649200000.0 -23307000000.0 -12923200000.0 -62532200000.0 -81550000000.0 -44604800000.0 -21890400000.0 -20264500000.0 -20551400000.0 -21047500000.0 -70352500000.0 -69145200000.0 -18096400000.0 -17681800000.0 -37123100000.0 -17957200000.0 -25028800000.0 -17063900000.0 -16546800000.0 -28078300000.0 -60593000000.0 -47222500000.0 -30735200000.0 -12549700000.0 -27205300000.0 -12549700000.0 -24392100000.0 -27113800000.0 -19456900000.0 -14991700000.0 -27974900000.0 -30437000000.0 -45412300000.0 -14001100000.0 -24642900000.0 -17533700000.0 -52246700000.0 -37740000000.0 -31517700000.0 -34768200000.0 -48573400000.0 -30501400000.0 -35076800000.0 -58975100000.0 -40620600000.0 -41802200000.0 -38394700000.0 -45496500000.0 -60377900000.0 -20707300000.0 -61587600000.0 -12549700000.0 -30036300000.0 -12602500000.0 -22325400000.0 -38840200000.0 -49291100000.0 -20034200000.0 -12829400000.0 -13521100000.0 -13947400000.0 -13017100000.0 -19543500000.0 -13078700000.0 -16884700000.0 -80210400000.0 -35090700000.0 -12584300000.0 -12549700000.0 -36206800000.0 -25032200000.0 -29310800000.0 -24878200000.0 -16515400000.0 -21639400000.0 -32418800000.0 -16481600000.0 -33734300000.0 -17169800000.0 -18010100000.0 -24953500000.0 -21084200000.0 -43958200000.0 -12557300000.0 -23181900000.0 -14168100000.0 -31246300000.0 -31418400000.0 -33814900000.0 -12550500000.0 -25911600000.0 -13724200000.0 -17043300000.0 -19961200000.0 -35167800000.0 -20560100000.0 -38368800000.0 -20075700000.0 -41986600000.0 -23395200000.0 -31176700000.0 -23085800000.0 -15241200000.0 -15391800000.0 -23971200000.0 -17357500000.0 -67622300000.0 -15365400000.0 -34014000000.0 -45270800000.0 -46193000000.0 -26493300000.0 -35617500000.0 -25961200000.0 -102759000000.0 -44032000000.0 -65936600000.0 -60590600000.0 -57035300000.0 -28029400000.0 -37283200000.0 -48296900000.0 -30640700000.0 -39214600000.0 -75244700000.0 -52641500000.0 -46385000000.0 -13560100000.0 -41633700000.0 -24160500000.0 -27409000000.0 -21234800000.0 -32576600000.0 -24905200000.0 -48434800000.0 -21765600000.0 -14024500000.0 -36876900000.0 -31225900000.0 -41202600000.0 -34993300000.0 -26912800000.0 -40351900000.0 -26526700000.0 -18570900000.0 -25129200000.0 -51088900000.0 -15027500000.0 -16169000000.0 -34325600000.0 -13390600000.0 -18827400000.0 -45168600000.0 -39926000000.0 -31166000000.0 -12549700000.0 -22964000000.0 -21303300000.0 -28034300000.0 -15749700000.0 -44395800000.0 -18059900000.0 -13803100000.0 -14168000000.0 -14352900000.0 -14116500000.0 -15154600000.0 -40375000000.0 -45254900000.0 -27301800000.0 -30026400000.0 -38321500000.0 -14349000000.0 -20129700000.0 -13772500000.0 -17969100000.0 -13221500000.0 -14359800000.0 -21718200000.0 -26370900000.0 -22200100000.0 -14494400000.0 -32402800000.0 -25644900000.0 -31511100000.0 -12802500000.0 -14275400000.0 -38822300000.0 -34483800000.0 -20261000000.0 -27132000000.0 -31562900000.0 -31634000000.0 -12549700000.0 -33519100000.0 -29675800000.0 -23141000000.0 -16676400000.0 -16966700000.0 -12585100000.0 -40018300000.0 -40201900000.0 -32049400000.0 -12549700000.0 -39026400000.0 -12777800000.0 -26482300000.0 -16087500000.0 -39873300000.0 -33867400000.0 -42749600000.0 -30295500000.0 -25712400000.0 -144514000000.0 -73182600000.0 -67484800000.0 -80284400000.0 -36088900000.0 -114725000000.0 -21175200000.0 -61483200000.0 -52238100000.0 -52236200000.0 -65816100000.0 -12872800000.0 -51375500000.0 -15219100000.0 -42764400000.0 -23918900000.0 -12549700000.0 -27092900000.0 -21533800000.0 -32267600000.0 -26017100000.0 -43840200000.0 -19635300000.0 -34906200000.0 -46556100000.0 -40345700000.0 -19054200000.0 -13597900000.0 -12549700000.0 -12549700000.0 -13644800000.0 -12855200000.0 -12676800000.0 -23133900000.0 -18834100000.0 -33625500000.0 -22926300000.0 -51320200000.0 -13207900000.0 -30959300000.0 -12592200000.0 -60657100000.0 -25451300000.0 -24895400000.0 -13292300000.0 -28496600000.0 -23533600000.0 -41307900000.0 -37210300000.0 -43321900000.0 -38029100000.0 -41460400000.0 -13103300000.0 -53560000000.0 -17020400000.0 -15014800000.0 -12549700000.0 -14398600000.0 -12840900000.0 -17390900000.0 -12898000000.0 -26822100000.0 -13221400000.0 -40941100000.0 -36308200000.0 -24951200000.0 -20029500000.0 -14579300000.0 -17262000000.0 -16550200000.0 -26806800000.0 -14466000000.0 -21977900000.0 -13379300000.0 -24497600000.0 -15688600000.0 -13266000000.0 -18384700000.0 -12723200000.0 -12942100000.0 -12717400000.0 -12549700000.0 -12549700000.0 -13709800000.0 -22903700000.0 -34145000000.0 -12840200000.0 -13274400000.0 -46721300000.0 -27882100000.0 -48241700000.0 -37140100000.0 -23919100000.0 -16504100000.0 -33376500000.0 -19574600000.0 -48622900000.0 -24829800000.0 -67522400000.0 -52046500000.0 -36535000000.0 -12907900000.0 -25741000000.0 -16072700000.0 -12551800000.0 -49521400000.0 -63052400000.0 -83375000000.0 -83522800000.0 -14030900000.0 -92161600000.0 -85560600000.0 -56391200000.0 -38786500000.0 -80656700000.0 -72500800000.0 -48375300000.0 -51914200000.0 -80056400000.0 -51167800000.0 -54385300000.0 -38440600000.0 -38231000000.0 -30611000000.0 -16875100000.0 -18361600000.0 -20239000000.0 -19595100000.0 -23996500000.0 -22171600000.0 -12549700000.0 -19496000000.0 -15070400000.0 -15452000000.0 -15820600000.0 -24798700000.0 -28252100000.0 -29704100000.0 -53333900000.0 -12549700000.0 -43991800000.0 -17912700000.0 -18535200000.0 -26688000000.0 -32643500000.0 -23213100000.0 -25240200000.0 -30205700000.0 -12549700000.0 -22019000000.0 -42274500000.0 -68165800000.0 -26680000000.0 -14364100000.0 -12549700000.0 -14619500000.0 -12882900000.0 -12953900000.0 -13449300000.0 -16299200000.0 -15070300000.0 -13239600000.0 -21769900000.0 -17174700000.0 -31220400000.0 -13048200000.0 -12549700000.0 -17800300000.0 -15605500000.0 -12753200000.0 -14313000000.0 -14144900000.0 -12549700000.0 -16168800000.0 -26018600000.0 -13402400000.0 -13118800000.0 -14247100000.0 -14124900000.0 -15845600000.0 -13034700000.0 -14295200000.0 -12552200000.0 -12581100000.0 -12636400000.0 -12607500000.0 -12927600000.0 -16458200000.0 -24803800000.0 -17885400000.0 -29208400000.0 -28219900000.0 -33270900000.0 -23495500000.0 -52492700000.0 -17460500000.0 -73499600000.0 -58393500000.0 -56773700000.0 -50745100000.0 -60295600000.0 -54693100000.0 -22636900000.0 -55118100000.0 -45952200000.0 -52364300000.0 -27004700000.0 -20542600000.0 -89684500000.0 -13817500000.0 -62120300000.0 -73435500000.0 -52137700000.0 -83979600000.0 -15370500000.0 -61444400000.0 -80015700000.0 -44978000000.0 -49854500000.0 -13344200000.0 -96841900000.0 -24183600000.0 -14266700000.0 -21924300000.0 -32389900000.0 -19401400000.0 -13815200000.0 -18719300000.0 -13365600000.0 -15713100000.0 -18737800000.0 -19592900000.0 -22603900000.0 -22813600000.0 -12579100000.0 -18100500000.0 -13014700000.0 -14688200000.0 -14536600000.0 -18766100000.0 -14063200000.0 -35564200000.0 -16436500000.0 -38060300000.0 -20698500000.0 -39261300000.0 -32886400000.0 -18995200000.0 -22139700000.0 -20505600000.0 -22183200000.0 -22369900000.0 -26875200000.0 -40531400000.0 -49791900000.0 -41537100000.0 -14263300000.0 -35841400000.0 -22312100000.0 -15486000000.0 -19733500000.0 -20089100000.0 -19493900000.0 -19665400000.0 -17996500000.0 -18068500000.0 -17752300000.0 -29447000000.0 -25644800000.0 -16699200000.0 -16147200000.0 -14135300000.0 -20998300000.0 -21303100000.0 -19908600000.0 -18492100000.0 -12635300000.0 -12549700000.0 -12637000000.0 -12607300000.0 -13016900000.0 -14119000000.0 -15053500000.0 -13234600000.0 -12930000000.0 -12550200000.0 -12558000000.0 -12648000000.0 -12964700000.0 -13986800000.0 -12617200000.0 -25464500000.0 -12595700000.0 -12721000000.0 -47642200000.0 -25605100000.0 -42477300000.0 -35352300000.0 -21177700000.0 -44575600000.0 -63625100000.0 -18580800000.0 -18621600000.0 -21054400000.0 -17939800000.0 -105985000000.0 -35264000000.0 -56326300000.0 -80177800000.0 -53542700000.0 -16821200000.0 -92602800000.0 -13362000000.0 -31933200000.0 -132938000000.0 -174345000000.0 -101593000000.0 -32052500000.0 -108065000000.0 -61398700000.0 -32355800000.0 -68928500000.0 -30180600000.0 -12592000000.0 -78931600000.0 -36323800000.0 -15441100000.0 -27644000000.0 -30539500000.0 -17435600000.0 -15268600000.0 -18342800000.0 -18293100000.0 -12795800000.0 -22434200000.0 -19981700000.0 -13003100000.0 -18638300000.0 -12549700000.0 -14637200000.0 -15889800000.0 -13326600000.0 -13549600000.0 -21239600000.0 -21119800000.0 -20752500000.0 -16994400000.0 -12549700000.0 -25876400000.0 -23340900000.0 -35594300000.0 -12549700000.0 -21051400000.0 -15804000000.0 -19007500000.0 -12790400000.0 -12642600000.0 -12574200000.0 -20878600000.0 -13943300000.0 -21313900000.0 -20479000000.0 -31267300000.0 -15037000000.0 -22117400000.0 -12767400000.0 -52579600000.0 -17806900000.0 -15299400000.0 -12712300000.0 -12691300000.0 -14632700000.0 -14180200000.0 -13717800000.0 -14457400000.0 -14266800000.0 -13539500000.0 -14854900000.0 -25616700000.0 -17178500000.0 -23367800000.0 -20649700000.0 -14830700000.0 -15299700000.0 -15681500000.0 -16211700000.0 -18119700000.0 -20361800000.0 -15629200000.0 -15145000000.0 -15902600000.0 -17293300000.0 -15671900000.0 -16496500000.0 -16108700000.0 -14622500000.0 -15353100000.0 -16857400000.0 -20884100000.0 -38094800000.0 -29961000000.0 -31580200000.0 -35853300000.0 -25378200000.0 -13410100000.0 -58787500000.0 -52909300000.0 -29495800000.0 -21789600000.0 -25489400000.0 -94168100000.0 -34365000000.0 -27161000000.0 -51844800000.0 -27725200000.0 -84729300000.0 -12678400000.0 -56038900000.0 -58168100000.0 -32116000000.0 -126753000000.0 -13607100000.0 -35623900000.0 -23700000000.0 -16982900000.0 -99010700000.0 -58751800000.0 -28953100000.0 -39269400000.0 -39405800000.0 -56246100000.0 -57844200000.0 -25987300000.0 -25143800000.0 -24490900000.0 -13392600000.0 -13077200000.0 -12802000000.0 -16000700000.0 -13454900000.0 -17688100000.0 -23001700000.0 -15337000000.0 -15415000000.0 -17132600000.0 -17375200000.0 -16685600000.0 -16147800000.0 -20878100000.0 -16921700000.0 -16181200000.0 -16943500000.0 -20588000000.0 -23131300000.0 -44947900000.0 -15507100000.0 -25835700000.0 -21090800000.0 -16066300000.0 -19282300000.0 -18254800000.0 -17901600000.0 -13946400000.0 -18933600000.0 -24020000000.0 -12676800000.0 -41807400000.0 -21932200000.0 -16249600000.0 -13090900000.0 -14011900000.0 -12553000000.0 -12690800000.0 -13397700000.0 -12900500000.0 -13951100000.0 -12644100000.0 -12549700000.0 -13407900000.0 -15700400000.0 -12662800000.0 -12555900000.0 -12549700000.0 -20071400000.0 -14795000000.0 -18110700000.0 -17610100000.0 -15627100000.0 -17031100000.0 -16834600000.0 -15802300000.0 -15456800000.0 -15179800000.0 -17737100000.0 -20622900000.0 -22618400000.0 -16005400000.0 -19832300000.0 -19053300000.0 -31257200000.0 -16308800000.0 -26153600000.0 -43581600000.0 -12899200000.0 -57895800000.0 -43289300000.0 -47673900000.0 -61521000000.0 -57191000000.0 -12549700000.0 -26437200000.0 -87928800000.0 -60372200000.0 -32810600000.0 -71324900000.0 -14040500000.0 -140871000000.0 -16655000000.0 -14975200000.0 -107736000000.0 -17619000000.0 -28987700000.0 -119033000000.0 -12549700000.0 -33866100000.0 -71667300000.0 -13374900000.0 -25879700000.0 -14748500000.0 -14497300000.0 -30160400000.0 -12549700000.0 -22197200000.0 -24657800000.0 -23338100000.0 -26733500000.0 -20327900000.0 -22934000000.0 -13970000000.0 -13848800000.0 -15552400000.0 -12559000000.0 -12692800000.0 -12549700000.0 -15681600000.0 -16828500000.0 -13378100000.0 -14193600000.0 -13689400000.0 -14914700000.0 -32191200000.0 -16550100000.0 -14523500000.0 -14204800000.0 -16024500000.0 -17758400000.0 -12660400000.0 -13061900000.0 -17596400000.0 -13047700000.0 -20171500000.0 -25652400000.0 -36079700000.0 -24148100000.0 -17295700000.0 -14294900000.0 -13346500000.0 -12550700000.0 -12549800000.0 -12560800000.0 -12671000000.0 -13128000000.0 -12759300000.0 -12549700000.0 -12549700000.0 -12549700000.0 -13391300000.0 -12973900000.0 -12587800000.0 -12549700000.0 -12549700000.0 -12609500000.0 -12630800000.0 -12830300000.0 -14627000000.0 -13170200000.0 -13129400000.0 -12604500000.0 -14211500000.0 -13978100000.0 -15921200000.0 -15816400000.0 -16498600000.0 -16126800000.0 -34475400000.0 -21400900000.0 -20496900000.0 -21436100000.0 -28819800000.0 -23038700000.0 -24976000000.0 -29741300000.0 -28059800000.0 -29019400000.0 -44226000000.0 -60185800000.0 -14840300000.0 -43480800000.0 -66932900000.0 -79773500000.0 -77527600000.0 -90454700000.0 -122892000000.0 -74630300000.0 -124071000000.0 -151151000000.0 -33477300000.0 -50035800000.0 -108720000000.0 -29463500000.0 -58917800000.0 -29813400000.0 -29547900000.0 -54525800000.0 -68815300000.0 -80211900000.0 -29665000000.0 -14816500000.0 -17570000000.0 -16422600000.0 -22185100000.0 -13737200000.0 -13389600000.0 -13465100000.0 -27407700000.0 -18355500000.0 -19559300000.0 -15682900000.0 -15207000000.0 -14978000000.0 -13201000000.0 -14100300000.0 -13668500000.0 -14750800000.0 -13014000000.0 -12726600000.0 -13081000000.0 -13070800000.0 -12683100000.0 -18065500000.0 -14695200000.0 -12549700000.0 -13854200000.0 -14336800000.0 -21034700000.0 -19825000000.0 -24659200000.0 -25890300000.0 -14532100000.0 -20890700000.0 -17486500000.0 -13040300000.0 -12825000000.0 -12549700000.0 -12551100000.0 -12554600000.0 -12583000000.0 -12753400000.0 -12618600000.0 -12549700000.0 -12549700000.0 -12549700000.0 -12705700000.0 -12549700000.0 -12549700000.0 -12549700000.0 -12549700000.0 -12566100000.0 -12684500000.0 -13874700000.0 -13366800000.0 -13258800000.0 -13241600000.0 -12777100000.0 -12866500000.0 -16653500000.0 -13672800000.0 -13355300000.0 -15635400000.0 -13217800000.0 -23753000000.0 -15079200000.0 -14750300000.0 -13715900000.0 -33901700000.0 -19643600000.0 -68868400000.0 -78450500000.0 -59757000000.0 -26813600000.0 -58819400000.0 -77083700000.0 -72575500000.0 -56155300000.0 -136356000000.0 -87043200000.0 -84408600000.0 -85522600000.0 -68148200000.0 -35119600000.0 -91348500000.0 -23997400000.0 -56502400000.0 -109043000000.0 -33674300000.0 -20861400000.0 -20305900000.0 -15070600000.0 -15372600000.0 -16260500000.0 -16666600000.0 -15247800000.0 -12988900000.0 -12675900000.0 -12628700000.0 -12729200000.0 -13854300000.0 -13169800000.0 -12549700000.0 -17690500000.0 -15407100000.0 -14671000000.0 -15836000000.0 -13460100000.0 -13286700000.0 -15075200000.0 -12571100000.0 -14956700000.0 -15582100000.0 -16677100000.0 -25629400000.0 -17511000000.0 -16482500000.0 -17410000000.0 -14132800000.0 -13776200000.0 -12917100000.0 -12775900000.0 -19726100000.0 -16257600000.0 -12794300000.0 -15555200000.0 -12674800000.0 -12789700000.0 -13373700000.0 -12708000000.0 -12937000000.0 -13293100000.0 -14988400000.0 -13727500000.0 -13196100000.0 -17019400000.0 -17496400000.0 -14492100000.0 -16591800000.0 -23109700000.0 -51168000000.0 -61885200000.0 -101383000000.0 -73243100000.0 -81052900000.0 -77541300000.0 -48474500000.0 -95989400000.0 -81563100000.0 -85046400000.0 -38826300000.0 -12771300000.0 -125280000000.0 -70537200000.0 -55272700000.0 -77867800000.0 -52208100000.0 -123032000000.0 -18767800000.0 -22236900000.0 -17319000000.0 -12964600000.0 -12740200000.0 -12549700000.0 -13460800000.0 -13557500000.0 -13973600000.0 -12608400000.0 -12984900000.0 -12948800000.0 -13012100000.0 -14207000000.0 -12827700000.0 -17962100000.0 -17718000000.0 -21492000000.0 -21141400000.0 -20397500000.0 -49062300000.0 -56294400000.0 -34049600000.0 -13778000000.0 -116636000000.0 -36638000000.0 -42565700000.0 -43225300000.0 -12767200000.0 -75871100000.0 -117189000000.0 -141618000000.0 -64527500000.0 -58213900000.0 -116898000000.0 -72880700000.0 -88555200000.0 -76140200000.0 -64171600000.0 -140081000000.0 -20674700000.0 -25022700000.0 -42790200000.0 -51555300000.0 -44734600000.0 -36868700000.0 -138433000000.0 -94151300000.0 -53123000000.0 -75425400000.0 -331119000000.0 -166361000000.0 -191388000000.0 -116463000000.0 -112286000000.0 -28252900000.0 -13623200000.0 -196152000000.0 -17565300000.0 -16506300000.0 -22764100000.0 -33979200000.0 -58593200000.0 -43497100000.0 -101160000000.0 -100095000000.0 -27883100000.0 -77546500000.0 -46813300000.0 -133751000000.0 -12657600000.0 -141610000000.0 -358399000000.0 -14229800000.0 -61594400000.0 -94860600000.0 -13058600000.0 -97331500000.0 -62596500000.0 -195467000000.0 -14083900000.0 -16286500000.0 -12549700000.0 -31451600000.0 -42646100000.0 -148048000000.0 -145989000000.0 -92387900000.0 -118100000000.0 -109739000000.0 -96011100000.0 -245209000000.0 -155057000000.0 -41344100000.0 -125468000000.0 -47108100000.0 -101087000000.0 -138276000000.0 -41854800000.0 -17720500000.0 -19981400000.0 -12549700000.0 -12549700000.0 -12549700000.0 -20168400000.0 -20480000000.0 -108549000000.0 -19860400000.0 -154512000000.0 -12549700000.0 -43707300000.0 -64798900000.0 -40040500000.0 -226469000000.0 -81826700000.0 -118768000000.0 -78469500000.0 -27218100000.0 -109651000000.0 -149354000000.0 -78919200000.0 -48938200000.0 -12549700000.0 -12549700000.0 -12549700000.0 -12549700000.0 -12549700000.0 -12549700000.0 -12549700000.0 -12549700000.0 -12549700000.0 -12549700000.0 -12549700000.0 -12549700000.0 -12549700000.0 -12549700000.0 -12549700000.0 -12549700000.0 -12549700000.0 -20866400000.0 -34763500000.0 -156457000000.0 -89071800000.0 -117268000000.0 -124819000000.0 -85793300000.0 -96080800000.0 -330618000000.0 -171645000000.0 -112719000000.0 -76957400000.0 -155555000000.0 -248662000000.0 -235681000000.0 -306782000000.0 -143506000000.0 -89590400000.0 -51700300000.0 -24644100000.0 -12550200000.0 -14655200000.0 -12549700000.0 -12549700000.0 -12549700000.0 -12549700000.0 -12549700000.0 -12549700000.0 -12549700000.0 -12549700000.0 -12549700000.0 -12549700000.0 -12549700000.0 -12549700000.0 -12549700000.0 -12549700000.0 -12549700000.0 -12549700000.0 -12549700000.0 -12549700000.0 -12549700000.0 -12549700000.0 -12549700000.0 -12549700000.0 -12549700000.0 -12549700000.0 -12549700000.0 -12549700000.0 -12552700000.0 -12549700000.0 -22180900000.0 -73573300000.0 -137351000000.0 -19990200000.0 -45023300000.0 -99402500000.0 -198771000000.0 -160718000000.0 -114387000000.0 -155902000000.0 -58336600000.0 -129781000000.0 -174051000000.0 -24283900000.0 -114782000000.0 -28711000000.0 -212688000000.0 -120681000000.0 -28545100000.0 -53294100000.0 -177726000000.0 -41556200000.0 -16179600000.0 -12549700000.0 -50710300000.0 -101299000000.0 -12549700000.0 -12549700000.0 -12549700000.0 -12549700000.0 -73634600000.0 -72453400000.0 -43012600000.0 -12549700000.0 -3.66407e+12 -7.21645e+12 -4.2801e+12 -3.89616e+12 -12549700000.0 -4.61109e+12 -4.48401e+12 -3.5803e+12 -5.13066e+12 -2.99051e+12 -4.6243e+12 -3.94679e+12 -3.17632e+12 -51543200000.0 -12528400000.0 -2.877e+12 -6.06351e+12 -5.3157e+12 -5.13064e+12 -5.65343e+12 -5.10221e+12 -7.75487e+12 -1.95543e+12 -6.42093e+12 -3.71837e+12 -3.55594e+12 -12867100000.0 -3.0595e+12 -4.03222e+12 -3.6556e+12 -3.68813e+12 -3.86131e+12 -5.7552e+12 -5.05263e+12 -12554400000.0 -3.36327e+12 -3.63794e+12 -5.07959e+12 -3.45771e+12 -4.92084e+12 -6.56655e+12 -3.38572e+12 -339040000000.0 -5.68156e+12 -4.10188e+12 -2.69336e+12 -4.37927e+12 -4.15303e+12 -373530000000.0 -213026000000.0 -3.90815e+12 -6.47258e+12 -5.5871e+12 -3.05592e+12 -6.71284e+12 -66084600000.0 -182383000000.0 -94505000000.0 -120827000000.0 -138889000000.0 -24118200000.0 -97881300000.0 -67373200000.0 -302317000000.0 -346654000000.0 -219217000000.0 -255072000000.0 -273494000000.0 -91721500000.0 -212946000000.0 -52441200000.0 -224865000000.0 -13087400000.0 -17124300000.0 -1.81946e+12 -2.83782e+12 -3.32442e+12 -2.15481e+12 -3.12529e+12 -5.02774e+12 -4.80541e+12 -5.53075e+12 -189672000000.0 -5.18078e+12 -496878000000.0 -1.14261e+12 -2.68058e+12 -3.24336e+12 -5.01289e+12 -4.46049e+12 -7.98662e+12 -3.46365e+12 -4.59709e+12 -5.32397e+12 -5.83792e+12 -5.71941e+12 -3.00973e+12 -12528500000.0 -1.85241e+12 -15551100000.0 -3.07848e+12 -2.5631e+12 -3.9981e+12 -1.22775e+12 -5.13968e+12 -210158000000.0 -3.24712e+12 -390357000000.0 -14035400000.0 -4.81133e+12 -4.03146e+12 -137899000000.0 -577571000000.0 -12549600000.0 -12553000000.0 -4.06926e+12 -3.97075e+12 -3.51341e+12 -41571900000.0 -3.17899e+12 -4.66029e+12 -5.18376e+12 -3.13261e+12 -4.05482e+12 -5.14094e+12 -12549700000.0 -4.87664e+12 -345124000000.0 -3.54246e+12 -3.60711e+12 -3.18025e+12 -1.87319e+12 -7.44535e+12 -3.94849e+12 -5.53919e+12 -7.75134e+12 -5.4336e+12 -8.53464e+12 -6.66592e+12 -7.78248e+12 -4.31758e+12 -7.48665e+12 -9.77273e+12 -7.22371e+12 -5.64046e+12 -7.47346e+12 -6.01716e+12 -5.31974e+12 -4.3418e+12 -4.71992e+12 -4.37336e+12 -7.10534e+12 -3.10858e+12 -5.77136e+12 -6.02284e+12 -5.09707e+12 -5.32283e+12 -5.48125e+12 -3.09039e+12 -5.35011e+12 -6.68114e+12 -4.72369e+12 -5.45293e+12 -5.67364e+12 -5.62874e+12 -1.10903e+13 -5.92544e+12 -6.78255e+12 -5.35238e+12 -1.00026e+13 -2.68026e+12 -6.59945e+12 -1.00871e+13 -4.5989e+12 -4.00545e+12 -4.42481e+12 -8.18868e+12 -8.94403e+12 -8.19348e+12 -6.08537e+12 -5.75402e+12 -3.24204e+12 -3.92435e+12 -7.53046e+12 -6.03484e+12 -5.37792e+12 -8.60172e+12 -3.61526e+12 -5.92506e+12 -7.32266e+12 -9.39015e+12 -3.05749e+12 -5.66107e+12 -6.23208e+12 -3.76733e+12 -4.75279e+12 -4.45089e+12 -5.53284e+12 -4.43042e+12 -6.1591e+12 -4.65695e+12 -5.46222e+12 -6.49862e+12 -3.95803e+12 -6.02099e+12 -4.54429e+12 -5.05039e+12 -3.32474e+12 -5.61655e+12 -7.96724e+12 -4.48622e+12 -1.11271e+13 -7.60345e+12 -4.464e+12 -3.51306e+12 -337261000000.0 -737328000000.0 -247217000000.0 -239727000000.0 -147351000000.0 -251847000000.0 -231772000000.0 -225371000000.0 -259120000000.0 -309013000000.0 -245567000000.0 -325454000000.0 -324626000000.0 -245097000000.0 -132210000000.0 -269859000000.0 -220078000000.0 -391767000000.0 -17728600000.0 -4.43716e+12 -5.16334e+12 -3.69257e+12 -4.81755e+12 -5.1357e+12 -5.93731e+12 -3.63663e+12 -1.01164e+13 -4.1548e+12 -6.14046e+12 -8.94138e+12 -6.81922e+12 -4.25866e+12 -5.36076e+12 -2.44771e+12 -5.08175e+12 -8.62817e+12 -5.72053e+12 -2.56913e+12 -3.4739e+12 -4.2444e+12 -4.25584e+12 -4.10177e+12 -6.29938e+12 -5.11158e+12 -7.362e+12 -5.50899e+12 -7.50415e+12 -6.72351e+12 -6.28159e+12 -5.8457e+12 -7.96162e+12 -6.46513e+12 -8.6772e+12 -2.97152e+12 -8.40642e+12 -4.69695e+12 -3.82874e+12 -1.14743e+13 -4.19287e+12 -5.74713e+12 -3.68163e+12 -7.68039e+12 -7.05497e+12 -4.24491e+12 -5.67652e+12 -5.53211e+12 -4.0545e+12 -5.3839e+12 -5.50902e+12 -5.52279e+12 -6.06575e+12 -6.1288e+12 -3.56653e+12 -4.19851e+12 -5.02986e+12 -7.27826e+12 -5.30134e+12 -4.87367e+12 -6.79776e+12 -5.67545e+12 -4.39148e+12 -4.77263e+12 -6.34152e+12 -6.89486e+12 -5.5867e+12 -5.7837e+12 -4.67908e+12 -5.79369e+12 -6.98465e+12 -5.26542e+12 -7.10515e+12 -4.02896e+12 -5.31344e+12 -4.97801e+12 -8.84478e+12 -6.5568e+12 -6.0407e+12 -4.54862e+12 -3.44465e+12 -4.59004e+12 -4.43497e+12 -7.66101e+12 -2.77639e+12 -4.76998e+12 -3.89001e+12 -4.91575e+12 -4.21333e+12 -9.64519e+12 -5.17602e+12 -4.69641e+12 -4.44099e+12 -4.71218e+12 -4.90963e+12 -3.98518e+12 -4.02307e+12 -4.71805e+12 -5.71027e+12 -2.92771e+12 -7.84236e+12 -5.0522e+12 -4.02534e+12 -8.12517e+12 -5.71883e+12 -6.63377e+12 -6.85193e+12 -4.85829e+12 -4.92227e+12 -3.70142e+12 -6.01944e+12 -7.51043e+12 -3.12224e+12 -8.48245e+12 -9.62035e+12 -6.36601e+12 -5.12615e+12 -6.17139e+12 -3.52997e+12 -4.88587e+12 -1.10658e+13 -8.22409e+12 -8.69333e+12 -5.68226e+12 -6.81999e+12 -5.52518e+12 -5.75461e+12 -3.07605e+12 -8.74674e+12 -6.30227e+12 -1.50385e+12 -4.67635e+12 -5.40277e+12 -6.46501e+12 -5.57607e+12 -5.07986e+12 -3.79516e+12 -836480000000.0 -4.87637e+12 -5.32392e+12 -5.16488e+12 -7.54615e+12 -8.18685e+12 -7.84391e+12 -7.24464e+12 -5.9404e+12 -9.48755e+12 -6.56788e+12 -4.90255e+12 -3.69023e+12 -2.14301e+12 -1.08339e+13 -4.66102e+12 -5.66888e+12 -5.46413e+12 -7.08428e+12 -4.59664e+12 -3.98228e+12 -1.12746e+13 -6.5588e+12 -4.3336e+12 -6.93838e+12 -327276000000.0 -188136000000.0 -321604000000.0 -169494000000.0 -379875000000.0 -95466900000.0 -169998000000.0 -246484000000.0 -299568000000.0 -267084000000.0 -115971000000.0 -68666100000.0 -194272000000.0 -25841300000.0 -212658000000.0 -256866000000.0 -499925000000.0 -170048000000.0 -293480000000.0 -541046000000.0 -509983000000.0 -5.52436e+12 -5.8619e+12 -7.74115e+12 -7.02961e+12 -4.8177e+12 -5.12829e+12 -6.35449e+12 -5.955e+12 -7.26186e+12 -4.24667e+12 -5.85587e+12 -4.41758e+12 -8.80195e+12 -8.20539e+12 -1.01277e+13 -5.11595e+12 -4.07797e+12 -3.65024e+12 -7.95533e+12 -1.25871e+13 -6.39647e+12 -6.08385e+12 -4.30904e+12 -7.05309e+12 -7.33673e+12 -3.0797e+12 -4.70235e+12 -4.95385e+12 -5.1699e+12 -4.86006e+12 -5.05403e+12 -5.17594e+12 -8.93588e+12 -4.67785e+12 -6.67167e+12 -7.60886e+12 -4.97979e+12 -4.41341e+12 -6.24803e+12 -3.95004e+12 -5.99824e+12 -6.93107e+12 -4.64087e+12 -5.47495e+12 -7.10234e+12 -7.94838e+12 -753945000000.0 -6.76998e+12 -7.76771e+12 -3.17049e+12 -7.49989e+12 -6.57744e+12 -3.18923e+12 -5.11433e+12 -4.61486e+12 -3.7609e+12 -7.33664e+12 -5.32983e+12 -5.50903e+12 -4.17926e+12 -8.62356e+12 -6.64068e+12 -4.88785e+12 -4.78181e+12 -8.27034e+12 -4.25908e+12 -4.82249e+12 -7.152e+12 -6.50862e+12 -3.86595e+12 -5.62154e+12 -7.71815e+12 -5.98509e+12 -7.07195e+12 -9.17605e+12 -7.13115e+12 -4.98804e+12 -6.08235e+12 -4.92091e+12 -5.84989e+12 -5.25329e+12 -5.26228e+12 -5.65167e+12 -4.93725e+12 -2.07993e+12 -6.36416e+12 -4.40397e+12 -4.90961e+12 -7.59634e+12 -4.24981e+12 -6.65117e+12 -9.13935e+12 -3.26379e+12 -2.90017e+12 -3.74617e+12 -2.51626e+12 -6.56631e+12 -6.21939e+12 -4.76075e+12 -6.76827e+12 -6.2696e+12 -8.2787e+12 -6.95769e+12 -7.00162e+12 -7.64252e+12 -5.74819e+12 -5.45865e+12 -2.74815e+12 -4.84229e+12 -8.04072e+12 -6.11169e+12 -7.06325e+12 -4.86153e+12 -4.58409e+12 -5.75299e+12 -5.67921e+12 -5.21115e+12 -5.55715e+12 -8.35864e+12 -4.19295e+12 -8.48306e+12 -5.75511e+12 -5.36573e+12 -5.01956e+12 -5.95028e+12 -6.36666e+12 -2.26871e+12 -4.34909e+12 -4.29823e+12 -6.04208e+12 -5.56511e+12 -4.74504e+12 -5.34289e+12 -3.64611e+12 -7.04327e+12 -6.74315e+12 -5.60179e+12 -5.23135e+12 -2.71351e+12 -176961000000.0 -257694000000.0 -552508000000.0 -434190000000.0 -408248000000.0 -394326000000.0 -91282500000.0 -154271000000.0 -273749000000.0 -307550000000.0 -40717500000.0 -260573000000.0 -354706000000.0 -680427000000.0 -309285000000.0 -317354000000.0 -160058000000.0 -302704000000.0 -6.3036e+12 -5.16557e+12 -3.45126e+12 -6.90399e+12 -5.74787e+12 -2.22815e+12 -6.62217e+12 -4.55163e+12 -3.68005e+12 -6.87587e+12 -7.07311e+12 -3.30223e+12 -4.22752e+12 -6.78458e+12 -5.93072e+12 -3.44276e+12 -5.39037e+12 -8.00308e+12 -4.58114e+12 -7.17606e+12 -8.42288e+12 -4.29858e+12 -5.27889e+12 -9.47199e+12 -7.78337e+12 -4.48887e+12 -5.68746e+12 -5.63766e+12 -2.81305e+12 -6.52203e+12 -3.52543e+12 -9.41805e+12 -5.90145e+12 -5.82863e+12 -7.26122e+12 -6.93509e+12 -8.29592e+12 -7.25761e+12 -2.89734e+12 -5.96506e+12 -5.6334e+12 -6.34674e+12 -4.76706e+12 -5.77469e+12 -4.7003e+12 -7.49113e+12 -6.90101e+12 -6.93747e+12 -7.43631e+12 -6.12109e+12 -9.07391e+12 -5.43435e+12 -7.29824e+12 -3.07646e+12 -4.50505e+12 -5.44633e+12 -7.7428e+12 -7.89775e+12 -6.13137e+12 -6.96262e+12 -6.72802e+12 -5.96322e+12 -6.23162e+12 -3.79205e+12 -5.2051e+12 -5.21329e+12 -6.10495e+12 -7.78059e+12 -8.5005e+12 -6.68174e+12 -3.01308e+12 -2.77021e+12 -3.43806e+12 -4.75963e+12 -5.19538e+12 -6.92753e+12 -5.05592e+12 -5.01179e+12 -6.26454e+12 -5.41058e+12 -4.22011e+12 -4.62575e+12 -3.63376e+12 -4.03669e+12 -3.24582e+12 -4.57062e+12 -3.82572e+12 -7.55912e+12 -4.18422e+12 -2.3253e+12 -5.46275e+12 -5.08099e+12 -6.427e+12 -4.89368e+12 -6.033e+12 -9.80257e+12 -4.65858e+12 -3.73625e+12 -5.37247e+12 -6.07702e+12 -4.15994e+12 -5.68732e+12 -4.32585e+12 -7.03242e+12 -6.77216e+12 -6.81312e+12 -5.1044e+12 -5.05979e+12 -5.89104e+12 -4.74018e+12 -3.08529e+12 -4.21148e+12 -5.54817e+12 -5.35982e+12 -7.21091e+12 -6.72853e+12 -4.24569e+12 -6.23446e+12 -2.55987e+12 -5.99554e+12 -7.45092e+12 -4.53497e+12 -4.98913e+12 -5.75449e+12 -4.08981e+12 -4.91863e+12 -7.3525e+12 -3.62113e+12 -5.87914e+12 -4.58831e+12 -5.73509e+12 -5.30665e+12 -6.22195e+12 -2.79462e+12 -2.37144e+12 -3.31742e+12 -584064000000.0 -12549700000.0 -619439000000.0 -572612000000.0 -542113000000.0 -12549700000.0 -143245000000.0 -63532800000.0 -73884900000.0 -373058000000.0 -147342000000.0 -348558000000.0 -239591000000.0 -254047000000.0 -240478000000.0 -135162000000.0 -136702000000.0 -341472000000.0 -419240000000.0 -611321000000.0 -571713000000.0 -3.40008e+12 -12439800000.0 -441548000000.0 -5.16047e+12 -4.08359e+12 -5.1263e+12 -3.03035e+12 -5.25481e+12 -7.99068e+12 -5.61613e+12 -4.07265e+12 -3.54314e+12 -6.13782e+12 -5.97087e+12 -9.17809e+12 -4.20162e+12 -3.1425e+12 -4.15717e+12 -5.67076e+12 -9.46744e+12 -6.06101e+12 -5.24072e+12 -6.22718e+12 -8.6835e+12 -6.19859e+12 -4.67133e+12 -4.92468e+12 -9.58292e+12 -5.97171e+12 -5.283e+12 -3.9787e+12 -6.95701e+12 -6.07946e+12 -4.11238e+12 -3.04499e+12 -5.37075e+12 -5.28983e+12 -5.06899e+12 -5.52311e+12 -4.87174e+12 -4.82792e+12 -4.28598e+12 -6.49225e+12 -5.32181e+12 -6.30579e+12 -4.55246e+12 -5.17082e+12 -4.61424e+12 -5.70636e+12 -3.35081e+12 -7.05322e+12 -4.85264e+12 -4.079e+12 -4.91206e+12 -8.37096e+12 -4.4709e+12 -6.06482e+12 -4.56348e+12 -6.3823e+12 -5.23361e+12 -3.01627e+12 -4.1396e+12 -2.35555e+12 -4.6103e+12 -6.41967e+12 -4.84824e+12 -6.68712e+12 -8.96644e+12 -4.38646e+12 -3.45197e+12 -5.58654e+12 -5.9602e+12 -4.30983e+12 -3.04881e+12 -3.3938e+12 -4.66648e+12 -4.61378e+12 -2.11119e+12 -4.581e+12 -5.91137e+12 -4.68352e+12 -5.63909e+12 -4.91757e+12 -4.56012e+12 -6.76741e+12 -7.00866e+12 -3.45239e+12 -4.90144e+12 -6.87388e+12 -4.3131e+12 -5.54754e+12 -4.06242e+12 -5.0479e+12 -4.86119e+12 -5.33691e+12 -7.45646e+12 -5.78006e+12 -9.06823e+12 -2.59601e+12 -3.19464e+12 -2.47613e+12 -3.67235e+12 -5.38455e+12 -4.19024e+12 -4.82096e+12 -5.40315e+12 -4.95841e+12 -3.05597e+12 -2.49352e+12 -4.3534e+12 -3.27263e+12 -5.76759e+12 -5.10601e+12 -7.3998e+12 -3.19744e+12 -3.95822e+12 -5.6292e+12 -3.24077e+12 -2.11934e+12 -3.83988e+12 -3.6301e+12 -2.11987e+12 -237915000000.0 -88384700000.0 -290148000000.0 -190686000000.0 -64611300000.0 -88813200000.0 -166849000000.0 -101470000000.0 -75048500000.0 -226979000000.0 -28183600000.0 -117157000000.0 -47948000000.0 -56999100000.0 -258345000000.0 -115863000000.0 -15033600000.0 -122105000000.0 -240552000000.0 -78043100000.0 -4.50936e+12 -6.5169e+12 -6.18737e+12 -4.36773e+12 -6.90168e+12 -2.22549e+12 -2.05721e+12 -3.36716e+12 -5.66531e+12 -5.92582e+12 -4.0274e+12 -7.73799e+12 -5.69489e+12 -6.8355e+12 -7.75935e+12 -4.66963e+12 -4.76972e+12 -8.395e+12 -6.66672e+12 -4.02473e+12 -5.11113e+12 -7.08618e+12 -5.2001e+12 -5.7263e+12 -7.52972e+12 -3.17864e+12 -7.42174e+12 -5.77454e+12 -3.92101e+12 -3.84452e+12 -5.807e+12 -4.1894e+12 -5.62067e+12 -4.5468e+12 -4.75823e+12 -5.46089e+12 -4.57693e+12 -4.46346e+12 -3.68653e+12 -1.30337e+12 -2.30275e+12 -3.27486e+12 -4.18974e+12 -4.7112e+12 -7.64315e+12 -4.2776e+12 -5.11527e+12 -4.1293e+12 -2.83104e+12 -4.79337e+12 -3.20976e+12 -5.47018e+12 -2.87652e+12 -4.06935e+12 -3.28973e+12 -7.47068e+12 -5.28873e+12 -5.86408e+12 -3.1003e+12 -4.01867e+12 -4.24944e+12 -5.33351e+12 -5.25094e+12 -5.1372e+12 -5.2725e+12 -4.95381e+12 -3.07363e+12 -4.09453e+12 -4.62705e+12 -7.68775e+12 -1.88442e+12 -5.47005e+12 -3.63031e+12 -1.29788e+12 -2.60274e+12 -4.64433e+12 -5.18165e+12 -3.86692e+12 -4.00324e+12 -4.51886e+12 -4.38418e+12 -5.0911e+12 -5.29722e+12 -3.51819e+12 -4.14683e+12 -5.11739e+12 -2.83049e+12 -3.89462e+12 -6.38062e+12 -4.15792e+12 -4.79487e+12 -5.12984e+12 -5.98147e+12 -4.80483e+12 -4.07344e+12 -3.23854e+12 -4.12367e+12 -4.66648e+12 -2.37367e+12 -3.88034e+12 -2.66465e+12 -6.3061e+12 -6.75335e+12 -6.59942e+12 -4.0416e+12 -4.24115e+12 -3.79022e+12 -7.29969e+12 -3.73086e+12 -4.10181e+12 -5.9206e+12 -2.79206e+12 -3.83726e+12 -6.21854e+12 -5.28528e+12 -3.29236e+12 -2.92483e+12 -4.90141e+12 -4.62265e+12 -78930900000.0 -329129000000.0 -246853000000.0 -283721000000.0 -224923000000.0 -190297000000.0 -132677000000.0 -143002000000.0 -162324000000.0 -146691000000.0 -39530700000.0 -84195400000.0 -103824000000.0 -52276100000.0 -182056000000.0 -128799000000.0 -281591000000.0 -309036000000.0 -255316000000.0 -4.11023e+12 -3.61345e+12 -6.77263e+12 -3.25947e+12 -2.10827e+12 -3.87735e+12 -2.8876e+12 -7.25257e+12 -4.79654e+12 -4.86609e+12 -2.49072e+12 -7.0797e+12 -4.75654e+12 -8.32584e+12 -3.22491e+12 -3.9229e+12 -3.65325e+12 -5.45852e+12 -4.7925e+12 -5.06077e+12 -4.27914e+12 -4.48148e+12 -5.08117e+12 -6.22394e+12 -6.91738e+12 -2.87073e+12 -2.12656e+12 -4.79157e+12 -3.33279e+12 -4.1724e+12 -3.07315e+12 -5.38513e+12 -4.38758e+12 -4.48541e+12 -4.8804e+12 -4.29067e+12 -3.92292e+12 -3.19915e+12 -5.01854e+12 -3.84439e+12 -5.34923e+12 -2.36184e+12 -3.18546e+12 -5.02473e+12 -4.20768e+12 -3.14097e+12 -3.68949e+12 -4.04964e+12 -4.79961e+12 -5.28208e+12 -3.01308e+12 -1.93502e+12 -6.64532e+12 -3.74625e+12 -3.46308e+12 -1.36059e+12 -4.66817e+12 -4.30539e+12 -3.08479e+12 -6.7398e+12 -3.92898e+12 -4.25199e+12 -7.28468e+12 -3.3766e+12 -3.66839e+12 -2.64068e+12 -5.12226e+12 -3.68386e+12 -4.01265e+12 -3.95688e+12 -3.89352e+12 -3.73548e+12 -3.58993e+12 -2.16224e+12 -2.10343e+12 -4.10319e+12 -5.58214e+12 -3.96454e+12 -6.28906e+12 -2.6676e+12 -5.32859e+12 -6.38153e+12 -4.50887e+12 -3.05383e+12 -7.1497e+12 -3.43929e+12 -3.62979e+12 -5.23088e+12 -3.91386e+12 -3.66019e+12 -2.50957e+12 -6.40593e+12 -4.76135e+12 -3.14826e+12 -2.14724e+12 -3.60139e+12 -4.88442e+12 -4.74542e+12 -2.32948e+12 -5.66259e+12 -4.45988e+12 -4.49127e+12 -3.38353e+12 -5.75532e+12 -4.32171e+12 -4.49572e+12 -5.20105e+12 -4.38483e+12 -3.05991e+12 -470775000000.0 -70297800000.0 -82383500000.0 -98976000000.0 -47643600000.0 -182993000000.0 -168995000000.0 -228240000000.0 -270303000000.0 -237224000000.0 -285563000000.0 -276291000000.0 -357842000000.0 -351813000000.0 -227865000000.0 -172374000000.0 -67034800000.0 -162779000000.0 -12549700000.0 -350789000000.0 -3.53503e+12 -2.78426e+12 -2.40195e+12 -3.57266e+12 -3.51605e+12 -3.88448e+12 -4.04171e+12 -5.29603e+12 -5.47137e+12 -6.52324e+12 -3.90528e+12 -5.16186e+12 -3.80578e+12 -3.29996e+12 -2.27596e+12 -3.02378e+12 -3.89035e+12 -2.32365e+12 -5.5545e+12 -5.43482e+12 -4.71934e+12 -3.02792e+12 -5.30639e+12 -7.14315e+12 -4.34127e+12 -2.65373e+12 -2.36475e+12 -6.56828e+12 -2.71779e+12 -3.69484e+12 -3.32738e+12 -4.13071e+12 -2.47976e+12 -6.10252e+12 -5.92679e+12 -4.60997e+12 -4.31915e+12 -5.55618e+12 -2.35712e+12 -3.25643e+12 -5.22301e+12 -4.93453e+12 -6.31009e+12 -3.71433e+12 -3.68885e+12 -4.55316e+12 -4.4756e+12 -3.11727e+12 -3.1723e+12 -2.89771e+12 -3.51649e+12 -4.56803e+12 -2.83348e+12 -3.26299e+12 -5.4178e+12 -2.25948e+12 -4.0997e+12 -5.3123e+12 -3.14873e+12 -2.62638e+12 -4.39931e+12 -3.167e+12 -2.34851e+12 -2.82334e+12 -1.47645e+12 -3.35608e+12 -5.32811e+12 -5.09748e+12 -2.32425e+12 -117440000000.0 -2.89954e+12 -3.63577e+12 -7.02222e+12 -3.878e+12 -3.80232e+12 -2.19493e+12 -3.33398e+12 -1.97861e+12 -4.0481e+12 -5.41695e+12 -4.65278e+12 -2.48151e+12 -2.08586e+12 -4.21186e+12 -6.12943e+12 -2.93198e+12 -2.2114e+12 -3.58685e+12 -3.69682e+12 -1.52499e+12 -3.15754e+12 -3.05043e+12 -3.85366e+12 -1.52518e+12 -5.56268e+12 -5.40847e+12 -4.73724e+12 -4.12584e+12 -3.86902e+12 -2.34234e+12 -2.9399e+12 -5.30655e+12 -3.20353e+12 -2.13919e+12 -5.09771e+12 -3.5446e+12 -2.74367e+12 -3.39008e+12 -4.23365e+12 -1.36363e+12 -1.80371e+12 -2.25027e+12 -1.77284e+12 -151296000000.0 -259661000000.0 -191215000000.0 -157021000000.0 -110954000000.0 -35714800000.0 -55745300000.0 -12549700000.0 -171983000000.0 -114830000000.0 -125938000000.0 -181360000000.0 -181912000000.0 -233580000000.0 -193292000000.0 -272633000000.0 -191370000000.0 -223152000000.0 -237814000000.0 -248640000000.0 -245038000000.0 -12549700000.0 -4.38212e+12 -4.00295e+12 -2.60963e+12 -3.20068e+12 -3.69182e+12 -3.04104e+12 -1.7247e+12 -3.96162e+12 -5.58982e+12 -5.40464e+12 -2.69122e+12 -4.32378e+12 -2.68618e+12 -4.40091e+12 -3.10464e+12 -4.67097e+12 -3.03469e+12 -1.42764e+12 -3.02831e+12 -3.96094e+12 -2.19546e+12 -2.61417e+12 -2.29881e+12 -2.20835e+12 -1.70428e+12 -1.50082e+12 -2.48653e+12 -3.71018e+12 -6.4318e+12 -2.37072e+12 -2.25482e+12 -4.38256e+12 -3.2507e+12 -2.32164e+12 -3.62588e+12 -5.30762e+12 -4.42518e+12 -4.53216e+12 -1.55557e+12 -2.26508e+12 -3.05167e+12 -2.51079e+12 -3.26734e+12 -4.57264e+12 -4.73157e+12 -1.90664e+12 -2.87514e+12 -3.6037e+12 -4.61893e+12 -4.0486e+12 -3.10207e+12 -2.35197e+12 -2.47655e+12 -2.57866e+12 -4.91216e+12 -4.07718e+12 -3.8813e+12 -2.3666e+12 -6.16776e+12 -4.80366e+12 -1.62846e+12 -1.79407e+12 -4.06661e+12 -3.13573e+12 -7.13953e+12 -3.03684e+12 -1.98272e+12 -4.82906e+12 -5.89859e+12 -3.05472e+12 -3.06372e+12 -2.50402e+12 -4.85007e+12 -3.79802e+12 -2.63703e+12 -3.4688e+12 -2.88682e+12 -4.02061e+12 -3.56842e+12 -4.35453e+12 -2.85253e+12 -4.00149e+12 -2.75438e+12 -5.05e+12 -2.56666e+12 -4.62681e+12 -4.13609e+12 -5.31023e+12 -5.24514e+12 -2.50796e+12 -4.21605e+12 -3.9176e+12 -3.79673e+12 -3.81285e+12 -2.43678e+12 -4.74275e+12 -4.54298e+12 -5.02976e+12 -1.26068e+12 -4.23445e+12 -1.7575e+12 -3.00398e+12 -3.09329e+12 -1.80575e+12 -4.29227e+12 -2.73872e+12 -5.01623e+12 -1.5357e+12 -71175500000.0 -98373000000.0 -147420000000.0 -102702000000.0 -99825400000.0 -111665000000.0 -125756000000.0 -86876500000.0 -77175900000.0 -38123400000.0 -74106600000.0 -44984200000.0 -41948700000.0 -198188000000.0 -133569000000.0 -97690700000.0 -99558800000.0 -93776100000.0 -362467000000.0 -351817000000.0 -3.22987e+12 -4.20507e+12 -3.31629e+12 -2.40647e+12 -2.07631e+12 -2.17158e+12 -2.80984e+12 -2.30753e+12 -3.15016e+12 -3.21106e+12 -2.26657e+12 -3.33821e+12 -3.6087e+12 -3.87657e+12 -2.16876e+12 -2.95588e+12 -2.55932e+12 -2.49851e+12 -3.92318e+12 -3.82455e+12 -2.20726e+12 -1.78444e+12 -2.97475e+12 -4.69695e+12 -1.89426e+12 -2.29969e+12 -3.11323e+12 -4.45576e+12 -2.52684e+12 -4.54904e+12 -3.16728e+12 -2.83178e+12 -3.16981e+12 -1.95516e+12 -1.82438e+12 -5.62006e+12 -2.15123e+12 -2.96447e+12 -5.26441e+12 -2.81971e+12 -2.26214e+12 -3.90595e+12 -1.76731e+12 -3.72882e+12 -3.31306e+12 -1.61324e+12 -3.2658e+12 -4.01607e+12 -2.47231e+12 -3.55717e+12 -2.53646e+12 -2.18315e+12 -5.13273e+12 -2.95234e+12 -4.22241e+12 -1.97755e+12 -2.96419e+12 -4.2483e+12 -3.06339e+12 -3.62753e+12 -3.04536e+12 -2.80149e+12 -1.82126e+12 -2.13875e+12 -2.44371e+12 -2.59289e+12 -1.45793e+12 -2.77165e+12 -1.8208e+12 -2.68293e+12 -2.70169e+12 -2.94088e+12 -2.74465e+12 -2.15344e+12 -2.4831e+12 -6.31494e+12 -2.12805e+12 -3.18896e+12 -3.40548e+12 -1.76802e+12 -1.55984e+12 -3.45332e+12 -3.33667e+12 -2.41367e+12 -1.54248e+12 -2.58238e+12 -2.59449e+12 -3.30697e+12 -2.28775e+12 -3.30092e+12 -3.04151e+12 -2.44897e+12 -2.46497e+12 -5.10875e+12 -1.84685e+12 -41123100000.0 -80372200000.0 -270283000000.0 -104849000000.0 -130216000000.0 -114225000000.0 -126310000000.0 -161216000000.0 -103829000000.0 -119557000000.0 -118480000000.0 -149813000000.0 -135815000000.0 -197624000000.0 -16135800000.0 -156681000000.0 -28618400000.0 -44313200000.0 -256187000000.0 -12549700000.0 -3.33924e+12 -3.96211e+12 -4.07091e+12 -4.51727e+12 -2.98169e+12 -2.61678e+12 -2.46401e+12 -2.88506e+12 -2.3637e+12 -2.57978e+12 -4.48378e+12 -2.21121e+12 -5.4105e+12 -2.19999e+12 -4.05786e+12 -1.91709e+12 -3.6648e+12 -3.08173e+12 -2.81078e+12 -3.09773e+12 -2.26573e+12 -3.3609e+12 -2.76363e+12 -2.65364e+12 -3.92457e+12 -2.17056e+12 -2.82263e+12 -2.75974e+12 -1.20023e+12 -3.18254e+12 -3.40248e+12 -2.68994e+12 -2.28734e+12 -2.89991e+12 -2.14664e+12 -2.69018e+12 -1.43002e+12 -4.23541e+12 -3.52036e+12 -1.48904e+12 -1.14316e+12 -2.19566e+12 -4.16025e+12 -4.63603e+12 -2.56297e+12 -3.12521e+12 -2.78688e+12 -2.13275e+12 -1.4541e+12 -3.85134e+12 -2.02563e+12 -2.85285e+12 -1.9112e+12 -3.15397e+12 -1.49166e+12 -1.08646e+12 -1.72645e+12 -2.43533e+12 -2.77002e+12 -1.35743e+12 -2.1945e+12 -4.01666e+12 -1.78547e+12 -2.41343e+12 -2.81007e+12 -1.37127e+12 -2.38489e+12 -2.45948e+12 -3.6373e+12 -439378000000.0 -2.13598e+12 -2.04426e+12 -2.27545e+12 -1.36118e+12 -3.12119e+12 -460126000000.0 -2.52057e+12 -1.7719e+12 -1.13127e+12 -3.03589e+12 -2.7409e+12 -1.78779e+12 -1.79511e+12 -2.53095e+12 -2.8562e+12 -1.69614e+12 -3.27602e+12 -1.82094e+12 -1.71884e+12 -2.03345e+12 -3.23366e+12 -2.49581e+12 -1.72464e+12 -2.52586e+12 -2.47925e+12 -1.50423e+12 -2.51861e+12 -2.21181e+12 -2.04504e+12 -2.74233e+12 -1.56486e+12 -1.89247e+12 -3.03238e+12 -2.79264e+12 -217884000000.0 -343142000000.0 -51756700000.0 -34966000000.0 -41747000000.0 -46262500000.0 -48444600000.0 -118112000000.0 -75000300000.0 -126005000000.0 -97486600000.0 -32401200000.0 -12549700000.0 -159248000000.0 -13924200000.0 -144707000000.0 -12549700000.0 -12549700000.0 -294226000000.0 -12547200000.0 -2.3035e+12 -1.38129e+12 -1.01138e+12 -3.07301e+12 -2.51591e+12 -1.22801e+12 -2.34837e+12 -2.04023e+12 -3.49401e+12 -1.51242e+12 -2.44315e+12 -4.21542e+12 -2.54038e+12 -3.89851e+12 -4.32789e+12 -3.14522e+12 -3.01276e+12 -1.7065e+12 -1.95301e+12 -1.43e+12 -2.42064e+12 -1.77629e+12 -624811000000.0 -1.80439e+12 -1.47145e+12 -665400000000.0 -1.97522e+12 -502756000000.0 -3.01215e+12 -2.68142e+12 -2.12494e+12 -4.50639e+12 -1.57353e+12 -2.35148e+12 -2.47358e+12 -3.93174e+12 -2.9847e+12 -1.80263e+12 -2.26557e+12 -2.21556e+12 -1.12888e+12 -1.79734e+12 -1.96141e+12 -2.40973e+12 -1.36714e+12 -1.71808e+12 -2.96716e+12 -2.60552e+12 -1.533e+12 -3.33194e+12 -2.40138e+12 -1.61713e+12 -1.46153e+12 -1.91022e+12 -1.59629e+12 -2.19583e+12 -2.53518e+12 -783193000000.0 -2.07877e+12 -996555000000.0 -824286000000.0 -1.8912e+12 -2.27078e+12 -1.4561e+12 -903659000000.0 -786455000000.0 -2.93965e+12 -1.83052e+12 -1.33177e+12 -2.02346e+12 -2.71835e+12 -2.25844e+12 -2.19362e+12 -3.16032e+12 -1.76642e+12 -1.82516e+12 -2.2657e+12 -2.07923e+12 -1.34518e+12 -1.56624e+12 -1.81117e+12 -2.41723e+12 -1.15161e+12 -1.74985e+12 -2.87847e+12 -1.11267e+12 -2.38539e+12 -350044000000.0 -1.75929e+12 -1.17545e+12 -2.01258e+12 -1.33653e+12 -2.41076e+12 -1.03706e+12 -1.6399e+12 -1.78625e+12 -1.69916e+12 -2.30934e+12 -2.16176e+12 -546944000000.0 -1.87337e+12 -12637100000.0 -112711000000.0 -55564300000.0 -31800200000.0 -38186500000.0 -58799700000.0 -86504900000.0 -12549700000.0 -12549700000.0 -61742600000.0 -40640200000.0 -79143000000.0 -90840200000.0 -101833000000.0 -295784000000.0 -137985000000.0 -218417000000.0 -188382000000.0 -67648600000.0 -280091000000.0 -1.26678e+12 -1.73595e+12 -1.88684e+12 -1.75855e+12 -4.50083e+12 -1.29402e+12 -2.12196e+12 -1.79198e+12 -3.87202e+12 -993234000000.0 -2.37668e+12 -1.49548e+12 -3.34482e+12 -1.67421e+12 -845644000000.0 -951957000000.0 -1.06e+12 -2.25721e+12 -1.30118e+12 -1.32044e+12 -1.50843e+12 -2.44498e+12 -3.22484e+12 -1.13298e+12 -3.57633e+12 -1.67338e+12 -2.68892e+12 -2.11918e+12 -2.31309e+12 -2.35708e+12 -1.07157e+12 -1.27227e+12 -1.67372e+12 -2.74501e+12 -2.94591e+12 -1.97e+12 -2.37862e+12 -2.76584e+12 -1.41991e+12 -588126000000.0 -2.51585e+12 -1.25503e+12 -1.72377e+12 -926259000000.0 -2.00872e+12 -1.54912e+12 -1.58401e+12 -1.65234e+12 -1.1731e+12 -1.36385e+12 -1.61791e+12 -1.03688e+12 -1.15236e+12 -1.56458e+12 -1.18686e+12 -1.30016e+12 -892046000000.0 -891167000000.0 -730145000000.0 -2.68161e+12 -1.71781e+12 -1.26046e+12 -2.14113e+12 -1.99485e+12 -148027000000.0 -1.7295e+12 -2.47459e+12 -2.65521e+12 -2.62217e+12 -1.76746e+12 -576114000000.0 -1.31632e+12 -1.9647e+12 -1.89358e+12 -3.43956e+12 -1.02146e+12 -1.60541e+12 -1.35754e+12 -1.15821e+12 -1.79619e+12 -941415000000.0 -1.42669e+12 -515557000000.0 -1.99687e+12 -401658000000.0 -901536000000.0 -971540000000.0 -1.5145e+12 -215829000000.0 -1.88997e+12 -1.94644e+12 -14415400000.0 -45936600000.0 -36658400000.0 -13899400000.0 -12549700000.0 -23918200000.0 -43270400000.0 -12549700000.0 -14253600000.0 -38171700000.0 -12549700000.0 -30238400000.0 -35659700000.0 -45180000000.0 -162363000000.0 -127744000000.0 -146178000000.0 -60874800000.0 -25156000000.0 -114306000000.0 -1.3612e+12 -2.17512e+12 -1.66452e+12 -2.34963e+12 -2.0186e+12 -663605000000.0 -1.12669e+12 -1.51551e+12 -1.79995e+12 -1.14619e+12 -705723000000.0 -2.53508e+12 -2.72985e+12 -1.68261e+12 -1.34883e+12 -1.01428e+12 -1.91251e+12 -1.25941e+12 -1.1396e+12 -2.76666e+12 -1.62197e+12 -1.85492e+12 -3.27516e+12 -1.90488e+12 -2.54686e+12 -548444000000.0 -2.20023e+12 -2.00957e+12 -1.51356e+12 -1.12593e+12 -1.68855e+12 -993339000000.0 -804844000000.0 -1.64538e+12 -2.01117e+12 -1.98095e+12 -1.12911e+12 -719425000000.0 -1.18982e+12 -1.07355e+12 -1.47824e+12 -1.50727e+12 -1.76505e+12 -817033000000.0 -740331000000.0 -1.54419e+12 -600184000000.0 -1.14727e+12 -1.22265e+12 -967880000000.0 -1.29234e+12 -768669000000.0 -1.27301e+12 -1.29085e+12 -892244000000.0 -1.58662e+12 -538039000000.0 -774638000000.0 -2.00515e+12 -1.25087e+12 -663087000000.0 -872554000000.0 -745175000000.0 -1.88333e+12 -1.27243e+12 -1.45527e+12 -1.2376e+12 -1.84815e+12 -855898000000.0 -1.21844e+12 -1.1128e+12 -147282000000.0 -337885000000.0 -1.56515e+12 -456327000000.0 -1.83514e+12 -1.69289e+12 -919714000000.0 -1.45474e+12 -386538000000.0 -1.2999e+12 -1.21898e+12 -758093000000.0 -1.23206e+12 -1.13804e+12 -337877000000.0 -826576000000.0 -806819000000.0 -1.07682e+12 -696137000000.0 -1.05621e+12 -583100000000.0 -12549700000.0 -25864700000.0 -33019600000.0 -12549700000.0 -12549700000.0 -20233700000.0 -32466700000.0 -12549700000.0 -12897900000.0 -29456200000.0 -14378500000.0 -22108200000.0 -24145500000.0 -28084900000.0 -99551200000.0 -131945000000.0 -128539000000.0 -283164000000.0 -346155000000.0 -444235000000.0 -1.32936e+12 -1.46434e+12 -1.17288e+12 -1.0041e+12 -1.51345e+12 -1.1242e+12 -713932000000.0 -1.14026e+12 -2.39321e+12 -1.80453e+12 -1.99908e+12 -1.00736e+12 -1.3357e+12 -1.33635e+12 -965319000000.0 -987139000000.0 -1.66996e+12 -1.74019e+12 -2.18512e+12 -926831000000.0 -1.43397e+12 -1.4761e+12 -1.16584e+12 -990385000000.0 -2.05387e+12 -676456000000.0 -1.05092e+12 -604583000000.0 -1.15094e+12 -1.01813e+12 -1.60434e+12 -1.45104e+12 -1.97186e+12 -605055000000.0 -1.69049e+12 -1.48071e+12 -691529000000.0 -1.937e+12 -1.10437e+12 -705627000000.0 -811452000000.0 -838568000000.0 -305801000000.0 -892977000000.0 -1.04461e+12 -166497000000.0 -922526000000.0 -841096000000.0 -1.41542e+12 -858773000000.0 -817237000000.0 -1.31446e+12 -622099000000.0 -331774000000.0 -1.20719e+12 -912624000000.0 -957385000000.0 -1.36036e+12 -593058000000.0 -596006000000.0 -790596000000.0 -712998000000.0 -1.19268e+12 -224857000000.0 -1.5016e+12 -854848000000.0 -648747000000.0 -973672000000.0 -1.51696e+12 -1.11125e+12 -915040000000.0 -709916000000.0 -1.31691e+12 -2.18818e+12 -982708000000.0 -1.1055e+12 -690355000000.0 -494723000000.0 -403477000000.0 -94626000000.0 -1.02834e+12 -535393000000.0 -1.56014e+12 -552334000000.0 -867364000000.0 -1.08039e+12 -217625000000.0 -547988000000.0 -697381000000.0 -644356000000.0 -328803000000.0 -12549700000.0 -17795300000.0 -20348600000.0 -12549700000.0 -12638200000.0 -14498300000.0 -29782600000.0 -16911700000.0 -20390100000.0 -36043700000.0 -29481500000.0 -30173100000.0 -31884200000.0 -61536100000.0 -17509800000.0 -13405100000.0 -49642100000.0 -26206600000.0 -63709100000.0 -69543500000.0 -670297000000.0 -375977000000.0 -1.0249e+12 -1.06926e+12 -196256000000.0 -1.04653e+12 -976485000000.0 -1.00827e+12 -731706000000.0 -1.32434e+12 -687893000000.0 -2.13868e+12 -822568000000.0 -751849000000.0 -1.32495e+12 -2.01298e+12 -1.06393e+12 -1.34951e+12 -1.62205e+12 -1.39687e+12 -794251000000.0 -716088000000.0 -992110000000.0 -30145600000.0 -1.06946e+12 -1.16705e+12 -987309000000.0 -469420000000.0 -504113000000.0 -491296000000.0 -510109000000.0 -1.53369e+12 -1.00804e+12 -549658000000.0 -498310000000.0 -940491000000.0 -642805000000.0 -423191000000.0 -611841000000.0 -1.10711e+12 -876986000000.0 -80692900000.0 -523035000000.0 -47360700000.0 -304212000000.0 -294719000000.0 -288736000000.0 -847416000000.0 -470471000000.0 -760314000000.0 -611540000000.0 -378352000000.0 -321537000000.0 -105189000000.0 -239201000000.0 -196434000000.0 -509448000000.0 -258878000000.0 -104072000000.0 -489355000000.0 -702162000000.0 -378149000000.0 -179198000000.0 -190737000000.0 -167913000000.0 -456158000000.0 -94456600000.0 -285351000000.0 -178107000000.0 -782519000000.0 -112135000000.0 -132768000000.0 -41924200000.0 -440041000000.0 -155582000000.0 -405605000000.0 -97946300000.0 -114803000000.0 -152440000000.0 -109280000000.0 -175417000000.0 -498180000000.0 -200540000000.0 -12549700000.0 -14003700000.0 -15305200000.0 -12549700000.0 -12701600000.0 -13389700000.0 -18998200000.0 -12848500000.0 -12549700000.0 -16744900000.0 -14318200000.0 -15517600000.0 -17320500000.0 -35245600000.0 -28781300000.0 -34049900000.0 -60222800000.0 -49317000000.0 -19914200000.0 -20983800000.0 -202517000000.0 -494373000000.0 -428161000000.0 -190858000000.0 -722941000000.0 -255594000000.0 -412578000000.0 -951294000000.0 -564020000000.0 -259301000000.0 -221750000000.0 -644061000000.0 -225086000000.0 -574962000000.0 -1.02886e+12 -512658000000.0 -64540500000.0 -249998000000.0 -250569000000.0 -271988000000.0 -204413000000.0 -340948000000.0 -432533000000.0 -365281000000.0 -538099000000.0 -276658000000.0 -858357000000.0 -250503000000.0 -146038000000.0 -676032000000.0 -644068000000.0 -558989000000.0 -224317000000.0 -498971000000.0 -183503000000.0 -230900000000.0 -342203000000.0 -678489000000.0 -190932000000.0 -239735000000.0 -93768900000.0 -247324000000.0 -255665000000.0 -169859000000.0 -170100000000.0 -274710000000.0 -170807000000.0 -265827000000.0 -144846000000.0 -27840600000.0 -162675000000.0 -225008000000.0 -116177000000.0 -59587500000.0 -190730000000.0 -148953000000.0 -125205000000.0 -131775000000.0 -352269000000.0 -262696000000.0 -303294000000.0 -162242000000.0 -315230000000.0 -135275000000.0 -103479000000.0 -145943000000.0 -113783000000.0 -181523000000.0 -60594300000.0 -80761800000.0 -105857000000.0 -253221000000.0 -240741000000.0 -103014000000.0 -151746000000.0 -170322000000.0 -179294000000.0 -224847000000.0 -224605000000.0 -79548500000.0 