# vtk DataFile Version 2.0
Time step 37
ASCII
DATASET UNSTRUCTURED_GRID
POINTS 5000 float
27669.6 119063.0 0
372012.0 119158.0 0
2398.28 122153.0 0
8532.2 121527.0 0
12438.9 121361.0 0
16747.6 120679.0 0
22243.6 122326.0 0
33203.6 121750.0 0
38184.2 122333.0 0
42702.9 122486.0 0
47472.6 122393.0 0
52137.1 122491.0 0
57005.0 121331.0 0
62763.5 122407.0 0
67994.7 122540.0 0
72702.4 121673.0 0
77500.0 122420.0 0
82500.0 122409.0 0
87407.7 121707.0 0
92500.0 122447.0 0
97192.8 122469.0 0
101293.0 122386.0 0
105946.0 121776.0 0
111936.0 122255.0 0
117850.0 122440.0 0
123330.0 122516.0 0
128345.0 122637.0 0
133428.0 121886.0 0
138124.0 122569.0 0
142500.0 122490.0 0
147500.0 122424.0 0
152501.0 122394.0 0
157589.0 122022.0 0
162561.0 122177.0 0
167011.0 121719.0 0
171830.0 120602.0 0
177734.0 120640.0 0
182938.0 119826.0 0
187393.0 121681.0 0
192498.0 122842.0 0
196080.0 122005.0 0
201748.0 121365.0 0
207651.0 122129.0 0
212985.0 121465.0 0
218128.0 122551.0 0
222480.0 122563.0 0
225794.0 121794.0 0
230434.0 121665.0 0
235810.0 122662.0 0
241170.0 121367.0 0
246502.0 123368.0 0
252679.0 121352.0 0
259052.0 121827.0 0
263774.0 122915.0 0
268740.0 121825.0 0
273935.0 122120.0 0
278881.0 120771.0 0
282030.0 124103.0 0
286325.0 122411.0 0
291717.0 122867.0 0
297319.0 120736.0 0
303664.0 121521.0 0
307730.0 124091.0 0
312126.0 121944.0 0
317928.0 122563.0 0
323245.0 122467.0 0
327581.0 122738.0 0
332206.0 122336.0 0
337223.0 122045.0 0
341019.0 123256.0 0
345896.0 121592.0 0
350687.0 123514.0 0
355259.0 122499.0 0
361815.0 121138.0 0
367954.0 122473.0 0
377031.0 121129.0 0
382609.0 122003.0 0
388132.0 121303.0 0
394019.0 120619.0 0
399200.0 122289.0 0
403649.0 119546.0 0
408587.0 120758.0 0
412474.0 122408.0 0
417500.0 122453.0 0
422737.0 120564.0 0
427271.0 122274.0 0
432479.0 120077.0 0
437539.0 122430.0 0
442089.0 121371.0 0
446252.0 120952.0 0
450665.0 121720.0 0
455208.0 121661.0 0
460242.0 121505.0 0
465794.0 121893.0 0
471628.0 121150.0 0
477063.0 119953.0 0
481305.0 122816.0 0
485844.0 119884.0 0
491674.0 121423.0 0
497601.0 119917.0 0
2284.43 127170.0 0
6061.54 124848.0 0
11086.5 125879.0 0
17331.8 126581.0 0
23004.5 127838.0 0
28518.4 125414.0 0
34968.3 127024.0 0
40340.8 127343.0 0
44463.6 127685.0 0
48278.8 126388.0 0
52500.0 127452.0 0
57995.0 126773.0 0
62849.8 127506.0 0
67505.2 127178.0 0
72116.4 126793.0 0
77500.0 127578.0 0
82116.1 127224.0 0
87907.8 126465.0 0
92500.0 127587.0 0
97183.6 127217.0 0
102467.0 127120.0 0
108243.0 126367.0 0
112500.0 127523.0 0
117500.0 127605.0 0
122500.0 127528.0 0
127727.0 127070.0 0
132494.0 127421.0 0
137520.0 127436.0 0
142774.0 126913.0 0
146927.0 127261.0 0
151938.0 127139.0 0
156861.0 126071.0 0
161297.0 126891.0 0
166510.0 126391.0 0
172971.0 126171.0 0
178375.0 126052.0 0
183532.0 124894.0 0
188603.0 126126.0 0
193570.0 126987.0 0
198250.0 126350.0 0
203920.0 126985.0 0
213692.0 126016.0 0
209356.0 127200.0 0
217601.0 127621.0 0
222033.0 127388.0 0
226802.0 126028.0 0
232206.0 127089.0 0
237686.0 127913.0 0
243284.0 127739.0 0
248461.0 127442.0 0
252677.0 127912.0 0
257262.0 126465.0 0
262325.0 127091.0 0
267063.0 126668.0 0
271612.0 125973.0 0
277073.0 126377.0 0
282828.0 127790.0 0
287500.0 127501.0 0
292911.0 127359.0 0
298249.0 126246.0 0
303118.0 127191.0 0
307442.0 127384.0 0
312501.0 127696.0 0
317477.0 127439.0 0
322434.0 126935.0 0
327500.0 127481.0 0
332500.0 127554.0 0
337713.0 126888.0 0
343307.0 126282.0 0
347751.0 126680.0 0
352668.0 127404.0 0
361441.0 126451.0 0
357756.0 126919.0 0
365115.0 126146.0 0
372930.0 125958.0 0
378819.0 125680.0 0
382004.0 126818.0 0
388374.0 126391.0 0
393553.0 126766.0 0
402998.0 125746.0 0
398136.0 127200.0 0
408387.0 125038.0 0
412863.0 126350.0 0
417519.0 126968.0 0
422128.0 125201.0 0
428326.0 127216.0 0
433428.0 125311.0 0
437510.0 127498.0 0
443214.0 125654.0 0
447601.0 124961.0 0
451945.0 126198.0 0
457176.0 126388.0 0
462429.0 127876.0 0
466599.0 126463.0 0
470193.0 127643.0 0
475181.0 126443.0 0
480797.0 128091.0 0
486589.0 126074.0 0
492077.0 128324.0 0
496837.0 125426.0 0
2238.62 133091.0 0
6739.42 129893.0 0
11843.6 131710.0 0
16323.6 131789.0 0
20503.1 131800.0 0
27042.7 132247.0 0
32615.4 132081.0 0
38262.6 131855.0 0
42969.5 132241.0 0
47588.1 131109.0 0
51800.0 132873.0 0
56553.9 132393.0 0
62114.5 132364.0 0
67697.0 132022.0 0
73695.7 132336.0 0
78211.2 132775.0 0
81954.6 131950.0 0
86960.4 131981.0 0
92531.5 132338.0 0
97548.3 131736.0 0
102630.0 132882.0 0
107924.0 131147.0 0
116732.0 132208.0 0
112494.0 132421.0 0
120857.0 132058.0 0
125864.0 131439.0 0
131158.0 133137.0 0
136445.0 133089.0 0
140993.0 131034.0 0
146306.0 132152.0 0
151835.0 133751.0 0
156245.0 130632.0 0
161703.0 132582.0 0
166528.0 134401.0 0
169997.0 130958.0 0
176294.0 131810.0 0
182187.0 130033.0 0
188049.0 132288.0 0
194261.0 132013.0 0
199972.0 131455.0 0
208111.0 132108.0 0
204288.0 132450.0 0
213300.0 130827.0 0
217709.0 132555.0 0
222564.0 131663.0 0
226872.0 131033.0 0
232444.0 132554.0 0
237422.0 132339.0 0
241792.0 132993.0 0
246842.0 131511.0 0
251785.0 132804.0 0
257737.0 131217.0 0
262719.0 131869.0 0
267488.0 131123.0 0
273046.0 131214.0 0
279878.0 130438.0 0
283555.0 132723.0 0
287216.0 132791.0 0
291018.0 131666.0 0
296735.0 131290.0 0
302234.0 132426.0 0
307701.0 131814.0 0
313207.0 132939.0 0
318189.0 131929.0 0
322510.0 130941.0 0
326813.0 132823.0 0
336511.0 131552.0 0
331856.0 132540.0 0
341413.0 130487.0 0
346845.0 131066.0 0
351893.0 132239.0 0
356026.0 130793.0 0
361260.0 131153.0 0
357350.0 134750.0 0
366513.0 130227.0 0
371101.0 132099.0 0
377674.0 131615.0 0
384355.0 130156.0 0
392423.0 131588.0 0
388338.0 133345.0 0
397217.0 131548.0 0
402858.0 131987.0 0
409243.0 130683.0 0
414412.0 133238.0 0
419143.0 131658.0 0
424120.0 130019.0 0
427684.0 133055.0 0
432248.0 130934.0 0
437340.0 131673.0 0
442357.0 130890.0 0
448273.0 130034.0 0
454176.0 131602.0 0
458990.0 132650.0 0
463185.0 132414.0 0
467519.0 132524.0 0
472372.0 130965.0 0
477747.0 131915.0 0
482622.0 132786.0 0
487506.0 133887.0 0
491506.0 132386.0 0
496591.0 131995.0 0
2182.12 137505.0 0
8050.27 135734.0 0
13471.7 136336.0 0
17752.1 135633.0 0
22416.9 136173.0 0
26987.9 138171.0 0
32071.5 136368.0 0
37588.2 137060.0 0
43204.7 137304.0 0
49063.5 135900.0 0
53807.2 137573.0 0
59222.6 137071.0 0
63616.7 136696.0 0
68064.9 137694.0 0
72603.0 137211.0 0
77068.8 136695.0 0
82136.1 136971.0 0
87334.1 137155.0 0
92269.2 137668.0 0
97732.3 137088.0 0
102767.0 138339.0 0
107685.0 136645.0 0
113112.0 136750.0 0
118138.0 136684.0 0
123420.0 136045.0 0
127500.0 137602.0 0
137738.0 137003.0 0
132691.0 137965.0 0
142523.0 137153.0 0
148001.0 136761.0 0
156828.0 136027.0 0
153419.0 138404.0 0
160406.0 137395.0 0
164429.0 138104.0 0
170842.0 136987.0 0
177032.0 138378.0 0
182233.0 135512.0 0
186625.0 137922.0 0
191646.0 137410.0 0
197223.0 136740.0 0
203055.0 136594.0 0
208748.0 138454.0 0
214360.0 136497.0 0
218717.0 137803.0 0
222022.0 135921.0 0
227507.0 136583.0 0
234331.0 136934.0 0
237873.0 135664.0 0
241750.0 137595.0 0
246211.0 136696.0 0
251519.0 138062.0 0
255873.0 135933.0 0
260337.0 135604.0 0
262637.0 139178.0 0
266351.0 135806.0 0
271757.0 137483.0 0
278361.0 135941.0 0
284358.0 137462.0 0
288758.0 135945.0 0
292983.0 137661.0 0
298941.0 137590.0 0
303985.0 137822.0 0
307500.0 137645.0 0
316255.0 136644.0 0
312166.0 137464.0 0
321077.0 136169.0 0
325850.0 137755.0 0
329893.0 136366.0 0
334357.0 138361.0 0
339780.0 135878.0 0
346088.0 137321.0 0
352844.0 137815.0 0
361674.0 137141.0 0
366552.0 134919.0 0
367105.0 139827.0 0
371934.0 137733.0 0
377880.0 139066.0 0
382813.0 135672.0 0
387369.0 137530.0 0
393045.0 138259.0 0
399508.0 137157.0 0
408059.0 136032.0 0
404320.0 137182.0 0
412348.0 137703.0 0
416949.0 137040.0 0
421365.0 138291.0 0
425657.0 136682.0 0
431065.0 137125.0 0
437115.0 135868.0 0
441813.0 136476.0 0
446525.0 135032.0 0
450850.0 135532.0 0
455409.0 137374.0 0
461203.0 137065.0 0
466978.0 136850.0 0
472596.0 135924.0 0
478848.0 137414.0 0
484705.0 137927.0 0
489148.0 138651.0 0
492124.0 136242.0 0
496754.0 138637.0 0
1482.5 142182.0 0
7153.76 142041.0 0
11903.8 140075.0 0
12670.1 144580.0 0
17160.8 140812.0 0
23052.1 141557.0 0
30223.7 140908.0 0
28648.0 144954.0 0
34874.5 141701.0 0
39763.7 141124.0 0
43681.9 142959.0 0
48580.9 141124.0 0
53134.0 143573.0 0
57213.0 141463.0 0
63065.6 141471.0 0
68311.5 142870.0 0
73400.4 141270.0 0
78301.4 141844.0 0
83592.8 141912.0 0
88397.1 141972.0 0
92507.8 142510.0 0
97237.1 142503.0 0
101195.0 142568.0 0
105586.0 142161.0 0
111306.0 141334.0 0
116640.0 141942.0 0
122098.0 141236.0 0
126931.0 141646.0 0
131218.0 142346.0 0
136577.0 141553.0 0
142212.0 142847.0 0
147011.0 141038.0 0
151801.0 142971.0 0
157942.0 141963.0 0
167047.0 140978.0 0
163658.0 142589.0 0
171004.0 142995.0 0
176728.0 144669.0 0
182933.0 142431.0 0
193693.0 141496.0 0
189204.0 142329.0 0
198249.0 142628.0 0
203175.0 141695.0 0
207321.0 143834.0 0
212116.0 142705.0 0
216320.0 141114.0 0
221176.0 141452.0 0
226331.0 143221.0 0
231983.0 141434.0 0
237943.0 140399.0 0
242843.0 142249.0 0
248030.0 141774.0 0
252898.0 142090.0 0
257728.0 141115.0 0
262831.0 144757.0 0
267588.0 141757.0 0
272698.0 143368.0 0
278480.0 142595.0 0
283574.0 142049.0 0
288835.0 141266.0 0
293487.0 142258.0 0
297507.0 143636.0 0
302639.0 142127.0 0
307116.0 142487.0 0
311942.0 142205.0 0
316967.0 141080.0 0
322297.0 141764.0 0
330939.0 141881.0 0
327152.0 142625.0 0
341520.0 141371.0 0
337121.0 142259.0 0
346661.0 143286.0 0
351580.0 143466.0 0
357892.0 141327.0 0
362982.0 142115.0 0
370166.0 143273.0 0
374543.0 143290.0 0
383271.0 141685.0 0
388208.0 141710.0 0
392170.0 144505.0 0
397893.0 143093.0 0
403055.0 141159.0 0
408163.0 140883.0 0
414683.0 141350.0 0
417928.0 142601.0 0
422498.0 143152.0 0
427477.0 141133.0 0
431260.0 142554.0 0
436124.0 140852.0 0
441993.0 142137.0 0
448329.0 140544.0 0
454026.0 142533.0 0
459444.0 142676.0 0
464980.0 141955.0 0
473887.0 141141.0 0
469644.0 142806.0 0
477662.0 144213.0 0
481986.0 142368.0 0
486774.0 142262.0 0
492177.0 142819.0 0
497457.0 144373.0 0
2749.52 146220.0 0
7839.09 148561.0 0
18088.1 146582.0 0
23745.0 147315.0 0
33631.8 147258.0 0
39133.7 145965.0 0
43743.9 147169.0 0
48692.6 147093.0 0
54180.4 148277.0 0
59719.3 146475.0 0
64870.8 147575.0 0
68289.1 147061.0 0
72213.1 145149.0 0
76319.7 146740.0 0
81940.9 147333.0 0
87886.2 147041.0 0
96906.5 147076.0 0
92637.0 147438.0 0
101491.0 147206.0 0
106437.0 147498.0 0
111043.0 146183.0 0
115385.0 146659.0 0
120870.0 147260.0 0
127440.0 146910.0 0
133301.0 146799.0 0
138725.0 147286.0 0
143743.0 147454.0 0
148389.0 147056.0 0
152799.0 147560.0 0
157000.0 147661.0 0
161442.0 146438.0 0
166774.0 146330.0 0
172236.0 148779.0 0
177078.0 148995.0 0
181363.0 149043.0 0
186882.0 147329.0 0
192410.0 146836.0 0
197843.0 148336.0 0
202628.0 146271.0 0
206635.0 148446.0 0
210631.0 147234.0 0
216384.0 147009.0 0
222686.0 147096.0 0
228326.0 148766.0 0
233994.0 149921.0 0
236018.0 145383.0 0
240939.0 147817.0 0
246424.0 148369.0 0
250906.0 146241.0 0
256765.0 147323.0 0
268273.0 147114.0 0
272894.0 148264.0 0
277851.0 148604.0 0
282084.0 145979.0 0
287110.0 147351.0 0
293046.0 146677.0 0
297883.0 148991.0 0
301872.0 146054.0 0
306177.0 147967.0 0
311438.0 147933.0 0
316865.0 146205.0 0
322341.0 147684.0 0
328008.0 147237.0 0
333888.0 146111.0 0
337525.0 149535.0 0
342206.0 147351.0 0
347983.0 148040.0 0
355553.0 145592.0 0
352294.0 147744.0 0
360519.0 146858.0 0
366516.0 146966.0 0
372526.0 148231.0 0
378547.0 146640.0 0
383423.0 145823.0 0
387242.0 146182.0 0
390735.0 149140.0 0
396043.0 148917.0 0
400402.0 147392.0 0
405312.0 146399.0 0
411970.0 145468.0 0
417776.0 147340.0 0
422968.0 148021.0 0
427292.0 145387.0 0
432239.0 147143.0 0
437084.0 146183.0 0
441852.0 147743.0 0
447111.0 146709.0 0
452641.0 147723.0 0
458109.0 148038.0 0
462539.0 147634.0 0
466555.0 146636.0 0
471813.0 147372.0 0
476954.0 148932.0 0
482254.0 147725.0 0
487738.0 147111.0 0
492470.0 148672.0 0
497459.0 149457.0 0
3057.57 152020.0 0
8751.88 154445.0 0
13609.3 150428.0 0
18379.4 154164.0 0
23879.8 153017.0 0
28781.8 150297.0 0
33719.2 152962.0 0
38541.0 151150.0 0
43270.5 151426.0 0
49671.3 151986.0 0
53686.5 153022.0 0
58566.1 152343.0 0
63416.3 151522.0 0
67007.0 151983.0 0
71705.7 150485.0 0
77975.6 152069.0 0
83400.2 153414.0 0
88019.2 152074.0 0
93070.4 152057.0 0
97999.7 151546.0 0
105783.0 151934.0 0
102078.0 153198.0 0
110766.0 151536.0 0
116642.0 151438.0 0
126500.0 152170.0 0
122655.0 152730.0 0
131194.0 151494.0 0
135219.0 153320.0 0
139748.0 152837.0 0
145105.0 152047.0 0
150851.0 152106.0 0
156884.0 153018.0 0
162037.0 151101.0 0
167180.0 151427.0 0
171462.0 154103.0 0
176185.0 152719.0 0
180974.0 154645.0 0
185795.0 152614.0 0
191577.0 152716.0 0
197331.0 153866.0 0
202644.0 151708.0 0
207608.0 152468.0 0
212134.0 151614.0 0
217212.0 153396.0 0
223347.0 153066.0 0
228978.0 154760.0 0
233410.0 154388.0 0
238460.0 153581.0 0
243836.0 152861.0 0
248989.0 152473.0 0
252375.0 150517.0 0
255539.0 153423.0 0
262543.0 151920.0 0
268735.0 152083.0 0
273494.0 152811.0 0
278387.0 153994.0 0
282796.0 151357.0 0
287974.0 153342.0 0
293223.0 152011.0 0
297717.0 154269.0 0
302611.0 151901.0 0
308390.0 152883.0 0
313173.0 152476.0 0
317437.0 151958.0 0
325881.0 151225.0 0
322200.0 153259.0 0
329968.0 152398.0 0
335033.0 152945.0 0
340300.0 153353.0 0
345920.0 154078.0 0
351085.0 152211.0 0
356012.0 150188.0 0
360815.0 152734.0 0
366437.0 152711.0 0
371144.0 153167.0 0
377227.0 153895.0 0
383498.0 150270.0 0
387808.0 153446.0 0
392749.0 153471.0 0
398357.0 154432.0 0
403887.0 152436.0 0
409494.0 151065.0 0
414469.0 151318.0 0
417766.0 151475.0 0
416993.0 155200.0 0
420955.0 151832.0 0
427627.0 151896.0 0
433304.0 151508.0 0
437890.0 151162.0 0
442652.0 152636.0 0
448517.0 152594.0 0
453997.0 152589.0 0
458540.0 153008.0 0
462991.0 152789.0 0
467794.0 151616.0 0
472983.0 153118.0 0
479980.0 152837.0 0
484308.0 152690.0 0
488546.0 152237.0 0
492633.0 152827.0 0
497770.0 154217.0 0
2142.5 157922.0 0
13671.4 158071.0 0
18603.2 159105.0 0
22343.5 157503.0 0
27491.0 157947.0 0
32328.9 157213.0 0
37270.5 157761.0 0
42439.3 159082.0 0
46373.2 155788.0 0
51407.8 158176.0 0
57399.4 158473.0 0
63644.2 156691.0 0
68688.0 155266.0 0
73556.6 158335.0 0
79820.0 157547.0 0
85123.5 158338.0 0
90126.1 156556.0 0
95036.8 158413.0 0
98602.0 155722.0 0
101293.0 159078.0 0
105636.0 156444.0 0
111336.0 157874.0 0
118205.0 157008.0 0
123813.0 157258.0 0
128387.0 155587.0 0
133268.0 157663.0 0
137790.0 156777.0 0
141902.0 157630.0 0
147422.0 157358.0 0
152993.0 157314.0 0
157246.0 158931.0 0
161787.0 156669.0 0
167144.0 156397.0 0
170762.0 158134.0 0
176882.0 157713.0 0
182322.0 159465.0 0
186888.0 157640.0 0
191538.0 158020.0 0
196350.0 159312.0 0
201628.0 157181.0 0
207155.0 157437.0 0
212989.0 157126.0 0
219801.0 158484.0 0
224911.0 158387.0 0
228653.0 158854.0 0
232793.0 158168.0 0
236991.0 158822.0 0
242100.0 157110.0 0
246557.0 156838.0 0
251471.0 156435.0 0
257766.0 158691.0 0
262741.0 157993.0 0
268253.0 157700.0 0
274071.0 157772.0 0
279359.0 159517.0 0
284550.0 157393.0 0
289720.0 158274.0 0
293310.0 156374.0 0
296531.0 159191.0 0
302308.0 157590.0 0
307427.0 158148.0 0
312021.0 156647.0 0
316759.0 156552.0 0
321330.0 158392.0 0
326426.0 156844.0 0
331733.0 157351.0 0
337285.0 158651.0 0
342892.0 158684.0 0
346830.0 158645.0 0
351165.0 157387.0 0
356393.0 155755.0 0
361679.0 158839.0 0
366975.0 157581.0 0
371657.0 157649.0 0
382202.0 157820.0 0
386895.0 158170.0 0
391452.0 157978.0 0
395529.0 158731.0 0
400530.0 159540.0 0
405865.0 158208.0 0
411607.0 156588.0 0
422630.0 156829.0 0
428259.0 157981.0 0
432998.0 156152.0 0
438724.0 156809.0 0
444698.0 157517.0 0
450508.0 159272.0 0
455669.0 156983.0 0
461372.0 157877.0 0
468721.0 156841.0 0
465832.0 159520.0 0
473166.0 158689.0 0
477805.0 157350.0 0
482449.0 157518.0 0
486595.0 156394.0 0
490651.0 156843.0 0
495005.0 158198.0 0
2239.97 162494.0 0
7229.67 160523.0 0
12439.9 164133.0 0
18048.7 163561.0 0
23274.4 162356.0 0
29081.1 163920.0 0
32590.4 160687.0 0
35953.4 163577.0 0
40993.1 163301.0 0
47006.4 162269.0 0
52812.1 162918.0 0
57602.3 164633.0 0
62195.0 162086.0 0
67963.0 162152.0 0
73650.9 165041.0 0
78090.1 162144.0 0
82804.3 163055.0 0
88773.6 162876.0 0
93972.1 163256.0 0
97843.9 161779.0 0
101251.0 163363.0 0
105727.0 161936.0 0
110243.0 163311.0 0
115522.0 162887.0 0
121623.0 162089.0 0
128113.0 161626.0 0
137500.0 160719.0 0
133715.0 162498.0 0
142031.0 162897.0 0
148122.0 163939.0 0
153547.0 162133.0 0
157984.0 163110.0 0
163103.0 162507.0 0
173356.0 161382.0 0
168439.0 161668.0 0
177762.0 162156.0 0
181596.0 164037.0 0
186463.0 162907.0 0
191579.0 162532.0 0
195893.0 165064.0 0
201125.0 162774.0 0
207148.0 163498.0 0
212099.0 162060.0 0
216814.0 163271.0 0
221591.0 164089.0 0
226069.0 162915.0 0
231021.0 162202.0 0
235877.0 163460.0 0
241284.0 162020.0 0
246730.0 161774.0 0
252429.0 161947.0 0
257588.0 163937.0 0
263721.0 163497.0 0
269615.0 163364.0 0
274593.0 162753.0 0
279914.0 164861.0 0
284010.0 161854.0 0
288599.0 163289.0 0
292657.0 161697.0 0
298740.0 163898.0 0
303658.0 162545.0 0
307809.0 162468.0 0
312330.0 161875.0 0
317607.0 161587.0 0
323361.0 163381.0 0
328007.0 161508.0 0
332710.0 162463.0 0
337432.0 163964.0 0
345480.0 162361.0 0
341917.0 162613.0 0
349521.0 161579.0 0
355331.0 161956.0 0
360667.0 164027.0 0
366488.0 162302.0 0
373422.0 162800.0 0
378337.0 160501.0 0
378300.0 164997.0 0
383175.0 163464.0 0
392583.0 162349.0 0
388074.0 162575.0 0
397115.0 162588.0 0
408060.0 162966.0 0
403356.0 163688.0 0
412515.0 161833.0 0
417170.0 160328.0 0
421022.0 162378.0 0
425372.0 162014.0 0
431956.0 161797.0 0
437685.0 163048.0 0
443670.0 163099.0 0
454497.0 162229.0 0
458797.0 163168.0 0
463933.0 162993.0 0
469295.0 162325.0 0
474375.0 163226.0 0
479087.0 162237.0 0
483695.0 163919.0 0
486590.0 160598.0 0
491388.0 162666.0 0
497411.0 162815.0 0
2127.23 166861.0 0
6959.71 166406.0 0
12579.4 169542.0 0
16008.2 167568.0 0
20036.9 167846.0 0
24884.5 167607.0 0
32221.1 168284.0 0
37672.2 169179.0 0
43317.3 167724.0 0
48685.5 168266.0 0
53578.7 167446.0 0
57457.6 169544.0 0
62542.2 167318.0 0
67219.3 167404.0 0
71132.5 169809.0 0
79097.2 167664.0 0
84541.0 167654.0 0
88604.9 167911.0 0
92508.1 167361.0 0
97466.6 166171.0 0
102445.0 167789.0 0
107193.0 166688.0 0
111837.0 167475.0 0
117995.0 168394.0 0
123248.0 167321.0 0
127767.0 167013.0 0
132820.0 167568.0 0
138523.0 166823.0 0
143145.0 167726.0 0
151877.0 167725.0 0
147994.0 169914.0 0
156564.0 167942.0 0
161568.0 167440.0 0
166876.0 166543.0 0
173249.0 167602.0 0
178607.0 167751.0 0
183534.0 168688.0 0
189458.0 167757.0 0
193908.0 168886.0 0
199741.0 167789.0 0
203874.0 168370.0 0
208360.0 168637.0 0
212779.0 166716.0 0
219058.0 168019.0 0
223358.0 167587.0 0
227641.0 167617.0 0
232480.0 166914.0 0
237729.0 167919.0 0
242291.0 168344.0 0
246696.0 166611.0 0
251869.0 168198.0 0
257453.0 168234.0 0
262304.0 169724.0 0
267691.0 167552.0 0
271759.0 167117.0 0
276113.0 167583.0 0
284283.0 166267.0 0
288577.0 168528.0 0
293598.0 166239.0 0
298813.0 168659.0 0
302640.0 167485.0 0
306700.0 166340.0 0
311690.0 167568.0 0
316843.0 166419.0 0
321344.0 168312.0 0
324883.0 167273.0 0
328697.0 166220.0 0
334155.0 168087.0 0
339612.0 167870.0 0
344145.0 166576.0 0
350102.0 167235.0 0
356714.0 168801.0 0
363254.0 168692.0 0
369397.0 167091.0 0
374925.0 168118.0 0
379745.0 168968.0 0
384038.0 169087.0 0
388071.0 167074.0 0
393147.0 167420.0 0
397923.0 166768.0 0
401989.0 168014.0 0
406597.0 167590.0 0
412748.0 167729.0 0
418442.0 165760.0 0
423546.0 167176.0 0
428717.0 165820.0 0
433883.0 168283.0 0
440196.0 169213.0 0
445499.0 167818.0 0
448656.0 170365.0 0
450715.0 165704.0 0
456146.0 167313.0 0
463205.0 167037.0 0
460062.0 167773.0 0
467453.0 167590.0 0
472541.0 167525.0 0
477866.0 167566.0 0
482744.0 168167.0 0
487589.0 167162.0 0
492465.0 167855.0 0
497811.0 167576.0 0
3067.46 171971.0 0
8553.01 170906.0 0
7504.12 175325.0 0
12198.1 174089.0 0
16419.3 171739.0 0
21310.5 172749.0 0
27464.1 172963.0 0
32650.6 172097.0 0
37793.4 174546.0 0
42302.4 172876.0 0
47950.3 173776.0 0
53255.7 172402.0 0
58928.3 173435.0 0
62499.3 171740.0 0
66930.2 171840.0 0
71360.2 173989.0 0
76177.1 172854.0 0
80897.5 175521.0 0
82350.2 171259.0 0
86391.9 171594.0 0
91252.9 172443.0 0
96601.0 171292.0 0
101325.0 172451.0 0
106449.0 171857.0 0
112395.0 172986.0 0
118078.0 173821.0 0
123220.0 172573.0 0
128380.0 171516.0 0
133236.0 173052.0 0
138695.0 172555.0 0
143897.0 171768.0 0
146817.0 174153.0 0
152640.0 172158.0 0
158021.0 172421.0 0
162828.0 171574.0 0
168108.0 171995.0 0
172596.0 173280.0 0
177247.0 173037.0 0
182427.0 173644.0 0
187087.0 172642.0 0
192266.0 172910.0 0
197935.0 172509.0 0
202909.0 172353.0 0
207315.0 173339.0 0
212052.0 171660.0 0
217205.0 173089.0 0
222465.0 171810.0 0
227445.0 173160.0 0
232442.0 171621.0 0
237068.0 172232.0 0
241374.0 172814.0 0
246108.0 171628.0 0
254524.0 172670.0 0
250347.0 173209.0 0
258825.0 173300.0 0
267464.0 172887.0 0
272515.0 171004.0 0
277255.0 172864.0 0
283198.0 171659.0 0
288217.0 173083.0 0
292768.0 171844.0 0
297378.0 172610.0 0
302100.0 172622.0 0
306888.0 171067.0 0
316043.0 171314.0 0
311367.0 173081.0 0
320407.0 172731.0 0
326140.0 172060.0 0
332574.0 174139.0 0
338274.0 173133.0 0
343318.0 171521.0 0
348159.0 172718.0 0
353181.0 173272.0 0
358609.0 174318.0 0
363217.0 174183.0 0
372381.0 172260.0 0
367630.0 172652.0 0
377383.0 173621.0 0
382007.0 172147.0 0
387372.0 171698.0 0
391833.0 172135.0 0
396412.0 171352.0 0
401427.0 172916.0 0
406576.0 172452.0 0
411925.0 174090.0 0
417743.0 171684.0 0
422243.0 174611.0 0
428007.0 172028.0 0
435855.0 173554.0 0
440095.0 174162.0 0
444886.0 172970.0 0
448961.0 173479.0 0
453284.0 172088.0 0
458569.0 171196.0 0
463268.0 171229.0 0
468255.0 172647.0 0
473568.0 172707.0 0
478469.0 172479.0 0
481961.0 173001.0 0
485376.0 171626.0 0
490341.0 171742.0 0
495334.0 171832.0 0
2830.04 177876.0 0
9655.84 179179.0 0
12522.7 177728.0 0
17163.2 177280.0 0
23588.2 178183.0 0
28516.0 178050.0 0
32914.2 176204.0 0
37936.6 180211.0 0
44154.0 178235.0 0
48946.7 179925.0 0
51665.1 176891.0 0
56221.6 176982.0 0
61494.4 177414.0 0
67361.2 177341.0 0
73113.5 178357.0 0
78023.6 179362.0 0
86724.3 177219.0 0
92877.8 178428.0 0
98369.2 176664.0 0
103677.0 176606.0 0
108522.0 177252.0 0
113658.0 178368.0 0
118712.0 179123.0 0
123559.0 177606.0 0
128427.0 176691.0 0
133082.0 177572.0 0
137597.0 177932.0 0
141642.0 180463.0 0
143072.0 175893.0 0
146707.0 178199.0 0
150635.0 176095.0 0
155608.0 176175.0 0
161150.0 176457.0 0
167133.0 178073.0 0
172930.0 177569.0 0
178055.0 178547.0 0
183652.0 178411.0 0
189253.0 177383.0 0
194196.0 177432.0 0
203778.0 176570.0 0
199079.0 178159.0 0
208282.0 178380.0 0
213126.0 176919.0 0
217850.0 178393.0 0
222500.0 177562.0 0
227501.0 177737.0 0
231372.0 175757.0 0
231615.0 179944.0 0
235343.0 176278.0 0
241013.0 177205.0 0
246230.0 177476.0 0
252670.0 177955.0 0
257745.0 177087.0 0
257368.0 180426.0 0
262637.0 176222.0 0
268645.0 177605.0 0
272484.0 175656.0 0
276645.0 177913.0 0
282616.0 177438.0 0
287957.0 177495.0 0
293356.0 177323.0 0
298041.0 176477.0 0
302179.0 178535.0 0
306758.0 175941.0 0
311377.0 178303.0 0
317143.0 177003.0 0
322859.0 177268.0 0
326680.0 177010.0 0
331450.0 178552.0 0
328119.0 180511.0 0
335629.0 179037.0 0
340792.0 177831.0 0
345206.0 175920.0 0
349873.0 177339.0 0
355446.0 179506.0 0
361541.0 178897.0 0
367145.0 178048.0 0
372561.0 177175.0 0
377581.0 179356.0 0
382876.0 176803.0 0
389045.0 176669.0 0
397274.0 176529.0 0
393440.0 178823.0 0
402362.0 178554.0 0
407527.0 177162.0 0
411986.0 179396.0 0
417010.0 177384.0 0
421587.0 179235.0 0
426096.0 178134.0 0
432016.0 177419.0 0
437803.0 178508.0 0
443156.0 177991.0 0
447791.0 177159.0 0
452660.0 177998.0 0
457755.0 176045.0 0
463135.0 176402.0 0
468198.0 177789.0 0
473087.0 177865.0 0
478100.0 177317.0 0
482744.0 177627.0 0
487710.0 176534.0 0
493261.0 176566.0 0
497791.0 176122.0 0
2517.73 183219.0 0
7269.14 182623.0 0
12115.6 182956.0 0
17591.2 183554.0 0
23415.0 184241.0 0
28808.0 182558.0 0
32721.2 180901.0 0
39401.6 185179.0 0
43273.1 183666.0 0
47708.2 183745.0 0
52882.9 182586.0 0
58209.1 181757.0 0
64168.4 183017.0 0
71363.3 181902.0 0
69257.1 183963.0 0
75109.5 183731.0 0
81048.4 183527.0 0
87053.5 183880.0 0
96751.0 182484.0 0
92020.2 183010.0 0
101923.0 180959.0 0
107424.0 183346.0 0
113364.0 183364.0 0
118426.0 184384.0 0
123399.0 182673.0 0
128618.0 181856.0 0
133599.0 182102.0 0
137995.0 183740.0 0
145475.0 183061.0 0
150727.0 181806.0 0
156815.0 181401.0 0
162658.0 182524.0 0
170994.0 182434.0 0
175347.0 184161.0 0
183158.0 182362.0 0
179616.0 183234.0 0
187239.0 182464.0 0
192616.0 182039.0 0
197964.0 183798.0 0
202934.0 181581.0 0
206813.0 183937.0 0
210963.0 182487.0 0
215630.0 182709.0 0
221237.0 182786.0 0
227182.0 183097.0 0
237592.0 181973.0 0
243852.0 182678.0 0
248906.0 182448.0 0
254148.0 184084.0 0
260306.0 182465.0 0
265515.0 181391.0 0
272405.0 181960.0 0
279500.0 182681.0 0
285572.0 181569.0 0
284057.0 185826.0 0
290281.0 181435.0 0
293631.0 184808.0 0
297349.0 181675.0 0
302306.0 183642.0 0
306879.0 181416.0 0
312363.0 184355.0 0
318329.0 182822.0 0
323489.0 182216.0 0
332372.0 183007.0 0
340950.0 182410.0 0
337056.0 183621.0 0
345695.0 181211.0 0
350921.0 183323.0 0
359290.0 183703.0 0
364352.0 183393.0 0
368943.0 182710.0 0
373329.0 182044.0 0
377200.0 184440.0 0
381328.0 182628.0 0
386961.0 182812.0 0
393350.0 183677.0 0
398525.0 182108.0 0
402911.0 183494.0 0
407772.0 182561.0 0
415877.0 183194.0 0
421176.0 184494.0 0
424599.0 182170.0 0
428964.0 182706.0 0
434132.0 182398.0 0
438736.0 183692.0 0
442787.0 182352.0 0
447717.0 182422.0 0
453044.0 183020.0 0
458330.0 181851.0 0
463622.0 181220.0 0
463597.0 185762.0 0
468162.0 183115.0 0
473599.0 182276.0 0
478150.0 182475.0 0
482809.0 181826.0 0
481099.0 185816.0 0
487497.0 182115.0 0
492502.0 181517.0 0
497556.0 180770.0 0
2475.47 188213.0 0
7677.51 187644.0 0
12005.0 187156.0 0
15772.5 188589.0 0
20838.9 189287.0 0
26808.0 188626.0 0
34064.2 186290.0 0
40052.7 189423.0 0
44704.0 188132.0 0
48758.2 187455.0 0
53063.9 187759.0 0
59513.9 186850.0 0
63885.1 188154.0 0
67605.9 187413.0 0
71691.5 187354.0 0
78265.7 187237.0 0
82472.5 188517.0 0
87141.2 189471.0 0
91999.8 187650.0 0
97000.5 187599.0 0
102128.0 186850.0 0
106970.0 189225.0 0
111124.0 187659.0 0
115819.0 189027.0 0
121102.0 189029.0 0
126570.0 187378.0 0
132454.0 187076.0 0
137140.0 188210.0 0
142292.0 187342.0 0
147729.0 186810.0 0
152626.0 187461.0 0
157521.0 186485.0 0
162025.0 188094.0 0
167210.0 186525.0 0
172467.0 187582.0 0
178178.0 188493.0 0
183467.0 186285.0 0
186111.0 190687.0 0
190429.0 187056.0 0
195415.0 188500.0 0
203350.0 186936.0 0
199784.0 189118.0 0
208218.0 187919.0 0
212602.0 186989.0 0
217694.0 187396.0 0
223418.0 187635.0 0
227699.0 188093.0 0
232737.0 187323.0 0
237923.0 187989.0 0
242252.0 186870.0 0
246581.0 186763.0 0
251462.0 188548.0 0
257657.0 188359.0 0
262654.0 186589.0 0
268086.0 186648.0 0
273562.0 188666.0 0
279478.0 188875.0 0
289115.0 186534.0 0
293857.0 189028.0 0
298809.0 187425.0 0
302792.0 187111.0 0
302706.0 190270.0 0
307473.0 186974.0 0
307443.0 190908.0 0
312807.0 190173.0 0
316382.0 187737.0 0
321289.0 187843.0 0
327597.0 186386.0 0
333604.0 187988.0 0
340751.0 186542.0 0
337888.0 189492.0 0
346462.0 187765.0 0
352479.0 188144.0 0
358046.0 189285.0 0
362684.0 187257.0 0
367601.0 187984.0 0
373234.0 187169.0 0
377756.0 189173.0 0
383127.0 188041.0 0
388875.0 188692.0 0
397597.0 186525.0 0
393912.0 188955.0 0
401994.0 188111.0 0
407553.0 188364.0 0
417739.0 187354.0 0
413355.0 188389.0 0
420742.0 188637.0 0
426077.0 188080.0 0
432063.0 187180.0 0
436731.0 187535.0 0
442764.0 187374.0 0
448811.0 189521.0 0
453408.0 187191.0 0
458509.0 188381.0 0
467769.0 188431.0 0
471814.0 185975.0 0
476448.0 187507.0 0
485656.0 186779.0 0
490708.0 187813.0 0
496000.0 186049.0 0
3210.32 193341.0 0
8257.03 192744.0 0
12762.4 192380.0 0
17405.8 193348.0 0
22005.8 193883.0 0
26228.4 193410.0 0
30951.0 191912.0 0
35930.8 192028.0 0
40007.3 195152.0 0
43628.9 192117.0 0
47754.2 191488.0 0
51807.8 191818.0 0
52669.0 196013.0 0
56828.4 192038.0 0
62578.0 192168.0 0
67169.5 192591.0 0
72519.4 192541.0 0
77990.7 191335.0 0
82527.4 192942.0 0
86294.9 193537.0 0
90160.0 192785.0 0
95222.3 192622.0 0
101125.0 192520.0 0
106555.0 194247.0 0
111796.0 192521.0 0
118332.0 193698.0 0
123280.0 193456.0 0
127624.0 192498.0 0
132214.0 192392.0 0
137231.0 192809.0 0
141707.0 194082.0 0
146468.0 191806.0 0
151573.0 194269.0 0
156133.0 191428.0 0
161834.0 194395.0 0
169286.0 192908.0 0
175976.0 194268.0 0
181607.0 193304.0 0
190991.0 192360.0 0
195752.0 193175.0 0
200537.0 194299.0 0
204960.0 191456.0 0
208468.0 193698.0 0
206279.0 196020.0 0
211623.0 191557.0 0
216509.0 192717.0 0
221709.0 192040.0 0
226700.0 192584.0 0
231960.0 191593.0 0
230985.0 195987.0 0
236070.0 192874.0 0
241440.0 191364.0 0
246768.0 191875.0 0
251422.0 192799.0 0
256146.0 193466.0 0
261547.0 191930.0 0
266313.0 191086.0 0
270637.0 193546.0 0
276599.0 193622.0 0
284958.0 190964.0 0
290182.0 191400.0 0
293752.0 193646.0 0
297269.0 191847.0 0
304642.0 194974.0 0
310134.0 193483.0 0
313929.0 194942.0 0
316962.0 191887.0 0
326196.0 191770.0 0
321557.0 193818.0 0
331851.0 192971.0 0
336693.0 193503.0 0
341782.0 192419.0 0
346625.0 193637.0 0
350387.0 192075.0 0
354413.0 193351.0 0
363422.0 192599.0 0
368530.0 193206.0 0
372654.0 191859.0 0
376989.0 194322.0 0
381264.0 192551.0 0
385750.0 193159.0 0
391602.0 193708.0 0
397806.0 192607.0 0
403437.0 193087.0 0
408194.0 193480.0 0
412655.0 193553.0 0
417328.0 192052.0 0
422294.0 192384.0 0
427069.0 194771.0 0
433143.0 193113.0 0
438897.0 191594.0 0
443937.0 192964.0 0
448492.0 195368.0 0
453764.0 192149.0 0
457907.0 194293.0 0
463036.0 192841.0 0
468111.0 193202.0 0
472248.0 191023.0 0
476530.0 192541.0 0
481590.0 191084.0 0
487404.0 191690.0 0
492245.0 194222.0 0
497268.0 191700.0 0
2743.23 198770.0 0
8043.05 197766.0 0
14922.6 197582.0 0
11765.6 200247.0 0
19910.6 198159.0 0
25330.1 198253.0 0
32699.0 198708.0 0
42536.6 200122.0 0
47201.4 196763.0 0
57753.2 198279.0 0
63751.0 197527.0 0
69578.9 197884.0 0
74694.3 198421.0 0
78841.1 196089.0 0
82761.3 197712.0 0
87411.7 197970.0 0
93077.5 198044.0 0
98832.2 197879.0 0
103893.0 198432.0 0
107222.0 198254.0 0
111638.0 198393.0 0
116412.0 201083.0 0
120396.0 198425.0 0
124183.0 197725.0 0
128406.0 197122.0 0
132872.0 196727.0 0
136854.0 197500.0 0
141100.0 198266.0 0
146522.0 197773.0 0
151900.0 199660.0 0
156635.0 197867.0 0
160658.0 199936.0 0
166704.0 199175.0 0
172255.0 197893.0 0
179233.0 197882.0 0
184127.0 198507.0 0
189314.0 196875.0 0
193667.0 197776.0 0
197502.0 197363.0 0
202964.0 198146.0 0
207410.0 200806.0 0
212262.0 197392.0 0
216812.0 197248.0 0
220980.0 196873.0 0
221748.0 201120.0 0
225744.0 197556.0 0
235665.0 197797.0 0
240547.0 196610.0 0
244739.0 200935.0 0
248382.0 196654.0 0
252562.0 196442.0 0
259976.0 196524.0 0
256061.0 198468.0 0
261843.0 201108.0 0
265488.0 196336.0 0
270071.0 200362.0 0
272927.0 197014.0 0
275664.0 197601.0 0
278050.0 200639.0 0
281962.0 196477.0 0
288338.0 196156.0 0
293479.0 198320.0 0
298770.0 196244.0 0
297213.0 201127.0 0
309152.0 197147.0 0
312953.0 199684.0 0
317700.0 196854.0 0
323365.0 199006.0 0
327806.0 196280.0 0
332500.0 197626.0 0
336869.0 198114.0 0
342207.0 197993.0 0
351678.0 196891.0 0
347215.0 198008.0 0
354427.0 200508.0 0
357650.0 196891.0 0
363234.0 198953.0 0
368505.0 197468.0 0
373400.0 198685.0 0
382577.0 196581.0 0
379101.0 198728.0 0
387079.0 198758.0 0
392324.0 199892.0 0
395893.0 197338.0 0
400749.0 197801.0 0
405935.0 197425.0 0
411228.0 198728.0 0
416962.0 197883.0 0
422189.0 197285.0 0
426356.0 200328.0 0
431392.0 198811.0 0
437982.0 197018.0 0
443846.0 198844.0 0
453590.0 197376.0 0
449070.0 199718.0 0
458353.0 198491.0 0
462241.0 197831.0 0
467268.0 198207.0 0
472251.0 196168.0 0
478244.0 197304.0 0
483446.0 196208.0 0
482525.0 200671.0 0
487730.0 196362.0 0
492457.0 199211.0 0
497113.0 197301.0 0
2122.08 203595.0 0
6629.91 202701.0 0
10874.9 203900.0 0
16445.3 202826.0 0
22134.2 202959.0 0
26806.4 202829.0 0
38044.7 204151.0 0
44044.1 204639.0 0
47182.2 201893.0 0
52162.2 201440.0 0
57345.7 204376.0 0
62695.9 202907.0 0
67631.1 203227.0 0
72733.9 202966.0 0
77869.6 202341.0 0
83358.2 202426.0 0
88733.6 202931.0 0
93487.5 202904.0 0
97430.4 202515.0 0
102461.0 203642.0 0
107419.0 201505.0 0
111801.0 204758.0 0
120437.0 204287.0 0
125858.0 202048.0 0
131746.0 201450.0 0
137378.0 202379.0 0
143319.0 203164.0 0
148470.0 202723.0 0
152880.0 204190.0 0
157302.0 202866.0 0
163243.0 202293.0 0
168106.0 204590.0 0
170863.0 201328.0 0
175911.0 201901.0 0
181671.0 203716.0 0
189132.0 202122.0 0
194263.0 202522.0 0
199453.0 201714.0 0
203612.0 203733.0 0
210864.0 204482.0 0
216144.0 202772.0 0
221801.0 205782.0 0
226487.0 202828.0 0
232441.0 201973.0 0
238430.0 201728.0 0
241210.0 206197.0 0
251360.0 201433.0 0
256822.0 202995.0 0
266229.0 204454.0 0
274196.0 203100.0 0
283486.0 202794.0 0
289031.0 201482.0 0
293266.0 203829.0 0
303003.0 201451.0 0
308803.0 202358.0 0
318356.0 202131.0 0
324039.0 204456.0 0
328790.0 201503.0 0
334064.0 203251.0 0
339590.0 202658.0 0
344931.0 202458.0 0
349987.0 201994.0 0
358648.0 203613.0 0
363896.0 204546.0 0
368160.0 202185.0 0
372315.0 203417.0 0
376963.0 203262.0 0
382472.0 202224.0 0
387497.0 203239.0 0
392129.0 204000.0 0
396150.0 202713.0 0
401229.0 203269.0 0
406694.0 202587.0 0
411220.0 203600.0 0
415491.0 202921.0 0
421158.0 202871.0 0
428519.0 203837.0 0
430957.0 203241.0 0
435836.0 203039.0 0
442046.0 204784.0 0
446665.0 203208.0 0
451288.0 204434.0 0
456078.0 202160.0 0
461500.0 202881.0 0
466932.0 203615.0 0
472915.0 201367.0 0
478057.0 202774.0 0
487864.0 201491.0 0
493645.0 203112.0 0
498089.0 201982.0 0
2813.76 208388.0 0
8166.2 207644.0 0
12895.4 207009.0 0
11900.0 210976.0 0
16333.0 207658.0 0
20385.4 207536.0 0
25269.8 208766.0 0
31181.6 206508.0 0
37229.1 209493.0 0
41793.5 208502.0 0
47444.8 208622.0 0
53100.4 207932.0 0
58687.5 209667.0 0
63565.1 208060.0 0
68267.6 207624.0 0
72453.2 207815.0 0
77185.1 207455.0 0
86321.6 206550.0 0
82034.5 207534.0 0
91303.5 207468.0 0
96817.3 206915.0 0
101397.0 209534.0 0
107501.0 209733.0 0
116464.0 207491.0 0
113002.0 209585.0 0
121274.0 209023.0 0
126005.0 208208.0 0
132123.0 207834.0 0
137820.0 208019.0 0
142841.0 208554.0 0
147533.0 207276.0 0
152629.0 208832.0 0
157562.0 207855.0 0
162713.0 206795.0 0
167294.0 209619.0 0
172608.0 207090.0 0
177854.0 207195.0 0
182307.0 208812.0 0
186376.0 206458.0 0
192086.0 206995.0 0
196625.0 207684.0 0
201115.0 207192.0 0
206771.0 206997.0 0
212749.0 207602.0 0
214029.0 210960.0 0
217644.0 208687.0 0
222152.0 211274.0 0
226802.0 207934.0 0
231550.0 207601.0 0
236393.0 206636.0 0
240057.0 209570.0 0
243730.0 210483.0 0
245776.0 206284.0 0
250434.0 207325.0 0
255182.0 207176.0 0
260752.0 207286.0 0
266796.0 209975.0 0
271143.0 206761.0 0
278161.0 206357.0 0
283288.0 209629.0 0
288461.0 206776.0 0
293482.0 208729.0 0
298390.0 206335.0 0
303458.0 207003.0 0
303663.0 211001.0 0
308189.0 207367.0 0
314352.0 207474.0 0
319267.0 207079.0 0
322910.0 210204.0 0
328967.0 207066.0 0
333146.0 207461.0 0
336742.0 207411.0 0
342590.0 207821.0 0
347879.0 206969.0 0
346989.0 210524.0 0
353210.0 206676.0 0
357773.0 209294.0 0
362514.0 209359.0 0
367791.0 207834.0 0
373564.0 208049.0 0
382649.0 207475.0 0
378334.0 207770.0 0
387500.0 207775.0 0
390841.0 207577.0 0
394210.0 207168.0 0
397991.0 207172.0 0
405861.0 208618.0 0
412257.0 208233.0 0
417886.0 207738.0 0
423012.0 208136.0 0
427878.0 207728.0 0
432791.0 208196.0 0
437677.0 208684.0 0
441769.0 209452.0 0
447086.0 207465.0 0
452129.0 209596.0 0
456329.0 207108.0 0
461272.0 208537.0 0
466168.0 208198.0 0
470975.0 206359.0 0
476162.0 207800.0 0
482655.0 206673.0 0
488908.0 207057.0 0
492846.0 209907.0 0
497008.0 206765.0 0
2317.95 212829.0 0
7488.63 212491.0 0
13295.5 215374.0 0
17721.9 211900.0 0
22192.7 212494.0 0
25714.4 213291.0 0
29625.5 215080.0 0
33500.7 212093.0 0
36830.0 214514.0 0
41261.6 213730.0 0
46267.3 213851.0 0
51635.2 213277.0 0
56872.1 213928.0 0
62241.4 213516.0 0
67516.0 212339.0 0
72506.7 212427.0 0
81267.2 212655.0 0
76625.4 213490.0 0
87015.0 211571.0 0
92309.1 212737.0 0
97255.7 212758.0 0
102435.0 214683.0 0
106772.0 214877.0 0
111799.0 213561.0 0
117642.0 213033.0 0
123435.0 212759.0 0
128783.0 213262.0 0
134059.0 212875.0 0
137961.0 212606.0 0
142163.0 212555.0 0
147505.0 213075.0 0
152871.0 213766.0 0
158961.0 212242.0 0
162909.0 212168.0 0
167203.0 214257.0 0
171992.0 211528.0 0
177730.0 212732.0 0
183255.0 213493.0 0
188244.0 211433.0 0
193900.0 212289.0 0
196806.0 216361.0 0
199057.0 212010.0 0
204160.0 212446.0 0
209494.0 212066.0 0
213597.0 215228.0 0
217438.0 213069.0 0
220485.0 216109.0 0
226340.0 211797.0 0
225386.0 215645.0 0
230558.0 213126.0 0
235733.0 211378.0 0
240025.0 213532.0 0
250367.0 212718.0 0
256479.0 212602.0 0
262641.0 212913.0 0
267376.0 215489.0 0
272520.0 212402.0 0
278324.0 212171.0 0
282854.0 215168.0 0
289985.0 212273.0 0
294955.0 213177.0 0
299382.0 211690.0 0
303739.0 216152.0 0
307821.0 212524.0 0
313034.0 213665.0 0
317919.0 211882.0 0
320299.0 216207.0 0
324615.0 214773.0 0
327984.0 212102.0 0
333192.0 211747.0 0
338994.0 213112.0 0
344319.0 213103.0 0
351178.0 212777.0 0
358164.0 213675.0 0
362966.0 214265.0 0
367647.0 213198.0 0
372885.0 213680.0 0
376885.0 216269.0 0
377591.0 212447.0 0
387666.0 212233.0 0
383033.0 212641.0 0
390580.0 213119.0 0
394661.0 211787.0 0
400641.0 211557.0 0
400517.0 215935.0 0
404214.0 214859.0 0
409728.0 214080.0 0
416362.0 213520.0 0
422813.0 213794.0 0
428624.0 212559.0 0
433383.0 213016.0 0
438577.0 213936.0 0
448819.0 212326.0 0
444220.0 213249.0 0
452094.0 213586.0 0
457220.0 213368.0 0
462827.0 213015.0 0
466793.0 214284.0 0
470795.0 211548.0 0
476400.0 214180.0 0
482885.0 213413.0 0
488671.0 212575.0 0
492896.0 213629.0 0
497140.0 212628.0 0
2878.33 216661.0 0
2104.62 220818.0 0
7660.86 216952.0 0
12523.0 220735.0 0
17518.8 216792.0 0
21983.3 216780.0 0
25926.5 217185.0 0
33841.2 217948.0 0
38550.8 217982.0 0
43314.4 218791.0 0
47500.0 217588.0 0
51974.6 218924.0 0
58909.3 218482.0 0
64496.5 218708.0 0
69006.4 217436.0 0
73876.6 216896.0 0
77216.3 217314.0 0
80691.2 217758.0 0
77191.0 220932.0 0
86321.2 217878.0 0
92811.6 217744.0 0
98243.0 218019.0 0
103094.0 218647.0 0
109027.0 218057.0 0
113210.0 217673.0 0
122442.0 217543.0 0
117544.0 218742.0 0
126563.0 218154.0 0
131864.0 217612.0 0
136845.0 217154.0 0
140200.0 219466.0 0
144007.0 217843.0 0
150413.0 217637.0 0
157086.0 217462.0 0
162991.0 216554.0 0
161580.0 221490.0 0
167633.0 218922.0 0
173050.0 217161.0 0
183031.0 218104.0 0
178839.0 218798.0 0
186681.0 216812.0 0
191844.0 217168.0 0
190263.0 221458.0 0
201799.0 217457.0 0
207325.0 217170.0 0
212324.0 221057.0 0
216950.0 218261.0 0
222872.0 220569.0 0
229375.0 218161.0 0
235825.0 216857.0 0
240225.0 218552.0 0
245171.0 216563.0 0
248620.0 221469.0 0
252497.0 217729.0 0
257220.0 218061.0 0
262353.0 217692.0 0
272616.0 218510.0 0
277797.0 217191.0 0
281554.0 220917.0 0
289756.0 217046.0 0
285974.0 218672.0 0
293415.0 216751.0 0
297869.0 217684.0 0
303427.0 221446.0 0
309258.0 218089.0 0
315425.0 219084.0 0
323689.0 219728.0 0
328764.0 217750.0 0
334656.0 217058.0 0
338216.0 219311.0 0
342801.0 218250.0 0
348332.0 217579.0 0
354571.0 217498.0 0
358832.0 217636.0 0
358289.0 221454.0 0
362306.0 218318.0 0
366733.0 218238.0 0
371989.0 219065.0 0
377264.0 220571.0 0
380639.0 216921.0 0
386648.0 217419.0 0
391381.0 216503.0 0
392796.0 221240.0 0
396439.0 217496.0 0
401633.0 221009.0 0
407476.0 219544.0 0
413219.0 219375.0 0
418109.0 218564.0 0
422108.0 218948.0 0
426878.0 217401.0 0
431421.0 217303.0 0
436289.0 219281.0 0
442100.0 218591.0 0
447550.0 217506.0 0
452804.0 217773.0 0
457500.0 219439.0 0
461586.0 217232.0 0
465842.0 218340.0 0
470828.0 217342.0 0
476633.0 220103.0 0
480519.0 217831.0 0
485119.0 218457.0 0
491128.0 218422.0 0
497365.0 218119.0 0
6793.21 222448.0 0
12819.2 226161.0 0
18520.4 221830.0 0
24345.7 221556.0 0
30115.1 221927.0 0
35415.9 223364.0 0
39872.7 222038.0 0
43533.2 224077.0 0
47480.6 221762.0 0
47740.7 226525.0 0
51744.1 223762.0 0
56705.0 223512.0 0
61963.9 223523.0 0
66637.7 223202.0 0
71690.3 221783.0 0
82291.0 222745.0 0
88450.2 224195.0 0
93313.0 221850.0 0
94100.4 226065.0 0
97500.0 222622.0 0
107094.0 222196.0 0
102236.0 222422.0 0
112291.0 221924.0 0
117489.0 223357.0 0
122393.0 226005.0 0
122473.0 221613.0 0
132590.0 222372.0 0
127669.0 223120.0 0
137654.0 222096.0 0
135401.0 225852.0 0
142126.0 222531.0 0
147637.0 222314.0 0
153046.0 221648.0 0
157497.0 223342.0 0
165669.0 223176.0 0
171232.0 223029.0 0
176237.0 223023.0 0
180329.0 223469.0 0
184963.0 221891.0 0
188827.0 225562.0 0
195405.0 221945.0 0
201312.0 222911.0 0
206584.0 223235.0 0
218107.0 222592.0 0
221940.0 225908.0 0
227522.0 223182.0 0
232626.0 221727.0 0
238164.0 222536.0 0
243790.0 222897.0 0
255001.0 221788.0 0
251706.0 224793.0 0
259925.0 221958.0 0
266658.0 222530.0 0
272632.0 223452.0 0
276490.0 222057.0 0
277768.0 226486.0 0
282670.0 226414.0 0
287001.0 223262.0 0
292798.0 221572.0 0
298711.0 223551.0 0
304166.0 226456.0 0
307680.0 222744.0 0
312786.0 224359.0 0
319108.0 223448.0 0
323802.0 223952.0 0
328215.0 223393.0 0
332682.0 221696.0 0
337211.0 223092.0 0
341743.0 223487.0 0
346954.0 222979.0 0
352957.0 222776.0 0
363851.0 222712.0 0
368578.0 222348.0 0
372515.0 222942.0 0
373383.0 226603.0 0
378058.0 225672.0 0
383137.0 221891.0 0
388492.0 223122.0 0
392116.0 226195.0 0
396698.0 223017.0 0
408625.0 224137.0 0
412940.0 224338.0 0
417500.0 222521.0 0
423654.0 222849.0 0
429096.0 221599.0 0
432842.0 222781.0 0
436284.0 226445.0 0
439597.0 222934.0 0
445091.0 222584.0 0
449570.0 222238.0 0
453928.0 222584.0 0
458051.0 224002.0 0
461735.0 221790.0 0
462488.0 226023.0 0
466236.0 223049.0 0
472009.0 223368.0 0
477068.0 224723.0 0
481395.0 222453.0 0
487085.0 223673.0 0
492809.0 224318.0 0
497596.0 223153.0 0
3506.57 227900.0 0
8912.79 227713.0 0
18045.9 228040.0 0
23734.8 226922.0 0
29009.0 227722.0 0
33721.3 227526.0 0
38524.6 227846.0 0
43678.3 228798.0 0
52004.2 228319.0 0
56979.6 228919.0 0
61796.5 228231.0 0
66400.2 227795.0 0
71634.4 227668.0 0
78211.5 228149.0 0
84123.1 227490.0 0
87688.4 229270.0 0
92062.5 231380.0 0
99300.5 227319.0 0
103853.0 228756.0 0
108320.0 227161.0 0
113637.0 226766.0 0
118189.0 227802.0 0
121263.0 231293.0 0
126890.0 228065.0 0
131336.0 227216.0 0
129831.0 231481.0 0
135552.0 231651.0 0
139963.0 226802.0 0
141807.0 231669.0 0
145196.0 227448.0 0
151683.0 227757.0 0
157463.0 228508.0 0
162226.0 226919.0 0
167839.0 227493.0 0
173463.0 228666.0 0
178658.0 227443.0 0
183499.0 227438.0 0
188008.0 231448.0 0
193403.0 228190.0 0
198164.0 226657.0 0
197867.0 231681.0 0
202228.0 228234.0 0
207013.0 228404.0 0
212379.0 227457.0 0
217314.0 227056.0 0
215938.0 231579.0 0
226297.0 227975.0 0
231237.0 227123.0 0
232871.0 231590.0 0
236066.0 227718.0 0
240758.0 227561.0 0
247333.0 226931.0 0
251815.0 228800.0 0
256821.0 226939.0 0
262025.0 227082.0 0
266309.0 229857.0 0
272434.0 228196.0 0
276853.0 231053.0 0
287569.0 228746.0 0
294276.0 228188.0 0
299738.0 228365.0 0
308988.0 227727.0 0
315363.0 229260.0 0
311333.0 230778.0 0
320386.0 228459.0 0
326097.0 228691.0 0
333157.0 227859.0 0
339144.0 228381.0 0
343437.0 227507.0 0
347371.0 227778.0 0
351808.0 228322.0 0
357560.0 226805.0 0
363011.0 227748.0 0
368205.0 227188.0 0
372172.0 231218.0 0
377870.0 231665.0 0
382807.0 228041.0 0
388000.0 228843.0 0
397058.0 227367.0 0
392970.0 231410.0 0
402872.0 227681.0 0
407560.0 227686.0 0
411391.0 228633.0 0
416297.0 227484.0 0
421524.0 227281.0 0
427086.0 226665.0 0
431836.0 228930.0 0
442627.0 227849.0 0
449564.0 227865.0 0
454947.0 227253.0 0
459034.0 228285.0 0
462382.0 230492.0 0
466448.0 227911.0 0
470795.0 228536.0 0
475072.0 228278.0 0
479814.0 228769.0 0
485460.0 229334.0 0
491394.0 228527.0 0
496535.0 228629.0 0
3164.76 234562.0 0
7860.89 231777.0 0
13198.7 232071.0 0
18016.5 234014.0 0
22913.6 232554.0 0
28302.8 232866.0 0
33684.8 232435.0 0
38744.2 232784.0 0
42462.5 232629.0 0
47500.0 232397.0 0
52557.3 232716.0 0
57797.2 234233.0 0
62773.9 232697.0 0
67039.8 232596.0 0
72935.3 233719.0 0
78321.3 233948.0 0
82589.4 232542.0 0
87056.7 233185.0 0
97669.7 232608.0 0
102295.0 232427.0 0
107409.0 232994.0 0
113346.0 232183.0 0
117556.0 233534.0 0
125793.0 233985.0 0
147625.0 233798.0 0
152816.0 233107.0 0
156960.0 232986.0 0
162563.0 233033.0 0
168613.0 233012.0 0
178546.0 232528.0 0
173682.0 234039.0 0
183147.0 234160.0 0
193373.0 232996.0 0
190726.0 236382.0 0
202706.0 232430.0 0
202303.0 236116.0 0
206538.0 232794.0 0
210416.0 232038.0 0
212689.0 236255.0 0
217362.0 236004.0 0
222032.0 232048.0 0
227892.0 232439.0 0
231887.0 236643.0 0
237578.0 232194.0 0
243285.0 232042.0 0
240965.0 236289.0 0
248664.0 232405.0 0
254446.0 232470.0 0
259269.0 231784.0 0
257953.0 235830.0 0
262865.0 233572.0 0
267431.0 235554.0 0
270745.0 232479.0 0
272732.0 236567.0 0
277833.0 235751.0 0
282826.0 232570.0 0
288065.0 234074.0 0
292390.0 233741.0 0
298265.0 232660.0 0
306026.0 232050.0 0
302087.0 236711.0 0
310184.0 233597.0 0
314050.0 234281.0 0
318481.0 232512.0 0
322500.0 232683.0 0
328895.0 233357.0 0
333248.0 234237.0 0
337015.0 232247.0 0
341121.0 232169.0 0
346183.0 232303.0 0
357135.0 232123.0 0
352139.0 234429.0 0
361937.0 232661.0 0
367472.0 233959.0 0
383976.0 234085.0 0
389039.0 233604.0 0
398548.0 232789.0 0
404604.0 232840.0 0
408305.0 232845.0 0
411600.0 232926.0 0
415648.0 232280.0 0
420774.0 232770.0 0
427258.0 233218.0 0
432708.0 232999.0 0
437828.0 233050.0 0
443856.0 234098.0 0
448898.0 233986.0 0
453713.0 232088.0 0
458585.0 232376.0 0
455863.0 236356.0 0
466455.0 232791.0 0
471666.0 233193.0 0
476744.0 232857.0 0
482113.0 233640.0 0
489725.0 232653.0 0
493000.0 234642.0 0
497149.0 234624.0 0
2175.08 239810.0 0
6289.96 238761.0 0
11599.4 238187.0 0
17536.7 238477.0 0
22463.9 238225.0 0
27690.2 237927.0 0
32846.5 237815.0 0
37849.1 237318.0 0
42860.5 237419.0 0
47500.0 237481.0 0
52500.0 237400.0 0
57471.3 238693.0 0
62273.8 237754.0 0
67614.2 236982.0 0
72220.4 239439.0 0
81627.6 237447.0 0
77001.3 237836.0 0
86239.1 237307.0 0
91741.2 237793.0 0
97809.7 237997.0 0
102672.0 236975.0 0
106903.0 239140.0 0
111197.0 237067.0 0
115541.0 237864.0 0
120820.0 237184.0 0
126021.0 238817.0 0
131559.0 237468.0 0
137590.0 237838.0 0
135063.0 241344.0 0
143033.0 238277.0 0
152335.0 237094.0 0
148510.0 239605.0 0
156775.0 237666.0 0
161251.0 238880.0 0
165868.0 237544.0 0
170816.0 237969.0 0
176301.0 238611.0 0
181150.0 237677.0 0
186189.0 239676.0 0
191884.0 241121.0 0
195909.0 237319.0 0
201241.0 241073.0 0
207020.0 237808.0 0
217588.0 240721.0 0
221322.0 237551.0 0
226108.0 237270.0 0
233718.0 241611.0 0
236934.0 238754.0 0
241137.0 241636.0 0
246408.0 238373.0 0
252566.0 237739.0 0
257176.0 240299.0 0
262507.0 238617.0 0
268883.0 241536.0 0
276226.0 239975.0 0
283409.0 239607.0 0
290020.0 238591.0 0
296061.0 237841.0 0
305277.0 241223.0 0
308496.0 237563.0 0
313705.0 239411.0 0
318495.0 237080.0 0
325752.0 237046.0 0
322153.0 239800.0 0
331012.0 238798.0 0
336305.0 237921.0 0
342218.0 237569.0 0
347987.0 238500.0 0
352469.0 240086.0 0
357714.0 237987.0 0
363370.0 237583.0 0
372127.0 237338.0 0
367624.0 240067.0 0
377595.0 237629.0 0
382669.0 240356.0 0
388202.0 238475.0 0
393857.0 237086.0 0
397810.0 240946.0 0
403548.0 238639.0 0
409206.0 239384.0 0
413408.0 237112.0 0
418015.0 237722.0 0
422331.0 237811.0 0
427432.0 239970.0 0
432985.0 237256.0 0
437053.0 237976.0 0
442559.0 239587.0 0
447415.0 237361.0 0
451703.0 237941.0 0
461827.0 237669.0 0
468601.0 238370.0 0
474668.0 238279.0 0
480001.0 237745.0 0
481988.0 241723.0 0
486588.0 237868.0 0
493165.0 239018.0 0
498364.0 238943.0 0
2648.25 244091.0 0
6704.61 242631.0 0
11883.6 244974.0 0
17237.5 242975.0 0
21689.6 243099.0 0
26625.8 243129.0 0
32269.6 243270.0 0
37800.7 242388.0 0
42911.0 242535.0 0
48373.5 242354.0 0
53049.3 242582.0 0
57491.6 242979.0 0
62500.0 242567.0 0
67351.0 242591.0 0
72974.1 243776.0 0
77090.1 242764.0 0
80945.4 242751.0 0
86598.4 242479.0 0
92662.9 244387.0 0
98143.0 243041.0 0
102893.0 241993.0 0
107106.0 244494.0 0
112144.0 242368.0 0
117790.0 242235.0 0
127517.0 242533.0 0
123040.0 243902.0 0
131674.0 244273.0 0
139793.0 243970.0 0
146645.0 244840.0 0
153456.0 242890.0 0
159440.0 243425.0 0
162838.0 246413.0 0
165969.0 242757.0 0
171466.0 243196.0 0
177280.0 244831.0 0
183204.0 244957.0 0
188838.0 245267.0 0
195942.0 244968.0 0
201231.0 246508.0 0
206409.0 244540.0 0
211864.0 242024.0 0
216422.0 246467.0 0
222976.0 242205.0 0
228686.0 242231.0 0
233926.0 246435.0 0
236985.0 243297.0 0
246170.0 244800.0 0
251689.0 243180.0 0
258377.0 245287.0 0
263477.0 244207.0 0
274508.0 244217.0 0
270701.0 247056.0 0
279020.0 243032.0 0
284476.0 245987.0 0
288593.0 243339.0 0
293682.0 243537.0 0
300190.0 242879.0 0
305003.0 245209.0 0
308878.0 243475.0 0
313469.0 244417.0 0
316780.0 242239.0 0
320574.0 243937.0 0
326683.0 243482.0 0
333861.0 243753.0 0
338665.0 242296.0 0
342798.0 243033.0 0
347415.0 243471.0 0
352858.0 244911.0 0
357815.0 243772.0 0
362633.0 242405.0 0
367022.0 244413.0 0
371863.0 242808.0 0
377439.0 243554.0 0
382625.0 244715.0 0
386622.0 244004.0 0
391984.0 243267.0 0
396543.0 245063.0 0
401644.0 245360.0 0
406987.0 243587.0 0
411809.0 243086.0 0
417019.0 242262.0 0
422567.0 243547.0 0
427263.0 245676.0 0
432184.0 243849.0 0
437979.0 243196.0 0
442950.0 245140.0 0
448192.0 242416.0 0
452071.0 245586.0 0
455967.0 242268.0 0
461567.0 244227.0 0
466226.0 242881.0 0
471900.0 244596.0 0
477524.0 243079.0 0
481330.0 245564.0 0
486495.0 245185.0 0
491854.0 244126.0 0
497014.0 243707.0 0
199575.0 251430.0 0
204479.0 249070.0 0
210796.0 247689.0 0
222475.0 247936.0 0
227963.0 247636.0 0
231468.0 250977.0 0
236558.0 249762.0 0
240342.0 247415.0 0
244600.0 250475.0 0
248992.0 249351.0 0
253467.0 247946.0 0
257899.0 250842.0 0
261358.0 248353.0 0
262171.0 251437.0 0
265882.0 249100.0 0
278599.0 248511.0 0
283457.0 250631.0 0
289818.0 247884.0 0
297134.0 248251.0 0
302383.0 248799.0 0
204451.0 253203.0 0
209459.0 252678.0 0
212349.0 256894.0 0
215735.0 252573.0 0
221142.0 253316.0 0
223362.0 257236.0 0
226649.0 253350.0 0
231819.0 256284.0 0
235326.0 252933.0 0
236727.0 256598.0 0
240448.0 253518.0 0
245799.0 255623.0 0
252383.0 252883.0 0
250599.0 257185.0 0
256855.0 257242.0 0
262922.0 255507.0 0
268032.0 256339.0 0
271466.0 252193.0 0
276414.0 253879.0 0
280932.0 253766.0 0
284562.0 255057.0 0
287252.0 252191.0 0
293222.0 252766.0 0
299480.0 253620.0 0
200573.0 257716.0 0
206831.0 257692.0 0
213596.0 261976.0 0
218219.0 258248.0 0
227345.0 259306.0 0
231679.0 261656.0 0
236094.0 260660.0 0
240960.0 259242.0 0
246381.0 261490.0 0
252216.0 261919.0 0
261596.0 260643.0 0
266659.0 261569.0 0
273342.0 258561.0 0
278888.0 257781.0 0
283257.0 258648.0 0
281081.0 261700.0 0
288817.0 257482.0 0
294301.0 258365.0 0
298356.0 258327.0 0
202170.0 264094.0 0
208344.0 263192.0 0
210336.0 267194.0 0
218685.0 263623.0 0
223713.0 263239.0 0
228234.0 263872.0 0
231217.0 266262.0 0
237008.0 266092.0 0
240601.0 263322.0 0
243166.0 266095.0 0
248817.0 266867.0 0
254690.0 267068.0 0
257463.0 263136.0 0
261852.0 265958.0 0
271774.0 263324.0 0
274601.0 266593.0 0
276903.0 262548.0 0
279541.0 265406.0 0
285898.0 262683.0 0
289167.0 267213.0 0
291464.0 262422.0 0
293915.0 266525.0 0
297265.0 262925.0 0
341742.0 265188.0 0
10310.7 267524.0 0
201814.0 271219.0 0
206122.0 268595.0 0
211443.0 272041.0 0
215201.0 267513.0 0
220815.0 267849.0 0
226494.0 268817.0 0
232137.0 271333.0 0
237058.0 271476.0 0
241910.0 271531.0 0
253234.0 272218.0 0
258642.0 270733.0 0
268408.0 268041.0 0
278616.0 269488.0 0
283536.0 267615.0 0
282863.0 271870.0 0
293015.0 271732.0 0
297973.0 269083.0 0
309756.0 269054.0 0
404603.0 272310.0 0
6878.9 277334.0 0
48261.5 274948.0 0
167796.0 277196.0 0
174681.0 273973.0 0
201366.0 275996.0 0
206252.0 273904.0 0
216919.0 273052.0 0
222266.0 272714.0 0
220084.0 277167.0 0
228044.0 273327.0 0
225523.0 276816.0 0
231422.0 277464.0 0
237512.0 276390.0 0
247664.0 272763.0 0
253777.0 277564.0 0
258820.0 275928.0 0
262731.0 273294.0 0
267375.0 274318.0 0
273135.0 272908.0 0
279211.0 275210.0 0
287178.0 273447.0 0
292815.0 277014.0 0
297883.0 275591.0 0
317421.0 277273.0 0
357807.0 276780.0 0
362467.0 275197.0 0
368610.0 274979.0 0
374583.0 277621.0 0
389098.0 274044.0 0
421499.0 273581.0 0
437044.0 276871.0 0
443009.0 273229.0 0
455114.0 273610.0 0
461586.0 277471.0 0
472319.0 274353.0 0
476569.0 277597.0 0
492537.0 275330.0 0
497243.0 273178.0 0
14254.8 281887.0 0
56374.4 278862.0 0
63868.7 278871.0 0
68827.6 279890.0 0
75161.9 281926.0 0
79658.9 280624.0 0
85031.3 281322.0 0
96187.4 279138.0 0
100416.0 278585.0 0
107589.0 280322.0 0
111005.0 282166.0 0
115161.0 280624.0 0
121008.0 280517.0 0
126005.0 278305.0 0
131855.0 282628.0 0
137504.0 281641.0 0
154054.0 280927.0 0
158565.0 280321.0 0
177286.0 278026.0 0
178735.0 281392.0 0
191569.0 279178.0 0
196244.0 280106.0 0
200888.0 280354.0 0
205144.0 278798.0 0
208003.0 281793.0 0
210424.0 277711.0 0
213360.0 282613.0 0
215514.0 277743.0 0
217849.0 281413.0 0
222324.0 281334.0 0
227460.0 282115.0 0
238130.0 282346.0 0
242309.0 279412.0 0
248059.0 278827.0 0
259054.0 280336.0 0
255502.0 282103.0 0
263576.0 278484.0 0
269203.0 279436.0 0
274269.0 278167.0 0
273096.0 282461.0 0
277796.0 281883.0 0
284334.0 278425.0 0
282144.0 282206.0 0
288853.0 278043.0 0
287761.0 282195.0 0
292965.0 282018.0 0
297456.0 280594.0 0
309917.0 280559.0 0
322450.0 278664.0 0
391311.0 280722.0 0
396056.0 282161.0 0
423600.0 281532.0 0
466760.0 282733.0 0
471850.0 281330.0 0
481239.0 278689.0 0
497839.0 282629.0 0
8033.11 287523.0 0
17655.2 285203.0 0
22442.4 283202.0 0
30433.9 283107.0 0
36537.1 283640.0 0
48339.7 285851.0 0
53010.0 285849.0 0
88220.9 287313.0 0
93065.2 285239.0 0
97919.2 287364.0 0
119140.0 287514.0 0
124379.0 285412.0 0
142262.0 283893.0 0
146000.0 287345.0 0
150902.0 285216.0 0
173221.0 283049.0 0
178042.0 284893.0 0
204084.0 283442.0 0
209317.0 286167.0 0
220067.0 285404.0 0
225951.0 287096.0 0
233022.0 283197.0 0
236387.0 287691.0 0
241704.0 284193.0 0
245363.0 283337.0 0
251057.0 283701.0 0
257881.0 285984.0 0
261789.0 282782.0 0
262774.0 287011.0 0
267220.0 284482.0 0
271751.0 286911.0 0
284675.0 284697.0 0
280752.0 286439.0 0
287942.0 287151.0 0
292562.0 286929.0 0
296825.0 285099.0 0
300497.0 287516.0 0
308756.0 287193.0 0
318278.0 287397.0 0
322451.0 283376.0 0
326630.0 284135.0 0
330913.0 284409.0 0
335045.0 287068.0 0
339605.0 283753.0 0
345114.0 285945.0 0
388726.0 285237.0 0
393964.0 287044.0 0
407296.0 286314.0 0
417127.0 283227.0 0
422388.0 286998.0 0
426612.0 285101.0 0
431907.0 285804.0 0
436080.0 287641.0 0
439714.0 284092.0 0
444222.0 286350.0 0
449230.0 283243.0 0
458451.0 286109.0 0
462790.0 283920.0 0
479717.0 283973.0 0
484429.0 284053.0 0
489239.0 286978.0 0
2631.23 290493.0 0
14588.8 288711.0 0
18911.2 291038.0 0
30589.4 289308.0 0
37311.7 291640.0 0
40985.6 288045.0 0
45936.2 289520.0 0
54909.3 292509.0 0
85759.2 292528.0 0
91010.0 292661.0 0
92904.6 290248.0 0
96476.5 291685.0 0
102310.0 289471.0 0
105708.0 292561.0 0
113050.0 289529.0 0
126262.0 289619.0 0
137141.0 291079.0 0
155278.0 288582.0 0
166524.0 292356.0 0
169989.0 288301.0 0
177570.0 289062.0 0
183087.0 290716.0 0
188924.0 289367.0 0
194748.0 290637.0 0
199536.0 287969.0 0
204409.0 288581.0 0
208776.0 291379.0 0
215069.0 288143.0 0
222090.0 289670.0 0
226656.0 291926.0 0
230703.0 287952.0 0
241425.0 287968.0 0
242504.0 292603.0 0
247378.0 288763.0 0
253468.0 288206.0 0
257609.0 291761.0 0
262739.0 291710.0 0
267280.0 289817.0 0
272530.0 292612.0 0
276230.0 288365.0 0
278423.0 292500.0 0
284100.0 291340.0 0
290970.0 292281.0 0
296380.0 289846.0 0
304855.0 288007.0 0
305457.0 291940.0 0
309713.0 291355.0 0
314014.0 290098.0 0
342101.0 289346.0 0
348027.0 289500.0 0
360423.0 292304.0 0
364943.0 288502.0 0
368691.0 291136.0 0
377600.0 289364.0 0
383597.0 288155.0 0
385630.0 292887.0 0
390690.0 289167.0 0
394399.0 291834.0 0
398809.0 289195.0 0
403236.0 290067.0 0
412976.0 288636.0 0
431773.0 291326.0 0
473827.0 290758.0 0
478880.0 289193.0 0
483291.0 292791.0 0
492521.0 290976.0 0
497266.0 290733.0 0
4198.95 295596.0 0
10165.2 293746.0 0
8211.08 297553.0 0
21754.5 297193.0 0
27252.5 293361.0 0
31965.1 295846.0 0
44551.6 295001.0 0
49617.5 295937.0 0
53511.7 297479.0 0
60744.6 293558.0 0
65233.2 296702.0 0
73247.1 295595.0 0
79797.4 296094.0 0
100409.0 293854.0 0
97591.4 297289.0 0
118044.0 294818.0 0
122206.0 296817.0 0
125707.0 298040.0 0
127597.0 294347.0 0
132697.0 292998.0 0
140009.0 295306.0 0
145853.0 295323.0 0
157949.0 297492.0 0
169946.0 296061.0 0
175196.0 294397.0 0
178322.0 297910.0 0
182125.0 295958.0 0
204250.0 294095.0 0
208496.0 296857.0 0
213003.0 294539.0 0
218419.0 293232.0 0
222789.0 293567.0 0
221536.0 297503.0 0
226388.0 296872.0 0
231896.0 293142.0 0
237320.0 293106.0 0
242598.0 297666.0 0
247181.0 295136.0 0
252148.0 293128.0 0
255658.0 296990.0 0
261566.0 297108.0 0
265986.0 295574.0 0
281563.0 295947.0 0
286616.0 296902.0 0
296240.0 295976.0 0
301912.0 294977.0 0
308862.0 295972.0 0
312812.0 295349.0 0
329672.0 297666.0 0
335177.0 294575.0 0
341691.0 294240.0 0
350533.0 296993.0 0
368277.0 296639.0 0
373639.0 293555.0 0
380959.0 294145.0 0
388242.0 296125.0 0
398411.0 293213.0 0
402468.0 294969.0 0
406830.0 297582.0 0
411664.0 296076.0 0
415149.0 293079.0 0
417627.0 297891.0 0
440796.0 296580.0 0
462565.0 293741.0 0
468005.0 295399.0 0
472750.0 296433.0 0
488293.0 294239.0 0
494690.0 295683.0 0
1396.57 298587.0 0
9024.03 302432.0 0
11918.4 299028.0 0
16619.4 298497.0 0
22141.1 302680.0 0
31750.6 300588.0 0
36111.9 299838.0 0
40529.6 299467.0 0
42506.5 303110.0 0
55082.9 301581.0 0
71070.6 301930.0 0
75981.4 300484.0 0
101262.0 298404.0 0
115988.0 301646.0 0
121376.0 302454.0 0
127453.0 301487.0 0
132217.0 299081.0 0
137709.0 300562.0 0
150246.0 298739.0 0
162385.0 298271.0 0
159503.0 302851.0 0
166757.0 300848.0 0
170964.0 302655.0 0
173828.0 299216.0 0
178096.0 302173.0 0
182575.0 300735.0 0
188423.0 302665.0 0
198196.0 302326.0 0
203602.0 299677.0 0
208337.0 301903.0 0
212186.0 299435.0 0
217003.0 300102.0 0
221891.0 302753.0 0
227466.0 302610.0 0
231037.0 298483.0 0
236953.0 299054.0 0
244008.0 303107.0 0
247336.0 299589.0 0
249419.0 302959.0 0
251018.0 298262.0 0
259254.0 301644.0 0
265045.0 300370.0 0
270033.0 299398.0 0
276303.0 298349.0 0
282374.0 300879.0 0
287563.0 303064.0 0
291666.0 299445.0 0
296086.0 301614.0 0
305265.0 298749.0 0
310186.0 302354.0 0
315851.0 299176.0 0
321608.0 298943.0 0
326129.0 302142.0 0
332766.0 302059.0 0
345721.0 299400.0 0
355714.0 298487.0 0
359390.0 302155.0 0
365233.0 301198.0 0
371514.0 301107.0 0
376826.0 298598.0 0
382983.0 301438.0 0
392773.0 300592.0 0
397327.0 298429.0 0
402414.0 299729.0 0
405524.0 302692.0 0
418256.0 303056.0 0
423877.0 303107.0 0
430432.0 300639.0 0
435876.0 298974.0 0
443743.0 300869.0 0
448497.0 298939.0 0
457751.0 302380.0 0
463509.0 302491.0 0
472922.0 300756.0 0
477904.0 300878.0 0
490331.0 298823.0 0
492549.0 302679.0 0
498185.0 298775.0 0
12432.9 308067.0 0
18261.9 308028.0 0
27556.0 303704.0 0
35807.4 307203.0 0
40409.5 307911.0 0
47221.1 303824.0 0
57767.4 305320.0 0
62118.7 306827.0 0
66580.1 304969.0 0
78232.9 305856.0 0
83627.7 308123.0 0
87177.6 303426.0 0
92596.4 305875.0 0
101304.0 303628.0 0
105416.0 304035.0 0
110427.0 305917.0 0
115498.0 307748.0 0
119859.0 306109.0 0
125026.0 304886.0 0
134374.0 303438.0 0
136926.0 303735.0 0
142940.0 303194.0 0
145130.0 307199.0 0
149278.0 305326.0 0
154955.0 304128.0 0
162950.0 305167.0 0
175791.0 306922.0 0
179935.0 305573.0 0
193803.0 305494.0 0
202884.0 305280.0 0
208382.0 307366.0 0
213344.0 304094.0 0
218058.0 306603.0 0
223604.0 307688.0 0
229042.0 307593.0 0
232912.0 303493.0 0
238289.0 305273.0 0
247735.0 307716.0 0
253932.0 303192.0 0
252005.0 306574.0 0
263825.0 304384.0 0
260653.0 307598.0 0
268003.0 303790.0 0
269720.0 307936.0 0
272682.0 303869.0 0
278026.0 304678.0 0
283186.0 306222.0 0
292505.0 304881.0 0
296858.0 305622.0 0
305808.0 306229.0 0
301392.0 306772.0 0
309212.0 307353.0 0
315912.0 305044.0 0
329885.0 304085.0 0
332502.0 306983.0 0
337497.0 306876.0 0
344487.0 307793.0 0
350089.0 307332.0 0
354804.0 305869.0 0
359342.0 307685.0 0
363529.0 305808.0 0
368250.0 306263.0 0
375763.0 304500.0 0
379842.0 307069.0 0
383935.0 307138.0 0
388117.0 304972.0 0
420703.0 306782.0 0
428710.0 306617.0 0
448865.0 303813.0 0
453540.0 305134.0 0
469551.0 303874.0 0
473869.0 304873.0 0
480010.0 306352.0 0
485101.0 304954.0 0
497345.0 303673.0 0
2385.26 313120.0 0
19755.7 312552.0 0
31572.7 310203.0 0
42563.5 311829.0 0
59411.4 313187.0 0
73236.5 311942.0 0
88025.0 308935.0 0
98112.3 309576.0 0
103476.0 313003.0 0
119756.0 309997.0 0
124322.0 308916.0 0
127047.0 313219.0 0
137186.0 310994.0 0
152637.0 308565.0 0
157044.0 308675.0 0
203858.0 310371.0 0
208075.0 312856.0 0
213636.0 309664.0 0
217765.0 313375.0 0
220712.0 309998.0 0
223044.0 313287.0 0
226287.0 310678.0 0
233884.0 308650.0 0
230323.0 312511.0 0
238185.0 310292.0 0
242506.0 308803.0 0
245786.0 313266.0 0
251493.0 311720.0 0
255721.0 308501.0 0
265218.0 308385.0 0
262262.0 312432.0 0
267759.0 312741.0 0
274710.0 309366.0 0
281330.0 310562.0 0
288136.0 308883.0 0
293572.0 309676.0 0
297764.0 309274.0 0
320548.0 309134.0 0
327915.0 311641.0 0
332244.0 310917.0 0
373783.0 312239.0 0
391305.0 312581.0 0
396224.0 309140.0 0
401114.0 311098.0 0
405441.0 313215.0 0
443848.0 309305.0 0
447423.0 313157.0 0
460614.0 310318.0 0
468386.0 312072.0 0
475351.0 310075.0 0
482264.0 312866.0 0
486287.0 310504.0 0
491602.0 312092.0 0
6006.39 316816.0 0
11457.4 314204.0 0
17628.4 318249.0 0
23726.9 313779.0 0
28043.2 314535.0 0
31549.5 317508.0 0
37894.0 314060.0 0
44669.6 316482.0 0
48901.4 314658.0 0
53337.5 316752.0 0
57735.5 316660.0 0
78992.8 313771.0 0
81396.5 318089.0 0
84814.0 313988.0 0
108327.0 314431.0 0
131487.0 317752.0 0
133529.0 313702.0 0
141682.0 313747.0 0
147366.0 315653.0 0
157006.0 318009.0 0
162148.0 317707.0 0
166764.0 316666.0 0
172721.0 316828.0 0
178009.0 313990.0 0
182816.0 313663.0 0
188845.0 313590.0 0
195076.0 315853.0 0
203969.0 315917.0 0
208991.0 318097.0 0
212468.0 314424.0 0
220828.0 317639.0 0
226901.0 316812.0 0
232157.0 317330.0 0
235417.0 313586.0 0
237585.0 318329.0 0
240560.0 313755.0 0
242701.0 317477.0 0
251771.0 316299.0 0
256394.0 313558.0 0
259937.0 316590.0 0
264650.0 317282.0 0
269297.0 317367.0 0
272919.0 314525.0 0
278143.0 314053.0 0
284668.0 313560.0 0
290890.0 314278.0 0
296518.0 314097.0 0
307859.0 318341.0 0
320417.0 314726.0 0
324961.0 314651.0 0
339112.0 316842.0 0
349617.0 314051.0 0
356286.0 314969.0 0
361855.0 317782.0 0
366109.0 315219.0 0
370489.0 315512.0 0
410203.0 315136.0 0
415232.0 313618.0 0
420447.0 314268.0 0
424465.0 317114.0 0
429055.0 316664.0 0
436061.0 315078.0 0
441300.0 313570.0 0
452098.0 314937.0 0
463371.0 314638.0 0
472620.0 314968.0 0
478625.0 315235.0 0
475464.0 318255.0 0
488314.0 314376.0 0
497634.0 315909.0 0
10345.6 319630.0 0
14356.5 320564.0 0
21198.9 320434.0 0
73587.4 323204.0 0
88732.2 319326.0 0
94616.0 320030.0 0
99836.4 323065.0 0
115852.0 320536.0 0
124424.0 321857.0 0
129417.0 322170.0 0
151889.0 319416.0 0
182877.0 322569.0 0
190151.0 322787.0 0
204538.0 321695.0 0
209814.0 323067.0 0
215421.0 319037.0 0
219383.0 322948.0 0
223894.0 320719.0 0
228555.0 322599.0 0
233635.0 321713.0 0
241574.0 321752.0 0
247669.0 319180.0 0
255608.0 318744.0 0
260840.0 322323.0 0
267630.0 322208.0 0
275661.0 319300.0 0
282082.0 318883.0 0
288374.0 319432.0 0
294162.0 319357.0 0
304833.0 322769.0 0
313339.0 319901.0 0
318165.0 318983.0 0
333604.0 320420.0 0
344315.0 318984.0 0
345237.0 323501.0 0
348224.0 320951.0 0
373349.0 318515.0 0
375332.0 321882.0 0
382120.0 318581.0 0
377846.0 319118.0 0
386421.0 318808.0 0
412280.0 321622.0 0
416387.0 323277.0 0
425495.0 321057.0 0
434661.0 320079.0 0
439140.0 321883.0 0
444448.0 319590.0 0
452878.0 323497.0 0
456662.0 320038.0 0
461427.0 321486.0 0
465643.0 323538.0 0
478873.0 320919.0 0
484076.0 319323.0 0
2520.43 325310.0 0
23712.7 323782.0 0
27712.7 324696.0 0
35470.8 327387.0 0
31330.3 327801.0 0
38957.8 325766.0 0
64003.3 325896.0 0
69034.9 325808.0 0
78890.1 325032.0 0
83595.1 327482.0 0
106851.0 326180.0 0
102136.0 327794.0 0
111993.0 325647.0 0
115838.0 326297.0 0
122579.0 327931.0 0
132091.0 325583.0 0
137331.0 323749.0 0
141484.0 325386.0 0
178121.0 324022.0 0
173534.0 325407.0 0
187621.0 328223.0 0
198863.0 324218.0 0
194183.0 326025.0 0
206166.0 326176.0 0
214274.0 324760.0 0
210208.0 327670.0 0
219003.0 327830.0 0
223634.0 325278.0 0
227926.0 328239.0 0
232407.0 326184.0 0
237511.0 324224.0 0
241303.0 327522.0 0
249637.0 323953.0 0
245269.0 324597.0 0
254554.0 324203.0 0
251080.0 328056.0 0
268059.0 327419.0 0
273080.0 324317.0 0
278621.0 324193.0 0
282933.0 323854.0 0
282244.0 328622.0 0
286578.0 324013.0 0
286577.0 327691.0 0
291005.0 323862.0 0
295784.0 324671.0 0
292295.0 328421.0 0
296348.0 328175.0 0
320801.0 326229.0 0
326082.0 325214.0 0
339966.0 326221.0 0
344226.0 327447.0 0
348323.0 325281.0 0
353398.0 326453.0 0
377578.0 327986.0 0
387759.0 325512.0 0
391971.0 326710.0 0
396070.0 323767.0 0
405148.0 323787.0 0
417562.0 327670.0 0
422843.0 325942.0 0
431748.0 324074.0 0
448734.0 327171.0 0
457920.0 324994.0 0
488519.0 327260.0 0
493893.0 325946.0 0
58276.5 330532.0 0
62760.5 330683.0 0
79117.6 329850.0 0
85357.4 332153.0 0
89677.3 333321.0 0
114635.0 333518.0 0
118035.0 329812.0 0
148593.0 333092.0 0
177642.0 333651.0 0
182265.0 331839.0 0
186511.0 331925.0 0
204009.0 333730.0 0
204357.0 329273.0 0
209788.0 333120.0 0
214472.0 329577.0 0
219174.0 332519.0 0
223352.0 330047.0 0
226789.0 333015.0 0
232146.0 333396.0 0
236319.0 329281.0 0
237494.0 333570.0 0
241632.0 332599.0 0
246219.0 329780.0 0
251264.0 332618.0 0
256304.0 330185.0 0
262862.0 329029.0 0
267902.0 332885.0 0
272176.0 329438.0 0
277009.0 329118.0 0
279251.0 333422.0 0
284085.0 333571.0 0
288277.0 331278.0 0
296137.0 331401.0 0
334097.0 330466.0 0
338749.0 329428.0 0
367860.0 332364.0 0
374256.0 332700.0 0
383309.0 330121.0 0
388742.0 332579.0 0
429251.0 328717.0 0
440415.0 329666.0 0
444373.0 328743.0 0
449043.0 332221.0 0
472532.0 332349.0 0
476982.0 331799.0 0
483950.0 329390.0 0
18980.9 338363.0 0
23860.2 334448.0 0
46285.1 338882.0 0
57656.8 337214.0 0
119205.0 333972.0 0
154063.0 334168.0 0
160451.0 334882.0 0
164978.0 338611.0 0
172783.0 335418.0 0
175845.0 337290.0 0
207137.0 337906.0 0
212544.0 338074.0 0
215092.0 333977.0 0
216906.0 337509.0 0
222791.0 334505.0 0
221031.0 338721.0 0
226471.0 338184.0 0
231408.0 338481.0 0
236717.0 338530.0 0
242995.0 337963.0 0
247323.0 334741.0 0
251624.0 337169.0 0
257640.0 334939.0 0
256145.0 338743.0 0
261121.0 334049.0 0
260918.0 338341.0 0
265924.0 338253.0 0
273126.0 333871.0 0
270795.0 337480.0 0
276141.0 337672.0 0
281424.0 337912.0 0
287840.0 335583.0 0
292282.0 333896.0 0
295736.0 336879.0 0
291082.0 338815.0 0
300748.0 338721.0 0
343860.0 334775.0 0
347413.0 337260.0 0
351113.0 338282.0 0
354633.0 334788.0 0
359569.0 337960.0 0
362728.0 333956.0 0
378320.0 336475.0 0
441465.0 335858.0 0
447200.0 336253.0 0
487877.0 334954.0 0
496741.0 337468.0 0
24601.3 339574.0 0
29372.6 340748.0 0
34198.8 342708.0 0
41944.7 340927.0 0
49720.9 343209.0 0
59419.7 341116.0 0
78998.1 343909.0 0
125705.0 341819.0 0
131308.0 340473.0 0
136308.0 340342.0 0
169679.0 339814.0 0
203274.0 339499.0 0
203607.0 343079.0 0
209617.0 343772.0 0
216028.0 341250.0 0
219942.0 343652.0 0
225129.0 343747.0 0
230482.0 343119.0 0
235399.0 343934.0 0
240007.0 343195.0 0
247800.0 338912.0 0
245798.0 343839.0 0
252777.0 343758.0 0
259146.0 343171.0 0
263538.0 342106.0 0
269636.0 342604.0 0
273815.0 341157.0 0
277555.0 343076.0 0
282425.0 342395.0 0
285813.0 338969.0 0
286250.0 342699.0 0
295572.0 341793.0 0
354750.0 341574.0 0
374379.0 342515.0 0
378180.0 340858.0 0
382647.0 343403.0 0
388980.0 342163.0 0
441425.0 342266.0 0
463934.0 343357.0 0
3000.82 344013.0 0
5576.43 348414.0 0
38189.5 345761.0 0
44756.1 344382.0 0
40981.1 348505.0 0
78850.0 347363.0 0
104572.0 348959.0 0
109302.0 345133.0 0
199010.0 345608.0 0
204508.0 347902.0 0
213856.0 348152.0 0
215006.0 344877.0 0
217597.0 347536.0 0
222170.0 348314.0 0
227334.0 348517.0 0
232823.0 348457.0 0
238450.0 348055.0 0
242879.0 348085.0 0
251329.0 348527.0 0
264994.0 346201.0 0
260315.0 348387.0 0
270308.0 348866.0 0
275508.0 347361.0 0
280915.0 348146.0 0
290627.0 344299.0 0
286404.0 347190.0 0
295368.0 347593.0 0
303325.0 344116.0 0
318205.0 345137.0 0
321222.0 347407.0 0
324319.0 346331.0 0
344872.0 344903.0 0
399809.0 346696.0 0
406576.0 348981.0 0
412274.0 348660.0 0
420030.0 348613.0 0
425901.0 347159.0 0
430527.0 345245.0 0
435600.0 344597.0 0
30674.9 351656.0 0
110496.0 349892.0 0
114684.0 351355.0 0
118920.0 353846.0 0
194108.0 352450.0 0
199281.0 351328.0 0
203763.0 352793.0 0
209707.0 351074.0 0
215564.0 352328.0 0
219947.0 353050.0 0
222849.0 352111.0 0
226714.0 354175.0 0
231988.0 353503.0 0
236796.0 353096.0 0
241920.0 352293.0 0
247482.0 349579.0 0
252121.0 352712.0 0
255289.0 349414.0 0
255131.0 354148.0 0
259941.0 353609.0 0
265587.0 352932.0 0
275363.0 352007.0 0
280263.0 354019.0 0
285529.0 352280.0 0
290400.0 349869.0 0
294635.0 353743.0 0
306624.0 350393.0 0
349594.0 351751.0 0
389404.0 352354.0 0
394819.0 350187.0 0
466754.0 349814.0 0
470906.0 351170.0 0
13308.9 355104.0 0
123167.0 356101.0 0
190052.0 355522.0 0
203373.0 359007.0 0
207023.0 356677.0 0
213627.0 357629.0 0
218154.0 357630.0 0
222500.0 357494.0 0
233100.0 358083.0 0
237974.0 357889.0 0
242687.0 356842.0 0
246394.0 354364.0 0
247740.0 358560.0 0
251701.0 356842.0 0
255829.0 358325.0 0
260264.0 358668.0 0
265036.0 358320.0 0
270872.0 354794.0 0
275871.0 358140.0 0
284130.0 358146.0 0
289387.0 355985.0 0
336311.0 355723.0 0
341778.0 359190.0 0
351904.0 357165.0 0
355596.0 354551.0 0
417609.0 354738.0 0
431254.0 356065.0 0
2103.89 361891.0 0
4937.82 359332.0 0
9627.86 359584.0 0
187646.0 361760.0 0
204452.0 362642.0 0
209712.0 360839.0 0
213389.0 363325.0 0
218306.0 362290.0 0
222726.0 362404.0 0
228118.0 359432.0 0
226680.0 363962.0 0
231450.0 362753.0 0
236417.0 362678.0 0
241624.0 361489.0 0
247090.0 363675.0 0
253246.0 362887.0 0
258473.0 362943.0 0
262430.0 362288.0 0
269992.0 360157.0 0
266448.0 364180.0 0
273824.0 363515.0 0
280220.0 360951.0 0
282083.0 363981.0 0
288833.0 361537.0 0
294883.0 360371.0 0
329037.0 362178.0 0
361777.0 360905.0 0
367623.0 360957.0 0
378832.0 359685.0 0
385884.0 363706.0 0
208611.0 365122.0 0
204665.0 368294.0 0
213534.0 368542.0 0
218166.0 367044.0 0
222182.0 367120.0 0
225759.0 368529.0 0
230740.0 368235.0 0
236520.0 367897.0 0
242380.0 367835.0 0
247901.0 369243.0 0
252046.0 367751.0 0
256535.0 367551.0 0
261403.0 367169.0 0
271274.0 367490.0 0
278167.0 364455.0 0
281975.0 368443.0 0
285750.0 365444.0 0
289876.0 366215.0 0
294930.0 367128.0 0
315116.0 367639.0 0
320148.0 365515.0 0
325382.0 365905.0 0
371598.0 364520.0 0
375018.0 366453.0 0
390115.0 366062.0 0
1654.58 375632.0 0
5413.99 375216.0 0
9864.99 375293.0 0
14284.8 375208.0 0
18425.7 375164.0 0
22932.1 375106.0 0
26727.1 375520.0 0
30507.9 375276.0 0
35193.8 369740.0 0
36960.3 375687.0 0
40858.0 375554.0 0
45411.9 375179.0 0
48818.7 375361.0 0
52491.7 375823.0 0
56847.7 375114.0 0
61325.2 375061.0 0
64958.2 375446.0 0
68421.7 374523.0 0
68619.0 370471.0 0
74768.0 371353.0 0
78077.7 375231.0 0
81726.5 375166.0 0
86441.8 375577.0 0
90609.8 375049.0 0
95489.7 375051.0 0
100239.0 375293.0 0
103897.0 375766.0 0
111022.0 375541.0 0
107382.0 375519.0 0
114976.0 375378.0 0
118590.0 376066.0 0
122222.0 375553.0 0
127137.0 375397.0 0
131920.0 375473.0 0
136635.0 375052.0 0
139476.0 370000.0 0
144682.0 370700.0 0
148893.0 375279.0 0
152982.0 372760.0 0
156528.0 375390.0 0
160717.0 375070.0 0
165608.0 375349.0 0
169226.0 375729.0 0
172210.0 375403.0 0
176081.0 375175.0 0
179906.0 375746.0 0
183199.0 375336.0 0
186645.0 375384.0 0
190380.0 376213.0 0
194318.0 375128.0 0
198242.0 375082.0 0
196672.0 377555.0 0
199807.0 376787.0 0
208958.0 370675.0 0
266160.0 370042.0 0
276404.0 369545.0 0
287124.0 370448.0 0
292000.0 371404.0 0
295743.0 373240.0 0
300484.0 376097.0 0
303543.0 375024.0 0
310654.0 375312.0 0
306967.0 375489.0 0
314173.0 376126.0 0
318088.0 376336.0 0
322145.0 375652.0 0
325379.0 375815.0 0
328690.0 375548.0 0
332638.0 375447.0 0
336826.0 375119.0 0
340548.0 375953.0 0
344278.0 375471.0 0
349158.0 375958.0 0
353394.0 375816.0 0
357069.0 375136.0 0
361517.0 375392.0 0
366303.0 376013.0 0
370976.0 375284.0 0
376513.0 375318.0 0
373680.0 377326.0 0
380498.0 375774.0 0
384420.0 375486.0 0
388816.0 376024.0 0
393997.0 375217.0 0
397511.0 375518.0 0
400513.0 375324.0 0
404486.0 375340.0 0
408832.0 375049.0 0
410913.0 377409.0 0
413479.0 375120.0 0
418206.0 375160.0 0
422452.0 375452.0 0
426695.0 375610.0 0
430391.0 375233.0 0
434420.0 375432.0 0
438770.0 375067.0 0
443310.0 375195.0 0
441537.0 377232.0 0
446710.0 375140.0 0
451911.0 375333.0 0
456791.0 375501.0 0
461866.0 375529.0 0
466237.0 375536.0 0
470842.0 375525.0 0
474843.0 375398.0 0
479776.0 375358.0 0
484437.0 375553.0 0
488133.0 375319.0 0
492912.0 375197.0 0
497826.0 375513.0 0
4049.6 378783.0 0
1272.25 378736.0 0
1377.55 381478.0 0
7710.27 378052.0 0
9959.33 380699.0 0
5630.37 382319.0 0
12087.2 378284.0 0
13810.8 382192.0 0
16111.7 379063.0 0
20658.3 378571.0 0
25143.7 378576.0 0
23170.9 382409.0 0
26894.1 381210.0 0
28896.5 378482.0 0
30083.7 381843.0 0
34138.0 375518.0 0
32755.2 378748.0 0
37145.4 379064.0 0
40487.7 380196.0 0
38506.0 382434.0 0
44309.3 378221.0 0
43648.3 381506.0 0
48027.4 378044.0 0
51176.8 379543.0 0
47463.6 381494.0 0
55361.3 379046.0 0
59897.1 377992.0 0
58866.7 381991.0 0
64322.4 379697.0 0
68538.0 377217.0 0
69553.9 379617.0 0
71110.6 375239.0 0
72288.8 381131.0 0
72962.8 377071.0 0
75921.4 379767.0 0
75974.5 376366.0 0
79674.3 378503.0 0
84126.5 378903.0 0
83182.9 382057.0 0
88810.4 379618.0 0
92763.3 377729.0 0
94202.0 381483.0 0
97666.3 378531.0 0
101379.0 379219.0 0
98666.8 382303.0 0
105019.0 379124.0 0
109097.0 379054.0 0
112939.0 379148.0 0
116876.0 379584.0 0
120670.0 380192.0 0
125147.0 379849.0 0
129749.0 378789.0 0
132949.0 379091.0 0
132190.0 381843.0 0
129006.0 381954.0 0
135166.0 378001.0 0
136358.0 381274.0 0
138544.0 377904.0 0
141427.0 375520.0 0
140434.0 380275.0 0
143343.0 378693.0 0
145507.0 376290.0 0
147272.0 379888.0 0
151149.0 378022.0 0
154587.0 377046.0 0
155092.0 380910.0 0
158440.0 378817.0 0
161172.0 381108.0 0
158676.0 382362.0 0
163067.0 378481.0 0
166938.0 378672.0 0
164678.0 381620.0 0
168203.0 382125.0 0
170266.0 378977.0 0
174001.0 378631.0 0
177577.0 378143.0 0
179760.0 379454.0 0
181722.0 381923.0 0
183287.0 378495.0 0
184784.0 381652.0 0
187348.0 379375.0 0
190908.0 380839.0 0
193327.0 378283.0 0
195361.0 380307.0 0
199011.0 380005.0 0
301231.0 379497.0 0
305527.0 381164.0 0
304173.0 377724.0 0
310037.0 378818.0 0
307046.0 378010.0 0
313780.0 380012.0 0
321400.0 379791.0 0
317720.0 382004.0 0
324106.0 378343.0 0
324460.0 381439.0 0
326784.0 378935.0 0
327514.0 381334.0 0
330446.0 379329.0 0
334577.0 378650.0 0
341324.0 379097.0 0
338353.0 378168.0 0
338270.0 381272.0 0
345265.0 380086.0 0
349764.0 380411.0 0
354043.0 380106.0 0
358185.0 378173.0 0
358390.0 381862.0 0
362307.0 379852.0 0
367065.0 380754.0 0
370316.0 379146.0 0
373666.0 380895.0 0
381926.0 379161.0 0
377639.0 379831.0 0
385713.0 378800.0 0
384169.0 382477.0 0
388595.0 381456.0 0
396245.0 381821.0 0
392835.0 379584.0 0
398102.0 378689.0 0
401015.0 381831.0 0
402482.0 378129.0 0
406716.0 377794.0 0
404729.0 380376.0 0
409090.0 381064.0 0
413163.0 379964.0 0
415993.0 377759.0 0
417205.0 382232.0 0
420036.0 378892.0 0
422122.0 382391.0 0
428090.0 379236.0 0
424350.0 379208.0 0
431432.0 378271.0 0
431255.0 380887.0 0
433226.0 380996.0 0
429283.0 382544.0 0
434976.0 378726.0 0
437728.0 378321.0 0
436543.0 382048.0 0
440183.0 380511.0 0
444810.0 379135.0 0
448726.0 382381.0 0
448914.0 377847.0 0
452435.0 379515.0 0
455372.0 379041.0 0
457282.0 381984.0 0
459789.0 378989.0 0
461403.0 381991.0 0
464176.0 379553.0 0
468736.0 379023.0 0
467062.0 382574.0 0
471689.0 381980.0 0
473187.0 378748.0 0
476735.0 378576.0 0
475980.0 382429.0 0
482644.0 378468.0 0
479826.0 380584.0 0
484281.0 382474.0 0
486363.0 378712.0 0
488609.0 382448.0 0
490117.0 378773.0 0
494668.0 379222.0 0
498629.0 379156.0 0
1874.65 384870.0 0
10062.8 384146.0 0
6172.19 387175.0 0
14459.5 386291.0 0
10346.3 387661.0 0
18424.2 383299.0 0
19218.7 387170.0 0
22978.3 386136.0 0
26811.0 384403.0 0
30606.3 385625.0 0
34661.0 382842.0 0
34486.0 387236.0 0
38075.4 386064.0 0
40848.0 386891.0 0
44743.2 383961.0 0
41158.5 383829.0 0
43784.1 387291.0 0
50683.9 382574.0 0
48248.7 385370.0 0
54098.4 382534.0 0
51925.1 385088.0 0
55089.2 387015.0 0
56533.3 384233.0 0
59324.2 386060.0 0
63050.1 384129.0 0
66453.4 386620.0 0
67788.5 382815.0 0
70761.9 385104.0 0
75136.0 384238.0 0
79562.6 382718.0 0
78932.6 387170.0 0
83381.4 386106.0 0
86477.3 382882.0 0
90644.7 383879.0 0
87365.2 386245.0 0
95375.6 385627.0 0
99863.6 385884.0 0
102509.0 382726.0 0
104542.0 386143.0 0
107114.0 382950.0 0
111481.0 382900.0 0
109307.0 386424.0 0
115123.0 382786.0 0
114281.0 386973.0 0
118764.0 384248.0 0
122425.0 383324.0 0
126242.0 384719.0 0
122500.0 386697.0 0
130221.0 384299.0 0
129919.0 387574.0 0
134228.0 385567.0 0
139622.0 385115.0 0
143979.0 382241.0 0
144453.0 386005.0 0
151091.0 382554.0 0
147827.0 384116.0 0
150971.0 386736.0 0
155208.0 385408.0 0
162217.0 383705.0 0
159713.0 385646.0 0
165574.0 385515.0 0
171878.0 382840.0 0
169553.0 386502.0 0
173419.0 386180.0 0
176763.0 382731.0 0
180543.0 385820.0 0
184188.0 384434.0 0
187787.0 384145.0 0
191261.0 384933.0 0
193564.0 383121.0 0
196598.0 383455.0 0
194396.0 387055.0 0
199552.0 383132.0 0
199043.0 386880.0 0
300620.0 383509.0 0
304389.0 384367.0 0
302019.0 387508.0 0
306332.0 386010.0 0
309669.0 383180.0 0
308872.0 387232.0 0
313642.0 383601.0 0
315451.0 385767.0 0
312255.0 386534.0 0
318750.0 387398.0 0
321716.0 384403.0 0
326489.0 385497.0 0
330034.0 382875.0 0
334287.0 383118.0 0
331638.0 387133.0 0
341312.0 383009.0 0
338100.0 384639.0 0
340541.0 387291.0 0
344698.0 384759.0 0
348364.0 383843.0 0
351880.0 383827.0 0
346977.0 386942.0 0
349993.0 387181.0 0
355759.0 384227.0 0
353529.0 386404.0 0
360237.0 384995.0 0
364066.0 383579.0 0
364995.0 386994.0 0
367536.0 384667.0 0
370624.0 383297.0 0
375323.0 385457.0 0
380006.0 383332.0 0
379781.0 387681.0 0
382818.0 385945.0 0
387023.0 386451.0 0
392746.0 385203.0 0
397921.0 385033.0 0
401924.0 385711.0 0
405460.0 384376.0 0
409509.0 385005.0 0
413096.0 383789.0 0
416147.0 386558.0 0
420105.0 385469.0 0
425769.0 383093.0 0
424159.0 386829.0 0
432863.0 384091.0 0
428645.0 386508.0 0
436875.0 385981.0 0
439788.0 384097.0 0
443469.0 383208.0 0
446245.0 386721.0 0
453461.0 382767.0 0
451323.0 386116.0 0
456053.0 386407.0 0
463846.0 383506.0 0
460090.0 384553.0 0
462646.0 386208.0 0
466617.0 386614.0 0
469801.0 384944.0 0
473299.0 386138.0 0
477352.0 385859.0 0
480253.0 384261.0 0
483892.0 386354.0 0
488512.0 386762.0 0
492685.0 382735.0 0
493996.0 386532.0 0
497814.0 382719.0 0
498360.0 386534.0 0
1890.49 388829.0 0
1439.17 392472.0 0
8785.48 390271.0 0
5517.84 391865.0 0
12080.8 390354.0 0
16533.6 390828.0 0
22375.0 390657.0 0
26690.1 388375.0 0
31581.7 390716.0 0
36850.5 390316.0 0
40559.0 389637.0 0
44014.2 391777.0 0
47348.4 389406.0 0
51186.8 388526.0 0
54139.9 390878.0 0
58442.0 390042.0 0
62723.0 388628.0 0
69786.1 388564.0 0
66399.2 391387.0 0
71169.0 391956.0 0
74215.6 388691.0 0
75540.0 392863.0 0
78246.6 390603.0 0
82121.8 389908.0 0
86216.5 389383.0 0
84647.4 392574.0 0
91102.1 388688.0 0
88301.5 392630.0 0
96677.3 389847.0 0
101652.0 389701.0 0
106751.0 389757.0 0
110892.0 389844.0 0
116415.0 390696.0 0
113270.0 391971.0 0
119110.0 388515.0 0
119506.0 391759.0 0
126089.0 389445.0 0
122577.0 390937.0 0
129778.0 391762.0 0
137032.0 389310.0 0
133162.0 389643.0 0
142495.0 389803.0 0
147537.0 388166.0 0
147067.0 392240.0 0
150947.0 390524.0 0
153894.0 389252.0 0
158448.0 389789.0 0
162460.0 391311.0 0
162683.0 388001.0 0
166501.0 390192.0 0
171879.0 390445.0 0
176240.0 387838.0 0
176286.0 391376.0 0
180233.0 390054.0 0
185090.0 388382.0 0
188009.0 391785.0 0
189583.0 387853.0 0
192602.0 390801.0 0
197919.0 391500.0 0
305897.0 389429.0 0
301231.0 391118.0 0
310259.0 389802.0 0
314664.0 389926.0 0
318730.0 391653.0 0
323077.0 389543.0 0
328534.0 390844.0 0
333600.0 391416.0 0
336182.0 387763.0 0
337953.0 391488.0 0
344439.0 388290.0 0
342244.0 391395.0 0
347279.0 390909.0 0
356695.0 388005.0 0
352654.0 390748.0 0
361264.0 389697.0 0
357099.0 391978.0 0
365844.0 390387.0 0
370102.0 388306.0 0
374231.0 389982.0 0
377349.0 390299.0 0
372385.0 392811.0 0
375553.0 392678.0 0
380281.0 391057.0 0
383181.0 389416.0 0
386090.0 391011.0 0
390485.0 390285.0 0
396730.0 388271.0 0
394565.0 389366.0 0
394532.0 392242.0 0
400385.0 388694.0 0
397995.0 391751.0 0
402683.0 392491.0 0
404171.0 388539.0 0
406300.0 391017.0 0
407938.0 388325.0 0
412176.0 387929.0 0
410259.0 392435.0 0
415416.0 391255.0 0
419452.0 389184.0 0
423186.0 391232.0 0
426935.0 390226.0 0
430023.0 390076.0 0
433077.0 387961.0 0
433215.0 392182.0 0
437116.0 389945.0 0
441540.0 387863.0 0
440604.0 391925.0 0
445195.0 391670.0 0
449163.0 389503.0 0
453158.0 390076.0 0
457167.0 390600.0 0
459965.0 388003.0 0
460575.0 391173.0 0
463986.0 389558.0 0
468099.0 391152.0 0
470175.0 388094.0 0
472698.0 390333.0 0
475963.0 388557.0 0
477264.0 392355.0 0
480411.0 388369.0 0
481676.0 391895.0 0
484770.0 389525.0 0
488207.0 390694.0 0
492330.0 390499.0 0
497732.0 390411.0 0
2744.34 396689.0 0
9670.96 393226.0 0
7438.38 395777.0 0
12942.1 393971.0 0
11074.9 397144.0 0
19720.1 393590.0 0
16578.0 397404.0 0
22299.4 395771.0 0
26474.4 393085.0 0
26096.4 397842.0 0
31150.3 396049.0 0
35688.9 394166.0 0
39900.6 393413.0 0
37736.1 395849.0 0
40334.8 397734.0 0
44027.8 395565.0 0
49851.1 393835.0 0
46806.8 397633.0 0
53606.9 397432.0 0
56696.4 394151.0 0
60920.7 396505.0 0
61762.3 392793.0 0
65105.7 395492.0 0
69106.1 395300.0 0
72930.5 394899.0 0
76444.6 396726.0 0
80334.8 394319.0 0
85005.1 396785.0 0
89508.5 396091.0 0
93189.8 393287.0 0
95920.6 395793.0 0
99033.3 394131.0 0
104212.0 394140.0 0
109296.0 393343.0 0
107297.0 397622.0 0
117005.0 394111.0 0
112796.0 396444.0 0
121870.0 395371.0 0
126247.0 393632.0 0
129782.0 395377.0 0
134038.0 393733.0 0
138903.0 392954.0 0
138061.0 397422.0 0
143203.0 395317.0 0
147535.0 395885.0 0
151094.0 394328.0 0
155075.0 392604.0 0
155080.0 396544.0 0
159835.0 394392.0 0
164305.0 393732.0 0
168582.0 394304.0 0
174226.0 395597.0 0
178713.0 393377.0 0
183274.0 393097.0 0
179805.0 396307.0 0
187133.0 395918.0 0
183793.0 397075.0 0
191276.0 394969.0 0
194702.0 394329.0 0
196751.0 395977.0 0
194426.0 397683.0 0
199387.0 395486.0 0
304824.0 392989.0 0
301449.0 395729.0 0
308190.0 392545.0 0
307390.0 397113.0 0
311502.0 393317.0 0
315501.0 394160.0 0
312443.0 396695.0 0
319087.0 395772.0 0
321957.0 393621.0 0
325594.0 393999.0 0
322881.0 396971.0 0
330791.0 395588.0 0
326634.0 397408.0 0
335668.0 395097.0 0
340005.0 394876.0 0
344533.0 394860.0 0
349550.0 394932.0 0
354098.0 395236.0 0
360707.0 393594.0 0
358351.0 395138.0 0
362008.0 396967.0 0
364200.0 393623.0 0
366359.0 396808.0 0
368443.0 393117.0 0
370840.0 396593.0 0
375303.0 396524.0 0
378579.0 393624.0 0
379625.0 397340.0 0
382949.0 393937.0 0
385908.0 397450.0 0
387902.0 394144.0 0
392170.0 394697.0 0
396203.0 395120.0 0
394257.0 397461.0 0
400055.0 395221.0 0
406370.0 394354.0 0
403733.0 397721.0 0
413887.0 395867.0 0
419459.0 394376.0 0
426189.0 393435.0 0
423783.0 395261.0 0
427339.0 396965.0 0
429235.0 393311.0 0
432048.0 396208.0 0
436967.0 394574.0 0
442260.0 395516.0 0
439063.0 397266.0 0
446867.0 396072.0 0
449926.0 393265.0 0
451924.0 397150.0 0
454732.0 393788.0 0
458823.0 394193.0 0
461170.0 396461.0 0
463764.0 393726.0 0
467547.0 395193.0 0
464599.0 397631.0 0
471868.0 394337.0 0
476447.0 396983.0 0
481483.0 395848.0 0
485314.0 393255.0 0
485964.0 396860.0 0
490021.0 394657.0 0
493911.0 397915.0 0
498834.0 393822.0 0
495192.0 393948.0 0
498250.0 396950.0 0
2846.73 402436.0 0
7722.49 399901.0 0
12218.0 401595.0 0
21557.4 400132.0 0
25410.5 402108.0 0
30318.0 401277.0 0
35579.6 398809.0 0
39640.6 402583.0 0
44411.6 400913.0 0
49940.5 400372.0 0
54979.4 401871.0 0
57584.8 398315.0 0
60605.0 401760.0 0
64016.7 399116.0 0
68254.6 399841.0 0
72722.3 398133.0 0
76060.3 399945.0 0
73022.4 402401.0 0
80119.1 399399.0 0
77422.2 403047.0 0
84311.2 401565.0 0
88773.6 400337.0 0
93414.7 398673.0 0
97655.5 398270.0 0
101740.0 399078.0 0
97378.4 402158.0 0
105171.0 401823.0 0
110505.0 401901.0 0
115028.0 400355.0 0
117770.0 398017.0 0
121694.0 400484.0 0
117963.0 401685.0 0
126854.0 398665.0 0
129590.0 402636.0 0
132760.0 398907.0 0
137899.0 401782.0 0
142405.0 400181.0 0
146147.0 398805.0 0
150508.0 399011.0 0
154535.0 400422.0 0
159036.0 399142.0 0
164324.0 398079.0 0
166390.0 401986.0 0
169333.0 399014.0 0
173251.0 400214.0 0
177332.0 399681.0 0
181950.0 399993.0 0
186308.0 399867.0 0
190521.0 399005.0 0
198281.0 398956.0 0
194579.0 402226.0 0
199083.0 402531.0 0
302505.0 400026.0 0
315982.0 398102.0 0
311659.0 400674.0 0
316179.0 402555.0 0
319952.0 399560.0 0
324495.0 401011.0 0
329368.0 400107.0 0
334154.0 399758.0 0
337981.0 398098.0 0
338553.0 401971.0 0
341877.0 398511.0 0
346822.0 398978.0 0
351649.0 399335.0 0
356986.0 399290.0 0
361028.0 400194.0 0
364666.0 401016.0 0
368850.0 399509.0 0
372862.0 400851.0 0
377210.0 400699.0 0
381286.0 401291.0 0
382859.0 398439.0 0
385658.0 401819.0 0
390065.0 398563.0 0
394281.0 400935.0 0
398292.0 398825.0 0
401903.0 401751.0 0
406455.0 402637.0 0
409310.0 398131.0 0
410871.0 402299.0 0
413770.0 400390.0 0
417395.0 398474.0 0
417930.0 402822.0 0
422326.0 399022.0 0
426658.0 401099.0 0
430598.0 399717.0 0
429551.0 402496.0 0
435676.0 399792.0 0
440403.0 399231.0 0
440297.0 402779.0 0
443925.0 399605.0 0
448570.0 400365.0 0
453537.0 401496.0 0
456822.0 398163.0 0
457530.0 402685.0 0
461075.0 400071.0 0
465616.0 401731.0 0
468490.0 398744.0 0
472171.0 398903.0 0
475082.0 401314.0 0
484009.0 399773.0 0
479548.0 400488.0 0
489189.0 399161.0 0
486612.0 403039.0 0
490306.0 402375.0 0
493309.0 401692.0 0
497701.0 400699.0 0
8113.29 405016.0 0
13206.6 406914.0 0
17329.8 402990.0 0
18205.0 406895.0 0
22119.3 404950.0 0
27059.2 405692.0 0
31017.9 405820.0 0
34978.9 403760.0 0
34033.5 408016.0 0
38512.7 407637.0 0
43471.4 406438.0 0
47349.4 404393.0 0
51181.3 405046.0 0
54946.0 405920.0 0
58305.1 405089.0 0
64825.8 403082.0 0
62670.6 407212.0 0
68714.7 405384.0 0
74514.6 406886.0 0
80928.3 403344.0 0
79318.8 406510.0 0
83817.1 405868.0 0
88086.8 404578.0 0
91367.8 406765.0 0
92742.9 403213.0 0
96186.0 406656.0 0
101380.0 404693.0 0
106523.0 405774.0 0
111405.0 407135.0 0
115282.0 404222.0 0
119718.0 404734.0 0
125033.0 404614.0 0
129945.0 407352.0 0
133718.0 403741.0 0
134599.0 407569.0 0
142184.0 404402.0 0
138184.0 406111.0 0
146908.0 402844.0 0
145691.0 407027.0 0
151829.0 403884.0 0
149965.0 407690.0 0
156913.0 403785.0 0
162408.0 403287.0 0
159264.0 407346.0 0
166271.0 405091.0 0
170171.0 403919.0 0
173231.0 407829.0 0
174985.0 403533.0 0
177257.0 406547.0 0
179695.0 403345.0 0
181732.0 407606.0 0
184520.0 403485.0 0
187343.0 407555.0 0
189347.0 403300.0 0
192920.0 407707.0 0
198035.0 405911.0 0
301581.0 404479.0 0
304996.0 406973.0 0
307065.0 402982.0 0
308119.0 407549.0 0
311931.0 405987.0 0
320846.0 403991.0 0
317182.0 407300.0 0
324446.0 405357.0 0
327782.0 404071.0 0
331189.0 406957.0 0
331777.0 402857.0 0
335261.0 404557.0 0
339657.0 407228.0 0
343454.0 403190.0 0
344187.0 407393.0 0
348889.0 403842.0 0
351677.0 407440.0 0
354087.0 403747.0 0
359998.0 404597.0 0
365043.0 406477.0 0
368972.0 403476.0 0
372031.0 405637.0 0
375432.0 404693.0 0
379109.0 404154.0 0
382562.0 405329.0 0
387176.0 406677.0 0
390190.0 403036.0 0
391579.0 406462.0 0
394038.0 404474.0 0
398021.0 403938.0 0
399376.0 406933.0 0
402553.0 405903.0 0
406793.0 405901.0 0
410305.0 406288.0 0
413732.0 403702.0 0
415350.0 407625.0 0
420050.0 406553.0 0
423184.0 403899.0 0
427927.0 405458.0 0
432333.0 403152.0 0
432200.0 407141.0 0
436040.0 404682.0 0
442603.0 406823.0 0
439415.0 406640.0 0
444956.0 403905.0 0
450169.0 405263.0 0
454730.0 404898.0 0
458143.0 406899.0 0
461656.0 404192.0 0
462523.0 407959.0 0
466040.0 406144.0 0
470822.0 403796.0 0
473449.0 407716.0 0
477163.0 404909.0 0
482101.0 404048.0 0
485023.0 406646.0 0
491010.0 407075.0 0
495428.0 404298.0 0
498572.0 404276.0 0
3192.91 408080.0 0
1597.84 412164.0 0
8498.14 409652.0 0
5439.43 412739.0 0
12557.3 412189.0 0
17320.5 410952.0 0
20942.6 408627.0 0
24709.6 409026.0 0
21761.4 412009.0 0
29786.5 410335.0 0
25594.7 413046.0 0
35557.8 412285.0 0
40685.4 411813.0 0
44332.0 410718.0 0
48174.7 408803.0 0
47102.5 412661.0 0
52891.2 409146.0 0
55766.0 412625.0 0
50995.1 413080.0 0
57525.1 408657.0 0
59942.1 411331.0 0
63594.0 412892.0 0
66791.8 409935.0 0
70972.4 409711.0 0
73954.0 411049.0 0
77671.8 410400.0 0
82293.9 409931.0 0
84937.4 413002.0 0
87496.3 409323.0 0
92522.9 410282.0 0
100047.0 408617.0 0
97196.2 411216.0 0
101476.0 412490.0 0
103870.0 408910.0 0
106196.0 412799.0 0
107868.0 409367.0 0
111548.0 412173.0 0
116628.0 408720.0 0
121569.0 408338.0 0
121514.0 412224.0 0
125532.0 410067.0 0
129804.0 412694.0 0
133556.0 410551.0 0
137548.0 410257.0 0
141768.0 408962.0 0
147060.0 411185.0 0
143630.0 411702.0 0
151761.0 411716.0 0
154661.0 408115.0 0
155935.0 412042.0 0
160100.0 411295.0 0
163564.0 408045.0 0
164695.0 412179.0 0
168563.0 409173.0 0
172636.0 412757.0 0
177042.0 410397.0 0
180957.0 412089.0 0
184699.0 411106.0 0
189005.0 412497.0 0
198090.0 410321.0 0
193918.0 413059.0 0
301611.0 409365.0 0
305723.0 410533.0 0
309824.0 410631.0 0
313820.0 410014.0 0
318412.0 412795.0 0
321971.0 408438.0 0
324255.0 412457.0 0
326520.0 408556.0 0
330270.0 412094.0 0
335222.0 409489.0 0
338971.0 412396.0 0
343350.0 411162.0 0
347683.0 408894.0 0
356214.0 408708.0 0
351836.0 411566.0 0
361587.0 410362.0 0
366179.0 410549.0 0
369189.0 408055.0 0
369714.0 411581.0 0
373541.0 409326.0 0
376334.0 412906.0 0
378608.0 408248.0 0
380264.0 412129.0 0
383326.0 409510.0 0
390901.0 409404.0 0
387628.0 411626.0 0
395695.0 408437.0 0
400667.0 409685.0 0
397852.0 412518.0 0
406011.0 409772.0 0
411536.0 411373.0 0
416398.0 412951.0 0
419611.0 410166.0 0
424369.0 409090.0 0
428853.0 409594.0 0
432317.0 412221.0 0
436303.0 409071.0 0
436922.0 412610.0 0
441401.0 411075.0 0
445808.0 408370.0 0
446442.0 412965.0 0
449557.0 409961.0 0
453963.0 408932.0 0
456565.0 412720.0 0
460049.0 410741.0 0
464118.0 411456.0 0
469017.0 410116.0 0
474029.0 411622.0 0
476927.0 409060.0 0
478249.0 412051.0 0
481029.0 408436.0 0
482256.0 412988.0 0
485988.0 410623.0 0
494042.0 411653.0 0
490024.0 412996.0 0
497391.0 408251.0 0
497931.0 412981.0 0
2399.87 416204.0 0
8944.96 413833.0 0
7120.54 417892.0 0
11848.4 416817.0 0
19511.1 414373.0 0
16219.3 415571.0 0
22530.1 415797.0 0
28493.4 414039.0 0
27208.8 417774.0 0
31592.3 415308.0 0
35317.7 417099.0 0
39307.7 415975.0 0
43872.3 415014.0 0
48160.8 415928.0 0
54122.2 417434.0 0
59322.7 415459.0 0
63613.0 417689.0 0
69352.1 415070.0 0
75367.7 414408.0 0
80380.6 414670.0 0
84924.8 416807.0 0
82003.0 418126.0 0
89237.7 414486.0 0
94176.4 414042.0 0
98203.0 415889.0 0
103444.0 417595.0 0
109042.0 416833.0 0
116848.0 413926.0 0
113204.0 416603.0 0
120970.0 417051.0 0
125372.0 415075.0 0
135496.0 415371.0 0
140564.0 413320.0 0
144489.0 415053.0 0
148897.0 415346.0 0
153719.0 416114.0 0
158256.0 415135.0 0
161929.0 414938.0 0
165325.0 416071.0 0
168351.0 413967.0 0
170874.0 417088.0 0
177677.0 415599.0 0
174134.0 418240.0 0
183959.0 415587.0 0
188266.0 416970.0 0
191429.0 416025.0 0
198098.0 415470.0 0
194402.0 417102.0 0
301910.0 413478.0 0
301957.0 417418.0 0
306864.0 415203.0 0
312587.0 414190.0 0
322091.0 416683.0 0
327113.0 416244.0 0
334858.0 413692.0 0
332188.0 417103.0 0
337883.0 417570.0 0
343128.0 415698.0 0
347393.0 413629.0 0
351738.0 416215.0 0
357060.0 414141.0 0
362002.0 414922.0 0
366570.0 414646.0 0
371786.0 415422.0 0
376129.0 416934.0 0
379817.0 415928.0 0
383821.0 414096.0 0
388168.0 416905.0 0
392812.0 413608.0 0
397185.0 416792.0 0
402295.0 414643.0 0
408059.0 415219.0 0
413088.0 416563.0 0
417713.0 417087.0 0
422053.0 414644.0 0
427315.0 413414.0 0
430400.0 417464.0 0
435331.0 415933.0 0
439146.0 414972.0 0
443011.0 416311.0 0
447941.0 417953.0 0
451759.0 413962.0 0
452257.0 418047.0 0
455890.0 417038.0 0
460965.0 415366.0 0
466392.0 415154.0 0
471224.0 415153.0 0
479241.0 415308.0 0
475739.0 415400.0 0
482343.0 417182.0 0
486223.0 415222.0 0
490284.0 417341.0 0
494346.0 415521.0 0
497997.0 416891.0 0
2686.64 421225.0 0
7136.57 422355.0 0
10824.3 421166.0 0
15050.1 419939.0 0
19531.7 418884.0 0
18196.1 422737.0 0
23321.1 419403.0 0
22556.1 423109.0 0
27970.0 423279.0 0
32161.3 419898.0 0
37813.9 421144.0 0
41994.4 418850.0 0
43204.9 423162.0 0
45922.8 419121.0 0
49842.7 418857.0 0
48767.0 422919.0 0
54339.4 423215.0 0
59110.3 420242.0 0
63629.1 422612.0 0
67031.5 420130.0 0
70775.8 420568.0 0
74208.6 418534.0 0
78593.6 420081.0 0
83536.0 421014.0 0
88124.6 419930.0 0
93339.4 418814.0 0
98562.6 421560.0 0
103400.0 422733.0 0
107520.0 421565.0 0
112236.0 420764.0 0
116456.0 418897.0 0
115977.0 422924.0 0
120245.0 421847.0 0
124813.0 420391.0 0
129985.0 418629.0 0
135522.0 421751.0 0
140836.0 418455.0 0
139791.0 422205.0 0
145952.0 419114.0 0
143380.0 423225.0 0
150021.0 418998.0 0
148620.0 423334.0 0
157677.0 418971.0 0
153573.0 421364.0 0
162049.0 418871.0 0
167183.0 419886.0 0
163622.0 423002.0 0
172189.0 422037.0 0
176967.0 420562.0 0
181056.0 419172.0 0
185750.0 420852.0 0
191374.0 420281.0 0
197222.0 420814.0 0
302439.0 421833.0 0
311106.0 418491.0 0
306930.0 420403.0 0
316019.0 418258.0 0
315839.0 422878.0 0
320185.0 421172.0 0
324551.0 420035.0 0
328996.0 420906.0 0
333896.0 421841.0 0
338320.0 422908.0 0
342800.0 420981.0 0
347341.0 418370.0 0
351648.0 421195.0 0
355597.0 418867.0 0
359870.0 418732.0 0
363936.0 418175.0 0
363251.0 423179.0 0
368111.0 419548.0 0
373454.0 420908.0 0
378857.0 420319.0 0
383468.0 418883.0 0
387840.0 422725.0 0
393071.0 419831.0 0
400258.0 419806.0 0
405035.0 419383.0 0
409771.0 419953.0 0
415797.0 421200.0 0
420913.0 419971.0 0
425416.0 418677.0 0
428314.0 421779.0 0
434564.0 419765.0 0
438905.0 419306.0 0
443602.0 421335.0 0
448323.0 423023.0 0
454026.0 422370.0 0
459130.0 420185.0 0
464024.0 419796.0 0
468973.0 419420.0 0
473788.0 419180.0 0
478232.0 418644.0 0
476899.0 422890.0 0
481594.0 421565.0 0
486144.0 419857.0 0
494025.0 419368.0 0
490476.0 422617.0 0
494651.0 423046.0 0
497853.0 420988.0 0
1099.6 424895.0 0
4728.84 426204.0 0
1142.58 427444.0 0
9630.64 425758.0 0
14213.9 424632.0 0
19118.0 427691.0 0
24822.6 427706.0 0
29714.9 428137.0 0
33366.1 424613.0 0
37928.4 426341.0 0
42085.9 427955.0 0
46367.4 427110.0 0
51119.6 427698.0 0
55694.6 428172.0 0
59458.7 425417.0 0
64134.2 427710.0 0
68618.5 424722.0 0
74361.9 423523.0 0
72419.7 428235.0 0
80672.7 424777.0 0
76986.8 427593.0 0
86485.1 425599.0 0
90923.9 428685.0 0
92207.2 424205.0 0
96475.7 426729.0 0
101168.0 426176.0 0
106114.0 426500.0 0
110577.0 424900.0 0
114495.0 426837.0 0
118476.0 425545.0 0
122607.0 425791.0 0
128730.0 425366.0 0
134372.0 426447.0 0
139270.0 425167.0 0
142335.0 427931.0 0
145892.0 426594.0 0
148754.0 427438.0 0
153064.0 426915.0 0
158563.0 424108.0 0
163071.0 427806.0 0
167722.0 425182.0 0
172480.0 428298.0 0
176421.0 424831.0 0
176961.0 428293.0 0
180932.0 423457.0 0
185177.0 426136.0 0
189218.0 424374.0 0
193510.0 425105.0 0
198064.0 426064.0 0
302002.0 426414.0 0
311030.0 423059.0 0
306378.0 424573.0 0
309459.0 427190.0 0
313983.0 427263.0 0
319299.0 426409.0 0
324988.0 424895.0 0
330512.0 425571.0 0
335849.0 426470.0 0
341691.0 427304.0 0
347419.0 423294.0 0
351519.0 426315.0 0
347074.0 427367.0 0
356797.0 423716.0 0
369412.0 425404.0 0
377436.0 426212.0 0
382585.0 423453.0 0
384944.0 427325.0 0
392478.0 424512.0 0
389694.0 427871.0 0
397174.0 423583.0 0
399831.0 427838.0 0
402468.0 423920.0 0
407049.0 423373.0 0
403337.0 427590.0 0
407179.0 428042.0 0
411643.0 424620.0 0
415944.0 427188.0 0
419595.0 424405.0 0
424271.0 423583.0 0
428224.0 425543.0 0
432970.0 424038.0 0
439086.0 424695.0 0
444548.0 426683.0 0
450688.0 428071.0 0
456380.0 427460.0 0
461603.0 425093.0 0
466696.0 423557.0 0
468166.0 428362.0 0
471632.0 423854.0 0
475521.0 428532.0 0
480934.0 426208.0 0
485484.0 424463.0 0
488959.0 427396.0 0
484817.0 428413.0 0
493571.0 426541.0 0
497835.0 425366.0 0
2411.16 430687.0 0
7701.74 430449.0 0
12811.3 429588.0 0
16875.8 433523.0 0
22136.1 432257.0 0
27142.5 432563.0 0
34333.2 429682.0 0
38820.2 430742.0 0
42543.4 432097.0 0
47694.4 432581.0 0
53571.2 432174.0 0
59779.7 430810.0 0
65047.5 432948.0 0
68294.6 429567.0 0
70988.7 432520.0 0
75384.4 431925.0 0
81842.0 430536.0 0
87355.6 431001.0 0
94594.5 431357.0 0
99749.9 430732.0 0
105066.0 431854.0 0
110397.0 430064.0 0
115011.0 431100.0 0
119382.0 429727.0 0
121961.0 433552.0 0
124439.0 430039.0 0
128484.0 431339.0 0
132745.0 430421.0 0
137705.0 429238.0 0
141403.0 432616.0 0
146449.0 431019.0 0
151315.0 431486.0 0
157975.0 430168.0 0
167349.0 430075.0 0
163646.0 432613.0 0
176924.0 431921.0 0
180614.0 428658.0 0
181458.0 433479.0 0
184562.0 430596.0 0
189818.0 429688.0 0
195298.0 429418.0 0
198286.0 432141.0 0
305722.0 429055.0 0
301677.0 430442.0 0
310713.0 432587.0 0
317063.0 431183.0 0
323021.0 429926.0 0
325337.0 433324.0 0
327767.0 429760.0 0
332586.0 429861.0 0
337286.0 431955.0 0
345880.0 431006.0 0
342277.0 433270.0 0
350322.0 431529.0 0
355186.0 430141.0 0
360134.0 428464.0 0
358856.0 433327.0 0
365032.0 428678.0 0
368585.0 430380.0 0
372852.0 430222.0 0
377460.0 431388.0 0
381449.0 430738.0 0
386389.0 432120.0 0
391561.0 432590.0 0
394900.0 428488.0 0
398505.0 432500.0 0
403167.0 431039.0 0
411968.0 429778.0 0
408201.0 433316.0 0
416522.0 432501.0 0
420241.0 428798.0 0
422250.0 433302.0 0
425177.0 428750.0 0
427312.0 433448.0 0
430745.0 429527.0 0
435676.0 428507.0 0
434859.0 433240.0 0
440247.0 430269.0 0
446380.0 431308.0 0
450104.0 433389.0 0
454689.0 432253.0 0
459135.0 430887.0 0
463353.0 430189.0 0
466487.0 433384.0 0
471597.0 433243.0 0
481372.0 431092.0 0
486467.0 432982.0 0
492492.0 431631.0 0
497622.0 429705.0 0
4832.81 433665.0 0
10735.9 435490.0 0
32307.5 434591.0 0
37644.8 435295.0 0
57418.6 435570.0 0
78593.2 435177.0 0
85374.6 434037.0 0
90516.8 433925.0 0
96022.9 436205.0 0
101341.0 435943.0 0
108604.0 434786.0 0
112869.0 434800.0 0
117622.0 434413.0 0
125783.0 434235.0 0
136247.0 434812.0 0
154689.0 434735.0 0
159822.0 435248.0 0
167665.0 434522.0 0
172442.0 434152.0 0
186349.0 434631.0 0
193983.0 434587.0 0
304489.0 434073.0 0
320910.0 434348.0 0
369952.0 433625.0 0
375281.0 434001.0 0
443130.0 434630.0 0
461724.0 434942.0 0
477374.0 434188.0 0
481960.0 435383.0 0
490394.0 436546.0 0
494561.0 436235.0 0
497928.0 434096.0 0
POINT_DATA 5000
SCALARS Radius float 1
LOOKUP_TABLE default
5782.6 5529.52 4796.58 3979.26 3471.03 5253.55 5820.48 4862.21 5113.21 3929.19 4107.03 4478.15 5379.87 5925.6 4501.51 4792.73 4736.58 4931.38 3485.26 4329.05 4151.94 4049.23 5337.48 6124.89 5708.81 5252.48 4780.03 5495.39 3996.0 3856.1 4665.12 3383.4 4133.88 4834.9 3850.77 6044.04 5415.48 5120.0 3863.18 2356.98 4998.37 6182.6 5492.18 5258.36 5061.3 3642.12 3163.97 5812.43 5122.66 5906.14 5484.19 7513.1 5254.28 4436.4 5733.48 4672.91 5580.89 3588.44 5645.7 5176.86 6810.52 5840.26 3672.51 6110.27 5561.06 5073.35 3615.22 5670.04 4380.59 3589.27 6716.79 3607.45 5759.91 7613.27 4951.03 5255.32 6037.08 5096.78 6756.95 4129.43 6324.23 3843.58 3320.52 4194.5 4270.53 5344.25 5191.63 4593.7 4150.99 4216.92 4742.68 4344.58 5634.83 5495.84 6268.1 4861.06 5374.51 5320.28 6739.08 4797.52 4569.12 4298.67 5960.66 6608.73 5011.84 7034.11 6261.42 4502.5 3771.48 4043.57 4271.69 5681.38 4138.42 3708.04 5513.6 3240.09 4556.36 6082.81 3191.99 4685.34 5601.05 4929.8 3586.91 3103.0 3554.9 4015.92 5542.21 4487.31 3936.02 4044.71 5980.74 4094.62 4927.02 5546.39 5325.36 5484.83 5085.53 5351.6 4730.36 4715.55 5867.73 3951.75 5013.56 4499.64 4375.68 5542.27 5054.98 6030.06 5170.02 3557.27 4927.31 4688.68 4402.52 4517.56 4182.53 5903.42 3955.56 3761.32 4118.05 4366.19 5553.16 2938.66 4940.78 4231.61 4008.92 3942.53 3379.84 4827.82 3997.1 3260.67 5123.52 3038.33 4392.68 4333.2 7199.21 4523.7 2240.39 5091.39 5293.9 6142.94 3912.37 4727.24 4602.25 4790.08 5082.47 4763.45 5445.87 3815.26 4704.72 4177.94 4571.7 5896.46 5022.8 3784.5 3780.23 6481.79 5224.12 7042.12 4819.73 6326.39 4471.58 5873.69 4962.09 3999.48 4359.62 6946.21 2586.12 5433.8 4011.77 5499.11 3633.87 5922.5 5198.77 5987.17 6013.14 2765.2 4901.41 5110.37 5664.98 4382.74 5927.43 4651.28 3693.63 4384.42 4516.43 5481.78 5637.59 4937.14 5043.05 5816.2 5693.81 5109.54 6483.19 3829.13 5945.65 6759.9 5538.89 7021.47 5416.38 6059.59 4955.55 2720.68 5701.86 3563.63 4238.81 4468.59 5885.03 2837.58 5325.02 5200.76 5017.13 4862.64 5185.34 4432.58 6684.56 3968.64 4688.67 2635.86 5292.64 6166.5 5065.13 5936.02 5305.17 4861.08 4003.05 5390.22 4805.87 4712.33 5227.21 5697.78 4667.36 4091.31 6372.62 4254.17 4295.38 5615.42 7565.34 5923.5 4612.68 4281.49 4973.83 6342.25 6691.39 4840.84 5135.69 5344.0 4020.32 6045.46 4245.72 5908.1 6048.7 6133.92 3719.84 4178.4 3095.48 4166.08 4123.6 4850.14 5163.55 3382.7 6817.32 4319.79 6098.14 4472.17 4203.26 5188.81 4730.41 6057.22 5062.71 6125.34 4527.08 5347.48 4850.01 3970.25 5147.67 3979.82 5011.31 5138.31 5264.06 4659.59 6327.9 4048.37 6355.42 4362.19 5690.56 4948.92 3115.91 3307.12 4493.48 5924.89 4002.16 4174.52 4138.16 3486.22 4684.5 6230.49 6458.82 5418.62 4601.27 5493.32 5740.68 5926.61 6051.14 5836.15 3261.21 4345.55 6704.06 3653.41 3871.88 3856.01 5246.2 4390.66 5279.39 3673.74 4827.23 5205.43 6116.18 7447.37 4924.6 4385.06 4733.32 7184.19 2899.43 2924.37 4290.3 3867.67 5399.73 4660.72 3888.21 5891.05 6038.78 6902.81 6644.76 5629.19 5090.24 4786.6 5740.84 6445.94 5530.87 4310.18 7134.64 5978.9 4187.56 3629.62 4997.27 4301.06 4877.67 4290.14 6562.18 4156.38 5316.75 4541.21 4164.68 5669.65 5934.22 5624.49 5762.59 7092.87 4666.81 3703.1 3954.91 6471.55 2965.01 6643.85 3637.61 5501.93 6222.42 5654.31 3745.84 4938.74 5690.26 4156.2 4497.59 5965.78 4374.35 4810.12 5643.58 5215.05 4292.06 5577.04 5006.58 4602.86 3688.8 4548.16 3369.23 5449.18 5492.26 5244.78 5762.84 3937.74 4749.8 6084.86 5478.92 4778.34 5551.36 6894.71 3091.3 4414.54 5789.98 6138.47 7054.71 3641.64 5489.43 5747.75 4277.89 5054.25 4796.33 4195.44 5539.32 5360.19 6496.85 5600.93 4874.39 5541.59 4124.71 5728.85 6337.56 4911.47 5803.39 5863.59 4381.97 6257.19 3255.82 5242.73 2812.98 4065.69 5603.15 4695.45 6052.7 3921.18 3798.62 5308.1 3666.57 4907.89 4937.02 5655.21 4645.41 4433.59 4320.28 5542.14 4218.06 5480.13 6308.71 4716.19 5514.76 3456.98 3498.2 5105.16 3066.13 4302.5 6006.16 6009.88 7055.53 5013.67 5826.04 5339.78 4970.88 4143.78 4763.66 4636.5 4940.42 5923.4 5085.71 5499.39 5644.82 5463.38 5945.21 5696.88 5607.14 3923.03 5975.63 5252.34 6396.74 4138.46 2775.04 3821.72 4986.77 6318.18 5586.81 4621.75 3948.17 4551.24 5358.59 4220.88 4515.71 6519.71 6640.13 5082.6 5810.84 4230.54 5094.44 3748.24 4655.49 4467.94 4850.81 6038.14 2540.31 6029.66 5527.54 5573.7 5697.4 4727.62 4270.95 4055.8 7325.81 5280.17 6425.26 5143.58 4794.96 6186.19 4839.34 5083.08 6834.49 5525.39 3998.5 5938.34 4024.3 6394.38 5555.28 5169.36 4737.14 4686.65 5834.74 5556.96 5788.23 5581.75 6392.01 3599.45 6730.19 4907.06 4073.93 3735.44 6043.3 5952.75 6332.36 6122.55 2739.94 4931.53 4223.33 5911.67 3323.28 6695.82 6405.76 5794.24 4678.38 5448.61 5050.65 4827.33 5206.48 5513.57 5729.23 5226.0 3365.82 4538.95 5965.15 4780.2 6090.91 4946.42 5019.93 5081.78 6116.33 6263.44 6343.14 5774.97 5462.21 5750.71 5470.77 4831.47 4643.85 4004.04 4289.17 5564.02 4274.61 2965.79 6898.19 6035.6 5137.34 4481.53 5330.45 4581.13 3610.4 4219.07 6387.01 5367.52 3092.35 4322.15 5210.03 3629.96 5478.47 5351.39 6142.37 6061.47 4933.21 5375.47 4723.12 5120.49 5201.36 5262.61 6302.8 5409.61 6038.2 4005.44 5206.78 5555.88 6732.43 5028.96 3866.16 6362.12 4484.76 4840.01 2980.99 5611.2 7933.0 4455.12 5173.87 4894.16 5380.13 5711.87 5118.27 4941.22 5932.23 5791.61 3369.13 4479.66 3043.85 5367.2 5461.13 4726.76 5839.13 5495.68 5489.34 5163.9 5708.14 5537.72 3920.42 8332.24 6155.31 4553.56 5329.64 6049.55 5709.62 5835.78 4127.74 2476.04 5133.97 3942.07 7443.72 3937.08 5260.34 4709.35 6586.45 4373.3 4750.78 4163.5 5724.64 5078.86 5100.1 3561.29 4963.34 3295.83 4459.28 4260.92 5960.56 4118.84 4020.95 6313.06 3474.39 6470.3 4200.03 6062.05 5082.74 6915.83 6072.45 4410.55 7099.43 5526.14 5198.29 5423.0 5077.33 3856.59 4746.52 5413.79 6338.89 6202.55 5025.39 4714.54 5893.5 3320.11 5030.91 6022.17 5119.37 3982.23 6163.38 4566.18 3459.9 4964.09 4809.42 5024.9 4306.53 5659.17 5094.81 5972.06 5713.22 5861.71 4359.04 3183.98 3794.63 4524.28 3778.1 5152.36 4511.82 5826.64 4220.65 6820.42 4816.2 6321.41 4896.52 4751.02 3372.79 5184.56 5282.64 4715.72 4669.66 4808.52 5046.33 5607.24 5053.92 6352.26 3847.38 3818.59 4863.72 5002.48 6623.85 4262.82 5102.36 4342.9 5069.84 4051.44 4241.89 5054.74 5941.72 5991.09 6600.94 4788.58 5371.02 6155.1 5876.71 6262.72 5029.78 6515.84 4888.6 2990.77 4739.14 4918.77 4371.99 4219.78 3885.86 5235.29 4479.94 6250.23 6413.02 4863.27 5862.86 6049.79 3493.7 5374.98 4719.7 6939.12 4735.33 5411.85 5092.37 6444.77 6314.07 4287.63 5315.4 6449.45 3975.31 3689.45 3824.16 5572.95 3868.18 6723.16 5584.06 7111.16 4547.19 3817.13 5507.24 6851.54 4583.31 4503.89 5806.08 4853.39 4997.27 4093.08 4449.22 5543.27 4717.05 5287.2 6135.57 5998.38 4312.67 5423.8 4270.24 4989.15 5017.78 5015.69 6175.81 4727.24 6677.09 4305.57 6959.81 4829.35 5201.67 4424.7 4089.76 5526.55 3192.41 5215.15 4987.87 3315.57 5804.71 4764.96 5727.3 4242.52 5356.51 4277.88 4087.15 3057.03 4143.08 7500.97 3948.23 5228.18 5787.31 5065.11 3927.99 5868.82 4978.31 4050.9 4099.77 4537.32 4981.9 4656.78 5126.91 3600.43 5131.24 5196.67 6496.67 5474.8 3664.11 5117.47 4925.63 5882.65 4434.19 5187.7 4623.61 4188.3 6261.75 5177.64 4255.31 5453.3 4407.9 3492.19 4584.5 5122.63 4703.08 6345.13 5274.19 5516.95 4406.4 4413.85 4844.57 4027.46 4470.98 5776.37 4516.28 3627.82 4044.45 5125.78 5344.43 4373.47 5045.38 5350.88 5372.61 3686.21 6480.17 5023.15 4377.07 3813.22 5101.59 5570.3 4336.42 5243.29 7589.94 3130.65 5628.24 5856.11 3327.49 4109.88 4234.94 4562.29 5013.13 5080.66 3417.33 4926.42 4164.13 4642.34 4520.1 4947.52 5874.89 4293.03 5813.4 4389.21 3791.79 4925.44 4754.05 4951.47 6084.93 4307.28 3697.96 4739.42 5538.93 5020.12 4745.45 2631.9 5281.28 6255.18 4668.71 4758.21 7228.46 6362.14 6719.88 5978.82 5266.5 4523.88 4066.38 4948.98 5227.52 4414.48 4092.24 5163.02 7144.24 4906.82 5687.83 5004.23 6442.69 6320.71 4648.04 3464.83 6607.87 4721.32 3293.56 3163.78 5274.14 4903.82 5746.28 4082.47 5511.6 4338.08 4378.3 6134.99 4094.73 4989.56 4718.54 4440.57 5548.29 6766.43 2315.64 4390.41 5226.56 5599.49 5313.22 3905.51 3999.94 4864.22 3901.8 5759.46 5083.41 3921.08 4190.31 5678.96 5262.19 4244.9 6070.58 6034.41 5452.83 5130.91 5402.24 4519.22 6445.22 3844.9 3695.36 3963.86 3848.93 4306.11 5935.47 3402.32 5903.66 4528.49 5004.67 5365.89 5992.26 3960.8 5070.39 4980.85 5714.58 5110.45 5208.32 5248.77 4083.97 4607.02 5153.74 4528.09 3895.51 4165.81 6291.51 4128.98 5882.89 6246.22 4188.32 5246.61 4100.38 5344.77 4723.48 4899.11 5097.87 4278.07 7267.18 6256.02 5320.92 5269.18 4406.1 5034.59 4942.77 4263.33 4454.63 5080.18 5912.61 3279.1 4403.98 4560.84 4729.43 5776.57 4562.74 5683.26 5598.74 5139.5 7493.3 4814.55 3527.05 5698.77 2477.07 6413.11 4305.16 5092.28 4965.89 5659.95 4152.85 2908.7 4453.64 4517.73 5469.47 5660.16 3838.47 2588.37 6736.03 6235.57 3623.87 5916.16 6934.37 6113.95 4050.08 4097.57 5017.5 5563.79 6171.13 5511.88 4512.11 7055.42 5486.68 6048.86 4285.32 5490.43 5022.28 5197.52 4959.34 4948.5 4527.02 4531.14 5013.42 4564.34 3838.56 4871.44 5076.35 6020.48 6375.99 5200.05 5234.29 5313.66 5419.37 4466.03 4511.54 5409.33 5196.0 4923.9 4973.78 3329.99 3947.47 3296.27 5091.68 4713.25 4204.84 6243.0 6673.96 3556.85 3161.47 5441.96 3435.9 5174.89 4288.3 5370.52 4652.29 5774.81 3746.31 5498.32 5027.98 5346.27 6475.1 4969.21 2691.29 2845.98 4880.14 5289.52 5314.85 4305.43 5450.44 6510.17 5742.65 5592.32 5381.16 5565.13 6193.35 6086.96 5233.78 3701.27 5653.9 5046.21 4929.14 5894.61 3979.54 5304.13 5944.09 5833.06 4923.41 4497.31 5384.76 5529.42 5257.12 5243.43 4537.14 5551.9 3757.34 6415.61 4687.64 4419.71 5037.06 4541.8 5175.29 5842.56 5887.15 5412.31 3087.09 3423.15 4890.5 3981.07 5452.42 5328.22 6853.85 2395.5 3497.9 5941.61 5782.48 6248.6 5683.61 3836.45 5100.25 6894.26 4986.51 5339.38 5178.99 5383.07 4591.87 4790.78 4247.15 6552.22 5651.07 6248.81 5273.35 4091.8 2651.49 4645.58 5512.23 5275.32 5985.29 4898.94 4178.15 4613.31 4733.04 6119.09 5788.66 7531.29 5069.25 5048.89 5935.03 3991.03 6390.78 7435.25 6826.57 4788.87 4249.46 4495.87 3702.37 6022.72 4643.31 5527.33 6917.52 5402.21 4989.09 4982.31 3848.54 4307.48 5941.4 5331.02 4871.96 4863.23 4402.67 4470.61 4631.83 4384.88 6887.27 6008.49 4806.34 4287.53 5612.21 5945.08 4968.03 3306.14 5490.58 4863.79 4702.06 3830.46 6031.67 4689.15 6138.12 4428.78 4655.16 5409.66 4345.67 4765.72 4642.66 4039.91 4752.14 5329.59 4888.12 4950.97 5512.16 3197.63 4863.96 5191.08 5203.08 7480.41 5163.77 4488.85 3731.84 4901.07 5186.3 3436.15 4151.76 4020.4 3493.47 4596.75 4933.65 5443.58 4558.46 5805.86 4049.02 4470.4 5311.03 5255.12 6169.11 5615.35 4027.09 6422.84 4502.18 5379.09 4602.85 4962.77 5872.05 4853.02 6259.23 5181.4 5088.44 5670.2 4711.62 4247.23 4114.24 4268.65 4694.83 5509.42 4354.08 4256.43 5936.36 4520.62 3903.75 4755.47 4485.99 5127.16 5475.8 5314.69 6050.81 5543.46 5965.81 4750.17 5660.85 2330.66 3990.25 4177.19 3691.0 4752.51 3587.05 6229.37 6718.19 5282.91 4425.84 3797.33 7256.35 4800.69 6566.1 3555.86 6386.78 4996.99 4896.39 6081.14 5480.83 4220.46 4607.85 5128.57 6000.7 3169.67 5604.21 3361.92 6710.88 5395.14 3967.48 6213.04 6622.11 3685.13 6790.73 5251.4 3867.19 5857.79 5276.7 5036.58 6119.63 5411.02 4752.9 4287.16 5199.44 4062.5 4435.51 5374.07 4588.7 5683.95 3766.55 4579.69 3554.48 5010.2 6496.52 5005.85 4216.17 6484.17 4721.02 4254.37 3374.08 4031.78 6098.1 5708.99 5687.85 5346.68 5296.29 4611.53 4285.66 4896.11 5172.53 4135.62 5801.99 5534.94 5210.48 7644.38 7552.94 6101.92 5323.3 4998.21 4662.56 5166.79 5349.31 2976.22 3405.98 4649.22 5394.55 5094.52 4946.74 2682.24 5996.33 5928.32 5229.48 5475.7 4016.18 5526.75 5435.74 4244.99 5327.45 5560.26 6185.89 3997.96 4439.35 3460.94 6184.4 3758.07 4373.45 4236.14 4407.87 5733.62 5282.51 4460.92 5945.89 4042.28 4105.55 4340.76 6065.22 4221.28 4456.39 5514.84 3633.79 5421.53 5937.08 6070.3 5233.29 4312.56 4612.06 5204.04 4750.58 5926.11 6667.68 5235.11 5211.38 5089.62 4590.55 4741.26 5920.32 4255.85 5097.69 3988.3 6543.13 5149.72 5776.96 5464.25 5486.48 5301.47 4617.55 3645.12 5424.88 5415.85 8659.64 5469.13 6027.62 6123.03 5966.61 5711.11 4575.94 4938.72 3546.71 5768.57 5564.23 5950.04 4231.83 2435.33 6401.43 4558.47 5020.71 2681.29 5094.48 3872.61 4238.4 4318.48 6132.95 5266.22 4860.33 3685.13 6004.68 4051.34 3627.55 6239.84 4635.6 4256.67 3457.48 3931.07 6430.39 5417.15 3688.16 4681.72 3949.6 4945.39 3950.63 5415.19 6631.19 4612.62 3619.07 4275.57 4467.04 5626.61 6385.23 5817.25 2983.99 2614.4 5061.98 6363.92 6205.93 4923.24 5830.72 4419.61 3828.81 5309.98 4082.57 5255.18 5169.9 3004.16 4767.78 5235.17 4421.12 4779.5 4435.36 5254.49 6649.96 4303.19 5784.3 3914.2 4256.57 6088.68 4643.56 4135.08 5620.74 4778.82 6124.08 5467.84 5053.95 5266.01 5253.37 5767.9 6515.8 5869.4 3685.65 3701.16 4186.6 5895.77 4732.09 6136.49 4356.25 4757.74 4216.95 4209.49 5742.74 4244.21 4947.24 3875.05 6200.54 5148.58 4199.45 6599.66 4055.54 4233.8 5765.42 6098.95 4997.83 4893.49 5325.44 5021.88 5956.65 4498.25 4188.87 3735.24 6574.95 4074.48 6333.29 5731.57 5997.88 5839.71 5576.92 6408.83 3930.79 4004.35 5226.97 3312.06 5180.76 3361.26 6799.4 5278.36 5865.39 4427.28 6079.11 3082.32 3658.37 7440.72 5376.71 5703.6 6326.18 5661.62 4867.08 6648.68 4713.74 5407.78 4084.49 6632.99 4537.6 5147.36 7177.44 4563.46 6553.94 5726.66 5460.65 5652.0 5463.41 5225.33 4929.75 6045.22 4614.3 5134.39 3532.3 5769.98 5442.32 2221.99 3580.58 4863.01 5356.79 5657.36 3619.79 5029.47 6306.21 2978.76 2040.66 7016.27 5884.9 3876.21 5689.26 4916.22 6022.7 4940.84 5750.07 4809.67 6045.67 3946.28 3821.94 5439.9 5367.73 3540.11 4640.06 3456.47 4652.01 5421.64 7234.66 4207.54 4886.12 6419.12 4976.12 4817.16 5453.98 3991.42 4388.63 5102.75 4200.09 4597.29 5931.77 5151.21 5398.64 6817.57 4477.04 3614.96 3886.68 5703.74 5662.55 5737.92 4360.23 5365.24 5293.51 4763.96 5754.18 5008.63 3418.99 4480.95 4993.35 4409.63 5521.25 3661.9 5370.85 5949.46 3178.54 3776.94 4765.02 5629.39 4448.13 5070.29 4807.28 2261.36 5075.55 4266.03 5280.69 4220.03 6923.84 5227.59 5449.46 6179.96 5703.07 6113.54 4662.43 6260.79 3963.76 4043.66 5528.53 6799.88 3062.43 5990.52 5426.78 2967.38 4159.35 6477.91 4237.98 3091.67 6439.37 4081.97 5401.99 5580.92 5973.33 5067.46 3583.21 2511.46 4011.37 2775.69 4785.25 6519.43 5876.64 5424.46 4857.84 4908.49 4962.21 4858.44 3468.42 4673.35 4771.13 4992.42 5297.19 4351.38 4833.46 5933.7 7248.4 5280.12 4444.97 5984.81 3498.16 4409.27 4588.99 5471.74 3548.39 3673.28 4928.27 4858.51 3375.28 5625.65 4301.61 6107.89 4446.84 5660.55 5148.08 4834.87 5760.22 3672.21 5938.17 4795.43 5097.95 5108.06 3573.73 4693.52 6853.04 4745.43 5831.96 4747.55 3056.7 3755.95 6234.32 4586.19 4446.06 3450.93 4270.74 5132.68 6595.03 4558.15 6218.95 5222.16 4690.55 5107.23 5136.08 5558.68 4802.32 4010.57 4599.38 2684.03 5246.47 6157.04 4768.61 4522.21 5506.19 6719.94 4950.67 5832.37 6166.29 5453.6 5409.63 5294.77 4709.05 4630.82 6109.49 4813.08 5860.67 4540.86 5332.65 3764.1 4835.83 5604.35 6316.56 4332.87 6420.81 4715.58 4450.7 5151.52 5369.08 3101.75 4347.74 4009.62 5291.9 2081.58 6505.78 5461.55 3298.2 4270.15 6865.76 6449.64 6464.8 4684.44 4749.59 5799.69 3809.69 5571.72 3208.96 7051.9 4184.23 4144.57 5550.75 6834.41 6226.14 5466.33 3000.29 5721.05 4247.69 4209.31 4514.39 6242.79 4321.21 4344.34 3583.49 5052.84 4366.74 5297.16 3184.64 5206.33 5530.49 5653.03 3718.69 4514.79 2216.82 4509.89 4940.28 6752.75 5269.38 5607.3 2928.82 4222.4 4000.43 3420.08 4568.41 4912.04 4539.07 5464.68 2685.81 5591.76 4585.31 6625.18 5323.91 4570.98 5097.45 6293.89 2761.07 5737.75 4983.39 5366.52 3778.02 5533.72 5533.42 7132.12 3678.08 5518.57 4187.31 6191.29 3240.51 7422.36 4527.99 5161.01 4298.15 4628.4 6051.83 4642.93 5941.9 4263.16 3973.12 3077.84 6024.75 4497.78 5567.93 5987.42 4442.22 6451.33 5413.31 3012.99 6400.08 4743.59 5208.14 3317.83 4396.25 3763.05 5092.24 5549.49 5423.42 4518.04 4766.06 4874.18 5012.5 5435.19 7093.13 4953.1 5818.95 4093.99 3940.49 4406.05 4680.94 5828.35 5876.72 5236.43 5285.07 4680.14 4608.41 4187.94 5980.59 5021.77 3796.15 4801.8 7216.98 5271.02 5718.28 4601.74 5950.45 5713.03 5849.65 5134.67 4165.21 4215.0 4936.96 4603.5 4481.76 5452.78 5065.26 4304.41 6192.0 5885.28 6579.31 3004.34 5323.55 3022.6 4914.45 4811.76 4698.87 4661.03 5160.59 3624.7 4691.91 5262.35 4475.83 4255.34 4510.8 5889.35 5010.04 4394.56 4275.07 5825.38 4185.61 4047.87 5742.47 4917.99 6552.21 5417.8 5146.37 4836.16 5300.96 5151.11 5463.48 5730.33 5545.46 4376.7 4543.1 5190.61 8325.01 3764.06 4440.81 4523.39 5278.56 5434.47 6642.76 5829.22 5631.14 4243.79 5811.18 5433.65 4008.15 4887.76 4669.06 4811.32 4286.49 6184.88 5829.32 5551.95 3918.87 2275.45 4633.05 4901.2 6605.86 4383.56 4990.79 3562.79 4516.53 4122.92 3604.14 4452.54 5089.1 2711.19 5474.15 4028.32 4099.92 4884.59 3858.06 4511.7 4083.79 4304.63 5263.27 6300.92 4173.54 5599.29 6038.68 5046.12 4807.4 7013.17 3805.67 6506.86 5088.57 5580.34 3852.6 5775.31 4706.5 4647.67 5375.12 4356.36 4892.44 5578.94 7610.49 4286.17 3684.56 6028.09 5375.1 4172.6 5313.12 5351.56 3984.88 5318.53 4732.09 4320.42 4281.98 7165.9 5064.79 5344.83 5480.3 7509.24 4146.81 5896.26 5388.78 6101.13 4573.72 5099.21 6969.28 5636.4 4367.78 5698.96 4350.12 5227.02 5670.0 4232.16 5222.51 4344.51 5680.94 3834.43 3781.77 5581.55 5193.01 3474.5 6550.44 3860.83 6348.03 5732.27 4792.39 5146.37 6917.62 4013.38 4343.78 5263.3 3352.35 4909.65 6523.86 7693.4 4326.48 4437.07 3449.37 5491.9 6405.0 4659.16 5789.55 4909.31 6522.59 5711.62 4798.17 5166.79 5425.98 6479.39 2895.63 4997.91 5079.22 5381.54 5810.77 4714.83 7519.2 6355.68 4478.6 3953.55 4063.9 4469.54 4314.56 3928.53 5606.51 5740.65 3834.47 6349.67 6329.53 4590.01 6101.86 4227.41 5993.0 4803.57 5966.42 4110.59 3332.49 5354.66 4214.44 5378.23 4787.97 3746.36 6789.23 3989.7 4777.03 4246.61 5452.36 3804.5 6486.37 5498.42 3344.57 5220.76 7046.11 3427.63 4863.97 6342.48 5756.75 5599.7 4587.67 4163.74 3665.95 4296.69 4095.75 3319.67 3603.51 4298.45 5283.8 4076.59 6609.84 5135.96 6464.15 5658.37 4707.06 4972.17 6074.94 5491.37 4250.88 4222.77 3783.54 5268.38 3475.67 5527.23 4805.33 7038.89 3863.67 4814.12 5067.56 6137.8 6069.3 2735.53 5116.6 3747.03 2783.85 4356.49 4526.81 3994.07 4219.94 5907.46 4264.91 6740.71 5399.29 5971.22 6602.43 3568.28 5996.66 4405.42 2995.67 3598.08 4599.81 5698.23 7300.58 3608.06 6633.61 5217.95 4867.7 5484.36 4277.24 4075.28 5291.05 5161.1 4619.2 5166.41 5067.56 2596.96 5701.75 4350.15 4139.3 6541.45 4750.49 5078.31 5391.48 4923.43 5131.15 4847.14 3950.27 5116.66 3566.79 5374.67 4981.43 4741.28 5069.89 4215.2 4157.29 6813.72 5327.75 4609.02 4896.65 4638.18 4196.37 6448.66 4453.97 6945.98 5138.2 3503.41 5783.48 4449.98 4701.5 4504.35 4771.65 4840.44 5093.82 5951.81 3924.14 6918.35 4834.3 6238.32 6804.79 6471.42 5369.5 4428.14 5164.1 4124.49 4479.11 5714.25 6685.4 5699.53 4850.06 6332.01 7044.29 4234.18 7085.01 5980.95 6193.08 3862.77 5887.01 5168.35 5388.39 5335.47 3728.18 5633.61 5048.19 6799.23 4888.27 4592.15 6487.56 4854.11 5533.19 4998.22 5417.21 6104.26 5583.61 6063.64 4986.71 7382.3 4022.56 5522.21 3772.3 4855.01 6208.9 4923.57 3340.09 6061.63 2279.05 4829.35 8137.11 5484.32 6650.77 4067.96 4824.12 7104.73 6162.3 3272.75 4264.54 3516.27 7043.44 4263.78 4643.9 5228.75 6047.14 5009.83 5210.38 5717.8 3629.44 5003.78 3299.24 6246.56 4061.6 2603.64 5107.0 6212.15 6502.97 4783.07 4946.23 4852.58 6083.28 5211.6 3556.79 5806.31 5456.71 7317.04 6412.67 7001.83 5012.97 4036.91 5589.37 5439.49 6639.64 5212.43 5454.12 6348.54 4066.57 5642.35 6372.13 6357.47 5404.01 6016.19 5535.91 3230.13 6176.67 5325.96 5412.24 5016.02 4920.21 4581.37 4049.16 5851.61 3936.95 6153.94 6836.82 3858.17 4631.99 4740.98 3185.39 5128.77 7122.87 5797.36 4243.26 4153.84 5119.86 5089.26 5084.17 4901.44 3776.8 5096.43 6156.21 2460.79 4653.83 6171.71 3628.89 6589.82 4668.88 5027.43 5522.75 5867.64 4438.58 6059.93 5602.53 5073.02 6545.43 3472.91 6760.92 4989.2 4711.04 7144.05 4506.18 2970.9 6542.5 4383.47 5971.21 6318.23 4206.98 5156.76 6101.57 4891.38 4793.65 2949.12 5955.86 4532.89 4533.37 4848.46 5742.09 2779.99 2884.65 5887.38 6942.34 3658.05 5478.11 5526.31 5030.15 4058.87 5174.75 5048.55 5932.07 4984.46 4024.31 5948.71 5844.72 3856.53 3992.97 5460.89 6040.74 5260.85 4054.22 7228.94 5393.65 4961.99 5807.46 4648.21 4393.16 3311.29 4549.69 6423.81 6192.77 6413.15 6103.11 5416.45 6459.51 4955.16 4904.51 4147.31 5989.05 5751.15 5950.88 4441.22 5853.89 6551.93 4595.12 3110.13 4386.8 6484.43 4625.67 3485.54 6735.97 5305.59 3636.15 4330.58 5754.6 3288.01 4355.83 6870.97 2202.77 5351.86 6056.87 5474.01 4149.55 6201.86 3380.69 5166.89 4140.4 3639.44 5446.4 5725.37 4725.01 3868.62 5966.75 4729.42 3104.96 4844.83 5244.78 5652.87 6114.89 5135.63 6384.7 5952.38 3896.27 5807.52 5230.02 5307.35 7554.58 4731.21 5491.63 3124.7 6102.98 5138.33 3477.1 5769.14 5261.19 4811.22 6379.14 5216.26 4749.96 5377.37 5483.7 5018.69 4899.73 3152.86 5457.66 6394.19 5973.89 5963.36 5518.11 5087.14 4342.18 5169.48 6016.08 6776.22 6064.71 4467.13 6060.17 5934.82 5415.45 4385.81 6592.93 6350.71 5096.24 3381.82 7107.63 4831.93 4023.93 5868.89 5494.28 4099.26 4834.39 5493.89 3831.52 4918.76 4208.41 5826.78 2856.55 6214.73 4553.68 3758.22 4268.19 4532.7 3205.68 5561.74 6100.73 4788.08 4908.75 6556.26 4593.7 4349.13 3687.65 3634.5 5478.95 3851.85 4019.34 4658.24 3623.19 5869.67 4906.11 4311.48 4387.39 4564.1 5825.55 4848.14 5366.22 6193.73 3742.11 4192.21 5712.35 5701.52 4743.9 4158.91 5311.55 5321.17 3360.86 3719.11 4869.25 5545.21 3877.8 6418.11 4501.78 5039.12 4824.81 5135.5 5007.21 5545.59 5206.47 4057.17 7066.96 4263.65 6106.43 6761.81 5467.63 4127.53 5210.75 5175.89 5361.87 5232.85 6816.66 4473.29 3971.08 6204.65 4482.9 6818.91 3503.65 4869.48 5510.96 4745.16 4584.81 5509.51 5719.79 3199.4 4316.5 5254.24 4914.03 3597.43 5086.29 5144.56 5139.18 3034.16 5551.43 5049.99 4201.03 4333.87 4458.64 3657.69 6015.02 4922.49 3572.94 5001.58 4820.17 6456.58 5244.98 5366.11 4384.28 5944.3 7307.21 5640.72 3619.72 4565.93 4504.52 5615.84 4464.73 5788.97 6440.38 3274.85 4580.06 4835.97 6419.64 5262.47 4587.7 5196.92 5644.81 4568.64 5666.95 4642.2 6555.44 6358.93 2205.51 3894.64 3703.49 4374.74 4757.2 5975.23 4745.79 4211.82 6550.4 4891.67 5513.8 4887.52 6631.28 5350.88 6571.31 4392.65 5429.3 4944.51 6653.07 4697.91 5179.17 5071.98 4371.08 5148.1 7261.51 4968.14 5949.73 4312.48 5527.13 6370.33 4278.57 5081.08 6318.25 6864.06 5001.87 4312.15 3644.78 4883.63 4078.93 3814.65 3886.72 7778.01 4034.05 5127.82 5798.38 6436.74 3862.91 3419.87 4456.26 3908.98 5113.6 6328.42 5851.63 4954.81 5610.53 5755.15 3926.11 5464.83 5414.58 4991.35 3512.94 5601.55 4807.35 5334.36 5750.35 4489.99 3683.86 5293.75 5658.14 5473.72 7124.45 5144.44 2617.39 5034.69 4198.94 3217.67 5079.64 5470.04 6003.78 5684.25 3766.69 5188.53 4882.66 4521.75 4027.63 5603.68 4526.34 5610.95 5532.72 3220.8 5042.75 4598.92 5579.39 5270.51 4979.52 5490.75 5224.64 5214.63 3495.68 5783.94 4202.77 5836.14 6008.81 5510.9 4505.28 3492.83 5585.14 7039.98 6006.89 5792.98 5910.86 5690.96 5805.1 4456.11 4027.33 4810.98 5026.76 5091.22 3563.14 6282.38 5212.92 5556.0 5748.9 3742.31 4608.34 5695.79 2781.96 4431.23 4467.0 4994.65 4258.98 3903.91 4929.6 3919.62 4368.28 4548.45 5730.61 4508.18 4062.56 5969.37 4928.35 4509.46 6163.54 5212.37 5438.92 5110.11 4244.49 5036.98 4120.07 4813.33 3840.21 5569.2 6746.66 5420.67 5635.32 4827.61 4316.45 5409.08 5481.64 5673.75 5241.22 6647.08 6263.3 3422.29 4501.05 4407.79 6548.29 3990.96 5352.24 7362.42 5793.12 5469.17 5473.05 4373.2 4583.52 6711.21 6280.13 5244.22 5832.29 4438.76 4960.64 4983.3 5401.4 5053.15 5124.17 6239.68 7320.78 4234.88 5782.43 4708.31 3873.92 4092.07 5347.9 5657.55 5727.79 5188.82 5043.14 5072.5 4749.18 3663.0 6304.49 4420.6 4475.38 3622.8 5917.34 5740.98 6545.99 4728.55 4554.68 4945.0 4658.11 4551.26 5114.07 7142.95 4559.74 5064.67 6618.21 3717.47 4504.86 6200.63 4583.94 1937.5 3844.54 3538.53 996.652 6500.49 2628.22 5965.58 5058.51 4050.03 4952.52 3429.57 5410.33 5661.6 6099.28 5285.75 5385.03 4169.15 4778.37 5360.67 5968.54 5592.54 4537.03 3247.97 4114.2 4904.37 4326.06 4651.64 5034.46 5757.29 5016.46 5061.75 3769.24 3743.76 5153.18 3425.69 4971.29 2606.51 3864.92 6119.99 4159.81 4446.58 5372.82 4402.17 4775.49 4681.29 5749.6 3845.9 4174.44 4834.44 4213.05 4224.3 4717.73 4928.85 4546.96 4316.0 5424.55 5134.72 5287.25 4770.51 3787.08 5630.9 4140.92 4585.04 6570.35 4383.68 6666.67 6063.44 5046.31 4337.32 5849.53 4680.69 3352.34 4901.29 3242.31 4898.29 5372.25 5730.2 3234.26 4830.13 3494.16 5134.17 5370.9 4074.16 4904.35 6172.27 5390.33 5124.34 4358.81 5278.54 5729.0 5729.92 4179.87 6224.13 4761.84 3661.67 5510.45 4730.14 3994.39 5499.59 5667.51 6331.74 4198.9 5431.29 5235.87 5273.37 3904.07 5553.94 6502.99 4392.75 4921.1 4191.01 5577.41 6511.37 4012.92 4462.87 4218.16 4933.49 6139.64 4692.32 4474.83 5236.24 3127.83 4242.63 3269.54 7407.91 4051.18 4651.99 4420.11 5863.0 6127.39 4972.18 5329.76 4124.76 7200.89 4802.98 4833.55 7224.99 3908.56 5265.63 5684.88 4431.06 4645.86 5620.88 4941.52 4529.77 5900.0 4325.13 4262.74 3783.79 5078.73 4248.14 5279.19 4016.6 5192.92 5275.57 4786.66 5891.25 5370.1 5902.67 5393.76 3684.15 7123.04 5906.57 7541.76 4932.29 4990.23 3784.94 4833.67 5325.91 5157.38 4646.51 4546.44 6203.03 4700.07 4732.37 5713.36 4704.92 4287.25 3987.69 3814.16 4589.06 4216.44 3999.5 4346.07 6102.49 5836.26 6015.22 6061.85 6449.06 5241.75 4731.53 5640.12 5760.98 4954.76 5764.52 4390.64 6523.78 4608.01 4045.67 6005.95 4308.49 4581.1 6241.77 5317.19 7360.12 6223.98 5821.49 7050.08 5580.44 5998.13 4763.4 5454.11 4236.86 6010.59 4128.1 2955.36 4618.73 4506.66 3220.29 4439.71 4141.21 4064.58 5023.41 3791.41 952.938 4184.21 5473.89 6089.45 5265.21 4985.3 4966.07 4400.14 4666.12 6219.34 4920.88 4013.86 4177.47 2918.64 5345.73 4770.63 5678.58 4385.49 5114.23 5495.0 5512.44 4454.74 4826.52 2904.46 4685.4 3763.9 4577.73 4288.45 4147.49 5419.57 4081.34 4642.74 5384.86 3770.22 5150.84 4848.98 5184.98 5087.97 5339.82 4519.03 4930.17 5110.27 4085.96 4745.44 5762.82 4612.68 4232.33 5462.6 5617.29 3035.06 5770.92 4262.19 3093.38 4597.88 5095.52 4878.93 2002.78 4941.02 5806.61 3682.35 5182.13 3965.3 6110.48 5515.73 4125.9 4564.41 5426.4 5951.86 5247.01 5853.12 5702.4 5810.17 4657.24 5674.63 5340.05 4639.8 4212.15 4263.18 4489.29 4301.93 4924.07 5120.92 4918.64 5162.67 4636.53 3646.95 5537.61 3402.44 6084.88 4491.96 4199.44 4467.51 4479.5 6261.67 5460.57 3435.13 5065.78 5703.34 4521.42 6668.98 6649.52 6043.34 4939.56 4747.68 4959.72 4712.17 4845.91 4461.67 5784.37 3142.09 6793.1 6016.87 6715.73 5209.55 4841.7 4678.7 3450.07 3306.84 3484.81 5308.33 4271.07 6710.14 5759.79 4896.43 4462.35 3200.6 6206.98 6638.25 5078.59 4775.04 2403.72 4721.98 5252.82 4397.06 3543.98 4053.12 5056.26 5878.55 4014.44 6604.72 6002.77 4431.46 4610.55 3207.84 4967.02 3977.98 4614.49 5400.69 4128.93 4462.5 5573.31 5004.68 3808.04 4723.71 4405.61 5348.11 6273.6 5003.3 3668.93 4009.24 3756.96 6245.52 3954.77 5077.29 6740.35 4550.92 6023.07 6506.63 4598.54 5218.42 5188.22 4512.07 5984.8 3986.41 3469.18 6240.42 5146.0 4788.7 4607.18 3228.27 3956.24 7558.99 4142.1 5043.14 5333.04 5445.91 4521.99 4812.59 3794.47 6842.54 7115.67 5675.45 3361.11 6038.56 2807.46 5599.16 4179.8 4023.88 3488.34 5428.24 5800.81 5166.05 3125.13 7035.54 5866.91 6075.99 5191.26 5995.4 4184.47 4841.23 4196.62 2804.54 3372.95 5819.0 6347.72 6334.53 5580.95 3549.92 3393.59 4032.06 5246.81 5089.1 5888.95 5394.78 3463.34 2853.68 5329.84 4998.37 6559.82 3879.83 6565.95 5658.35 4577.98 5886.81 5684.05 4708.17 2741.2 3779.45 5167.53 5763.05 5357.39 4252.18 6296.54 5797.21 4208.37 6019.35 3825.48 3460.93 5124.86 4629.02 5469.35 5117.64 4313.38 6598.99 5250.56 3633.58 2468.16 6294.14 4339.97 5203.75 5169.09 5122.38 2459.88 5262.85 4210.24 5470.67 5901.71 5342.9 5252.22 5733.12 5043.34 6436.29 5136.87 7145.73 5233.76 6405.69 3669.32 4762.1 5700.79 4927.73 4705.68 2832.83 5827.3 6036.99 3010.1 3825.98 5087.03 4667.84 3906.41 4691.15 4123.08 4512.6 4260.38 4636.45 4932.27 5225.11 6793.49 6060.19 4962.35 7350.26 5591.77 4556.19 4168.52 4659.88 5685.74 4140.04 3495.3 5890.25 5766.05 4474.96 4084.87 4790.63 5259.29 3584.05 4589.22 4916.75 4818.53 5097.85 5584.64 6189.04 6224.64 4221.03 3799.55 5638.51 5082.66 4550.77 3563.33 3550.88 5536.0 6786.37 5790.42 5106.46 6562.92 3612.44 4850.5 4758.76 5367.05 5647.11 4088.72 3945.62 3743.85 6236.46 5342.17 6379.3 5015.67 3795.63 5189.4 4576.71 4894.15 4337.93 5201.3 4345.51 4048.73 6223.33 5024.32 5813.79 4644.88 4068.31 3671.06 4683.28 4668.8 5322.11 4697.49 5735.08 4726.2 5034.05 4816.51 4711.15 4658.59 3810.68 6478.35 3990.94 4756.8 5477.8 5463.06 4176.32 5260.52 3185.09 5532.75 6949.65 2945.34 5676.61 5846.95 5064.23 5268.15 5701.63 4603.04 4870.94 4620.95 5368.93 4488.39 6121.56 5914.5 6006.16 5721.14 4608.62 5407.96 5084.5 4987.28 4071.75 6562.03 4815.47 4759.99 3899.7 5134.33 5214.4 3629.49 5399.43 5034.34 5695.44 3835.81 3422.21 3916.42 4449.73 6538.04 6157.59 5848.41 4090.28 4246.83 4493.79 4932.56 5638.7 4279.44 4899.19 6643.4 5058.34 4028.22 5575.11 4983.1 5293.13 4507.36 6224.85 6406.8 5403.97 4795.08 5648.78 6875.73 5501.73 6081.3 4697.24 4983.43 5117.52 6311.89 6549.8 2820.07 5129.68 4825.73 5076.84 4165.36 5288.33 4871.77 5811.26 5062.77 4884.93 5069.9 6028.63 3673.6 4494.15 5146.1 6215.87 6485.77 6060.06 5866.42 5544.27 5393.43 6896.55 4685.65 5377.01 6470.23 5939.22 4271.93 4215.05 3626.86 5125.17 4604.1 6371.96 4859.01 5076.11 5524.45 7133.44 4426.02 5600.21 3953.26 4750.81 4282.11 4474.39 5467.51 5459.92 4625.53 2347.41 5453.77 4096.47 4357.11 5005.6 5114.67 5486.89 6069.78 5589.53 7208.19 4241.68 4549.51 3587.93 5196.08 4975.85 4517.29 4095.83 5695.25 5323.95 4495.75 6171.01 5716.42 6229.83 5796.26 4468.26 4523.81 5578.18 5293.37 5271.88 5933.54 5559.79 7168.2 4602.57 3419.07 4571.74 3763.85 3565.32 5740.78 4096.86 5710.33 4796.12 3622.48 5344.44 5001.51 6432.8 4626.72 5115.42 5131.77 3186.07 4082.4 5549.71 4410.82 4369.86 4967.51 4368.12 6443.99 2646.13 4365.58 3889.98 5193.58 3720.7 5490.64 5698.53 3769.2 4507.46 5036.14 5537.34 5884.99 3667.93 5192.49 3487.31 5726.42 4674.9 7025.09 3392.26 4433.12 3918.94 2549.95 5461.72 5487.63 3768.46 3852.82 5138.93 6945.69 5118.86 7086.69 5368.66 4304.64 6170.9 5833.78 4436.48 5226.42 5615.35 5758.98 3967.76 5288.64 6213.24 4217.36 6734.39 5679.74 5942.45 4150.76 4851.18 4228.53 6123.46 5005.72 5368.52 6142.88 5155.28 5111.26 5205.38 5388.73 4764.83 1969.87 3132.34 4949.55 4600.71 3957.38 4841.28 5262.79 5927.2 6889.5 5035.71 4710.88 4419.79 5300.17 5407.69 3869.39 5152.78 5960.5 4896.67 5534.23 4117.9 4753.76 6025.77 4638.09 4781.9 6815.96 4441.91 5339.6 5330.26 5828.25 4725.11 5418.12 5322.07 5934.05 5770.07 4714.66 5990.75 5101.6 4984.17 4656.01 5781.62 6589.13 4037.86 5602.62 2030.03 3543.37 4542.16 5714.51 2809.19 5628.97 4916.7 4104.04 5353.66 2638.82 5030.33 5593.79 5234.2 5025.42 4965.24 6379.38 6257.79 5327.05 5438.55 4849.5 5353.23 4434.65 5977.66 5209.5 5106.33 5065.74 5791.25 5198.94 4873.23 4028.35 6731.89 5464.05 2980.31 5879.24 5410.6 3148.79 5453.2 6348.93 6824.53 5997.91 4332.64 5385.86 4742.82 4422.23 6791.86 4209.0 4820.68 5482.76 5173.82 5728.58 3745.02 7212.97 6297.99 4211.36 5378.24 3856.73 3604.31 4450.49 5817.74 3468.45 5887.71 6022.78 4087.32 5517.65 4009.68 6647.85 3303.49 2569.12 4161.32 4622.73 5256.75 5161.74 7336.37 4361.24 6599.28 5932.28 5099.9 2960.5 5783.38 4975.32 4298.7 3902.48 3043.77 5237.55 4183.4 3909.94 6030.39 4733.79 4905.53 3799.01 4823.06 7392.65 5254.49 5319.1 3757.23 6828.8 6883.86 5987.88 3579.59 6161.94 4065.28 5057.59 4461.14 5285.6 4574.54 5575.11 5490.54 5615.06 5203.54 4047.95 5507.38 6142.94 4416.87 5001.69 6581.56 4057.4 4052.43 3980.46 5383.9 3934.11 5158.44 3886.56 4466.22 4496.51 6153.71 5917.08 6561.94 5483.37 5259.21 5092.93 4256.08 2803.01 5881.93 4444.0 6771.18 6182.19 5327.39 7415.84 4981.81 4138.59 4970.55 4938.33 4484.78 4621.33 5527.27 5104.39 4612.13 5847.91 4934.66 5846.6 4984.01 4109.44 4903.84 4290.49 4557.1 6688.53 4605.39 5927.1 6175.27 5876.51 4103.76 4286.61 4094.63 4733.41 2932.52 5264.83 4603.66 4969.68 5136.51 3901.53 6815.51 5232.16 5313.86 4457.05 3989.26 6031.22 3618.64 4930.72 5485.84 6424.77 4887.73 4335.79 5453.69 5918.95 5432.04 4538.89 5689.56 6556.86 5114.51 5129.4 4655.37 5585.25 5023.61 6351.89 6530.78 5059.37 5560.23 4742.35 4139.39 5394.79 5645.54 5088.64 6264.03 6589.8 4526.87 4151.74 6920.92 3729.16 3783.36 4174.22 3573.84 3038.91 4181.93 3922.28 6570.43 3350.99 3820.19 3445.92 4979.5 5236.69 5524.28 4586.82 3133.28 4745.37 5939.29 6026.04 6200.05 5418.98 5859.17 4034.41 4052.49 5061.74 5522.34 5326.03 6189.67 4420.35 5717.45 4948.96 5256.82 4013.86 4061.87 4645.93 5165.31 5448.64 3798.09 4585.37 4288.5 6417.61 5715.51 3721.69 4511.05 3456.3 6074.39 5317.83 6738.9 4399.52 4460.89 4554.24 4157.1 3939.96 8052.53 4867.12 5910.66 6044.01 6520.19 4637.3 5141.03 1458.87 5734.07 4840.44 8123.59 3997.68 4819.83 5765.14 4767.54 5157.73 4541.22 4946.08 3539.68 4696.03 6217.33 6177.68 4698.7 6270.59 2848.44 6045.26 6500.45 4907.55 5743.8 5084.76 6666.34 6605.11 4757.87 3557.46 6636.43 5431.14 5971.95 6298.8 3689.24 5178.07 5189.91 5151.19 5777.26 4171.02 5703.84 7012.36 3530.82 5797.32 5028.06 4886.99 4002.99 5159.67 3921.27 3161.1 3572.73 3702.45 4746.15 6275.25 3720.38 6892.33 4758.84 4731.37 4505.3 4452.36 3976.0 4672.86 4511.34 6463.71 4068.41 5009.21 4574.03 5290.37 5850.38 5264.08 3562.8 4227.66 4730.97 4691.01 4594.89 5192.82 5245.95 5821.42 4067.89 4515.02 6294.09 4924.52 4571.57 5131.07 4121.07 2970.24 4197.87 5105.54 5658.05 5731.43 6353.81 3518.14 3414.67 5444.36 4150.44 5044.68 5771.98 5899.78 2649.69 5000.74 5117.83 5772.57 5268.27 4813.81 3882.37 5244.95 4634.25 4095.4 5901.8 6351.48 5395.12 5783.69 3830.7 6210.0 5432.4 3483.61 5350.9 4262.52 7430.48 5992.06 5545.68 4970.12 4967.93 6369.66 5973.57 5922.62 6241.48 6033.28 5957.82 4801.16 6286.27 5071.38 6327.54 5121.08 2927.84 5616.66 5688.77 4802.36 5368.28 5466.13 6229.64 4220.43 6263.87 5075.23 4975.56 7282.36 3826.01 4645.91 5581.01 3928.99 6834.92 4125.75 6379.33 5130.57 5652.73 3979.46 6321.97 3985.93 6412.84 6509.54 2589.19 6119.0 3792.06 5128.59 4993.49 4293.3 5587.3 4864.38 6583.37 3688.83 5631.32 4491.26 5793.14 6345.2 4609.65 5704.61 4832.21 5410.73 4379.91 5087.3 4942.63 6139.74 4975.57 7066.26 3057.3 6150.31 3677.85 5214.71 4677.84 4811.11 3463.53 5379.52 6126.03 5314.67 6044.69 5563.47 5651.46 6593.1 4066.36 4000.51 5462.1 6033.93 6032.45 5011.37 4026.03 2827.92 6908.32 3467.11 5336.61 4817.75 6153.26 4848.15 5637.53 4439.09 5523.81 5648.59 4718.61 5188.57 3873.79 5357.33 5717.67 5252.37 5515.59 3224.81 4499.54 5037.58 5640.67 6572.17 6080.69 3751.73 5555.89 4766.47 4871.1 5678.08 3917.09 6009.93 5872.45 4414.09 5125.45 3784.68 4188.16 3717.22 6305.9 6649.21 5507.07 2943.17 4654.92 5327.71 4880.78 4322.56 5257.38 5509.09 5625.02 5212.05 5479.86 4829.77 4444.92 6959.88 5971.9 5749.53 3746.62 5090.48 5247.73 5402.45 5034.02 5582.28 4769.62 5945.25 6071.59 4649.5 3856.4 6079.55 4696.06 5485.61 4137.16 4937.36 6189.29 5308.4 5984.55 5310.33 6581.13 4569.32 6126.5 4034.88 6322.0 3511.5 6007.1 5488.96 5067.92 3188.21 5128.03 5919.27 3720.92 4793.06 6271.22 6637.38 3421.81 6188.33 3920.64 6111.23 6916.18 5786.06 5873.62 3868.69 4996.91 3920.44 4450.51 6033.72 4866.8 3768.62 3851.47 4966.74 2329.93 4959.94 1635.31 5639.4 3162.27 6185.73 4083.24 5516.37 5092.44 4441.44 5432.2 4232.44 3312.3 4612.4 5563.09 6381.58 3282.57 5212.2 4798.13 4611.21 5108.42 6697.45 4630.5 6296.36 4432.32 4451.76 7885.41 3775.38 4046.22 6457.89 4104.97 4844.2 4575.72 5114.61 6118.13 3374.62 4926.62 4420.3 6332.64 4202.12 6492.44 4613.32 4083.1 5270.1 3482.73 5191.29 4957.99 5130.56 4947.64 4063.26 5345.05 4997.89 4542.62 3470.69 4859.95 5286.55 4132.08 5522.18 5223.1 3873.72 4850.49 4981.55 4592.49 5144.23 3625.98 6188.62 6474.5 4702.32 4414.06 4763.04 5944.52 4413.56 4532.67 4876.37 5316.05 2513.38 4908.32 5260.13 3995.08 5019.84 5181.31 4810.74 5985.75 5784.38 5475.83 4149.17 4329.8 5728.27 5803.3 5672.46 5108.84 4582.12 4295.25 4520.14 7394.47 5357.14 4729.45 4850.95 6261.13 5374.09 4720.34 5244.47 5378.75 6186.24 5510.89 5822.7 3780.07 4137.41 4159.89 5466.49 5178.55 5447.74 4038.17 5007.41 3692.99 4907.48 6213.74 4369.87 4488.41 6938.87 5412.07 5512.57 4806.99 6520.96 3771.91 5856.43 5217.62 3465.03 6178.19 4746.19 5349.85 4616.81 5715.25 5172.1 4362.94 4469.82 6545.78 4870.14 3354.94 4404.87 5237.27 5105.72 5767.65 4750.76 5003.49 5782.25 4907.03 5497.27 4081.77 5617.91 4948.21 2181.29 4987.01 4706.31 2694.25 6265.48 4735.99 4203.68 4739.56 5145.39 3996.93 6351.95 5195.09 5200.1 7679.2 5093.28 6131.52 4311.92 2626.41 6009.88 4699.77 5093.41 6842.35 5464.34 6153.07 3621.63 5801.89 5908.57 7296.47 5050.2 4821.41 4924.53 5616.11 4499.52 3874.12 4028.13 3900.93 4457.73 6476.35 3113.64 6260.58 4067.24 3053.19 5202.33 3074.49 4487.51 4246.24 6805.02 5354.48 4900.26 5783.88 4167.55 5002.38 6705.93 4865.11 4731.16 5502.14 6470.87 4495.33 5282.67 5747.9 3864.19 4287.93 5146.69 6203.24 6818.23 5081.65 6679.12 5652.19 5806.74 3878.8 6578.62 4813.55 6284.12 4796.04 3839.0 5229.56 6011.4 5799.86 3330.85 4672.34 6052.22 5376.41 5003.63 2932.2 4695.7 4944.08 4082.01 5269.39 3964.03 4216.33 5832.72 3903.9 4444.95 4721.2 5161.02 3943.77 3124.49 5242.38 6081.35 5003.81 6262.18 3818.37 5566.5 4701.03 3352.46 5663.36 6225.05 5434.04 5125.53 3997.52 4444.54 4881.51 5779.9 4909.74 5310.33 6729.99 6664.54 3922.98 5161.73 5259.48 4777.96 4008.67 5254.93 4803.4 6833.5 6608.94 5742.39 2613.78 4780.16 5417.07 3834.01 5656.84 4433.23 5738.37 4813.24 5759.19 4739.41 5847.27 4490.2 4304.75 5480.86 6139.9 6571.26 5402.81 4919.13 4600.81 5640.63 4124.33 5168.97 4358.06 5093.51 5647.93 4280.92 6201.49 5449.09 5154.74 4605.61 4465.56 4131.08 6898.8 5386.95 6540.57 5332.11 5315.71 6004.72 6158.93 4823.14 5438.5 4621.32 5699.4 5237.76 4698.94 4286.84 3948.21 5669.15 5296.05 5263.86 6988.4 5056.32 5533.52 5410.33 4747.24 4380.86 5302.53 4909.13 5576.16 4305.35 5648.02 3308.75 5210.22 2451.27 5677.42 2701.42 4929.35 5606.22 6673.92 5151.68 4884.94 5459.52 4609.98 4738.72 4752.31 5240.97 4276.59 5579.04 5405.6 5994.21 5403.81 4884.93 5082.25 4759.38 6964.78 4374.05 5299.03 5036.84 4565.36 5813.68 4025.08 5040.9 3618.53 4770.21 8013.28 3846.55 3796.73 4644.68 3082.16 2892.36 5981.54 6789.66 5416.41 5312.2 6760.64 4706.59 2515.5 5734.84 5551.79 3982.31 4950.07 4720.22 4333.23 5561.63 4328.76 3747.96 5611.29 5940.5 6568.45 5004.22 4601.54 7263.57 4696.92 5705.96 3832.09 6437.99 6632.04 7360.62 4893.72 4985.45 4072.4 4983.56 5373.78 4714.52 5345.65 4489.18 2489.44 5499.37 5863.36 4632.75 4752.94 4994.98 3950.53 6423.96 6058.13 5894.69 6550.61 4987.01 6635.51 4060.17 6094.34 6051.35 6779.82 5543.67 4287.61 4867.13 3999.81 4604.34 4439.17 4502.12 5442.79 5051.39 6327.61 4633.59 5733.59 5362.15 4455.61 3695.72 6874.6 5106.9 5569.85 5523.96 3929.35 4223.53 4733.37 6960.97 4287.15 5282.51 5504.65 5669.41 5732.11 3919.47 5596.68 3783.35 4868.66 4004.39 5159.9 5283.65 4987.48 5943.61 4248.58 5911.29 4694.27 4542.25 4849.21 5177.88 4785.55 3793.83 6981.47 4582.24 3916.15 5145.13 3860.8 7370.52 4726.5 4521.88 3724.23 5103.3 4963.88 5888.94 4122.2 4727.98 5175.88 5267.65 5739.69 4516.26 4790.16 3509.34 5360.88 3166.37 4977.64 5369.42 5207.08 5699.51 5205.53 4587.19 4883.13 5543.05 6028.89 4836.76 5333.16 5551.09 4888.17 5755.98 4501.1 5392.85 5581.47 4384.91 4274.05 5275.27 4277.54 4713.56 4531.46 5925.82 4739.5 6210.48 6377.45 4863.27 3255.93 6853.07 5575.8 5268.93 5306.31 4535.94 3037.72 4523.9 5126.08 5604.0 3760.4 4951.02 4602.7 4037.16 6395.63 5479.17 5020.37 4414.23 5233.88 5245.4 6189.81 5438.6 5467.05 3647.26 3731.58 5077.2 5529.09 5448.68 4072.95 4491.62 3865.5 4182.05 
SCALARS Velocity float 1
LOOKUP_TABLE default
1.19186 1.19187 1.19181 1.19184 1.19182 1.19183 1.19178 1.19184 1.19184 1.19178 1.19183 1.19178 1.19179 1.19178 1.19178 1.1918 1.19178 1.19178 1.19178 1.19178 1.19178 1.19177 1.19181 1.1918 1.19178 1.19178 1.19177 1.19178 1.19178 1.19178 1.19178 1.19178 1.19179 1.1918 1.19182 1.19182 1.19182 1.1918 1.19179 1.19177 1.1918 1.19179 1.19178 1.19182 1.19178 1.19178 1.19185 1.19182 1.19178 1.19179 1.19181 1.19178 1.19181 1.19177 1.19183 1.19184 1.19178 1.19177 1.19178 1.19179 1.19179 1.19185 1.19184 1.19178 1.19189 1.19182 1.19177 1.19178 1.19178 1.19178 1.19181 1.19175 1.19186 1.19179 1.19188 1.19188 1.19184 1.19179 1.19181 1.19186 1.19188 1.19185 1.19183 1.19178 1.19181 1.19185 1.19186 1.19181 1.1918 1.19178 1.19181 1.19186 1.19191 1.19182 1.19183 1.19182 1.19181 1.19178 1.1918 1.19179 1.19194 1.19187 1.19181 1.19183 1.19186 1.19187 1.19184 1.19185 1.19185 1.19184 1.19178 1.19179 1.19178 1.19178 1.1918 1.19178 1.19178 1.19178 1.19178 1.19183 1.19178 1.19182 1.19178 1.19178 1.19178 1.19179 1.19178 1.19178 1.19178 1.19178 1.19179 1.1918 1.19182 1.19182 1.19182 1.19182 1.19181 1.1918 1.19178 1.19181 1.1918 1.19182 1.19181 1.19177 1.19183 1.19185 1.19179 1.19177 1.19186 1.19182 1.1918 1.19179 1.19179 1.19185 1.19194 1.19194 1.19177 1.19178 1.19182 1.19179 1.19185 1.19184 1.19178 1.1919 1.19182 1.19178 1.19178 1.19182 1.19179 1.19188 1.19177 1.19179 1.19186 1.19192 1.19188 1.19187 1.19187 1.19179 1.19179 1.19188 1.19177 1.19185 1.19184 1.19176 1.19181 1.19186 1.19187 1.19178 1.19181 1.19177 1.19183 1.19189 1.19177 1.19182 1.19181 1.19182 1.19181 1.19181 1.1918 1.19179 1.19178 1.19188 1.1919 1.19184 1.1919 1.19187 1.19189 1.19184 1.19178 1.19184 1.1918 1.19179 1.19188 1.19178 1.19181 1.19178 1.19178 1.19179 1.19178 1.19183 1.19178 1.19181 1.19179 1.19182 1.19178 1.19179 1.19178 1.19177 1.19179 1.19178 1.1918 1.1918 1.19182 1.19182 1.19183 1.19182 1.19181 1.1918 1.19178 1.19181 1.19178 1.19182 1.19182 1.19178 1.19183 1.19185 1.19179 1.19177 1.19177 1.19186 1.19181 1.19179 1.1918 1.19186 1.19198 1.19183 1.19179 1.19185 1.19187 1.19182 1.19186 1.19184 1.19182 1.19192 1.19182 1.19186 1.19182 1.19194 1.19179 1.19188 1.19179 1.19183 1.19179 1.19182 1.19193 1.19188 1.19186 1.19186 1.19179 1.19188 1.19178 1.19188 1.19184 1.19186 1.19178 1.19183 1.19182 1.19187 1.19199 1.1918 1.19175 1.19184 1.19177 1.19179 1.19194 1.19181 1.19191 1.19183 1.19174 1.1918 1.19181 1.19178 1.19188 1.19186 1.19185 1.19191 1.19191 1.19188 1.19184 1.19178 1.19183 1.19178 1.19178 1.19187 1.1918 1.1918 1.19182 1.19177 1.19179 1.19176 1.19183 1.19181 1.19181 1.19183 1.1918 1.19177 1.19178 1.19178 1.19179 1.1918 1.1918 1.19187 1.19182 1.19181 1.19182 1.19183 1.19182 1.19181 1.19179 1.19184 1.19179 1.19181 1.19179 1.19181 1.19171 1.19184 1.19184 1.19184 1.19178 1.19185 1.19186 1.19181 1.19183 1.19186 1.19185 1.1919 1.192 1.19183 1.1918 1.19186 1.19185 1.19183 1.19178 1.19178 1.19194 1.19178 1.19202 1.19185 1.19192 1.19181 1.1918 1.19188 1.19178 1.19181 1.19193 1.19193 1.19185 1.19184 1.19185 1.19187 1.19172 1.1919 1.19187 1.19184 1.19192 1.19179 1.19201 1.19181 1.19185 1.192 1.19181 1.19182 1.19197 1.19178 1.19191 1.19196 1.19181 1.1919 1.1918 1.19182 1.19183 1.19181 1.19192 1.19186 1.19182 1.19182 1.19184 1.19191 1.19189 1.19189 1.19186 1.19182 1.19191 1.19181 1.19171 1.19177 1.19188 1.1918 1.19181 1.19183 1.19178 1.1918 1.19177 1.19183 1.19178 1.19181 1.19183 1.1918 1.19178 1.1919 1.19179 1.19177 1.1918 1.19179 1.19183 1.19178 1.19179 1.19182 1.19183 1.19182 1.19178 1.19183 1.19183 1.1918 1.19181 1.19177 1.19176 1.1918 1.1917 1.19181 1.1919 1.19178 1.19172 1.19186 1.1918 1.19182 1.19185 1.19186 1.19199 1.19183 1.1918 1.19185 1.19181 1.19183 1.19178 1.19177 1.19176 1.1919 1.19197 1.19192 1.19181 1.19176 1.19188 1.19178 1.19183 1.19177 1.19181 1.19182 1.19193 1.19194 1.19188 1.19172 1.19186 1.19186 1.19186 1.19188 1.19177 1.19202 1.19192 1.19185 1.19195 1.19182 1.19186 1.19172 1.19182 1.19186 1.19183 1.19185 1.19175 1.19193 1.19184 1.19183 1.19181 1.19192 1.19181 1.19183 1.19189 1.19185 1.1918 1.1919 1.19181 1.19166 1.19179 1.19178 1.19191 1.19185 1.19187 1.19179 1.19181 1.19182 1.19184 1.1918 1.19181 1.19183 1.1918 1.19175 1.1919 1.1918 1.19179 1.1918 1.19183 1.19178 1.19179 1.19177 1.1918 1.19182 1.19182 1.1918 1.1918 1.19184 1.1918 1.19178 1.19175 1.19179 1.19179 1.19178 1.1918 1.19178 1.19182 1.19181 1.19179 1.19182 1.19182 1.19193 1.19197 1.19179 1.1918 1.19185 1.1918 1.19175 1.19177 1.19177 1.19173 1.19189 1.19196 1.19183 1.19198 1.19178 1.19172 1.19188 1.19187 1.19183 1.19187 1.19177 1.19188 1.19196 1.19193 1.19192 1.19177 1.19186 1.19182 1.19185 1.19191 1.19198 1.19201 1.19192 1.19175 1.19193 1.19182 1.19189 1.19175 1.19185 1.19178 1.19183 1.1918 1.19178 1.19192 1.19184 1.1917 1.1918 1.19192 1.19182 1.19181 1.19181 1.19188 1.19189 1.19185 1.1918 1.1919 1.1918 1.19167 1.1918 1.1918 1.19174 1.19184 1.19178 1.19178 1.1918 1.19185 1.19183 1.19181 1.19175 1.19179 1.19179 1.1918 1.19184 1.19183 1.19181 1.19178 1.19178 1.19178 1.19179 1.19176 1.1918 1.19181 1.19182 1.1918 1.1918 1.19184 1.1918 1.19183 1.19173 1.1918 1.19179 1.19178 1.19181 1.19178 1.19175 1.19189 1.19192 1.192 1.19182 1.19194 1.19194 1.19197 1.19179 1.1918 1.19185 1.1918 1.19169 1.19176 1.19172 1.19178 1.19182 1.19233 1.19193 1.19174 1.19177 1.19176 1.19194 1.19188 1.19187 1.19184 1.19176 1.19188 1.19183 1.19193 1.19196 1.19185 1.19188 1.19184 1.19191 1.1921 1.19197 1.192 1.19198 1.19185 1.19171 1.1919 1.19179 1.19188 1.19175 1.19185 1.1919 1.19182 1.19178 1.19185 1.19177 1.19184 1.1917 1.1918 1.19178 1.19176 1.1918 1.19185 1.1917 1.19184 1.19189 1.19176 1.19184 1.1919 1.19179 1.19179 1.19177 1.19174 1.19181 1.19173 1.19183 1.19187 1.19184 1.1918 1.1918 1.1918 1.19178 1.19184 1.1918 1.19178 1.19176 1.19181 1.19178 1.19181 1.19172 1.19178 1.1918 1.1918 1.19182 1.19179 1.1918 1.19184 1.19181 1.19185 1.19174 1.19193 1.19177 1.19176 1.19182 1.19174 1.19176 1.19181 1.19194 1.19179 1.19185 1.19193 1.19194 1.19194 1.19178 1.19197 1.19192 1.19217 1.19175 1.19199 1.19178 1.19173 1.19182 1.19193 1.19189 1.19184 1.19163 1.19178 1.19193 1.19188 1.19176 1.19183 1.19176 1.19187 1.1918 1.19194 1.19184 1.19188 1.19184 1.19181 1.19187 1.19189 1.1918 1.19171 1.19191 1.19184 1.19182 1.19177 1.19188 1.19182 1.19185 1.19169 1.19191 1.19177 1.19192 1.19178 1.19182 1.19178 1.19178 1.19174 1.19178 1.19183 1.19171 1.19183 1.19173 1.1918 1.1918 1.19178 1.19178 1.19177 1.19176 1.19174 1.19182 1.19177 1.1917 1.19191 1.19183 1.1918 1.1918 1.19176 1.19176 1.19182 1.1918 1.1918 1.19178 1.19181 1.19175 1.1918 1.19171 1.19178 1.19179 1.1918 1.19182 1.19179 1.19179 1.19184 1.1918 1.19184 1.1918 1.19191 1.19178 1.19188 1.19177 1.19184 1.19176 1.19183 1.19193 1.19179 1.19178 1.1919 1.1919 1.19191 1.19179 1.19194 1.19195 1.19201 1.19195 1.19207 1.19194 1.19174 1.19164 1.19188 1.19187 1.19182 1.19163 1.19194 1.19177 1.1919 1.1918 1.19183 1.19176 1.19186 1.19182 1.19182 1.19178 1.19182 1.19191 1.19185 1.19181 1.19184 1.19186 1.192 1.19194 1.19186 1.19178 1.19193 1.19185 1.1918 1.19189 1.19185 1.19165 1.19177 1.19191 1.19177 1.19192 1.19194 1.19184 1.19177 1.19168 1.19174 1.19173 1.19174 1.19182 1.19166 1.19177 1.19187 1.19177 1.19174 1.19178 1.19181 1.1918 1.19175 1.19185 1.19181 1.19169 1.19178 1.19183 1.19179 1.19179 1.19175 1.19176 1.19182 1.1918 1.19178 1.19182 1.19178 1.19176 1.19175 1.1917 1.19178 1.19179 1.19178 1.19178 1.19175 1.19177 1.1918 1.19178 1.19178 1.19178 1.1918 1.19182 1.19178 1.19177 1.19197 1.19161 1.19193 1.19192 1.19181 1.19178 1.19185 1.19189 1.19205 1.19193 1.19194 1.19195 1.19202 1.19194 1.1918 1.19198 1.19172 1.19166 1.1917 1.19187 1.19187 1.19182 1.1915 1.1919 1.1919 1.19176 1.19184 1.19181 1.19187 1.1918 1.19148 1.19189 1.19181 1.19182 1.19185 1.19182 1.19185 1.19186 1.19169 1.19181 1.19188 1.19187 1.19186 1.19171 1.19182 1.19194 1.19184 1.19167 1.19168 1.19178 1.1919 1.19176 1.19178 1.19198 1.19184 1.19176 1.1917 1.19174 1.19175 1.19168 1.19174 1.19185 1.19194 1.19177 1.19184 1.19176 1.19178 1.19175 1.19181 1.1918 1.19174 1.19179 1.19185 1.19183 1.1918 1.19171 1.19182 1.19178 1.19179 1.19175 1.19174 1.19181 1.1918 1.19178 1.19181 1.19178 1.19176 1.19182 1.19176 1.19178 1.19178 1.19182 1.19174 1.19174 1.19177 1.19179 1.19178 1.19179 1.19177 1.1918 1.19183 1.19182 1.19174 1.19197 1.19158 1.19189 1.1919 1.19187 1.19179 1.19199 1.19187 1.19209 1.19197 1.1919 1.19192 1.19197 1.19183 1.19152 1.19198 1.19166 1.19152 1.1916 1.19185 1.19182 1.19173 1.19189 1.19175 1.19172 1.19178 1.19182 1.19182 1.19196 1.19177 1.19164 1.19181 1.19168 1.19193 1.1918 1.19182 1.19183 1.19183 1.19183 1.19178 1.19183 1.19178 1.19172 1.19178 1.19197 1.19165 1.19183 1.19168 1.19178 1.19188 1.19133 1.19193 1.19201 1.19189 1.1917 1.1918 1.19176 1.19169 1.19176 1.19186 1.19195 1.19173 1.19176 1.19175 1.19175 1.19173 1.19177 1.1918 1.1918 1.19178 1.19177 1.19176 1.19179 1.19184 1.19177 1.19174 1.19173 1.19181 1.19179 1.19178 1.19182 1.19177 1.19176 1.19178 1.19185 1.19186 1.19178 1.19177 1.19182 1.19174 1.19178 1.19177 1.19179 1.19173 1.19175 1.19178 1.1918 1.19183 1.19178 1.19174 1.19207 1.19209 1.19174 1.19188 1.19187 1.19182 1.19178 1.19178 1.19203 1.1919 1.19208 1.19197 1.19201 1.19189 1.19192 1.19177 1.19185 1.19198 1.19151 1.19177 1.19174 1.19181 1.19178 1.19186 1.19186 1.1918 1.19194 1.19165 1.19182 1.19177 1.1918 1.19182 1.19177 1.19171 1.19175 1.19174 1.19182 1.19177 1.19179 1.19183 1.19181 1.19159 1.19178 1.19154 1.19175 1.19176 1.19165 1.19159 1.1917 1.19182 1.19146 1.1915 1.19189 1.19187 1.19203 1.19175 1.19189 1.19172 1.19183 1.19179 1.19168 1.19174 1.19185 1.19181 1.19173 1.19175 1.19174 1.19183 1.19174 1.19178 1.19188 1.1917 1.19187 1.19171 1.19175 1.19178 1.19175 1.19182 1.19175 1.19173 1.19172 1.1918 1.19178 1.19179 1.19172 1.19178 1.19184 1.19185 1.1918 1.1918 1.19178 1.19179 1.19176 1.19173 1.19176 1.19175 1.19181 1.19159 1.19169 1.19188 1.19194 1.19172 1.1919 1.19198 1.19185 1.19179 1.19178 1.19206 1.19207 1.19188 1.19211 1.19202 1.19177 1.19189 1.19188 1.19202 1.19195 1.19154 1.19181 1.19168 1.19191 1.19178 1.19175 1.19187 1.19205 1.19179 1.19173 1.19175 1.19178 1.19177 1.19166 1.19174 1.19181 1.1917 1.19176 1.19175 1.19181 1.19165 1.19179 1.19172 1.19153 1.19179 1.19174 1.19164 1.1916 1.19172 1.19185 1.19184 1.19145 1.19151 1.19188 1.19186 1.19178 1.19196 1.19173 1.19188 1.19172 1.19179 1.1918 1.19174 1.19178 1.1916 1.1917 1.19174 1.19177 1.19175 1.19183 1.19175 1.19179 1.19172 1.19175 1.19182 1.1917 1.19175 1.19175 1.19178 1.19181 1.19178 1.19175 1.19171 1.19167 1.19181 1.19179 1.19172 1.19174 1.1918 1.19186 1.19182 1.1918 1.19183 1.19181 1.19177 1.19177 1.19175 1.19174 1.19174 1.19181 1.19174 1.19173 1.19182 1.19197 1.19178 1.19164 1.19188 1.19186 1.19202 1.19191 1.19192 1.19197 1.19194 1.19203 1.19183 1.19182 1.19176 1.19189 1.19199 1.19234 1.19233 1.19199 1.19199 1.19152 1.19156 1.19195 1.19177 1.19193 1.19177 1.19166 1.19189 1.1921 1.1918 1.19177 1.19163 1.19172 1.19173 1.19177 1.1917 1.19172 1.1918 1.19176 1.19175 1.19173 1.1918 1.19166 1.19162 1.19179 1.19176 1.19173 1.19164 1.19159 1.19184 1.19145 1.19148 1.19183 1.1919 1.19189 1.19183 1.19172 1.19179 1.19178 1.19177 1.19177 1.19158 1.19167 1.19171 1.19169 1.19178 1.19176 1.19183 1.19182 1.19178 1.19176 1.19174 1.19176 1.1918 1.19169 1.19175 1.19177 1.19177 1.1918 1.19177 1.19174 1.19173 1.19168 1.19181 1.19179 1.19171 1.19177 1.19178 1.19174 1.19183 1.19179 1.19181 1.19178 1.19185 1.19173 1.19174 1.19189 1.19185 1.19149 1.1917 1.19197 1.19206 1.1919 1.19159 1.19182 1.19167 1.19176 1.19204 1.1919 1.19192 1.19207 1.19192 1.19194 1.19179 1.19176 1.19194 1.19177 1.19172 1.19196 1.19212 1.19155 1.19199 1.19194 1.19176 1.19194 1.19189 1.19145 1.19172 1.19174 1.19209 1.19181 1.19167 1.19162 1.19174 1.19174 1.19178 1.19172 1.19174 1.19175 1.19171 1.19174 1.19168 1.19166 1.19171 1.19174 1.19176 1.19172 1.19174 1.19163 1.19175 1.19177 1.19179 1.19166 1.19177 1.19174 1.19178 1.19189 1.19171 1.19178 1.19172 1.19179 1.19183 1.19178 1.19179 1.1916 1.19163 1.19166 1.19176 1.19177 1.19175 1.19179 1.19172 1.19178 1.19178 1.19176 1.19176 1.19179 1.19174 1.19177 1.19173 1.19179 1.19174 1.19178 1.1918 1.19178 1.19172 1.19178 1.19178 1.19173 1.19174 1.19182 1.1918 1.19183 1.19181 1.19188 1.19172 1.19163 1.19199 1.19188 1.19179 1.19177 1.19203 1.19189 1.19196 1.19178 1.19173 1.19201 1.19209 1.19199 1.19193 1.19201 1.19196 1.19199 1.1919 1.19173 1.19172 1.19175 1.19162 1.19188 1.19189 1.19174 1.19192 1.19192 1.19156 1.19198 1.192 1.19197 1.19182 1.19178 1.19144 1.1917 1.19179 1.19172 1.19185 1.19188 1.19165 1.19161 1.19165 1.1917 1.19175 1.19172 1.19174 1.19172 1.19168 1.19171 1.19167 1.19185 1.1917 1.19168 1.19176 1.19172 1.19165 1.19176 1.19164 1.19175 1.19182 1.19169 1.19178 1.19168 1.19172 1.19171 1.19187 1.19171 1.19177 1.19172 1.19181 1.19178 1.19176 1.1918 1.19159 1.19167 1.19164 1.19176 1.19178 1.19176 1.19175 1.19178 1.19173 1.19179 1.19178 1.19177 1.19176 1.19178 1.19175 1.19178 1.19172 1.19169 1.19181 1.19178 1.19171 1.1918 1.19176 1.19171 1.19172 1.1919 1.19181 1.19184 1.19181 1.19186 1.19172 1.19178 1.19199 1.19178 1.19172 1.19197 1.19195 1.19183 1.19175 1.19184 1.19162 1.19191 1.19196 1.19188 1.1918 1.19196 1.19187 1.19176 1.19207 1.19182 1.19201 1.19195 1.19179 1.19169 1.19167 1.19171 1.19173 1.19182 1.19164 1.1917 1.19138 1.19173 1.19173 1.19178 1.19174 1.19174 1.19165 1.19169 1.19166 1.19185 1.1917 1.19179 1.1918 1.19172 1.19166 1.19163 1.19157 1.19167 1.19181 1.19167 1.19178 1.19167 1.19186 1.19166 1.19174 1.19172 1.19178 1.19176 1.19175 1.19176 1.19179 1.19173 1.19164 1.19169 1.19165 1.19161 1.19165 1.19177 1.19175 1.19178 1.19172 1.19179 1.19179 1.19177 1.19176 1.19178 1.19174 1.19171 1.1917 1.19172 1.19169 1.19178 1.19178 1.19171 1.19175 1.19177 1.19171 1.19172 1.19189 1.19182 1.19178 1.19172 1.19183 1.19184 1.19191 1.19163 1.19188 1.19219 1.19178 1.19198 1.19194 1.19195 1.19177 1.19179 1.19217 1.19158 1.19186 1.19207 1.19191 1.19189 1.19191 1.19184 1.19192 1.19204 1.19179 1.19181 1.19176 1.19196 1.19207 1.19206 1.19179 1.19177 1.19179 1.19189 1.19203 1.1917 1.19178 1.19168 1.19199 1.19199 1.19173 1.19187 1.19159 1.19171 1.19157 1.19173 1.19178 1.19178 1.19177 1.1918 1.1917 1.19168 1.19165 1.19171 1.19169 1.19183 1.19171 1.19172 1.19166 1.19172 1.1916 1.19167 1.1918 1.19167 1.19171 1.19167 1.19171 1.19186 1.19172 1.19174 1.19172 1.19178 1.19178 1.19178 1.19178 1.19173 1.1917 1.19164 1.1916 1.19165 1.19164 1.19164 1.19171 1.19174 1.19178 1.19172 1.19178 1.19175 1.19178 1.19175 1.19176 1.19175 1.1917 1.19171 1.19172 1.19173 1.19178 1.19179 1.19178 1.19174 1.19176 1.1917 1.19175 1.19196 1.19181 1.19169 1.19171 1.19182 1.19184 1.19186 1.19174 1.19181 1.1917 1.19223 1.192 1.19192 1.19199 1.19183 1.19187 1.19174 1.19214 1.19201 1.19189 1.19179 1.19193 1.19175 1.19192 1.19201 1.19181 1.19179 1.19174 1.19197 1.19203 1.19179 1.19176 1.19173 1.19178 1.19192 1.19197 1.1917 1.19155 1.19174 1.19178 1.19184 1.19157 1.19171 1.19157 1.19178 1.19178 1.19191 1.19172 1.1918 1.19181 1.19173 1.19173 1.19171 1.19164 1.19179 1.19168 1.19178 1.1917 1.19172 1.19173 1.1917 1.19159 1.19177 1.19174 1.19173 1.1917 1.19166 1.19177 1.19168 1.1917 1.1917 1.19175 1.19176 1.19178 1.19178 1.19177 1.19178 1.1918 1.19179 1.19161 1.19166 1.19178 1.19163 1.1917 1.19178 1.19179 1.19175 1.19177 1.19177 1.19177 1.19177 1.19175 1.19176 1.19175 1.19175 1.19175 1.19178 1.19172 1.19178 1.19178 1.19178 1.1917 1.19174 1.19173 1.19176 1.19196 1.1918 1.19178 1.19166 1.19188 1.19172 1.19182 1.19183 1.19182 1.19178 1.19214 1.19192 1.19177 1.19198 1.19178 1.19213 1.19189 1.19177 1.19202 1.19197 1.19175 1.19186 1.1919 1.19197 1.19189 1.19177 1.1919 1.19177 1.19159 1.19202 1.19178 1.19177 1.19165 1.19163 1.19166 1.19155 1.19181 1.19171 1.1918 1.19184 1.19183 1.1916 1.19173 1.1916 1.19175 1.19174 1.19177 1.19179 1.19179 1.1918 1.19171 1.19165 1.19166 1.19186 1.19167 1.19166 1.19172 1.19174 1.19168 1.19166 1.19159 1.19164 1.19174 1.19173 1.1917 1.19165 1.19176 1.19178 1.19168 1.1917 1.19176 1.19178 1.19176 1.19176 1.19179 1.19177 1.19162 1.19171 1.19174 1.19174 1.19163 1.19174 1.19177 1.19174 1.19177 1.19177 1.19176 1.19175 1.19177 1.19178 1.19179 1.19178 1.19178 1.19172 1.19185 1.19185 1.19187 1.19177 1.19178 1.19182 1.19171 1.19179 1.19178 1.19177 1.19174 1.19174 1.19176 1.19167 1.19183 1.19184 1.19183 1.19178 1.19177 1.19192 1.19191 1.19218 1.192 1.19176 1.1917 1.19186 1.19174 1.19187 1.19171 1.19171 1.19184 1.19187 1.19184 1.19189 1.19174 1.19158 1.19204 1.19178 1.19173 1.19163 1.19165 1.19162 1.19164 1.19154 1.19179 1.19189 1.19175 1.19164 1.19168 1.19161 1.19176 1.19178 1.19175 1.19173 1.19179 1.19171 1.19164 1.19166 1.19178 1.19171 1.19168 1.19178 1.19186 1.19185 1.19173 1.19178 1.19178 1.19166 1.19187 1.19174 1.19173 1.1917 1.19181 1.19171 1.19164 1.19168 1.19169 1.19176 1.19178 1.19176 1.19176 1.19178 1.19177 1.19177 1.19176 1.19162 1.19174 1.19177 1.19174 1.19178 1.19177 1.19175 1.19175 1.19177 1.19178 1.19174 1.19178 1.19179 1.19176 1.19179 1.19177 1.19174 1.19178 1.1918 1.19177 1.19178 1.19181 1.19178 1.19168 1.1918 1.19169 1.19173 1.19164 1.19183 1.19182 1.19185 1.1918 1.1918 1.1917 1.19176 1.19188 1.19191 1.19189 1.19196 1.19201 1.19193 1.19178 1.19171 1.19144 1.19175 1.19192 1.1923 1.19165 1.19171 1.19187 1.19191 1.19171 1.19157 1.19199 1.1916 1.19192 1.1916 1.19163 1.19163 1.19175 1.19179 1.19189 1.19167 1.1918 1.19162 1.19166 1.1918 1.19179 1.19174 1.19157 1.19172 1.1918 1.19171 1.19162 1.19173 1.19175 1.19173 1.19167 1.19172 1.19177 1.19178 1.1918 1.19172 1.19178 1.19173 1.19171 1.19178 1.19178 1.19166 1.19168 1.19169 1.19176 1.19178 1.19177 1.19178 1.19178 1.19178 1.19177 1.19177 1.19176 1.19178 1.19163 1.19174 1.19177 1.19178 1.19178 1.19177 1.19178 1.19175 1.19177 1.19173 1.19178 1.19179 1.19178 1.1917 1.19176 1.19179 1.19167 1.1918 1.19169 1.19163 1.19167 1.19166 1.19176 1.19169 1.1917 1.19169 1.19175 1.19183 1.19168 1.19179 1.19178 1.19195 1.19188 1.19178 1.19175 1.19181 1.19149 1.19169 1.19227 1.19187 1.19143 1.19173 1.1917 1.19156 1.19192 1.19179 1.19164 1.19157 1.1916 1.19191 1.19164 1.19184 1.19161 1.19172 1.19178 1.19153 1.19177 1.19159 1.19172 1.19191 1.19181 1.19166 1.19165 1.19177 1.19171 1.19178 1.19178 1.19172 1.19179 1.19173 1.19175 1.19173 1.19166 1.19171 1.19172 1.19177 1.19175 1.19178 1.19172 1.19179 1.19173 1.19171 1.19176 1.19172 1.19169 1.19173 1.19168 1.19176 1.19176 1.19177 1.19178 1.19178 1.19178 1.19177 1.19177 1.19178 1.19178 1.19178 1.19175 1.19178 1.19178 1.19178 1.19178 1.19178 1.19175 1.19177 1.19177 1.19178 1.19178 1.19177 1.19175 1.19177 1.1917 1.19176 1.1918 1.19179 1.1917 1.19169 1.19175 1.19167 1.19162 1.19174 1.19165 1.19163 1.19172 1.19153 1.19172 1.19183 1.19166 1.19172 1.19177 1.19169 1.19199 1.19186 1.19189 1.19165 1.19154 1.19165 1.19188 1.19136 1.19165 1.19179 1.19176 1.1916 1.19145 1.19128 1.19177 1.1916 1.19172 1.19164 1.19151 1.19175 1.19173 1.19169 1.19175 1.19165 1.19166 1.19167 1.19179 1.19168 1.19179 1.19179 1.19178 1.19181 1.19172 1.19172 1.19178 1.19174 1.19179 1.19173 1.19166 1.19171 1.19172 1.19176 1.19178 1.19177 1.19173 1.19176 1.19172 1.19163 1.19163 1.19171 1.19172 1.19168 1.19176 1.19178 1.19177 1.19178 1.19178 1.19178 1.19177 1.19177 1.19178 1.19178 1.19178 1.19175 1.19178 1.19178 1.19178 1.19178 1.19178 1.19175 1.19177 1.19177 1.19177 1.19177 1.19178 1.19178 1.19171 1.19177 1.19174 1.19171 1.1917 1.19178 1.19159 1.19169 1.19174 1.19166 1.19164 1.19142 1.19161 1.19157 1.19164 1.19159 1.19167 1.19172 1.19184 1.19204 1.1918 1.19162 1.19153 1.19166 1.19181 1.19132 1.19176 1.1917 1.1916 1.19177 1.19157 1.19151 1.19155 1.19158 1.19129 1.19143 1.19192 1.19141 1.19163 1.19172 1.19179 1.19177 1.19175 1.19165 1.19166 1.19169 1.1917 1.19163 1.19171 1.19178 1.19173 1.19179 1.19173 1.19172 1.19171 1.19177 1.1918 1.1917 1.19178 1.1917 1.19174 1.19176 1.19176 1.19172 1.19176 1.19173 1.19176 1.19173 1.19177 1.19164 1.19164 1.19171 1.19176 1.1918 1.19152 1.19166 1.19185 1.19204 1.19179 1.19187 1.19159 1.19188 1.19179 1.19181 1.19174 1.19182 1.19188 1.19144 1.19159 1.19173 1.1915 1.19164 1.19176 1.19151 1.19174 1.19183 1.19167 1.19183 1.19185 1.19167 1.19174 1.19187 1.1919 1.19179 1.1918 1.1918 1.19189 1.19168 1.19184 1.1917 1.19162 1.19156 1.19171 1.19141 1.19144 1.19157 1.19166 1.19181 1.19163 1.19186 1.19169 1.19157 1.1917 1.19187 1.1919 1.19176 1.19183 1.1915 1.19167 1.19166 1.19159 1.19178 1.19151 1.19145 1.19172 1.19165 1.1918 1.1917 1.19154 1.19166 1.19151 1.19177 1.19167 1.19188 1.19189 1.19187 1.19172 1.19184 1.19178 1.1915 1.19178 1.19179 1.19174 1.19158 1.19139 1.19133 1.19145 1.19158 1.19171 1.19178 1.19178 1.19179 1.19172 1.19164 1.19177 1.19158 1.19178 1.19162 1.19187 1.1919 1.1919 1.19173 1.19166 1.19158 1.19145 1.19134 1.19183 1.19196 1.19178 1.19178 1.19178 1.19178 1.19178 1.19178 1.19176 1.19172 1.19179 1.19159 1.19165 1.19175 1.19158 1.19158 1.19187 1.19163 1.19191 1.19172 1.19183 1.19167 1.19184 1.19158 1.19189 1.19183 1.19185 1.19178 1.19178 1.19178 1.19178 1.19178 1.19178 1.19178 1.19178 1.19178 1.19178 1.19178 1.19178 1.19178 1.19178 1.19178 1.19178 1.19178 1.19178 1.19178 1.19178 1.19178 1.19178 1.19178 1.19178 1.19178 1.19178 1.19178 1.19178 1.19178 1.19178 1.19178 1.19178 1.19178 1.19178 1.19178 1.19178 1.19178 1.19175 1.19171 1.19164 1.19166 1.19174 1.19183 1.19193 1.1917 1.19155 1.19216 1.19209 1.19153 1.19173 1.19198 1.19172 1.19165 1.19175 1.19171 1.1919 1.19203 1.19194 1.19179 1.19182 1.19184 1.19183 1.19178 1.19178 1.19178 1.19178 1.19178 1.19178 1.19178 1.19178 1.19178 1.19178 1.19178 1.19178 1.19178 1.19178 1.19178 1.19178 1.19178 1.19178 1.19178 1.19178 1.19178 1.19178 1.19178 1.19178 1.19178 1.19178 1.19168 1.19165 1.19179 1.1915 1.19159 1.19162 1.19184 1.19159 1.1916 1.19187 1.19164 1.1916 1.19155 1.19166 1.19181 1.19195 1.19178 1.19179 1.19169 1.19211 1.19188 1.19178 1.19178 1.19178 1.19178 1.19178 1.19178 1.19178 1.19178 1.19178 1.19178 1.19178 1.19178 1.19178 1.19178 1.19178 1.19178 1.19178 1.19178 1.19178 1.19178 1.19178 1.19178 1.19178 1.19178 1.19178 1.19178 1.19178 1.19178 1.19178 1.19178 1.19178 1.19178 1.19178 1.19178 1.19178 1.19178 1.19178 1.19178 1.19178 1.19178 1.19178 1.19178 1.19178 1.19179 1.19178 1.19184 1.19166 1.19206 1.19167 1.1919 1.19153 1.19177 1.1915 1.19156 1.1918 1.19179 1.19169 1.19146 1.1913 1.19156 1.19153 1.19165 1.19175 1.19191 1.19205 1.19178 1.19186 1.19176 1.19169 1.19178 1.19177 1.19178 1.19178 1.19178 1.19178 1.19178 1.19178 1.19178 1.19178 1.19178 1.19178 1.19178 1.19178 1.19178 1.19178 1.19178 1.19178 1.19178 1.19178 1.19178 1.19178 1.19178 1.19178 1.19178 1.19178 1.19178 1.19178 1.19178 1.19178 1.19178 1.19178 1.19178 1.19178 1.19178 1.19178 1.19178 1.19178 1.19178 1.19178 1.19178 1.19178 1.19178 1.19178 1.19178 1.19178 1.19177 1.19177 1.19165 1.19151 1.1917 1.19157 1.19177 1.19167 1.1918 1.19157 1.19164 1.19175 1.19167 1.19144 1.19131 1.19178 1.19148 1.19171 1.19197 1.19168 1.19194 1.19177 1.1918 1.19178 1.19178 1.19178 1.19178 1.19178 1.19178 1.19178 1.19178 1.19178 1.19178 1.19178 1.19178 1.19178 1.19178 1.19178 1.19178 1.19178 1.19178 1.19178 1.19178 1.19178 1.19178 1.19178 1.19178 1.19178 1.19178 1.19178 1.19178 1.19178 1.19178 1.19178 1.19178 1.19178 1.19178 1.19178 1.19178 1.19178 1.19178 1.19178 1.19178 1.19178 1.19178 1.19178 1.19178 1.19177 1.19176 1.19179 1.19213 1.19166 1.19181 1.19165 1.19161 1.19159 1.1918 1.19156 1.19165 1.19166 1.19163 1.19169 1.19158 1.19136 1.19152 1.1919 1.19183 1.19165 1.19163 1.19195 1.19171 1.1916 1.19178 1.19177 1.19178 1.19178 1.19178 1.19178 1.19178 1.19178 1.19178 1.19178 1.19178 1.19178 1.19178 1.19178 1.19178 1.19178 1.19178 1.19178 1.19178 1.19178 1.19178 1.19178 1.19178 1.19178 1.19178 1.19178 1.19178 1.19178 1.19178 1.19178 1.19178 1.19178 1.19178 1.19178 1.19178 1.19178 1.19178 1.19178 1.19178 1.19178 1.19178 1.19178 1.19178 1.19178 1.19178 1.19178 1.19178 1.19178 1.19178 1.19178 1.19178 1.19178 1.19178 1.19178 1.19178 1.19178 1.19178 1.19162 1.19172 1.1918 1.19169 1.19126 1.19182 1.19178 1.19188 1.19181 1.19169 1.19176 1.1918 1.19184 1.19195 1.19189 1.1917 1.19177 1.19171 1.19162 1.19196 1.19171 1.19184 1.19193 1.19174 1.19178 1.19178 1.19178 1.19178 1.19178 1.19178 1.19178 1.19178 1.19178 1.19178 1.19178 1.19178 1.19178 1.19178 1.19178 1.19178 1.19178 1.19178 1.19178 1.19178 1.19178 1.19178 1.19178 1.19178 1.19178 1.19178 1.19178 1.19178 1.19178 1.19178 1.19178 1.19178 1.19178 1.19178 1.19178 1.19178 1.19178 1.19178 1.19178 1.19177 1.19164 1.19208 1.19171 1.19141 1.19169 1.19187 1.19178 1.19177 1.19202 1.19182 1.19185 1.19183 1.19156 1.19178 1.19168 1.19168 1.19178 1.1916 1.19188 1.19152 1.19178 1.19178 1.19178 1.19178 1.19178 1.19178 1.19178 1.19178 1.19178 1.19178 1.19178 1.19178 1.19178 1.19178 1.19178 1.19178 1.19178 1.19178 1.19178 1.19178 1.19178 1.19178 1.19178 1.19178 1.19178 1.19178 1.19178 1.19178 1.19178 1.19178 1.19178 1.19178 1.19178 1.19178 1.19178 1.19178 1.19178 1.19178 1.19178 1.19178 1.19178 1.19178 1.19178 1.1919 1.19176 1.19149 1.19237 1.19154 1.1919 1.19163 1.19177 1.19158 1.19176 1.19182 1.19186 1.19163 1.19163 1.19155 1.19156 1.19178 1.19206 1.19171 1.19179 1.19178 1.19178 1.19178 1.19178 1.19178 1.19178 1.19178 1.19178 1.19178 1.19178 1.19178 1.19178 1.19178 1.19178 1.19178 1.19178 1.19178 1.19178 1.19178 1.19178 1.19178 1.19178 1.19178 1.19178 1.19178 1.19178 1.19178 1.19178 1.19178 1.19178 1.19178 1.19178 1.19178 1.19178 1.19178 1.19178 1.19161 1.19177 1.19184 1.1918 1.19174 1.19189 1.19179 1.19175 1.19194 1.19178 1.1916 1.19155 1.19171 1.19184 1.19165 1.19178 1.19178 1.19178 1.19178 1.19178 1.19178 1.19178 1.19178 1.19178 1.19178 1.19178 1.19178 1.19178 1.19178 1.19178 1.19178 1.19178 1.19178 1.19178 1.19178 1.19178 1.19178 1.19178 1.19178 1.19178 1.19178 1.19178 1.19178 1.19178 1.19178 1.19178 1.19178 1.19178 1.19178 1.19178 1.19178 1.19178 1.19178 1.19178 1.19178 1.19178 1.19178 1.19178 1.19178 1.19178 1.19178 1.19178 1.19178 1.19176 1.19191 1.19178 1.1918 1.19172 1.19183 1.19206 1.19175 1.19179 1.19175 1.1917 1.19177 1.19168 1.19154 1.19188 1.19154 1.1918 1.19173 1.19168 1.19164 1.19189 1.19182 1.19174 1.19178 1.19178 1.19178 1.19178 1.19178 1.19178 1.19178 1.19178 1.19178 1.19178 1.19178 1.19178 1.19178 1.19178 1.19178 1.19178 1.19178 1.19178 1.19178 1.19178 1.19178 1.19178 1.19178 1.19178 1.19178 1.19178 1.19178 1.19178 1.19178 1.19178 1.19176 1.19174 1.19177 1.19185 1.19179 1.19171 1.19188 1.19164 1.19174 1.19174 1.19179 1.19185 1.19158 1.19171 1.19151 1.19162 1.19181 1.19158 1.19163 1.19172 1.1917 1.19177 1.19178 1.19178 1.19178 1.19178 1.19178 1.19178 1.19178 1.19178 1.19178 1.19178 1.19178 1.19178 1.19178 1.19178 1.19178 1.19178 1.19178 1.19178 1.19178 1.19178 1.19178 1.19178 1.19178 1.19178 1.19165 1.19171 1.19169 1.19166 1.19156 1.19187 1.19163 1.19168 1.19179 1.19173 1.1915 1.19164 1.19146 1.19156 1.19152 1.1914 1.19176 1.19149 1.19179 1.19178 1.19169 1.19159 1.19151 1.19176 1.19179 1.19178 1.19178 1.19178 1.19178 1.19178 1.19178 1.19178 1.19178 1.19178 1.19178 1.19178 1.19178 1.19178 1.19178 1.19178 1.19178 1.19178 1.19178 1.19178 1.19178 1.19178 1.19178 1.19178 1.19178 1.19145 1.19161 1.19152 1.19173 1.19162 1.19166 1.19166 1.19149 1.19144 1.19156 1.19165 1.19178 1.19125 1.19154 1.1919 1.19178 1.19177 1.19176 1.19151 1.19178 1.19178 1.19178 1.19178 1.19178 1.19178 1.19178 1.19178 1.19178 1.19178 1.19178 1.19178 1.19178 1.19178 1.19178 1.19184 1.19169 1.19159 1.19156 1.19148 1.19179 1.19175 1.19157 1.19163 1.19139 1.19144 1.19185 1.19177 1.19113 1.19178 1.19157 1.19177 1.1918 1.19171 1.1916 1.19178 1.19178 1.19178 1.19178 1.19178 1.19178 1.19178 1.19178 1.19178 1.19178 1.19178 1.19178 1.19178 1.19178 1.19178 1.19178 1.19181 1.19164 1.19166 1.1918 1.19172 1.1918 1.19175 1.19154 1.19176 1.19141 1.19154 1.19185 1.19171 1.1917 1.19175 1.19154 1.19148 1.19152 1.19178 1.19175 1.19171 1.19178 1.19178 1.19178 1.19178 1.19178 1.19178 1.19178 1.19178 1.19176 1.19169 1.19156 1.19177 1.19178 1.19178 1.19158 1.19187 1.19178 1.19163 1.19159 1.19153 1.19172 1.19172 1.19149 1.19178 1.19179 1.19145 1.19178 1.19178 1.19178 1.19178 1.19178 1.19178 1.19178 1.19178 1.19178 1.19178 1.19178 1.19178 1.19172 1.19174 1.19179 1.19179 1.19178 1.19176 1.19166 1.19178 1.19173 1.19156 1.19164 1.19178 1.19176 1.19171 1.19177 1.19171 1.19179 1.1918 1.19153 1.19181 1.19178 1.19178 1.19178 1.19178 1.19178 1.19173 1.19177 1.19173 1.1918 1.19183 1.19171 1.19164 1.19178 1.19162 1.19177 1.19163 1.19167 1.19181 1.19176 1.19173 1.19178 1.19175 1.19144 1.19177 1.19178 1.19178 1.19178 1.19178 1.19178 1.19178 0.0208514 0.0298893 0.0111041 0.0300238 0.0775968 0.137046 0.28683 0.307882 1.19178 0.170057 0.183671 0.301964 0.360139 0.372267 0.277306 0.155237 0.361192 5.49355 1.66813 1.86985 0.429256 0.327813 0.194872 0.118452 0.212941 0.17418 0.092603 0.0622909 0.0325172 0.170838 0.212208 0.271807 0.275746 0.125278 0.155702 1.19178 1.19195 1.02075 2.85646 0.699105 0.352267 0.354877 0.252054 0.190342 0.154057 0.158034 0.147703 0.0975654 0.0877789 0.0742765 0.0501853 0.0372867 0.00589024 1.19176 1.19175 1.19177 1.19178 1.19178 1.19178 0.107371 0.166388 0.095779 0.106365 0.112349 0.039393 0.0337266 0.0300441 0.0113388 0.0235077 0.0425124 0.0482613 0.0591798 0.055226 0.0739942 0.0789346 0.0578365 0.0404007 0.0284612 0.0307272 0.0329995 0.0410876 0.0394618 0.0395007 0.0204632 0.00916895 0.0147684 0.0259051 0.0212974 0.0260312 0.0132028 0.00783992 0.00647982 0.0121938 0.0160702 0.00555545 0.000885165 0.01033 0.00931384 0.0159851 0.0106899 0.00323675 0.00386464 0.00140977 0.00611375 0.00873235 0.00343953 0.00458358 0.00678483 0.00926543 0.00270325 0.00801929 0.0477016 0.0370223 0.0416632 0.06752 0.0480249 0.0277563 0.0547818 0.068351 0.0747434 0.219913 0.168442 0.191278 0.16854 0.013182 0.244837 0.160021 0.152125 0.171092 0.167832 0.211507 0.266465 0.160201 0.379219 0.24028 0.488754 0.718558 0.428243 0.597759 1.83888 0.541264 0.792358 0.684712 0.520214 0.60633 1.22501 0.874421 0.694975 0.550874 0.538295 0.442686 0.309548 0.22728 0.20619 0.185619 0.20277 0.153702 0.087778 0.0624969 0.107552 0.100156 0.297367 0.41563 0.343976 0.244366 0.321237 0.342299 0.275807 0.32105 0.486612 0.923073 0.783543 0.547365 1.20581 1.9701 1.03451 0.903319 0.554449 0.152877 0.537096 0.368281 0.336206 0.19077 0.252275 0.217746 0.154825 0.0658154 0.118225 0.0675187 0.106114 0.0532377 0.0305139 0.0664756 0.048225 0.0273346 0.0660243 0.00779523 0.0805891 0.101177 0.111285 0.11599 0.00710574 0.0193231 0.0147452 0.0237309 0.0218555 0.0254479 0.00593555 0.0279977 0.0230302 0.0272379 0.014289 0.0551308 0.0795235 0.0029116 0.0513253 0.0342793 0.0359659 0.0643606 0.0616906 0.0498907 0.0353482 0.0344146 0.031197 0.0484618 0.0427765 0.0552913 0.0523949 0.0387455 0.0418813 0.0365044 0.0374981 0.0450763 0.0446514 0.0246222 0.0194022 0.0242013 0.0140841 0.0189553 0.00351145 0.00444572 0.0235718 0.021068 0.0131718 0.021628 0.00997501 0.00151224 0.00760113 0.0045812 0.0061467 0.0144341 0.0227213 0.0208568 0.00468809 0.00652322 0.00302515 0.00898776 0.00666988 0.0115156 0.0100599 0.0133418 0.00788383 0.0113693 0.0152262 0.00141381 0.00734897 0.0116011 0.002796 0.011047 0.00451854 0.00864555 0.000906172 0.00977808 0.0341112 0.0292245 0.0584327 0.0510985 0.0897011 0.0736652 0.10014 0.102627 0.0912303 0.108872 0.115057 0.173629 0.178014 0.256076 0.218805 0.212641 0.267289 0.184554 0.271527 0.196115 0.272589 0.428527 0.338915 0.413563 0.35722 0.449705 0.581774 0.658926 0.258261 0.063218 0.257631 0.415718 0.329336 0.221495 0.233054 0.112544 0.179228 0.141691 0.191353 0.189846 0.153759 0.210739 0.0720805 0.109138 0.0615994 0.123272 0.146256 0.140151 0.199884 0.138046 0.212059 0.42171 0.242527 0.925869 0.246765 0.680073 0.690348 0.243506 0.272943 0.175409 0.165991 0.146919 0.150875 0.139818 0.121595 0.0917345 0.0807778 0.0689029 0.0435415 0.0207327 0.0451083 0.0111297 0.0327311 0.067928 0.097459 0.0350665 0.113735 0.110424 0.110798 0.0873759 0.0591899 0.0836095 0.0425414 0.0182397 0.0151193 0.0199428 0.0117409 0.0132096 0.00900311 0.0149587 0.0347903 0.0485965 0.0701512 0.0686864 0.0527847 0.0636937 0.0341614 0.080018 0.0570437 0.0711406 0.0543963 0.0471306 0.0347862 0.0489805 0.0484671 0.0570699 0.0444113 0.0444047 0.0353647 0.0525561 0.0361173 0.0382491 0.0390278 0.0353354 0.0285024 0.0223963 0.0158555 0.0214599 0.0194362 0.0172373 0.0119216 0.011602 0.0102567 0.013459 0.0114522 0.0050444 0.0122787 0.00975541 0.0176482 0.0165932 0.0127619 0.00651852 0.0282757 0.0238979 0.0193431 0.0240551 0.0136117 0.0127643 0.00849169 0.00204043 0.00376019 0.02467 0.0389493 0.0539776 0.0608612 0.0630044 0.0897575 0.113237 0.107586 0.109606 0.151299 0.172024 0.17931 0.183692 0.217539 0.146902 0.189816 0.280159 0.459835 0.342403 0.307707 0.429639 0.16324 0.200821 0.145151 0.257922 0.180486 0.156541 0.130352 0.114364 0.0773763 0.125113 0.155121 0.109381 0.1011 0.098301 0.0639695 0.0431311 0.0316496 0.145346 0.173323 0.16903 0.184635 0.269322 0.31695 0.459054 0.479509 0.353349 0.258665 0.229971 0.176704 0.154668 0.136771 0.127877 0.122114 0.0967471 0.0712696 0.0658032 0.0432577 0.0293392 0.101568 0.0737986 0.0920638 0.0725476 0.0545784 0.0388496 0.0283532 0.0238757 0.0118358 0.0218521 0.0528678 0.048778 0.0585733 0.0692295 0.0710504 0.063759 0.0666181 0.0757051 0.0569289 0.0659198 0.0691637 0.0798744 0.0639577 0.0705737 0.0619359 0.0634803 0.0480133 0.0475209 0.0267528 0.0437568 0.0466753 0.0435984 0.0425295 0.0345518 0.0326584 0.0336699 0.0339645 0.0318276 0.032851 0.0285867 0.0275779 0.0263729 0.0232763 0.0171289 0.0268703 0.0194993 0.0185111 0.0191925 0.0157068 0.000432135 0.00972549 0.0257515 0.0276841 0.0577849 0.0216519 0.0282415 0.00743332 0.0699931 0.0364694 0.0505008 0.0333801 0.02829 0.0178564 0.0103524 0.0152186 0.009428 0.0339787 0.0788652 0.0416379 0.0981904 0.0641948 0.114118 0.0951713 0.118487 0.107738 0.106847 0.105668 0.148754 0.154285 0.140256 0.156253 0.157551 0.15218 0.163468 0.107328 0.175897 0.181294 0.255368 0.19109 0.164268 0.100383 0.142996 0.0904448 0.0896752 0.0779793 0.109105 0.107818 0.0928767 0.0617422 0.0823918 0.0517944 0.0088847 0.0788568 0.0837591 0.0933242 0.150513 0.0793541 0.196314 0.22361 0.238865 0.313922 0.331142 0.300932 0.227212 0.235472 0.214487 0.170354 0.137885 0.113952 0.098926 0.111163 0.0867582 0.0920116 0.0715562 0.0637008 0.0438581 0.0430764 0.0275142 0.124604 0.0981825 0.11175 0.114947 0.0950589 0.0823374 0.105354 0.069188 0.0498279 0.04843 0.0579921 0.0449503 0.0518258 0.0343145 0.0352909 0.0530117 0.0674205 0.0638343 0.0859894 0.0809118 0.0812804 0.0807974 0.0742594 0.0812131 0.0742942 0.0876735 0.0689776 0.0809808 0.0622455 0.0784522 0.0575667 0.0597494 0.0544288 0.0701884 0.0430753 0.0463441 0.043134 0.0322975 0.0292352 0.0252723 0.0290171 0.0324224 0.0285635 0.0292446 0.021527 0.0227579 0.0166525 0.0225638 0.00751718 0.0177464 0.0134902 0.026156 0.00953828 0.0776162 0.151469 0.0225209 0.130157 0.0172462 0.00707362 0.0109179 0.0152895 0.0126149 0.0150346 0.0112166 0.016073 0.0131346 0.0186069 0.0110534 0.0322127 0.115537 0.0965751 0.0890368 0.131675 0.104909 0.114998 0.109635 0.0708097 0.100461 0.104205 0.207296 0.0707377 0.161551 0.0319575 0.13218 0.0261951 0.00613781 0.0231884 0.0214907 0.01688 0.0617527 0.0687104 0.0298018 0.052486 0.0596916 0.0863006 0.0387807 0.0940062 0.0638269 0.154007 0.0665087 0.128854 0.169606 0.200421 0.307483 0.277288 0.196172 0.16687 0.165587 0.131711 0.126833 0.109915 0.108584 0.0933298 0.0760261 0.0595407 0.024937 0.0455358 0.0282391 0.104139 0.0931265 0.106338 0.0976146 0.0777605 0.0674161 0.058606 0.0502323 0.0305728 0.0494869 0.0274094 0.0427675 0.0582292 0.0697836 0.0880486 0.0991423 0.0737357 0.0840669 0.0699406 0.0702772 0.0878416 0.0739449 0.0766335 0.0824292 0.0644606 0.0675525 0.0686338 0.0450748 0.0614887 0.0506236 0.0325832 0.0572847 0.0347822 0.0346601 0.0379839 0.0613713 0.0133961 0.0264227 0.0333891 0.0299558 0.0316743 0.023115 0.0118908 0.03131 0.0297664 0.11101 0.181331 0.135611 0.0793813 0.0227212 0.0339592 0.0164664 0.0167785 0.0145905 0.0139248 0.0106125 0.0189455 0.0395413 0.0689451 0.0551781 0.0732321 0.067639 0.0762903 0.0889079 0.0867909 0.0737839 0.0887203 0.0794805 0.0777238 0.0589058 0.0875949 0.117575 0.0655826 0.0511847 0.0613834 0.027807 0.026945 0.0172194 0.0237675 0.0253749 0.0394396 0.0453786 0.0454385 0.055839 0.0671438 0.0802315 0.0577961 0.0857082 0.0547598 0.0580541 0.0846891 0.175607 0.127642 0.31132 0.295158 0.173589 0.085001 0.149152 0.140762 0.122805 0.119024 0.115674 0.103942 0.101177 0.100031 0.0947804 0.0854251 0.0812332 0.0724531 0.0630609 0.052252 0.0351045 0.105082 0.102278 0.108434 0.107421 0.105702 0.0926277 0.104016 0.0836728 0.0724341 0.0744946 0.0597539 0.062027 0.0744472 0.0446099 0.0753159 0.0585088 0.0649005 0.0653948 0.0728179 0.0842681 0.142512 0.195246 0.0297987 0.0515421 0.0619866 0.0724443 0.0803523 0.0772618 0.0822121 0.0783585 0.0745945 0.0741589 0.0974578 0.0906233 0.0700712 0.0897661 0.0666452 0.0581354 0.0867999 0.0182761 0.0842934 0.0513271 0.117016 0.0923355 0.0337921 0.0354152 0.0310045 0.0519071 0.0631019 0.0399418 0.0523958 0.0197649 0.00733204 0.0328393 0.0230533 0.0195608 0.0128896 0.00839599 0.00878758 0.0178493 0.0282405 0.041313 0.0253857 0.0332527 0.0367273 0.0477557 0.058596 0.0421899 0.0598673 0.0403404 0.0535078 0.0300577 0.0643229 0.0700303 0.0512906 0.0687444 0.0529564 0.0678147 0.0640355 0.0429752 0.0648541 0.0755423 0.0649444 0.0406933 0.036013 0.00446624 0.0033303 0.00877793 0.0335395 0.0573006 0.0411053 0.0281884 0.057237 0.047484 0.0558713 0.0713157 0.0638392 0.0779386 0.0749937 0.0642269 0.0743823 0.0984394 0.125645 0.174631 0.177474 0.0391882 0.0987161 0.109303 0.108909 0.109974 0.115463 0.106898 0.114206 0.114241 0.0965433 0.0778682 0.0763877 0.068802 0.0378474 0.0484739 0.111001 0.105369 0.110935 0.112649 0.111237 0.0911854 0.0822299 0.082201 0.0920776 0.0825393 0.0851214 0.0850932 0.0828188 0.0687118 0.0889903 0.0602922 0.0757331 0.0920537 0.0815818 0.126806 0.112099 0.0483979 0.0758252 0.0645555 0.0803043 0.0834832 0.0797789 0.0835721 0.0843017 0.0874793 0.0989617 0.105119 0.0989998 0.0740278 0.085638 0.0778522 0.0887065 0.0576502 0.065088 0.0736187 0.0473366 0.064061 0.0541931 0.0396912 0.0107619 0.0123158 0.0127523 0.00590225 0.0102854 0.0116523 0.0185968 0.0151667 0.018671 0.0111049 0.0179056 0.00921288 0.00469788 0.0343771 0.0462913 0.0466439 0.0339769 0.0469555 0.0396336 0.0434614 0.0485473 0.0443557 0.038995 0.0446472 0.0373059 0.0502031 0.0520605 0.0654271 0.0513921 0.0530137 0.0614659 0.0485947 0.0371731 0.0343946 0.03689 0.0110063 0.0227882 0.0264354 0.0459469 0.0674951 0.0579958 0.0698315 0.0647289 0.0722192 0.0752811 0.0575213 0.0542752 0.117343 0.0835308 0.106874 0.0975399 0.0936705 0.109327 0.0912895 0.100905 0.0810622 0.0670684 0.0593506 0.0759342 0.0311678 0.0243671 0.113681 0.11339 0.111857 0.121663 0.106889 0.0975464 0.0945909 0.102871 0.102875 0.101235 0.0948652 0.100861 0.0963609 0.102209 0.11764 0.108465 0.11555 0.104781 0.0877143 0.098445 0.0882053 0.0961583 0.0924673 0.0956363 0.101536 0.095365 0.121241 0.0954854 0.0578926 0.039838 0.0595444 0.0517244 0.033765 0.0477732 0.0512993 0.0433494 0.0277946 0.0202561 0.0157512 0.0147519 0.0146836 0.0175394 0.0154191 0.0116974 0.00179552 0.00724675 0.0359623 0.0457057 0.0353597 0.0501193 0.0486029 0.0558171 0.0524046 0.0477896 0.0434885 0.042273 0.0361569 0.0549889 0.0474262 0.0403212 0.0221814 0.0357521 0.0810029 0.0608998 0.055597 0.0445573 0.0616388 0.0399258 0.0293252 0.0473721 0.03499 0.0264464 0.0647091 0.0655815 0.0671507 0.0700245 0.0469096 0.0284357 0.0516415 0.0782619 0.0755199 0.0776742 0.0543697 0.0572703 0.0725295 0.0597901 0.082604 0.0663089 0.0787353 0.0606806 0.0666379 0.0734298 0.0511128 0.073989 0.0808436 0.10545 0.044177 0.0411297 0.0257773 0.116702 0.129157 0.114134 0.12083 0.11084 0.107024 0.107496 0.104616 0.114086 0.115207 0.110979 0.108116 0.110876 0.105018 0.10574 0.104145 0.115547 0.121107 0.124073 0.121057 0.103772 0.128968 0.106173 0.094629 0.0932332 0.0889735 0.110565 0.0727085 0.146956 0.192405 0.0449468 0.0719262 0.0575951 0.0665364 0.0669051 0.0422566 0.0320092 0.0248411 0.0201998 0.0169638 0.0206158 0.0156916 0.0142586 0.00751362 0.0147264 0.0148809 0.0116838 0.0322834 0.0343335 0.0361163 0.0486707 0.0449907 0.0491405 0.0375364 0.0442364 0.0411361 0.0386608 0.0471804 0.0423269 0.0492474 0.0807442 0.0731731 0.0747497 0.0587333 0.0675843 0.0785175 0.0603426 0.0955031 0.0680483 0.127884 0.065508 0.0908809 0.0802478 0.0892436 0.0832819 0.040506 0.0502842 0.0696145 0.0920168 0.0777661 0.0623751 0.059691 0.0500872 0.0485277 0.0597732 0.0594313 0.0494767 0.057996 0.0534177 0.0721719 0.0674512 0.0656878 0.0493831 0.0294586 0.0236662 0.0233693 0.124443 0.137562 0.114685 0.146932 0.140505 0.078302 0.0856611 0.0918702 0.130898 0.127925 0.114259 0.124805 0.129836 0.114356 0.12189 0.136839 0.128088 0.13652 0.132007 0.137155 0.107951 0.12207 0.100116 0.0943724 0.118896 0.123646 0.0896819 0.110877 0.150612 0.152762 0.126501 0.172079 0.142158 0.124129 0.0370565 0.0475717 0.032569 0.029202 0.0396599 0.0254253 0.0251476 0.0219767 0.0249358 0.0180633 0.0111371 0.0148503 0.0146734 0.0399535 0.0443547 0.0411176 0.0295874 0.051139 0.0283884 0.0424063 0.0335908 0.0346051 0.0400014 0.0593433 0.0744378 0.102963 0.082938 0.0958299 0.0877349 0.116998 0.137452 0.0867445 0.0501157 0.062253 0.0483173 0.064928 0.0726258 0.090168 0.0858841 0.092141 0.0754747 0.0559516 0.0563738 0.0472015 0.0508555 0.0644268 0.0691988 0.0432848 0.0686691 0.0537005 0.0526201 0.0494647 0.0286402 0.0124318 0.0176565 0.119824 0.127259 0.129691 0.14554 0.0960421 0.116513 0.0978998 0.0988483 0.105346 0.119678 0.108663 0.11722 0.125303 0.112912 0.132689 0.118826 0.124496 0.121362 0.149017 0.143863 0.143188 0.143531 0.131696 0.134829 0.124467 0.132643 0.151346 0.122784 0.0868979 0.0977399 0.0899137 0.084301 0.103407 0.158247 0.0993101 0.159052 0.0657817 0.0523783 0.0454406 0.0471837 0.0402626 0.0437473 0.0422096 0.00833859 0.00813748 0.0143954 0.0162167 0.0501097 0.048242 0.0256617 0.0306566 0.0619892 0.113835 0.15494 0.0867551 0.0853218 0.0575715 0.184225 0.0971505 0.103017 0.0890539 0.0640226 0.0524243 0.083008 0.0861454 0.0505789 0.0523463 0.0276455 0.122342 0.147519 0.139408 0.12487 0.135606 0.0503829 0.00620573 0.00715843 0.00461367 0.0173515 0.0163462 
SCALARS Stress float 1
LOOKUP_TABLE default
-12591600000.0 -12618700000.0 -12562400000.0 -12563000000.0 -12558600000.0 -12572600000.0 -12549700000.0 -12580300000.0 -12579800000.0 -12553700000.0 -12559100000.0 -12549700000.0 -12554700000.0 -12549700000.0 -12549700000.0 -12556700000.0 -12549700000.0 -12549700000.0 -12550800000.0 -12549700000.0 -12550700000.0 -12553100000.0 -12565400000.0 -12572700000.0 -12563200000.0 -12558800000.0 -12555700000.0 -12552900000.0 -12550400000.0 -12549700000.0 -12549700000.0 -12549700000.0 -12553000000.0 -12557200000.0 -12559100000.0 -12572900000.0 -12565000000.0 -12559000000.0 -12552300000.0 -12549900000.0 -12557500000.0 -12557500000.0 -12550300000.0 -12562700000.0 -12550100000.0 -12550600000.0 -12559200000.0 -12587000000.0 -12582200000.0 -12574800000.0 -12583700000.0 -12554300000.0 -12561800000.0 -12554800000.0 -12585100000.0 -12586100000.0 -12551700000.0 -12551400000.0 -12552200000.0 -12558300000.0 -12557600000.0 -12583500000.0 -12561300000.0 -12557400000.0 -12602800000.0 -12571900000.0 -12559800000.0 -12558500000.0 -12556100000.0 -12555000000.0 -12575900000.0 -12569000000.0 -12596600000.0 -12566600000.0 -12665500000.0 -12634700000.0 -12652200000.0 -12642800000.0 -12632700000.0 -12631700000.0 -12613700000.0 -12562200000.0 -12556200000.0 -12549700000.0 -12557500000.0 -12575000000.0 -12578200000.0 -12563200000.0 -12556100000.0 -12554900000.0 -12568400000.0 -12576400000.0 -12651400000.0 -12635800000.0 -12634100000.0 -12582600000.0 -12603100000.0 -12550300000.0 -12573300000.0 -12554700000.0 -12745800000.0 -12676400000.0 -12723100000.0 -12762800000.0 -12855300000.0 -12903200000.0 -12824400000.0 -12598600000.0 -12580800000.0 -12581400000.0 -12549700000.0 -12567800000.0 -12550600000.0 -12549700000.0 -12576000000.0 -12549700000.0 -12549700000.0 -12555700000.0 -12549700000.0 -12562800000.0 -12549700000.0 -12607900000.0 -12549700000.0 -12549700000.0 -12549700000.0 -12552200000.0 -12550100000.0 -12549700000.0 -12550600000.0 -12554300000.0 -12567100000.0 -12572000000.0 -12600600000.0 -12600400000.0 -12641200000.0 -12631600000.0 -12581100000.0 -12570900000.0 -12558700000.0 -12576400000.0 -12591900000.0 -12582900000.0 -12580900000.0 -12557800000.0 -12573700000.0 -12635900000.0 -12559800000.0 -12585500000.0 -12604900000.0 -12596800000.0 -12580500000.0 -12577400000.0 -12554000000.0 -12602200000.0 -12588800000.0 -12690900000.0 -12549900000.0 -12549700000.0 -12569800000.0 -12568100000.0 -12640900000.0 -12572500000.0 -12549700000.0 -12654600000.0 -12576200000.0 -12549700000.0 -12549700000.0 -12561700000.0 -12584500000.0 -12563500000.0 -12551500000.0 -12639300000.0 -12675800000.0 -12703200000.0 -12676000000.0 -12762500000.0 -12561000000.0 -12576200000.0 -12564000000.0 -12827300000.0 -12551900000.0 -12616200000.0 -12608300000.0 -12580200000.0 -12583700000.0 -12651800000.0 -12666200000.0 -12549700000.0 -12572500000.0 -12552700000.0 -12607200000.0 -12841500000.0 -12655700000.0 -12639400000.0 -12636700000.0 -12714700000.0 -12743100000.0 -12702700000.0 -12712900000.0 -12600500000.0 -12549700000.0 -12947700000.0 -12836600000.0 -12840600000.0 -12846800000.0 -12728300000.0 -12559200000.0 -12833500000.0 -12646500000.0 -12694500000.0 -12639200000.0 -12643900000.0 -12624200000.0 -12560000000.0 -12604500000.0 -12549800000.0 -12550500000.0 -12562600000.0 -12549700000.0 -12589600000.0 -12549700000.0 -12625700000.0 -12551500000.0 -12559400000.0 -12549700000.0 -12564000000.0 -12563500000.0 -12566000000.0 -12572700000.0 -12584200000.0 -12612600000.0 -12610200000.0 -12677900000.0 -12656400000.0 -12722600000.0 -12580600000.0 -12688800000.0 -12662600000.0 -12630500000.0 -12672300000.0 -12550400000.0 -12554300000.0 -12635700000.0 -12549700000.0 -12587600000.0 -12674000000.0 -12563600000.0 -12555500000.0 -12552900000.0 -12707400000.0 -12643200000.0 -12573400000.0 -12565700000.0 -12647000000.0 -12905600000.0 -12659200000.0 -12635800000.0 -12616100000.0 -12697200000.0 -12708800000.0 -12959800000.0 -12849200000.0 -12861900000.0 -12860400000.0 -12645100000.0 -12698100000.0 -12734700000.0 -12743600000.0 -12694600000.0 -12732600000.0 -12673600000.0 -12685400000.0 -12593300000.0 -12767700000.0 -12744600000.0 -13112200000.0 -13323200000.0 -12636200000.0 -12596000000.0 -12625900000.0 -12585700000.0 -13188800000.0 -12929300000.0 -12886900000.0 -12710300000.0 -12715200000.0 -12700200000.0 -12912100000.0 -12744200000.0 -12701700000.0 -12633900000.0 -12859200000.0 -12557600000.0 -12598900000.0 -12568800000.0 -12658700000.0 -12581600000.0 -12753700000.0 -12729700000.0 -12726600000.0 -12723300000.0 -12549700000.0 -13045000000.0 -12576000000.0 -12703800000.0 -13007900000.0 -12682700000.0 -12809600000.0 -12904700000.0 -12589700000.0 -12686100000.0 -12549700000.0 -12578400000.0 -12654800000.0 -12607800000.0 -12613400000.0 -12632100000.0 -12592300000.0 -12607000000.0 -12590900000.0 -12671600000.0 -12615900000.0 -12684700000.0 -12589000000.0 -12576200000.0 -12567500000.0 -12549700000.0 -12551500000.0 -12556700000.0 -12561600000.0 -12553300000.0 -12584300000.0 -12639000000.0 -12670400000.0 -12613000000.0 -12856600000.0 -12810000000.0 -12731600000.0 -12862700000.0 -12822900000.0 -12834800000.0 -12933700000.0 -12934200000.0 -12784300000.0 -12725600000.0 -12686700000.0 -12869300000.0 -12593000000.0 -12560400000.0 -12606500000.0 -12733900000.0 -12557100000.0 -12699200000.0 -12601700000.0 -12840200000.0 -12798400000.0 -13240100000.0 -12661300000.0 -12616600000.0 -12689000000.0 -12612000000.0 -12930400000.0 -12549700000.0 -12549700000.0 -12729700000.0 -12549700000.0 -12920500000.0 -12914400000.0 -12813700000.0 -12785000000.0 -12702900000.0 -13096200000.0 -13055300000.0 -13018300000.0 -13207500000.0 -13073300000.0 -12656300000.0 -12989300000.0 -13492500000.0 -13414400000.0 -13346100000.0 -13516900000.0 -12568700000.0 -12558800000.0 -12878100000.0 -12890800000.0 -13000600000.0 -12820900000.0 -12985200000.0 -12738100000.0 -12669400000.0 -12617700000.0 -12937000000.0 -12680900000.0 -12847300000.0 -12983500000.0 -13020100000.0 -13207400000.0 -12684800000.0 -12572000000.0 -12565700000.0 -12668300000.0 -12565600000.0 -13379300000.0 -12608800000.0 -13124400000.0 -12868100000.0 -13303900000.0 -12685700000.0 -12754900000.0 -12636100000.0 -12879500000.0 -12732700000.0 -12769600000.0 -12580100000.0 -12574600000.0 -12752400000.0 -12690500000.0 -12592300000.0 -12653100000.0 -12577400000.0 -12585100000.0 -12553400000.0 -12642700000.0 -12551500000.0 -12656000000.0 -12704100000.0 -12621400000.0 -12588800000.0 -12597800000.0 -12578800000.0 -12553400000.0 -12606200000.0 -12575800000.0 -12770000000.0 -12705600000.0 -12630100000.0 -12579300000.0 -12903400000.0 -13131000000.0 -12991000000.0 -12588100000.0 -12746800000.0 -12612100000.0 -12601600000.0 -12613800000.0 -12828500000.0 -12595000000.0 -12693000000.0 -12875600000.0 -13220100000.0 -12682000000.0 -12618100000.0 -12811400000.0 -12587000000.0 -12820500000.0 -13105200000.0 -12613000000.0 -13417500000.0 -12806900000.0 -12628400000.0 -12842100000.0 -12597500000.0 -13099100000.0 -12549700000.0 -12556700000.0 -12578900000.0 -12830700000.0 -13407000000.0 -12588800000.0 -12562300000.0 -12958600000.0 -12927100000.0 -12576300000.0 -12643400000.0 -13199000000.0 -12917100000.0 -13166200000.0 -13229200000.0 -12616800000.0 -12889400000.0 -12923300000.0 -12916800000.0 -13471200000.0 -13180600000.0 -12568300000.0 -12551500000.0 -12941500000.0 -12565900000.0 -13426400000.0 -13503500000.0 -13570800000.0 -13410600000.0 -13059900000.0 -13136100000.0 -13006800000.0 -12585800000.0 -12664900000.0 -12558900000.0 -13173800000.0 -12904700000.0 -12802300000.0 -12840800000.0 -13221900000.0 -12565300000.0 -12595000000.0 -13393400000.0 -13010500000.0 -13019100000.0 -12971000000.0 -12891600000.0 -12734900000.0 -12818100000.0 -12581400000.0 -12574000000.0 -12752300000.0 -12987900000.0 -12990800000.0 -12964500000.0 -12958200000.0 -12932000000.0 -12881900000.0 -13096900000.0 -12990300000.0 -12975800000.0 -13041300000.0 -13106200000.0 -12878700000.0 -12888300000.0 -12785000000.0 -12851300000.0 -12550300000.0 -12584100000.0 -12634000000.0 -12556400000.0 -13316500000.0 -12616300000.0 -12582200000.0 -12669100000.0 -12784900000.0 -12747500000.0 -12552600000.0 -12579700000.0 -12553000000.0 -12882300000.0 -12820700000.0 -12603600000.0 -12709000000.0 -13102500000.0 -13176900000.0 -13159800000.0 -13211900000.0 -13615200000.0 -12991900000.0 -13633900000.0 -12873300000.0 -12992300000.0 -13379700000.0 -13051800000.0 -12624400000.0 -12869800000.0 -13025100000.0 -13162800000.0 -13284900000.0 -14222800000.0 -13282500000.0 -13345100000.0 -13137600000.0 -12828900000.0 -12829100000.0 -13038400000.0 -12743300000.0 -13119500000.0 -13151800000.0 -12794100000.0 -13372600000.0 -12672700000.0 -13001600000.0 -12895200000.0 -12830700000.0 -12644500000.0 -13186200000.0 -13191300000.0 -13018700000.0 -14053500000.0 -13595700000.0 -12744400000.0 -12760500000.0 -13239100000.0 -12914600000.0 -12831100000.0 -12880300000.0 -12549700000.0 -12783600000.0 -12683100000.0 -12639500000.0 -13394000000.0 -12994600000.0 -12935600000.0 -12966000000.0 -13878300000.0 -14745200000.0 -13210700000.0 -13021300000.0 -14051600000.0 -13428100000.0 -13037600000.0 -12935100000.0 -13032200000.0 -12698600000.0 -12627200000.0 -12761500000.0 -12612900000.0 -12604600000.0 -13052500000.0 -12695300000.0 -12550600000.0 -12557000000.0 -12729300000.0 -12713100000.0 -12817800000.0 -12653300000.0 -12593700000.0 -12689900000.0 -12552200000.0 -12564600000.0 -12815900000.0 -12835400000.0 -12906500000.0 -12885800000.0 -13103800000.0 -13029800000.0 -12762000000.0 -12820600000.0 -12989100000.0 -12698000000.0 -12627500000.0 -12636500000.0 -12691400000.0 -12568800000.0 -12787800000.0 -12667700000.0 -12676400000.0 -12977500000.0 -12969700000.0 -12777600000.0 -12850300000.0 -12856800000.0 -12599600000.0 -12885300000.0 -12586600000.0 -12949400000.0 -13188400000.0 -13002300000.0 -13727000000.0 -13039100000.0 -12776400000.0 -13186200000.0 -12860400000.0 -12896300000.0 -12922400000.0 -12813700000.0 -12549700000.0 -12559800000.0 -12688900000.0 -13863600000.0 -12847600000.0 -12815500000.0 -13674600000.0 -13778100000.0 -13774300000.0 -14059500000.0 -13728100000.0 -13580700000.0 -13523000000.0 -13879500000.0 -14289400000.0 -14063500000.0 -14222100000.0 -14442900000.0 -13979700000.0 -14534900000.0 -13519500000.0 -13387100000.0 -13385500000.0 -14173500000.0 -12840500000.0 -12846600000.0 -13019100000.0 -12988500000.0 -12939700000.0 -12901900000.0 -13048300000.0 -12640100000.0 -12928700000.0 -12549700000.0 -13361900000.0 -12586000000.0 -12585300000.0 -12560000000.0 -12841800000.0 -12549700000.0 -14592400000.0 -14620600000.0 -14520700000.0 -13691800000.0 -13638900000.0 -13449500000.0 -13624300000.0 -13341700000.0 -13523500000.0 -13672700000.0 -13184200000.0 -13242600000.0 -13180800000.0 -13063300000.0 -13031300000.0 -12932500000.0 -12786800000.0 -12628400000.0 -12626800000.0 -12907600000.0 -12627900000.0 -12730000000.0 -12779200000.0 -12760000000.0 -12803400000.0 -12551600000.0 -12663800000.0 -12577900000.0 -12715500000.0 -12612400000.0 -12956500000.0 -12857400000.0 -13159000000.0 -12675100000.0 -12649800000.0 -12682000000.0 -12792300000.0 -12685300000.0 -12738200000.0 -12612000000.0 -12837200000.0 -12641600000.0 -12712600000.0 -12673100000.0 -12680600000.0 -12603800000.0 -12669400000.0 -12797200000.0 -12899800000.0 -13589900000.0 -13850300000.0 -13630000000.0 -14261300000.0 -13822400000.0 -12939400000.0 -12881600000.0 -12633600000.0 -12796100000.0 -12626700000.0 -12549700000.0 -12724100000.0 -12664600000.0 -14307300000.0 -12770200000.0 -12879800000.0 -13014400000.0 -12549700000.0 -13072500000.0 -12879900000.0 -12559800000.0 -13218400000.0 -12878400000.0 -13028500000.0 -13451200000.0 -13915000000.0 -13136600000.0 -12912500000.0 -13519000000.0 -13008300000.0 -13604900000.0 -14894800000.0 -12573400000.0 -12593500000.0 -13015500000.0 -13496300000.0 -12887300000.0 -12826800000.0 -13305000000.0 -12994700000.0 -12856000000.0 -13108600000.0 -13519400000.0 -12551000000.0 -12606100000.0 -12554000000.0 -12936600000.0 -12549700000.0 -12549700000.0 -14135600000.0 -14188100000.0 -13019600000.0 -12811600000.0 -12638600000.0 -12623100000.0 -12690400000.0 -13572100000.0 -12549700000.0 -13001900000.0 -12972100000.0 -12973500000.0 -12914000000.0 -12576500000.0 -12596100000.0 -12676500000.0 -12627200000.0 -12759300000.0 -12778600000.0 -12902600000.0 -12564100000.0 -12832500000.0 -12777500000.0 -12594400000.0 -12678300000.0 -12680800000.0 -12906400000.0 -12889000000.0 -12854600000.0 -12858200000.0 -12992000000.0 -13217400000.0 -12921000000.0 -13052400000.0 -13200900000.0 -12903700000.0 -12950000000.0 -13256400000.0 -13435600000.0 -13380800000.0 -13258000000.0 -13145500000.0 -13293100000.0 -13283200000.0 -13411100000.0 -13465500000.0 -13211100000.0 -13429500000.0 -13989200000.0 -12549700000.0 -13239300000.0 -13248100000.0 -13945100000.0 -12650700000.0 -13710800000.0 -13642100000.0 -12584700000.0 -13686400000.0 -13425700000.0 -13255900000.0 -13289800000.0 -13560700000.0 -13467400000.0 -12571900000.0 -12692600000.0 -12778900000.0 -12891400000.0 -12556100000.0 -13214800000.0 -13040800000.0 -13484600000.0 -12786500000.0 -13319200000.0 -13093300000.0 -12741600000.0 -12549700000.0 -13108900000.0 -13554500000.0 -13334900000.0 -12819300000.0 -13089500000.0 -13468300000.0 -12982000000.0 -13147800000.0 -15143900000.0 -12549700000.0 -13411500000.0 -13485500000.0 -12554900000.0 -12592600000.0 -13489100000.0 -12907200000.0 -12559700000.0 -13373200000.0 -12914000000.0 -12713300000.0 -13067100000.0 -12630900000.0 -13105600000.0 -13773600000.0 -12857300000.0 -12562800000.0 -13882400000.0 -13330000000.0 -12608800000.0 -12584500000.0 -12734300000.0 -13587700000.0 -12893000000.0 -12809000000.0 -12558400000.0 -12553900000.0 -12649900000.0 -12754000000.0 -12596400000.0 -12566300000.0 -12549700000.0 -12779600000.0 -12841700000.0 -12879900000.0 -12774900000.0 -12561500000.0 -12764400000.0 -12651900000.0 -12820000000.0 -12793400000.0 -12551200000.0 -12586200000.0 -12635000000.0 -12622900000.0 -12549900000.0 -12947200000.0 -13029300000.0 -12550000000.0 -13021200000.0 -12585800000.0 -12977700000.0 -12549700000.0 -12550100000.0 -12842200000.0 -12555900000.0 -13028800000.0 -12549700000.0 -12550900000.0 -12590200000.0 -12987400000.0 -13001300000.0 -13199200000.0 -13835300000.0 -12549700000.0 -13206600000.0 -13246700000.0 -12591500000.0 -13848600000.0 -13198200000.0 -13169600000.0 -14039200000.0 -12804000000.0 -12619600000.0 -12866800000.0 -12632400000.0 -13031200000.0 -12595200000.0 -13550300000.0 -12731700000.0 -13141900000.0 -12821200000.0 -13161900000.0 -13653300000.0 -13437700000.0 -14681900000.0 -14185300000.0 -14150500000.0 -14064800000.0 -13967800000.0 -14318100000.0 -14260100000.0 -14209300000.0 -14544900000.0 -14620500000.0 -15371700000.0 -13343100000.0 -13089500000.0 -15620000000.0 -16110800000.0 -14498300000.0 -13997000000.0 -13691400000.0 -13049400000.0 -13057400000.0 -13465300000.0 -12882100000.0 -12846500000.0 -12778700000.0 -13350000000.0 -12552100000.0 -13033800000.0 -13194000000.0 -12666400000.0 -12673800000.0 -12820100000.0 -12926400000.0 -12675400000.0 -12636900000.0 -14082500000.0 -13451100000.0 -12561200000.0 -12749400000.0 -12801100000.0 -13498000000.0 -12549700000.0 -12835900000.0 -12611700000.0 -12636000000.0 -12586800000.0 -12559200000.0 -12846200000.0 -12815100000.0 -12675900000.0 -12672400000.0 -12807100000.0 -12634200000.0 -13092800000.0 -12724000000.0 -12619300000.0 -12813900000.0 -12721600000.0 -12641800000.0 -12748500000.0 -12553600000.0 -12652300000.0 -12559200000.0 -12579500000.0 -12550900000.0 -13163100000.0 -12556600000.0 -12856800000.0 -12806300000.0 -13007600000.0 -13122100000.0 -12555800000.0 -12564400000.0 -12852100000.0 -12841100000.0 -13268200000.0 -12599500000.0 -12613100000.0 -12759500000.0 -12904700000.0 -13036900000.0 -12804700000.0 -14105400000.0 -12819900000.0 -13699800000.0 -13687600000.0 -12690000000.0 -15422600000.0 -14442900000.0 -14648500000.0 -14352000000.0 -13575700000.0 -13118600000.0 -13209200000.0 -13160900000.0 -13156800000.0 -13092200000.0 -14202700000.0 -13796700000.0 -12771000000.0 -13024800000.0 -13178500000.0 -12693100000.0 -12549700000.0 -13928000000.0 -13184200000.0 -12944900000.0 -13015800000.0 -12636100000.0 -13514900000.0 -13321600000.0 -12724800000.0 -13705000000.0 -12707000000.0 -12578400000.0 -14415600000.0 -14208700000.0 -14224900000.0 -13906400000.0 -12549700000.0 -13646000000.0 -12549700000.0 -14008400000.0 -12653900000.0 -13259000000.0 -12581500000.0 -12559300000.0 -13300400000.0 -12656200000.0 -12891500000.0 -12661800000.0 -13356000000.0 -12608600000.0 -12996700000.0 -12856400000.0 -12975200000.0 -13812800000.0 -13379000000.0 -13317200000.0 -13531200000.0 -13701700000.0 -12965900000.0 -13066000000.0 -13042000000.0 -13204500000.0 -13044900000.0 -13012000000.0 -13060100000.0 -12696900000.0 -12743600000.0 -12929200000.0 -12572700000.0 -13249000000.0 -12843000000.0 -12871100000.0 -13043800000.0 -12918100000.0 -12949100000.0 -12942000000.0 -12952500000.0 -12649500000.0 -12549700000.0 -12672500000.0 -12648100000.0 -12575300000.0 -13244800000.0 -12582300000.0 -12700500000.0 -12699000000.0 -13073200000.0 -13131000000.0 -12834100000.0 -12977600000.0 -12719700000.0 -12575900000.0 -13236300000.0 -12549700000.0 -12554200000.0 -12729100000.0 -13197700000.0 -12749400000.0 -13169200000.0 -12922600000.0 -13887600000.0 -12549700000.0 -12549700000.0 -13813000000.0 -13962400000.0 -14575500000.0 -13821900000.0 -12653200000.0 -13872900000.0 -13620600000.0 -13368300000.0 -13446300000.0 -12684500000.0 -12894200000.0 -12839500000.0 -12717800000.0 -13350100000.0 -12549700000.0 -13789000000.0 -14257200000.0 -13875000000.0 -14010800000.0 -13886700000.0 -14664300000.0 -15151100000.0 -13232700000.0 -13337600000.0 -13508700000.0 -12620200000.0 -14389000000.0 -12854400000.0 -13022200000.0 -13557200000.0 -12845900000.0 -12947500000.0 -12862800000.0 -12650600000.0 -14819000000.0 -12930700000.0 -14698200000.0 -13698200000.0 -14254900000.0 -14570700000.0 -15562800000.0 -15784600000.0 -15379600000.0 -15183200000.0 -15574600000.0 -15419000000.0 -15607300000.0 -15442100000.0 -14429300000.0 -13619600000.0 -14536200000.0 -14404500000.0 -14642000000.0 -15392200000.0 -13720000000.0 -12558100000.0 -12848400000.0 -13024100000.0 -12786000000.0 -12736400000.0 -12712700000.0 -12759500000.0 -12600400000.0 -12599500000.0 -12623400000.0 -13038400000.0 -12895200000.0 -12850200000.0 -12869700000.0 -13125400000.0 -13584500000.0 -12628400000.0 -12750800000.0 -12818000000.0 -12549700000.0 -12690900000.0 -12599700000.0 -13205500000.0 -13202800000.0 -13191600000.0 -13378000000.0 -13005200000.0 -13053800000.0 -13005300000.0 -13108800000.0 -13289800000.0 -12906600000.0 -12648000000.0 -12792000000.0 -12780300000.0 -12831100000.0 -13043900000.0 -13361000000.0 -13225400000.0 -13913500000.0 -12941400000.0 -13144400000.0 -13958100000.0 -12549700000.0 -15347800000.0 -15391700000.0 -14374700000.0 -13623300000.0 -15143300000.0 -14000900000.0 -12811500000.0 -12753700000.0 -12841700000.0 -13596600000.0 -13921900000.0 -13439700000.0 -13363800000.0 -14678000000.0 -12811500000.0 -12564400000.0 -12760700000.0 -13667500000.0 -12915900000.0 -13663700000.0 -12556100000.0 -12550500000.0 -13434600000.0 -13884700000.0 -15454900000.0 -13847100000.0 -12816900000.0 -13288500000.0 -12741000000.0 -12946500000.0 -12763500000.0 -12749600000.0 -15023500000.0 -13477600000.0 -14172400000.0 -12738700000.0 -12644300000.0 -13200300000.0 -12582700000.0 -12834600000.0 -13066400000.0 -12905300000.0 -12698100000.0 -13108200000.0 -13608600000.0 -13647300000.0 -13280700000.0 -13424500000.0 -13274700000.0 -12753500000.0 -12556800000.0 -12558000000.0 -12589600000.0 -12549700000.0 -14298600000.0 -14073400000.0 -12579300000.0 -12790800000.0 -12827100000.0 -12829600000.0 -12617500000.0 -12710600000.0 -12583000000.0 -12564200000.0 -12784800000.0 -12624900000.0 -12642600000.0 -12629100000.0 -12700200000.0 -12765600000.0 -12549700000.0 -13277300000.0 -13123200000.0 -12987300000.0 -13197900000.0 -13087000000.0 -13050500000.0 -13141700000.0 -12754100000.0 -12809100000.0 -12588700000.0 -12739100000.0 -13235300000.0 -12884200000.0 -12685400000.0 -12575200000.0 -12558200000.0 -13277700000.0 -12635900000.0 -12560100000.0 -12569400000.0 -12694300000.0 -12586700000.0 -13571900000.0 -12549700000.0 -12885000000.0 -12878500000.0 -13938100000.0 -12753200000.0 -12733200000.0 -12712000000.0 -14154600000.0 -14560500000.0 -15710100000.0 -12582800000.0 -12591500000.0 -14400700000.0 -13225300000.0 -13188100000.0 -12586000000.0 -13002700000.0 -12628500000.0 -12700700000.0 -12957100000.0 -12633400000.0 -12720700000.0 -12885500000.0 -14481800000.0 -12871400000.0 -13394300000.0 -14205400000.0 -13378600000.0 -13678900000.0 -12696100000.0 -14500400000.0 -14003600000.0 -13309000000.0 -13501400000.0 -13617000000.0 -13510200000.0 -13278600000.0 -14036200000.0 -13030300000.0 -12565000000.0 -13062100000.0 -12618400000.0 -13382400000.0 -13882400000.0 -13180700000.0 -14260800000.0 -14176200000.0 -13701900000.0 -13582200000.0 -12997000000.0 -12596500000.0 -13774400000.0 -13057700000.0 -12794600000.0 -13487300000.0 -12738300000.0 -12578500000.0 -12558500000.0 -12585200000.0 -12559400000.0 -12851800000.0 -14399200000.0 -13721200000.0 -13708100000.0 -12937900000.0 -12862600000.0 -12728100000.0 -12713000000.0 -13093200000.0 -12905200000.0 -12678300000.0 -12660000000.0 -12809500000.0 -12569300000.0 -12597300000.0 -12554000000.0 -12632400000.0 -12705900000.0 -12620400000.0 -13104400000.0 -12604500000.0 -12578100000.0 -12672200000.0 -12556800000.0 -12674300000.0 -12552900000.0 -12908700000.0 -12738000000.0 -12908100000.0 -13355100000.0 -13815200000.0 -12837400000.0 -12584200000.0 -13203200000.0 -12765800000.0 -12906000000.0 -12766000000.0 -12624800000.0 -12571500000.0 -12692700000.0 -13689400000.0 -12652500000.0 -12840900000.0 -12561700000.0 -13719000000.0 -13712900000.0 -14919700000.0 -14498700000.0 -14506800000.0 -14878200000.0 -14791300000.0 -15492100000.0 -12642600000.0 -12559800000.0 -15840100000.0 -14073500000.0 -12621900000.0 -12582900000.0 -13603800000.0 -12719400000.0 -12651800000.0 -12821100000.0 -12787600000.0 -13109400000.0 -14877100000.0 -13657800000.0 -14952800000.0 -13303700000.0 -13118600000.0 -13059500000.0 -14134600000.0 -12693400000.0 -12638100000.0 -12951400000.0 -12554300000.0 -13668600000.0 -12568700000.0 -13205500000.0 -13997900000.0 -12854900000.0 -12891900000.0 -13179000000.0 -13575500000.0 -13388500000.0 -14422300000.0 -13807800000.0 -13214600000.0 -13920400000.0 -12887200000.0 -13420700000.0 -14006800000.0 -14151400000.0 -14325700000.0 -13347900000.0 -13436100000.0 -13501000000.0 -13266000000.0 -13457800000.0 -12701900000.0 -12588000000.0 -12614400000.0 -12617200000.0 -12625700000.0 -12795600000.0 -13878300000.0 -13574100000.0 -12799400000.0 -13013300000.0 -12882800000.0 -12755700000.0 -12830500000.0 -12913400000.0 -12841600000.0 -12860500000.0 -12884700000.0 -12886500000.0 -12737800000.0 -12711000000.0 -13189300000.0 -12760900000.0 -12578200000.0 -12552200000.0 -12694100000.0 -12559500000.0 -12649000000.0 -12549700000.0 -12824500000.0 -12811300000.0 -12738100000.0 -12696200000.0 -13149100000.0 -13076800000.0 -12853500000.0 -13104600000.0 -13270500000.0 -12710300000.0 -12778900000.0 -12749100000.0 -12707000000.0 -12602500000.0 -14000000000.0 -12980600000.0 -12591700000.0 -13208500000.0 -12574400000.0 -13509900000.0 -13238200000.0 -12727200000.0 -12942300000.0 -16279800000.0 -12921700000.0 -18999100000.0 -16059500000.0 -13947300000.0 -12555700000.0 -12551800000.0 -14015900000.0 -14603300000.0 -15525400000.0 -12587900000.0 -12685200000.0 -12800200000.0 -12993300000.0 -13440000000.0 -12600000000.0 -15298400000.0 -14941900000.0 -12549700000.0 -12623400000.0 -13465500000.0 -12558900000.0 -12937200000.0 -12977100000.0 -13181900000.0 -14131200000.0 -12663200000.0 -12641600000.0 -12962800000.0 -13117400000.0 -13744100000.0 -13425500000.0 -12946900000.0 -12758900000.0 -13876800000.0 -13298400000.0 -13172400000.0 -13741800000.0 -13068400000.0 -13280500000.0 -13914700000.0 -13412300000.0 -13774600000.0 -12565700000.0 -12557700000.0 -12733000000.0 -13261200000.0 -12549700000.0 -12948800000.0 -12833900000.0 -12998100000.0 -13162400000.0 -12673900000.0 -13241200000.0 -12670100000.0 -12583700000.0 -12628100000.0 -12558500000.0 -12570100000.0 -12700800000.0 -13084300000.0 -13371900000.0 -12551900000.0 -12549700000.0 -12985400000.0 -12723000000.0 -12640800000.0 -12718000000.0 -12589500000.0 -12679600000.0 -12600800000.0 -12611800000.0 -12641300000.0 -12569600000.0 -12549700000.0 -12952400000.0 -12926500000.0 -12916600000.0 -12958800000.0 -13041300000.0 -13108200000.0 -12639900000.0 -12646400000.0 -12636800000.0 -12748700000.0 -13017200000.0 -12826000000.0 -13325200000.0 -13065600000.0 -12920200000.0 -12704300000.0 -12992400000.0 -12549700000.0 -13138300000.0 -14406900000.0 -13419300000.0 -13394500000.0 -13687700000.0 -13748800000.0 -13568000000.0 -13422200000.0 -13319300000.0 -14029300000.0 -14720700000.0 -13954100000.0 -15480400000.0 -13227700000.0 -14025900000.0 -13072200000.0 -15583900000.0 -13916100000.0 -13338800000.0 -13147200000.0 -13243800000.0 -13555000000.0 -13202700000.0 -12957000000.0 -13766700000.0 -12930200000.0 -12853100000.0 -13630500000.0 -13365000000.0 -12549700000.0 -12553700000.0 -13176000000.0 -12948000000.0 -13733300000.0 -13290300000.0 -13054300000.0 -13630100000.0 -12583600000.0 -12552300000.0 -13879300000.0 -13053600000.0 -13267700000.0 -13393900000.0 -13957700000.0 -13829900000.0 -14022900000.0 -12549700000.0 -12697600000.0 -13279800000.0 -12618800000.0 -13144400000.0 -12637900000.0 -12583900000.0 -12614700000.0 -12602200000.0 -12599500000.0 -12618300000.0 -12655200000.0 -13193300000.0 -12566200000.0 -13077000000.0 -13237400000.0 -12789900000.0 -12777500000.0 -12655300000.0 -12629700000.0 -12694100000.0 -12618300000.0 -12722100000.0 -12646000000.0 -12784900000.0 -12735300000.0 -12732200000.0 -12784400000.0 -12796800000.0 -12611500000.0 -12585300000.0 -12550300000.0 -12562400000.0 -12616300000.0 -12611400000.0 -13072800000.0 -13020900000.0 -12919700000.0 -13046600000.0 -13433000000.0 -12549700000.0 -13082700000.0 -13263000000.0 -12892700000.0 -12717600000.0 -12700700000.0 -13466200000.0 -13488900000.0 -12549700000.0 -12922300000.0 -14608000000.0 -13096900000.0 -12573900000.0 -12967000000.0 -12835200000.0 -12553900000.0 -13857700000.0 -13750800000.0 -14057200000.0 -13450800000.0 -20369200000.0 -12584800000.0 -14648800000.0 -13914100000.0 -15349900000.0 -17493400000.0 -15883400000.0 -15499400000.0 -14504000000.0 -13934100000.0 -14475600000.0 -15782600000.0 -12565100000.0 -14006100000.0 -12673300000.0 -12681600000.0 -12549700000.0 -13924900000.0 -12960000000.0 -12634900000.0 -13259100000.0 -12928900000.0 -13061700000.0 -13282400000.0 -13401300000.0 -12830300000.0 -12596500000.0 -12549700000.0 -12554300000.0 -12563800000.0 -12868700000.0 -13268800000.0 -13032600000.0 -12813700000.0 -13380200000.0 -12936900000.0 -13347000000.0 -12778200000.0 -12713800000.0 -12572400000.0 -12922100000.0 -12793400000.0 -12850200000.0 -12568900000.0 -13842200000.0 -14021600000.0 -13935900000.0 -14124200000.0 -14543300000.0 -13410100000.0 -12594800000.0 -12549700000.0 -12602900000.0 -12562400000.0 -12559300000.0 -12571800000.0 -12634900000.0 -12888700000.0 -12769900000.0 -12987600000.0 -12577600000.0 -12980900000.0 -12798400000.0 -12574400000.0 -12574700000.0 -12623000000.0 -12619000000.0 -12568500000.0 -12724600000.0 -12585100000.0 -12565800000.0 -12582700000.0 -12581100000.0 -12611100000.0 -12653000000.0 -12560200000.0 -12552700000.0 -12553600000.0 -12549700000.0 -12553500000.0 -12787800000.0 -12816800000.0 -12555900000.0 -12576100000.0 -13088400000.0 -12952400000.0 -13486400000.0 -13673100000.0 -12980200000.0 -12783900000.0 -13958900000.0 -13310700000.0 -12868600000.0 -13904200000.0 -14329500000.0 -14245300000.0 -14009700000.0 -12554400000.0 -13330300000.0 -12865300000.0 -12868900000.0 -12953800000.0 -14648700000.0 -15226900000.0 -17686800000.0 -15886000000.0 -16207400000.0 -16839800000.0 -12727000000.0 -13744200000.0 -14841800000.0 -13841700000.0 -13551300000.0 -14665400000.0 -15724700000.0 -13708800000.0 -14203500000.0 -14575700000.0 -12980700000.0 -12827600000.0 -13863800000.0 -12678900000.0 -12723100000.0 -12734100000.0 -12836100000.0 -12908700000.0 -12908000000.0 -12550400000.0 -12549700000.0 -12651900000.0 -12848700000.0 -12666200000.0 -12672300000.0 -13134600000.0 -12909600000.0 -12581400000.0 -13312100000.0 -12677100000.0 -13130700000.0 -12549700000.0 -13142600000.0 -13006800000.0 -12786200000.0 -12939200000.0 -12776200000.0 -12656300000.0 -12905200000.0 -12921000000.0 -13052000000.0 -13580900000.0 -13065400000.0 -13093700000.0 -13367900000.0 -13177500000.0 -12582900000.0 -12607900000.0 -12549700000.0 -12708700000.0 -12563400000.0 -12558900000.0 -12603900000.0 -12559100000.0 -12652400000.0 -12920400000.0 -12549700000.0 -12685100000.0 -12727500000.0 -12603100000.0 -12559200000.0 -12584800000.0 -12551100000.0 -12617600000.0 -12674200000.0 -12732600000.0 -12565400000.0 -12560700000.0 -12551300000.0 -12559400000.0 -12581100000.0 -12549900000.0 -12595700000.0 -12552700000.0 -12550900000.0 -12558100000.0 -12558900000.0 -12652500000.0 -12644900000.0 -12989500000.0 -12980400000.0 -12563400000.0 -13512500000.0 -12771700000.0 -12673700000.0 -12731700000.0 -14378300000.0 -14004400000.0 -12931500000.0 -13815900000.0 -14087900000.0 -15914200000.0 -12551100000.0 -14735700000.0 -13494500000.0 -13699400000.0 -13115300000.0 -15494100000.0 -12651200000.0 -12618200000.0 -14032400000.0 -16477100000.0 -15778800000.0 -16063600000.0 -16287200000.0 -14560700000.0 -14238300000.0 -14970800000.0 -13165700000.0 -13222800000.0 -12549700000.0 -16188300000.0 -12584500000.0 -14214300000.0 -13792600000.0 -12635000000.0 -12683800000.0 -12598900000.0 -12705400000.0 -12830200000.0 -12769800000.0 -12848100000.0 -12904500000.0 -12864400000.0 -12821500000.0 -12796400000.0 -12555100000.0 -12631900000.0 -12711100000.0 -12630300000.0 -12977900000.0 -12814200000.0 -12798300000.0 -12662200000.0 -12844300000.0 -12744600000.0 -13072400000.0 -12744400000.0 -12648700000.0 -12716800000.0 -12789100000.0 -12773100000.0 -12769800000.0 -12861800000.0 -12740100000.0 -13101800000.0 -12552200000.0 -12550400000.0 -13725100000.0 -12860200000.0 -12698700000.0 -12549700000.0 -12697700000.0 -12696800000.0 -12662700000.0 -12666600000.0 -12664200000.0 -12571300000.0 -12826000000.0 -12578900000.0 -12857900000.0 -12816900000.0 -12691200000.0 -12701700000.0 -12703400000.0 -12638400000.0 -12664600000.0 -12551200000.0 -12604200000.0 -12549700000.0 -12560800000.0 -12551000000.0 -12580200000.0 -12562200000.0 -12640300000.0 -12560900000.0 -12584700000.0 -12559800000.0 -12551200000.0 -12685800000.0 -12596700000.0 -12580100000.0 -12894900000.0 -12553300000.0 -12867400000.0 -13562400000.0 -13310700000.0 -13526100000.0 -14123600000.0 -14143100000.0 -12606500000.0 -13021100000.0 -12909600000.0 -13977200000.0 -12800700000.0 -14702700000.0 -15077900000.0 -13648000000.0 -15033900000.0 -13323100000.0 -13223200000.0 -17133300000.0 -20555700000.0 -12837300000.0 -12779000000.0 -12572500000.0 -16092300000.0 -13181700000.0 -15565700000.0 -12695000000.0 -14129100000.0 -12549700000.0 -15282800000.0 -13220900000.0 -12768700000.0 -13109000000.0 -13910600000.0 -12936000000.0 -12962900000.0 -12832300000.0 -12773500000.0 -12926200000.0 -12672300000.0 -12553700000.0 -12839700000.0 -12908000000.0 -12603500000.0 -12581000000.0 -12741700000.0 -12595600000.0 -12655300000.0 -12675000000.0 -12549700000.0 -12788800000.0 -12987400000.0 -12549700000.0 -12646200000.0 -12716500000.0 -12563300000.0 -12555000000.0 -12551100000.0 -12643900000.0 -12590100000.0 -12781500000.0 -12986000000.0 -13013900000.0 -12646600000.0 -12900300000.0 -13476100000.0 -12836400000.0 -12759900000.0 -12607500000.0 -12550000000.0 -12585500000.0 -12573500000.0 -12564200000.0 -12580300000.0 -12576000000.0 -12566600000.0 -12648800000.0 -12630800000.0 -12577100000.0 -12588700000.0 -12594300000.0 -12606200000.0 -12640300000.0 -12666800000.0 -12643800000.0 -12601400000.0 -12617200000.0 -12630300000.0 -12663000000.0 -12655500000.0 -12626700000.0 -12659200000.0 -12620600000.0 -12705600000.0 -12800100000.0 -12739300000.0 -12891600000.0 -12822100000.0 -13252300000.0 -13068400000.0 -13077100000.0 -13405400000.0 -12647600000.0 -12922200000.0 -12578200000.0 -13747100000.0 -13655600000.0 -13051200000.0 -13944000000.0 -12652200000.0 -12836100000.0 -14975800000.0 -13279000000.0 -14308000000.0 -12893400000.0 -15838700000.0 -16143500000.0 -12549700000.0 -14334000000.0 -13651100000.0 -12552400000.0 -17587900000.0 -12860700000.0 -18421300000.0 -12629000000.0 -12655100000.0 -12628000000.0 -15826200000.0 -13937800000.0 -15193900000.0 -14278800000.0 -13636200000.0 -14182500000.0 -14403300000.0 -14255300000.0 -13255300000.0 -13063800000.0 -13080800000.0 -13130700000.0 -13325600000.0 -13307300000.0 -12954000000.0 -12584800000.0 -12570000000.0 -12836600000.0 -12709600000.0 -12690500000.0 -12557800000.0 -12958500000.0 -12664500000.0 -12652200000.0 -12753000000.0 -12790300000.0 -13210200000.0 -12671500000.0 -12977000000.0 -12865500000.0 -12786400000.0 -12794100000.0 -12550400000.0 -12616400000.0 -12695400000.0 -12554200000.0 -12646800000.0 -13181600000.0 -12666100000.0 -12730600000.0 -12584600000.0 -12556700000.0 -12574200000.0 -12549700000.0 -12549700000.0 -12551300000.0 -12567500000.0 -12559100000.0 -12551500000.0 -12549700000.0 -12572500000.0 -12584900000.0 -12550800000.0 -12549700000.0 -12549700000.0 -12550600000.0 -12549700000.0 -12581600000.0 -12638600000.0 -12631300000.0 -12627600000.0 -12611700000.0 -12603000000.0 -12646900000.0 -13185400000.0 -12651100000.0 -12776200000.0 -12720600000.0 -13287600000.0 -12952500000.0 -12875400000.0 -13093800000.0 -12559600000.0 -13828700000.0 -13360200000.0 -12556100000.0 -13527700000.0 -13949900000.0 -14736300000.0 -15425200000.0 -12587300000.0 -12947500000.0 -18409000000.0 -14757800000.0 -13167100000.0 -15474200000.0 -13839200000.0 -17690600000.0 -12856100000.0 -12614500000.0 -13229700000.0 -18818000000.0 -12558700000.0 -15454500000.0 -16628100000.0 -18211800000.0 -15409100000.0 -15958100000.0 -13004700000.0 -14217300000.0 -14551800000.0 -13557200000.0 -13012700000.0 -12582000000.0 -12549700000.0 -12993600000.0 -13057100000.0 -13218500000.0 -13270500000.0 -13300700000.0 -12923200000.0 -13459200000.0 -13045800000.0 -12660000000.0 -12607100000.0 -12549800000.0 -12549700000.0 -12794100000.0 -12614900000.0 -12636500000.0 -12636900000.0 -12665500000.0 -12982400000.0 -12651400000.0 -12653300000.0 -12665800000.0 -12604300000.0 -12654800000.0 -12765500000.0 -12576000000.0 -12572100000.0 -12663500000.0 -12555000000.0 -12922900000.0 -12836600000.0 -12734400000.0 -12706600000.0 -12559800000.0 -12555000000.0 -12563700000.0 -12549700000.0 -12550000000.0 -12551800000.0 -12562500000.0 -12555600000.0 -12549700000.0 -12549700000.0 -12549700000.0 -12567300000.0 -12550000000.0 -12549700000.0 -12549700000.0 -12553700000.0 -12550800000.0 -12579200000.0 -12559700000.0 -12559600000.0 -12550900000.0 -12563100000.0 -12579900000.0 -12576500000.0 -12616200000.0 -12641800000.0 -12639300000.0 -12624100000.0 -12573300000.0 -12757900000.0 -12836600000.0 -12650100000.0 -12864600000.0 -12947200000.0 -13061400000.0 -13123900000.0 -13201300000.0 -13195900000.0 -13400000000.0 -12759700000.0 -14312400000.0 -14835200000.0 -14072800000.0 -14994300000.0 -15940400000.0 -16401600000.0 -15132600000.0 -16176600000.0 -17284600000.0 -18357800000.0 -19935500000.0 -17229000000.0 -15959200000.0 -15963800000.0 -14418500000.0 -13153900000.0 -13827700000.0 -16105500000.0 -14244500000.0 -13863500000.0 -13001800000.0 -12662400000.0 -12692000000.0 -12645000000.0 -12889300000.0 -12575300000.0 -12635000000.0 -12599400000.0 -12657700000.0 -12897200000.0 -12961800000.0 -12661700000.0 -12828100000.0 -12639000000.0 -12698000000.0 -12636200000.0 -12611700000.0 -12595600000.0 -12730800000.0 -12550400000.0 -12564100000.0 -12553300000.0 -12561400000.0 -12796100000.0 -12565000000.0 -12556200000.0 -12648600000.0 -12549700000.0 -12571200000.0 -12837700000.0 -12783000000.0 -12887800000.0 -12946100000.0 -12770900000.0 -12602200000.0 -12647200000.0 -12558000000.0 -12552200000.0 -12549700000.0 -12553800000.0 -12549700000.0 -12549700000.0 -12550100000.0 -12553900000.0 -12551500000.0 -12549700000.0 -12549700000.0 -12549700000.0 -12556200000.0 -12549700000.0 -12549700000.0 -12549700000.0 -12549900000.0 -12551800000.0 -12569400000.0 -12563300000.0 -12563900000.0 -12562300000.0 -12552900000.0 -12554900000.0 -12557400000.0 -12578300000.0 -12559300000.0 -12568800000.0 -12611400000.0 -12588600000.0 -12572200000.0 -12637700000.0 -12567600000.0 -12599900000.0 -12648300000.0 -12722700000.0 -12753900000.0 -12618700000.0 -12739300000.0 -13137300000.0 -13796000000.0 -14363600000.0 -15290000000.0 -12603800000.0 -13391200000.0 -15184100000.0 -13308200000.0 -13584200000.0 -14285700000.0 -15921800000.0 -14043000000.0 -14736200000.0 -16763900000.0 -12825100000.0 -13568300000.0 -13558500000.0 -13286100000.0 -16505100000.0 -12625500000.0 -12971500000.0 -12787600000.0 -12947600000.0 -12909100000.0 -12897800000.0 -12580900000.0 -12558400000.0 -12555000000.0 -12559700000.0 -12583600000.0 -12587800000.0 -12570500000.0 -12558900000.0 -12709300000.0 -12668800000.0 -12549700000.0 -12576300000.0 -12569000000.0 -12569400000.0 -12599300000.0 -12592600000.0 -12587900000.0 -12600500000.0 -12623600000.0 -12550000000.0 -12643300000.0 -12625200000.0 -12558400000.0 -12580800000.0 -12561000000.0 -12592500000.0 -12568400000.0 -12561200000.0 -12593900000.0 -12564700000.0 -12557800000.0 -12715300000.0 -12706200000.0 -12629100000.0 -13049200000.0 -13109800000.0 -12983700000.0 -13565900000.0 -13880000000.0 -15342400000.0 -14381200000.0 -15129200000.0 -14338300000.0 -13805600000.0 -14356300000.0 -17629000000.0 -12555800000.0 -14161200000.0 -14140700000.0 -14045400000.0 -13302100000.0 -13571600000.0 -15719900000.0 -12598200000.0 -13087600000.0 -12794900000.0 -14003300000.0 -14680100000.0 -13010900000.0 -13224900000.0 -12653100000.0 -17117100000.0 -14230400000.0 -14645400000.0 -12567600000.0 -13934300000.0 -13335700000.0 -12976900000.0 -20394500000.0 -15583600000.0 -16774500000.0 -16269600000.0 -15310400000.0 -13705100000.0 -13405500000.0 -13451800000.0 -15562500000.0 -12806200000.0 -13169100000.0 -13485500000.0 -13667000000.0 -13637300000.0 -15163000000.0 -14473000000.0 -12916700000.0 -15250400000.0 -16742700000.0 -19667600000.0 -14002700000.0 -15312800000.0 -14194700000.0 -13305600000.0 -12549700000.0 -13517200000.0 -16345500000.0 -12662900000.0 -12722700000.0 -13149300000.0 -12982500000.0 -13544300000.0 -13597700000.0 -14569600000.0 -12565600000.0 -14385300000.0 -12790900000.0 -12737800000.0 -12799200000.0 -19104900000.0 -13795600000.0 -12549700000.0 -12914500000.0 -12549700000.0 -13112300000.0 -13747300000.0 -13585500000.0 -15542900000.0 -12812600000.0 -12648300000.0 -12659400000.0 -12669700000.0 -12549700000.0 -12549700000.0 -12713400000.0 -13595800000.0 -13262600000.0 -15571800000.0 -14898200000.0 -13035900000.0 -14797300000.0 -13882000000.0 -13863700000.0 -13058000000.0 -13578700000.0 -15387700000.0 -13344800000.0 -14591300000.0 -14730700000.0 -13010800000.0 -12683800000.0 -12549700000.0 -12549700000.0 -12549700000.0 -12549700000.0 -12549700000.0 -12549700000.0 -12677100000.0 -13265500000.0 -13769400000.0 -13992000000.0 -13749900000.0 -13147300000.0 -14035500000.0 -14209300000.0 -13277200000.0 -19357800000.0 -13853400000.0 -13439800000.0 -13409600000.0 -14933700000.0 -12942700000.0 -15809800000.0 -13720600000.0 -12813700000.0 -12671300000.0 -12549700000.0 -12549700000.0 -12549700000.0 -12549700000.0 -12549700000.0 -12549700000.0 -12549700000.0 -12549700000.0 -12549700000.0 -12549700000.0 -12549700000.0 -12549700000.0 -12549700000.0 -12549700000.0 -12549700000.0 -12549700000.0 -12549700000.0 -12549700000.0 -12549700000.0 -12549700000.0 -12549700000.0 -12549700000.0 -12549700000.0 -12549700000.0 -12549700000.0 -12549700000.0 -12549700000.0 -12549700000.0 -12549700000.0 -12549700000.0 -12549700000.0 -12549700000.0 -12549700000.0 -12549700000.0 -12549800000.0 -12549700000.0 -12549700000.0 -12596100000.0 -13192900000.0 -12902000000.0 -12962800000.0 -12582100000.0 -13036900000.0 -13022200000.0 -14144100000.0 -15991500000.0 -14718400000.0 -14425700000.0 -20100300000.0 -12688700000.0 -13389200000.0 -12983900000.0 -15898100000.0 -15606000000.0 -13645100000.0 -12624900000.0 -13499100000.0 -12572700000.0 -13339400000.0 -14099500000.0 -12743000000.0 -12578500000.0 -12549700000.0 -12549700000.0 -12549700000.0 -12549700000.0 -12549700000.0 -12549700000.0 -12549700000.0 -12549700000.0 -12549700000.0 -12549700000.0 -12549700000.0 -12549700000.0 -12549700000.0 -12549700000.0 -12549700000.0 -12549700000.0 -12549700000.0 -12549700000.0 -12549700000.0 -12549700000.0 -12549700000.0 -12549700000.0 -12549700000.0 -12549700000.0 -12549700000.0 -12550200000.0 -13006500000.0 -13078400000.0 -13943100000.0 -14307800000.0 -15423400000.0 -12901600000.0 -13831900000.0 -14551500000.0 -16936300000.0 -13985000000.0 -12662700000.0 -14433500000.0 -15284200000.0 -14240200000.0 -12557200000.0 -12834200000.0 -14294700000.0 -12604400000.0 -12599900000.0 -12781500000.0 -12586600000.0 -12551400000.0 -12549700000.0 -12549700000.0 -12549700000.0 -12549700000.0 -12549700000.0 -12549700000.0 -12549700000.0 -12549700000.0 -12549700000.0 -12549700000.0 -12549700000.0 -12549700000.0 -12549700000.0 -12549700000.0 -12549700000.0 -12549700000.0 -12549700000.0 -12549700000.0 -12549700000.0 -12549700000.0 -12549700000.0 -12549700000.0 -12549700000.0 -12549700000.0 -12549700000.0 -12549700000.0 -12549700000.0 -12549700000.0 -12549700000.0 -12549700000.0 -12549700000.0 -12549700000.0 -12549700000.0 -12549700000.0 -12549700000.0 -12549700000.0 -12549700000.0 -12549700000.0 -12549700000.0 -12549700000.0 -12549700000.0 -12549700000.0 -12563900000.0 -12622200000.0 -12656100000.0 -12712600000.0 -12777800000.0 -13320300000.0 -12868900000.0 -13253800000.0 -14269800000.0 -13500100000.0 -13568400000.0 -13421800000.0 -14593400000.0 -14404400000.0 -17696900000.0 -16047100000.0 -15856400000.0 -14534200000.0 -14857000000.0 -12801300000.0 -12751200000.0 -13908300000.0 -14114400000.0 -12971600000.0 -12661700000.0 -12558200000.0 -12567000000.0 -12553500000.0 -12549700000.0 -12549700000.0 -12549700000.0 -12549700000.0 -12549700000.0 -12549700000.0 -12549700000.0 -12549700000.0 -12549700000.0 -12549700000.0 -12549700000.0 -12549700000.0 -12549700000.0 -12549700000.0 -12549700000.0 -12549700000.0 -12549700000.0 -12549700000.0 -12549700000.0 -12549700000.0 -12549700000.0 -12549700000.0 -12549700000.0 -12549700000.0 -12549700000.0 -12549700000.0 -12549700000.0 -12549700000.0 -12549700000.0 -12549700000.0 -12549700000.0 -12549700000.0 -12549700000.0 -12549700000.0 -12549700000.0 -12549700000.0 -12549700000.0 -12549700000.0 -12549700000.0 -12549700000.0 -12549700000.0 -12549700000.0 -12549700000.0 -12550500000.0 -12552500000.0 -12578300000.0 -12894400000.0 -12672600000.0 -13261600000.0 -13634200000.0 -13731900000.0 -14188700000.0 -12563500000.0 -14264600000.0 -13803200000.0 -13909200000.0 -15640800000.0 -15038500000.0 -15908400000.0 -12549700000.0 -14372300000.0 -14149200000.0 -13868800000.0 -13062200000.0 -12744700000.0 -12573000000.0 -12556200000.0 -12550000000.0 -12549800000.0 -12549700000.0 -12549700000.0 -12549700000.0 -12549700000.0 -12549700000.0 -12549700000.0 -12549700000.0 -12549700000.0 -12549700000.0 -12549700000.0 -12549700000.0 -12549700000.0 -12549700000.0 -12549700000.0 -12549700000.0 -12549700000.0 -12549700000.0 -12549700000.0 -12549700000.0 -12549700000.0 -12549700000.0 -12549700000.0 -12549700000.0 -12549700000.0 -12549700000.0 -12549700000.0 -12549700000.0 -12549700000.0 -12549700000.0 -12549700000.0 -12549700000.0 -12549700000.0 -12549700000.0 -12549700000.0 -12549700000.0 -12549700000.0 -12549700000.0 -12549700000.0 -12549700000.0 -12549700000.0 -12549700000.0 -12549700000.0 -12554300000.0 -12586100000.0 -12609000000.0 -12794400000.0 -12755900000.0 -12769400000.0 -12826800000.0 -12701400000.0 -15275000000.0 -14739800000.0 -13608100000.0 -13481200000.0 -15504800000.0 -14574600000.0 -13335100000.0 -13452100000.0 -15551200000.0 -12590000000.0 -15203200000.0 -16914600000.0 -15744900000.0 -13861700000.0 -13013600000.0 -12578200000.0 -12603900000.0 -12549700000.0 -12553400000.0 -12551400000.0 -12550400000.0 -12549700000.0 -12549700000.0 -12549700000.0 -12549700000.0 -12549700000.0 -12549700000.0 -12549700000.0 -12549700000.0 -12549700000.0 -12549700000.0 -12549700000.0 -12549700000.0 -12549700000.0 -12549700000.0 -12549700000.0 -12549700000.0 -12549700000.0 -12549700000.0 -12549700000.0 -12549700000.0 -12549700000.0 -12549700000.0 -12549700000.0 -12549700000.0 -12549700000.0 -12549700000.0 -12549700000.0 -12549700000.0 -12549700000.0 -12549700000.0 -12549700000.0 -12549700000.0 -12549700000.0 -12549700000.0 -12549700000.0 -12549700000.0 -12549700000.0 -12549700000.0 -12549700000.0 -12549700000.0 -12549700000.0 -12549700000.0 -12549700000.0 -12549700000.0 -12549700000.0 -12549700000.0 -12549700000.0 -12549700000.0 -12549700000.0 -12549700000.0 -12549700000.0 -12549700000.0 -12549700000.0 -12650800000.0 -13087400000.0 -13475600000.0 -12575700000.0 -14510500000.0 -12561300000.0 -13062300000.0 -14187000000.0 -14933700000.0 -14822400000.0 -13286000000.0 -12927000000.0 -15075600000.0 -12811300000.0 -14602000000.0 -14170900000.0 -12619900000.0 -16514400000.0 -13360000000.0 -12938700000.0 -12600200000.0 -12593900000.0 -12662100000.0 -12560200000.0 -12549700000.0 -12549700000.0 -12549700000.0 -12549700000.0 -12549700000.0 -12549700000.0 -12549700000.0 -12549700000.0 -12549700000.0 -12549700000.0 -12549700000.0 -12549700000.0 -12549700000.0 -12549700000.0 -12549700000.0 -12549700000.0 -12549700000.0 -12549700000.0 -12549700000.0 -12549700000.0 -12549700000.0 -12549700000.0 -12549700000.0 -12549700000.0 -12549700000.0 -12549700000.0 -12549700000.0 -12549700000.0 -12549700000.0 -12549700000.0 -12549700000.0 -12549700000.0 -12549700000.0 -12549700000.0 -12549700000.0 -12549700000.0 -12549700000.0 -12549700000.0 -12549700000.0 -12585600000.0 -14513900000.0 -12824100000.0 -12676300000.0 -12831900000.0 -12819200000.0 -13423400000.0 -12911800000.0 -13770000000.0 -12646800000.0 -13999500000.0 -13622600000.0 -12901100000.0 -14142600000.0 -12549700000.0 -15986700000.0 -16105300000.0 -12549700000.0 -13611200000.0 -13018400000.0 -12715900000.0 -12549700000.0 -12549700000.0 -12549700000.0 -12549700000.0 -12549700000.0 -12549700000.0 -12549700000.0 -12549700000.0 -12549700000.0 -12549700000.0 -12549700000.0 -12549700000.0 -12549700000.0 -12549700000.0 -12549700000.0 -12549700000.0 -12549700000.0 -12549700000.0 -12549700000.0 -12549700000.0 -12549700000.0 -12549700000.0 -12549700000.0 -12549700000.0 -12549700000.0 -12549700000.0 -12549700000.0 -12549700000.0 -12549700000.0 -12549700000.0 -12549700000.0 -12549700000.0 -12549700000.0 -12549700000.0 -12549700000.0 -12549700000.0 -12549700000.0 -12549700000.0 -12549700000.0 -12549700000.0 -12549700000.0 -12549700000.0 -12549700000.0 -12658400000.0 -13403000000.0 -13887000000.0 -12851400000.0 -12670600000.0 -12754900000.0 -12593800000.0 -12553900000.0 -13628600000.0 -13700900000.0 -13248100000.0 -13309500000.0 -13311400000.0 -15581000000.0 -13488500000.0 -16816100000.0 -12549700000.0 -12653400000.0 -13813800000.0 -12684000000.0 -12549700000.0 -12549700000.0 -12549700000.0 -12549700000.0 -12549700000.0 -12549700000.0 -12549700000.0 -12549700000.0 -12549700000.0 -12549700000.0 -12549700000.0 -12549700000.0 -12549700000.0 -12549700000.0 -12549700000.0 -12549700000.0 -12549700000.0 -12549700000.0 -12549700000.0 -12549700000.0 -12549700000.0 -12549700000.0 -12549700000.0 -12549700000.0 -12549700000.0 -12549700000.0 -12549700000.0 -12549700000.0 -12549700000.0 -12549700000.0 -12549700000.0 -12549700000.0 -12549700000.0 -12549700000.0 -12549700000.0 -12549700000.0 -12693900000.0 -13033900000.0 -13752500000.0 -12563000000.0 -12888600000.0 -12998200000.0 -12927000000.0 -13381700000.0 -14805100000.0 -13069200000.0 -17314200000.0 -13593300000.0 -16337000000.0 -13850900000.0 -14120700000.0 -12726400000.0 -12549700000.0 -12549700000.0 -12549700000.0 -12549700000.0 -12549700000.0 -12549700000.0 -12549700000.0 -12549700000.0 -12549700000.0 -12549700000.0 -12549700000.0 -12549700000.0 -12549700000.0 -12549700000.0 -12549700000.0 -12549700000.0 -12549700000.0 -12549700000.0 -12549700000.0 -12549700000.0 -12549700000.0 -12549700000.0 -12549700000.0 -12549700000.0 -12549700000.0 -12549700000.0 -12549700000.0 -12549700000.0 -12549700000.0 -12549700000.0 -12549700000.0 -12549700000.0 -12549700000.0 -12549700000.0 -12549700000.0 -12549700000.0 -12549700000.0 -12549700000.0 -12549700000.0 -12549700000.0 -12549700000.0 -12549700000.0 -12549700000.0 -12549700000.0 -12549700000.0 -12549700000.0 -12549700000.0 -12576500000.0 -13651400000.0 -13005900000.0 -12555500000.0 -12653100000.0 -12711500000.0 -13069300000.0 -13286200000.0 -13337200000.0 -15290200000.0 -13641100000.0 -14991800000.0 -14887900000.0 -12602100000.0 -14529700000.0 -14088200000.0 -13194200000.0 -12951100000.0 -13689500000.0 -13337000000.0 -12773700000.0 -12650600000.0 -12557600000.0 -12585800000.0 -12549700000.0 -12549700000.0 -12549700000.0 -12549700000.0 -12549700000.0 -12549700000.0 -12549700000.0 -12549700000.0 -12549700000.0 -12549700000.0 -12549700000.0 -12549700000.0 -12549700000.0 -12549700000.0 -12549700000.0 -12549700000.0 -12549700000.0 -12549700000.0 -12549700000.0 -12549700000.0 -12549700000.0 -12549700000.0 -12549700000.0 -12549700000.0 -12549700000.0 -12549700000.0 -12549700000.0 -12549700000.0 -12549700000.0 -12609200000.0 -12552700000.0 -13039600000.0 -13603100000.0 -12569800000.0 -12561800000.0 -12780100000.0 -12927300000.0 -13925800000.0 -13425400000.0 -13266300000.0 -12973700000.0 -14162900000.0 -12981000000.0 -14907800000.0 -15601900000.0 -15301300000.0 -14319200000.0 -13827600000.0 -13304700000.0 -13437400000.0 -12609700000.0 -12549700000.0 -12549700000.0 -12549700000.0 -12549700000.0 -12549700000.0 -12549700000.0 -12549700000.0 -12549700000.0 -12549700000.0 -12549700000.0 -12549700000.0 -12549700000.0 -12549700000.0 -12549700000.0 -12549700000.0 -12549700000.0 -12549700000.0 -12549700000.0 -12549700000.0 -12549700000.0 -12549700000.0 -12549700000.0 -12549700000.0 -12549700000.0 -13561100000.0 -13562800000.0 -13784400000.0 -12594100000.0 -13881700000.0 -14000600000.0 -14181000000.0 -15046400000.0 -14310600000.0 -12568400000.0 -15206400000.0 -12678600000.0 -15403200000.0 -13015700000.0 -15170700000.0 -16250700000.0 -12956900000.0 -12723500000.0 -13650500000.0 -12582300000.0 -12939200000.0 -13157600000.0 -13007400000.0 -12897200000.0 -12806900000.0 -12549700000.0 -12549700000.0 -12549700000.0 -12549700000.0 -12549700000.0 -12549700000.0 -12549700000.0 -12549700000.0 -12549700000.0 -12549700000.0 -12549700000.0 -12549700000.0 -12549700000.0 -12549700000.0 -12549700000.0 -12549700000.0 -12549700000.0 -12549700000.0 -12549700000.0 -12549700000.0 -12549700000.0 -12549700000.0 -12549700000.0 -12549700000.0 -13138500000.0 -12868500000.0 -12912800000.0 -12767100000.0 -12916700000.0 -13545900000.0 -13612100000.0 -14736100000.0 -14624100000.0 -13989300000.0 -12595800000.0 -12549700000.0 -15259400000.0 -13652600000.0 -13393200000.0 -12549700000.0 -12559400000.0 -12550700000.0 -12680500000.0 -12549700000.0 -12549700000.0 -12549700000.0 -12549700000.0 -12549700000.0 -12549700000.0 -12549700000.0 -12549700000.0 -12549700000.0 -12549700000.0 -12549700000.0 -12549700000.0 -12549700000.0 -12549700000.0 -12549700000.0 -12644900000.0 -12930200000.0 -13003400000.0 -12785800000.0 -12908500000.0 -12864200000.0 -12922400000.0 -13385900000.0 -12789200000.0 -13001000000.0 -12674000000.0 -12605000000.0 -12700700000.0 -14499900000.0 -12549700000.0 -13468000000.0 -12829700000.0 -12935900000.0 -12602400000.0 -12630200000.0 -12549700000.0 -12549700000.0 -12549700000.0 -12549700000.0 -12549700000.0 -12549700000.0 -12549700000.0 -12549700000.0 -12549700000.0 -12549700000.0 -12549700000.0 -12549700000.0 -12549700000.0 -12549700000.0 -12549700000.0 -12573200000.0 -12591300000.0 -12669500000.0 -12990400000.0 -12566900000.0 -12573900000.0 -12606300000.0 -12645300000.0 -12944800000.0 -12604200000.0 -12788200000.0 -13002300000.0 -12558400000.0 -13217400000.0 -13182000000.0 -12915400000.0 -13381700000.0 -13401100000.0 -13621900000.0 -12549700000.0 -12670700000.0 -12601600000.0 -12549700000.0 -12549700000.0 -12549700000.0 -12549700000.0 -12549700000.0 -12549700000.0 -12549700000.0 -12549700000.0 -12556300000.0 -12560400000.0 -12801100000.0 -12553900000.0 -12549700000.0 -12549700000.0 -12807700000.0 -12627900000.0 -12549700000.0 -12895900000.0 -12919300000.0 -12768600000.0 -12926100000.0 -12754700000.0 -12905800000.0 -12549700000.0 -12659500000.0 -13213100000.0 -12549700000.0 -12549700000.0 -12549700000.0 -12549700000.0 -12549700000.0 -12549700000.0 -12549700000.0 -12549700000.0 -12549700000.0 -12549700000.0 -12549700000.0 -12549700000.0 -12649800000.0 -12617300000.0 -12581400000.0 -12566800000.0 -12568000000.0 -12558700000.0 -12704200000.0 -12551000000.0 -12605800000.0 -12962100000.0 -12878200000.0 -12549700000.0 -12553700000.0 -12782400000.0 -12551000000.0 -12642600000.0 -12570100000.0 -12593600000.0 -12985800000.0 -12670600000.0 -12549700000.0 -12549700000.0 -12549700000.0 -12549700000.0 -12549700000.0 -12567800000.0 -12556900000.0 -12585200000.0 -12578300000.0 -12584100000.0 -12597200000.0 -12690500000.0 -12669300000.0 -12749200000.0 -12555700000.0 -12579600000.0 -12606100000.0 -12580400000.0 -12578500000.0 -12598100000.0 -12554200000.0 -12577300000.0 -12638900000.0 -12573200000.0 -12549700000.0 -12549700000.0 -12549700000.0 -12549700000.0 -12549700000.0 -12549700000.0 -2.68195e+12 -4.13872e+12 -3.71472e+12 -4.89509e+12 -4.10896e+12 -4.11934e+12 -4.01691e+12 -3.80297e+12 -12549700000.0 -3.20334e+12 -5.86343e+12 -3.06974e+12 -3.45857e+12 -5.01494e+12 -4.53499e+12 -3.11037e+12 -4.38235e+12 -2.25083e+12 -375971000000.0 -548168000000.0 -1.89976e+12 -4.73022e+12 -5.63923e+12 -4.21272e+12 -4.27697e+12 -4.90389e+12 -3.97912e+12 -4.24188e+12 -3.84298e+12 -4.60452e+12 -4.38632e+12 -5.89699e+12 -5.83771e+12 -5.65762e+12 -4.79999e+12 -12549800000.0 -12553400000.0 -3.92555e+12 -934126000000.0 -3.11398e+12 -5.72516e+12 -4.09763e+12 -3.84527e+12 -3.0493e+12 -4.12421e+12 -4.59364e+12 -2.82441e+12 -4.48522e+12 -5.15104e+12 -4.3058e+12 -2.24117e+12 -3.42255e+12 -2.22209e+12 -12559400000.0 -12577200000.0 -12556600000.0 -12552300000.0 -12550800000.0 -12550000000.0 -2.57814e+12 -3.49707e+12 -4.43543e+12 -3.61214e+12 -4.82075e+12 -7.023e+12 -4.28289e+12 -3.38028e+12 -4.78474e+12 -4.5443e+12 -4.27105e+12 -4.10111e+12 -5.81501e+12 -6.88623e+12 -5.16951e+12 -3.79704e+12 -5.41836e+12 -7.4019e+12 -4.55547e+12 -5.01688e+12 -5.70081e+12 -4.62317e+12 -4.42715e+12 -6.6673e+12 -5.96755e+12 -2.57416e+12 -4.07345e+12 -3.81362e+12 -3.72831e+12 -4.6649e+12 -4.0341e+12 -3.91843e+12 -5.22789e+12 -4.64642e+12 -3.90994e+12 -4.44368e+12 -4.61286e+12 -2.75976e+12 -5.26025e+12 -4.10605e+12 -5.71358e+12 -6.4236e+12 -6.09304e+12 -5.86993e+12 -5.28008e+12 -5.18485e+12 -6.78236e+12 -4.40241e+12 -4.99549e+12 -6.41884e+12 -4.30414e+12 -4.90909e+12 -2.8531e+12 -2.61137e+12 -6.63596e+12 -5.46436e+12 -8.6593e+12 -6.16137e+12 -6.13616e+12 -7.75078e+12 -1.11417e+13 -5.45131e+12 -7.28096e+12 -4.06849e+12 -5.69698e+12 -4.72003e+12 -3.44838e+12 -7.14673e+12 -6.97597e+12 -5.16803e+12 -1.82552e+12 -6.87964e+12 -4.28999e+12 -4.74188e+12 -5.86961e+12 -6.06952e+12 -7.47262e+12 -8.48109e+12 -7.11464e+12 -1.09034e+13 -4.4012e+12 -4.9558e+12 -2.06101e+12 -6.21675e+12 -4.69407e+12 -5.45129e+12 -3.71225e+12 -7.3013e+12 -6.95951e+12 -5.03093e+12 -8.84104e+12 -7.92899e+12 -8.82964e+12 -8.28263e+12 -5.25321e+12 -5.19488e+12 -7.35212e+12 -6.94978e+12 -6.77507e+12 -7.97293e+12 -7.3237e+12 -1.12039e+13 -5.80847e+12 -3.51919e+12 -5.1081e+12 -4.14571e+12 -3.83257e+12 -7.65225e+12 -4.71425e+12 -4.97049e+12 -5.89112e+12 -3.9473e+12 -5.09592e+12 -5.83567e+12 -8.07811e+12 -4.81866e+12 -6.54672e+12 -6.39057e+12 -2.86978e+12 -4.38693e+12 -7.20379e+12 -5.2285e+12 -4.87275e+12 -5.89219e+12 -4.94146e+12 -9.17315e+12 -2.73152e+12 -4.90397e+12 -4.22816e+12 -6.56309e+12 -3.84022e+12 -7.06998e+12 -7.08885e+12 -4.02473e+12 -4.84317e+12 -4.10777e+12 -5.60725e+12 -7.88911e+12 -3.96212e+12 -6.75561e+12 -3.42128e+12 -7.6256e+12 -5.4284e+12 -9.80944e+12 -3.35467e+12 -4.83373e+12 -3.96645e+12 -2.26482e+12 -6.9906e+12 -7.46658e+12 -4.13063e+12 -4.26412e+12 -6.239e+12 -1.04044e+13 -6.50953e+12 -1.03918e+13 -7.24007e+12 -5.17096e+12 -8.85804e+12 -7.74139e+12 -5.30664e+12 -6.53488e+12 -7.33916e+12 -7.59904e+12 -4.61737e+12 -6.71848e+12 -8.79289e+12 -5.15641e+12 -1.03285e+13 -7.6583e+12 -7.80629e+12 -4.62847e+12 -5.645e+12 -4.92871e+12 -8.33655e+12 -6.4566e+12 -6.83997e+12 -8.40603e+12 -6.84445e+12 -6.2822e+12 -6.29836e+12 -7.1433e+12 -5.55366e+12 -1.4892e+12 -2.93334e+12 -5.66134e+12 -5.01703e+12 -4.34613e+12 -5.61897e+12 -6.46068e+12 -8.60438e+12 -1.0323e+13 -6.90965e+12 -5.73743e+12 -5.03249e+12 -6.39013e+12 -7.22083e+12 -3.84302e+12 -6.572e+12 -8.31291e+12 -5.75806e+12 -7.04759e+12 -4.87055e+12 -6.03683e+12 -7.77383e+12 -6.00313e+12 -6.07187e+12 -9.76425e+12 -5.66201e+12 -6.94479e+12 -7.53962e+12 -8.58962e+12 -4.12058e+12 -4.73386e+12 -6.5704e+12 -7.33004e+12 -7.02789e+12 -5.12476e+12 -7.84288e+12 -6.10152e+12 -5.43486e+12 -5.11172e+12 -7.44347e+12 -9.07749e+12 -4.69912e+12 -6.31791e+12 -1.72466e+12 -3.54434e+12 -4.5597e+12 -6.63385e+12 -2.4374e+12 -6.70205e+12 -5.32339e+12 -4.14737e+12 -5.9897e+12 -2.40386e+12 -5.83897e+12 -6.97418e+12 -5.914e+12 -5.85502e+12 -5.60997e+12 -9.00905e+12 -8.55994e+12 -6.45429e+12 -6.24306e+12 -5.7659e+12 -6.87009e+12 -4.89604e+12 -7.73434e+12 -6.03333e+12 -6.11809e+12 -5.72543e+12 -7.53909e+12 -6.33914e+12 -5.32849e+12 -4.52051e+12 -8.19617e+12 -6.29705e+12 -2.82449e+12 -7.35606e+12 -6.18604e+12 -3.0178e+12 -6.4088e+12 -8.52215e+12 -9.74718e+12 -7.94117e+12 -5.1167e+12 -6.60538e+12 -5.21434e+12 -4.53623e+12 -9.35525e+12 -4.14564e+12 -5.60915e+12 -6.64223e+12 -6.66821e+12 -7.15711e+12 -3.83834e+12 -1.06743e+13 -8.53772e+12 -4.68231e+12 -6.18948e+12 -3.90664e+12 -3.62928e+12 -4.94243e+12 -6.80923e+12 -2.43706e+12 -5.00068e+12 -5.22181e+12 -4.30877e+12 -5.27666e+12 -3.82034e+12 -8.90499e+12 -3.14924e+12 -2.23788e+12 -4.2338e+12 -4.87214e+12 -5.74541e+12 -6.06383e+12 -1.09199e+13 -5.13257e+12 -9.3088e+12 -8.0311e+12 -6.02719e+12 -2.88703e+12 -6.53719e+12 -5.65112e+12 -4.38279e+12 -3.77207e+12 -2.63118e+12 -5.78273e+12 -4.16066e+12 -3.80585e+12 -7.38605e+12 -5.60263e+12 -5.36955e+12 -4.01494e+12 -5.6943e+12 -1.02504e+13 -6.58039e+12 -6.05355e+12 -3.83426e+12 -9.30276e+12 -9.58348e+12 -7.61974e+12 -3.73923e+12 -7.95041e+12 -4.60082e+12 -6.10629e+12 -4.884e+12 -6.39672e+12 -5.15808e+12 -6.18157e+12 -6.56431e+12 -6.55076e+12 -6.10758e+12 -4.47087e+12 -7.36955e+12 -8.22236e+12 -5.11367e+12 -5.94859e+12 -8.57334e+12 -3.87763e+12 -3.99254e+12 -3.72475e+12 -6.10379e+12 -4.08294e+12 -5.81887e+12 -3.98212e+12 -4.9279e+12 -4.89488e+12 -7.24052e+12 -7.80041e+12 -8.87041e+12 -5.4818e+12 -4.48537e+12 -4.15909e+12 -3.09038e+12 -2.17687e+12 -6.66536e+12 -4.46184e+12 -9.00997e+12 -7.40363e+12 -6.23891e+12 -1.01885e+13 -5.08949e+12 -3.73845e+12 -4.64488e+12 -5.89261e+12 -4.8873e+12 -5.09087e+12 -6.36468e+12 -5.63051e+12 -4.90744e+12 -6.05993e+12 -4.99389e+12 -6.72268e+12 -4.97981e+12 -4.06183e+12 -5.09548e+12 -3.93727e+12 -4.65058e+12 -8.41903e+12 -4.04029e+12 -7.33107e+12 -8.05845e+12 -7.11699e+12 -3.99911e+12 -4.22298e+12 -3.41336e+12 -4.72427e+12 -2.18982e+12 -5.84537e+12 -4.20889e+12 -5.09647e+12 -5.77463e+12 -3.95353e+12 -8.97728e+12 -5.81326e+12 -5.66403e+12 -4.03199e+12 -3.90764e+12 -7.22892e+12 -3.0501e+12 -5.32318e+12 -5.69229e+12 -7.57544e+12 -5.40024e+12 -4.46571e+12 -6.07707e+12 -6.83159e+12 -5.83161e+12 -4.46308e+12 -6.50624e+12 -5.7222e+12 -4.91243e+12 -3.85347e+12 -4.44706e+12 -5.69613e+12 -5.06658e+12 -7.50782e+12 -8.49331e+12 -5.12064e+12 -6.61253e+12 -4.23178e+12 -4.26939e+12 -5.71717e+12 -5.76803e+12 -5.5852e+12 -7.16077e+12 -8.13539e+12 -4.11591e+12 -4.27115e+12 -8.47544e+12 -3.48117e+12 -2.95311e+12 -3.35298e+12 -2.8927e+12 -2.26636e+12 -3.74531e+12 -3.77285e+12 -8.52732e+12 -2.86066e+12 -3.59205e+12 -2.98747e+12 -5.43792e+12 -5.10565e+12 -5.5286e+12 -4.68035e+12 -2.56432e+12 -4.99994e+12 -7.55632e+12 -6.80655e+12 -7.7106e+12 -6.37064e+12 -6.83648e+12 -3.60888e+12 -4.04591e+12 -5.74441e+12 -6.29115e+12 -6.09527e+12 -7.60153e+12 -4.45287e+12 -5.92332e+12 -5.63033e+12 -5.9398e+12 -3.68789e+12 -3.7665e+12 -4.69107e+12 -5.63647e+12 -5.29553e+12 -3.53861e+12 -4.24821e+12 -4.43506e+12 -7.09265e+12 -6.38992e+12 -3.26555e+12 -4.3033e+12 -3.07482e+12 -7.27961e+12 -4.27746e+12 -5.78526e+12 -3.81416e+12 -4.28692e+12 -4.97801e+12 -3.06371e+12 -4.46249e+12 -1.0218e+13 -4.44666e+12 -6.95209e+12 -6.75113e+12 -8.01832e+12 -4.18238e+12 -4.51295e+12 -656378000000.0 -5.96339e+12 -4.21118e+12 -9.80561e+12 -4.24185e+12 -5.0046e+12 -5.33777e+12 -4.16105e+12 -4.8017e+12 -3.72209e+12 -4.55538e+12 -2.90098e+12 -4.15382e+12 -6.82902e+12 -6.05018e+12 -4.64789e+12 -7.21311e+12 -2.67493e+12 -6.75088e+12 -8.0092e+12 -4.76734e+12 -5.93702e+12 -5.04678e+12 -7.35935e+12 -7.18521e+12 -4.15142e+12 -2.68662e+12 -7.864e+12 -6.67436e+12 -6.3478e+12 -7.06563e+12 -3.20894e+12 -5.12342e+12 -5.12672e+12 -4.80339e+12 -5.34236e+12 -3.60366e+12 -5.83708e+12 -7.25808e+12 -2.72611e+12 -5.78537e+12 -4.46077e+12 -4.59451e+12 -3.42611e+12 -5.24443e+12 -3.58099e+12 -2.27488e+12 -2.12441e+12 -2.02372e+12 -5.16921e+12 -4.94595e+12 -3.37706e+12 -6.7752e+12 -4.22602e+12 -4.31502e+12 -4.19096e+12 -3.53511e+12 -3.5096e+12 -3.9776e+12 -3.68296e+12 -6.44004e+12 -3.34148e+12 -4.24967e+12 -3.83386e+12 -5.03767e+12 -6.25194e+12 -5.30312e+12 -3.00635e+12 -3.9082e+12 -3.59774e+12 -4.36778e+12 -3.65521e+12 -5.26364e+12 -4.80249e+12 -5.24187e+12 -3.13296e+12 -3.40289e+12 -6.23232e+12 -4.97836e+12 -4.20684e+12 -5.10824e+12 -3.33863e+12 -1.96615e+12 -3.64447e+12 -5.66122e+12 -4.58153e+12 -5.91979e+12 -7.32435e+12 -2.94324e+12 -2.60505e+12 -4.48098e+12 -3.46455e+12 -4.3855e+12 -5.95426e+12 -6.08844e+12 -2.24556e+12 -4.38994e+12 -4.96313e+12 -5.89485e+12 -5.24172e+12 -4.32241e+12 -3.05585e+12 -4.74138e+12 -4.26481e+12 -3.13298e+12 -5.852e+12 -7.50824e+12 -4.72862e+12 -6.36695e+12 -3.06186e+12 -6.96228e+12 -4.94742e+12 -1.98622e+12 -5.71608e+12 -2.37138e+12 -6.39855e+12 -6.28913e+12 -4.48199e+12 -3.99832e+12 -4.73448e+12 -6.21531e+12 -5.48094e+12 -5.83949e+12 -5.9929e+12 -5.83005e+12 -5.67969e+12 -4.95225e+12 -6.13865e+12 -5.1734e+12 -6.29728e+12 -4.82001e+12 -1.65681e+12 -5.28671e+12 -4.65227e+12 -3.5459e+12 -4.78137e+12 -5.21511e+12 -6.73875e+12 -4.10737e+12 -5.64376e+12 -3.6251e+12 -4.77882e+12 -8.47762e+12 -3.29751e+12 -4.05037e+12 -5.28684e+12 -3.13423e+12 -6.789e+12 -3.03252e+12 -5.76452e+12 -4.00934e+12 -5.29972e+12 -3.42214e+12 -6.40295e+12 -3.49378e+12 -7.39935e+12 -6.32044e+12 -654242000000.0 -6.26196e+12 -3.01894e+12 -4.62793e+12 -4.32652e+12 -2.94559e+12 -5.49008e+12 -2.83242e+12 -6.14409e+12 -1.78506e+12 -4.75652e+12 -3.4165e+12 -5.72468e+12 -6.58051e+12 -3.46008e+12 -4.59391e+12 -3.76238e+12 -3.56039e+12 -3.78137e+12 -3.6887e+12 -4.11821e+12 -6.62792e+12 -3.87016e+12 -8.28928e+12 -2.73289e+12 -5.94251e+12 -2.79454e+12 -3.72595e+12 -3.38473e+12 -3.63789e+12 -2.45806e+12 -3.58572e+12 -6.0081e+12 -4.84534e+12 -5.81199e+12 -5.79361e+12 -3.72409e+12 -6.53953e+12 -3.11263e+12 -2.35323e+12 -5.97243e+12 -4.6619e+12 -5.31027e+12 -4.35225e+12 -2.7632e+12 -1.95388e+12 -6.78051e+12 -2.75157e+12 -3.85235e+12 -4.00582e+12 -6.51677e+12 -3.58005e+12 -4.84299e+12 -2.77407e+12 -5.20139e+12 -5.17069e+12 -3.72991e+12 -5.3567e+12 -3.05155e+12 -4.61128e+12 -5.68576e+12 -4.17504e+12 -5.26506e+12 -2.84602e+12 -3.19193e+12 -2.69164e+12 -4.16304e+12 -4.79256e+12 -5.8859e+12 -2.50275e+12 -3.92196e+12 -3.08182e+12 -4.62748e+12 -5.38484e+12 -2.72886e+12 -5.13562e+12 -4.23663e+12 -3.49456e+12 -4.31778e+12 -3.06104e+12 -3.48772e+12 -2.51082e+12 -3.48444e+12 -5.55905e+12 -3.24557e+12 -1.42766e+12 -2.87265e+12 -4.14099e+12 -3.4297e+12 -3.01829e+12 -4.20144e+12 -2.76472e+12 -2.94043e+12 -3.86049e+12 -4.2399e+12 -3.74838e+12 -2.73051e+12 -6.21281e+12 -4.13417e+12 -5.25728e+12 -2.52066e+12 -3.75965e+12 -4.26207e+12 -3.63799e+12 -3.81756e+12 -4.42696e+12 -3.01133e+12 -5.76336e+12 -4.98631e+12 -3.1402e+12 -2.54224e+12 -4.96022e+12 -2.74415e+12 -4.97402e+12 -3.26317e+12 -4.12084e+12 -5.25715e+12 -4.41154e+12 -5.26243e+12 -4.24143e+12 -4.30834e+12 -2.2502e+12 -4.07345e+12 -3.19819e+12 -5.42639e+12 -1.94896e+12 -4.18562e+12 -4.75388e+12 -3.34208e+12 -1.61279e+12 -4.14398e+12 -5.37245e+12 -2.54312e+12 -2.80493e+12 -4.43897e+12 -6.78225e+12 -2.19152e+12 -5.41271e+12 -2.67359e+12 -6.05101e+12 -6.878e+12 -5.02918e+12 -5.73558e+12 -2.78394e+12 -3.38094e+12 -2.80103e+12 -2.25929e+12 -4.49912e+12 -3.90156e+12 -2.65296e+12 -2.87267e+12 -3.1922e+12 -1.08165e+12 -3.12219e+12 -722625000000.0 -3.82682e+12 -1.46583e+12 -4.47426e+12 -3.0129e+12 -4.49091e+12 -3.35476e+12 -3.30486e+12 -4.10373e+12 -2.46578e+12 -2.03944e+12 -3.73039e+12 -4.7752e+12 -5.42603e+12 -1.65884e+12 -3.46417e+12 -3.57066e+12 -3.54119e+12 -3.96226e+12 -4.59503e+12 -3.7836e+12 -5.07143e+12 -2.73657e+12 -3.34878e+12 -6.98988e+12 -2.61812e+12 -2.19035e+12 -3.78071e+12 -2.12897e+12 -2.10356e+12 -2.37947e+12 -2.90454e+12 -4.82746e+12 -2.02801e+12 -3.09414e+12 -2.71249e+12 -3.88562e+12 -2.0802e+12 -4.67963e+12 -2.47485e+12 -2.24903e+12 -2.74259e+12 -1.67344e+12 -4.00014e+12 -3.0795e+12 -2.70813e+12 -3.73593e+12 -2.4665e+12 -3.19226e+12 -4.3318e+12 -3.36401e+12 -1.85596e+12 -2.93376e+12 -3.68965e+12 -2.38192e+12 -2.67107e+12 -3.16632e+12 -2.19531e+12 -2.79717e+12 -2.7021e+12 -2.44133e+12 -2.78695e+12 -1.89811e+12 -3.72634e+12 -4.86687e+12 -3.35493e+12 -1.81862e+12 -2.07591e+12 -4.48758e+12 -3.42501e+12 -2.7554e+12 -2.78706e+12 -3.41923e+12 -1.15637e+12 -2.61314e+12 -3.03814e+12 -1.65033e+12 -2.69852e+12 -3.77915e+12 -2.83444e+12 -3.60233e+12 -3.20807e+12 -4.32962e+12 -2.94361e+12 -3.36161e+12 -2.98557e+12 -2.82232e+12 -4.31633e+12 -2.64149e+12 -2.84423e+12 -1.61543e+12 -3.21072e+12 -5.46144e+12 -3.80413e+12 -1.79599e+12 -2.59797e+12 -3.80908e+12 -3.5438e+12 -1.92519e+12 -2.83168e+12 -3.26455e+12 -5.2523e+12 -3.55241e+12 -3.17449e+12 -1.56577e+12 -2.19293e+12 -2.20365e+12 -2.92596e+12 -2.63803e+12 -2.65981e+12 -2.51164e+12 -3.04053e+12 -1.97522e+12 -2.47819e+12 -4.25547e+12 -2.15918e+12 -3.23139e+12 -5.12949e+12 -2.75707e+12 -3.51369e+12 -4.07573e+12 -5.25135e+12 -2.07636e+12 -3.42744e+12 -3.76377e+12 -1.56217e+12 -3.18415e+12 -2.86298e+12 -3.12999e+12 -3.68948e+12 -4.43293e+12 -3.60037e+12 -2.8826e+12 -2.43776e+12 -3.78541e+12 -3.20923e+12 -1.82687e+12 -2.48058e+12 -2.66901e+12 -3.44295e+12 -4.51096e+12 -3.60412e+12 -3.16938e+12 -3.04407e+12 -2.11546e+12 -2.67647e+12 -2.3094e+12 -2.34189e+12 -2.44288e+12 -278485000000.0 -2.42001e+12 -2.51002e+12 -1.7035e+12 -3.62281e+12 -2.63527e+12 -2.29845e+12 -1.94961e+12 -2.17917e+12 -1.70462e+12 -2.8872e+12 -2.79408e+12 -2.11152e+12 -4.23147e+12 -2.99067e+12 -3.55426e+12 -1.76037e+12 -1.42246e+12 -2.96386e+12 -3.59922e+12 -2.365e+12 -4.07333e+12 -3.06509e+12 -4.70186e+12 -1.40941e+12 -4.18164e+12 -4.02392e+12 -5.41629e+12 -3.28671e+12 -2.75196e+12 -2.57997e+12 -2.46721e+12 -2.42132e+12 -2.00571e+12 -1.86898e+12 -1.32166e+12 -1.56336e+12 -3.79205e+12 -1.05392e+12 -3.71903e+12 -2.16013e+12 -1.1681e+12 -1.93176e+12 -832882000000.0 -1.64052e+12 -1.03677e+12 -3.62861e+12 -2.86111e+12 -2.20479e+12 -3.44037e+12 -2.06719e+12 -1.61662e+12 -3.07557e+12 -1.48106e+12 -1.49853e+12 -3.0412e+12 -3.58941e+12 -2.2469e+12 -2.05305e+12 -2.1924e+12 -1.73982e+12 -1.52824e+12 -3.13455e+12 -4.05187e+12 -4.98948e+12 -3.03841e+12 -4.33968e+12 -3.00929e+12 -3.16691e+12 -1.46992e+12 -3.60605e+12 -1.97253e+12 -3.23215e+12 -2.77057e+12 -2.17981e+12 -2.63568e+12 -2.98807e+12 -3.06884e+12 -1.63327e+12 -1.60563e+12 -2.96506e+12 -2.67249e+12 -2.24699e+12 -1.1359e+12 -2.63939e+12 -2.9067e+12 -1.08019e+12 -2.64927e+12 -1.14276e+12 -1.45074e+12 -2.01102e+12 -1.43297e+12 -1.07059e+12 -1.9709e+12 -2.31578e+12 -1.59267e+12 -1.39309e+12 -1.37626e+12 -2.35967e+12 -1.67628e+12 -1.90189e+12 -1.44347e+12 -1.26559e+12 -2.0731e+12 -1.05432e+12 -2.03782e+12 -2.42486e+12 -1.98845e+12 -1.67535e+12 -1.75703e+12 -2.59159e+12 -2.87286e+12 -2.38868e+12 -2.44803e+12 -2.25394e+12 -4.78227e+12 -3.37899e+12 -1.39203e+12 -2.19391e+12 -2.0776e+12 -2.38511e+12 -1.46502e+12 -2.43811e+12 -1.17078e+12 -4.56988e+12 -2.47712e+12 -1.87962e+12 -1.03312e+12 -1.5624e+12 -1.56205e+12 -1.58221e+12 -1.83237e+12 -1.93479e+12 -3.20742e+12 -1.25879e+12 -2.68991e+12 -2.50088e+12 -1.43935e+12 -1.57621e+12 -2.22411e+12 -1.27097e+12 -3.02978e+12 -2.09652e+12 -1.15302e+12 -2.73574e+12 -1.69504e+12 -2.21037e+12 -571365000000.0 -1.20667e+12 -2.2748e+12 -1.74519e+12 -2.29235e+12 -1.53801e+12 -3.10074e+12 -2.47901e+12 -1.69544e+12 -2.44151e+12 -852423000000.0 -2.01954e+12 -1.87175e+12 -1.46177e+12 -3.72859e+12 -2.63173e+12 -2.6013e+12 -943314000000.0 -2.6349e+12 -2.13231e+12 -2.81111e+12 -1.46852e+12 -1.92968e+12 -2.15633e+12 -1.56726e+12 -1.65707e+12 -2.07856e+12 -2.89341e+12 -1.56138e+12 -2.47709e+12 -2.83558e+12 -2.51114e+12 -2.5624e+12 -2.65231e+12 -1.57213e+12 -1.67875e+12 -1.96393e+12 -2.11834e+12 -3.0363e+12 -1.72556e+12 -1.80623e+12 -1.07045e+12 -2.17499e+12 -359808000000.0 -2.37393e+12 -495733000000.0 -1.4844e+12 -2.48697e+12 -2.12926e+12 -851825000000.0 -1.22245e+12 -1.68715e+12 -882766000000.0 -1.3183e+12 -1.50869e+12 -1.12252e+12 -890046000000.0 -2.19291e+12 -1.48715e+12 -1.87875e+12 -1.04691e+12 -854389000000.0 -1.46085e+12 -1.26523e+12 -2.47409e+12 -969980000000.0 -1.5188e+12 -1.06722e+12 -1.25419e+12 -1.88861e+12 -674232000000.0 -1.10635e+12 -1.07974e+12 -1.26998e+12 -2.16724e+12 -1.20209e+12 -677226000000.0 -833911000000.0 -296693000000.0 -448046000000.0 -1.34215e+12 -3.21191e+12 -1.21222e+12 -1.53262e+12 -2.07992e+12 -1.90292e+12 -480463000000.0 -2.91166e+12 -2.45042e+12 -1.19991e+12 -1.04499e+12 -978776000000.0 -565016000000.0 -1.94541e+12 -652588000000.0 -742941000000.0 -2.01409e+12 -1.72194e+12 -2.33005e+12 -1.16679e+12 -379851000000.0 -1.50936e+12 -1.1094e+12 -1.4115e+12 -772157000000.0 -1.75191e+12 -1.66154e+12 -2.08388e+12 -1.88766e+12 -1.11386e+12 -1.0009e+12 -611717000000.0 -840323000000.0 -932546000000.0 -1.64035e+12 -1.97777e+12 -409615000000.0 -947364000000.0 -1.94761e+12 -599914000000.0 -1.40773e+12 -716867000000.0 -1.18424e+12 -1.9024e+12 -1.4697e+12 -1.28238e+12 -1.16536e+12 -1.02541e+12 -1.39263e+12 -467513000000.0 -1.03286e+12 -2.67327e+12 -1.82445e+12 -1.97379e+12 -548487000000.0 -719732000000.0 -965111000000.0 -969684000000.0 -931784000000.0 -197958000000.0 -1.15058e+12 -375631000000.0 -765585000000.0 -551663000000.0 -680442000000.0 -1.28172e+12 -1.0187e+12 -309174000000.0 -687957000000.0 -516090000000.0 -662872000000.0 -242191000000.0 -459171000000.0 -168368000000.0 -359748000000.0 -1.06223e+12 -559620000000.0 -1.08416e+12 -1.05516e+12 -991131000000.0 -724060000000.0 -731900000000.0 -1.09253e+12 -145128000000.0 -866990000000.0 -548549000000.0 -1.06191e+12 -1.04207e+12 -555532000000.0 -903348000000.0 -734326000000.0 -726609000000.0 -1.03021e+12 -502655000000.0 -332073000000.0 -989767000000.0 -191713000000.0 -533846000000.0 -1.75323e+12 -1.12703e+12 -336701000000.0 -1.3415e+12 -364569000000.0 -633672000000.0 -454258000000.0 -538138000000.0 -178125000000.0 -824893000000.0 -968890000000.0 -823797000000.0 -662370000000.0 -371222000000.0 -525818000000.0 -857561000000.0 -1.62995e+12 -164119000000.0 -1.07561e+12 -465776000000.0 -797286000000.0 -184114000000.0 -388892000000.0 -391297000000.0 -366385000000.0 -1.16113e+12 -229583000000.0 -162464000000.0 -662490000000.0 -257775000000.0 -441467000000.0 -1.31041e+12 -289709000000.0 -876987000000.0 -279638000000.0 -761557000000.0 -986723000000.0 -219730000000.0 -680006000000.0 -477823000000.0 -211049000000.0 -447230000000.0 -750916000000.0 -1.23776e+12 -360681000000.0 -552825000000.0 -480647000000.0 -648095000000.0 -1.11412e+12 -658042000000.0 -81895700000.0 -618233000000.0 -409774000000.0 -240256000000.0 -261524000000.0 -193587000000.0 -66507500000.0 -208930000000.0 -244679000000.0 -343848000000.0 -234398000000.0 -277260000000.0 -172500000000.0 -137644000000.0 -459860000000.0 -425157000000.0 -359551000000.0 -176879000000.0 -293452000000.0 -229182000000.0 -446934000000.0 -235313000000.0 -318509000000.0 -86257400000.0 -99266700000.0 -231223000000.0 -258031000000.0 -314422000000.0 -151727000000.0 -186509000000.0 -128085000000.0 -167584000000.0 