# vtk DataFile Version 2.0
Time step 38
ASCII
DATASET UNSTRUCTURED_GRID
POINTS 5000 float
27669.6 115543.0 0
372012.0 115638.0 0
2398.28 118634.0 0
8532.47 118008.0 0
12438.9 117841.0 0
16747.6 117159.0 0
22243.6 118807.0 0
33203.8 118230.0 0
38184.4 118814.0 0
42703.0 118966.0 0
47472.6 118873.0 0
52137.1 118972.0 0
57005.0 117812.0 0
62763.5 118887.0 0
67994.7 119021.0 0
72702.4 118154.0 0
77500.0 118900.0 0
82500.0 118890.0 0
87407.7 118188.0 0
92500.0 118928.0 0
97192.7 118949.0 0
101292.0 118866.0 0
105946.0 118256.0 0
111936.0 118735.0 0
117850.0 118920.0 0
123330.0 118997.0 0
128345.0 119118.0 0
133428.0 118366.0 0
138124.0 119050.0 0
142500.0 118971.0 0
147500.0 118905.0 0
152501.0 118874.0 0
157589.0 118502.0 0
162561.0 118658.0 0
167011.0 118199.0 0
171830.0 117082.0 0
177734.0 117121.0 0
182938.0 116307.0 0
187393.0 118161.0 0
192498.0 119323.0 0
196079.0 118486.0 0
201748.0 117846.0 0
207651.0 118610.0 0
212985.0 117946.0 0
218128.0 119031.0 0
222480.0 119044.0 0
225794.0 118274.0 0
230434.0 118146.0 0
235810.0 119143.0 0
241170.0 117847.0 0
246502.0 119849.0 0
252679.0 117833.0 0
259052.0 118308.0 0
263774.0 119396.0 0
268740.0 118305.0 0
273935.0 118601.0 0
278881.0 117251.0 0
282030.0 120584.0 0
286325.0 118891.0 0
291717.0 119348.0 0
297319.0 117216.0 0
303664.0 118001.0 0
307730.0 120571.0 0
312126.0 118425.0 0
317928.0 119044.0 0
323245.0 118948.0 0
327581.0 119218.0 0
332206.0 118817.0 0
337223.0 118526.0 0
341019.0 119737.0 0
345896.0 118072.0 0
350687.0 119995.0 0
355259.0 118980.0 0
361815.0 117619.0 0
367954.0 118954.0 0
377031.0 117610.0 0
382609.0 118483.0 0
388132.0 117783.0 0
394019.0 117099.0 0
399200.0 118769.0 0
403649.0 116027.0 0
408587.0 117238.0 0
412474.0 118888.0 0
417500.0 118933.0 0
422737.0 117045.0 0
427271.0 118754.0 0
432479.0 116558.0 0
437539.0 118910.0 0
442089.0 117852.0 0
446252.0 117432.0 0
450665.0 118200.0 0
455208.0 118141.0 0
460242.0 117986.0 0
465794.0 118373.0 0
471628.0 117630.0 0
477063.0 116433.0 0
481305.0 119296.0 0
485844.0 116365.0 0
491674.0 117904.0 0
497601.0 116397.0 0
2284.45 123650.0 0
6061.68 121328.0 0
11086.6 122359.0 0
17331.9 123062.0 0
23004.7 124318.0 0
28518.6 121895.0 0
34968.4 123505.0 0
40340.9 123823.0 0
44463.8 124165.0 0
48278.9 122868.0 0
52500.0 123932.0 0
57995.0 123253.0 0
62849.8 123987.0 0
67505.2 123659.0 0
72116.3 123273.0 0
77500.0 124058.0 0
82116.1 123705.0 0
87907.8 122946.0 0
92500.0 124067.0 0
97183.6 123697.0 0
102467.0 123601.0 0
108243.0 122848.0 0
112500.0 124004.0 0
117500.0 124085.0 0
122500.0 124008.0 0
127727.0 123551.0 0
132494.0 123902.0 0
137520.0 123916.0 0
142774.0 123394.0 0
146927.0 123742.0 0
151938.0 123619.0 0
156861.0 122552.0 0
161297.0 123372.0 0
166509.0 122871.0 0
172971.0 122651.0 0
178375.0 122533.0 0
183532.0 121375.0 0
188603.0 122607.0 0
193570.0 123467.0 0
198250.0 122831.0 0
203920.0 123466.0 0
213692.0 122496.0 0
209356.0 123680.0 0
217601.0 124102.0 0
222033.0 123869.0 0
226802.0 122509.0 0
232205.0 123570.0 0
237686.0 124394.0 0
243284.0 124220.0 0
248461.0 123923.0 0
252678.0 124393.0 0
257263.0 122946.0 0
262325.0 123572.0 0
267063.0 123149.0 0
271612.0 122453.0 0
277074.0 122857.0 0
282828.0 124270.0 0
287500.0 123982.0 0
292911.0 123839.0 0
298249.0 122727.0 0
303118.0 123672.0 0
307442.0 123864.0 0
312501.0 124176.0 0
317477.0 123919.0 0
322434.0 123416.0 0
327500.0 123962.0 0
332500.0 124034.0 0
337713.0 123368.0 0
343307.0 122762.0 0
347751.0 123160.0 0
352668.0 123885.0 0
361441.0 122932.0 0
357755.0 123400.0 0
365114.0 122626.0 0
372930.0 122439.0 0
378819.0 122160.0 0
382004.0 123299.0 0
388374.0 122871.0 0
393553.0 123246.0 0
402998.0 122226.0 0
398136.0 123681.0 0
408387.0 121519.0 0
412864.0 122831.0 0
417519.0 123449.0 0
422128.0 121682.0 0
428326.0 123697.0 0
433428.0 121791.0 0
437510.0 123978.0 0
443214.0 122134.0 0
447601.0 121442.0 0
451945.0 122678.0 0
457176.0 122868.0 0
462429.0 124356.0 0
466599.0 122943.0 0
470193.0 124123.0 0
475181.0 122923.0 0
480797.0 124571.0 0
486589.0 122555.0 0
492077.0 124805.0 0
496837.0 121906.0 0
2238.62 129571.0 0
6739.35 126373.0 0
11843.6 128190.0 0
16323.6 128269.0 0
20503.0 128280.0 0
27042.8 128727.0 0
32615.5 128561.0 0
38262.8 128336.0 0
42969.7 128722.0 0
47588.2 127589.0 0
51800.1 129353.0 0
56554.0 128873.0 0
62114.6 128845.0 0
67697.1 128503.0 0
73695.6 128816.0 0
78211.1 129256.0 0
81954.6 128431.0 0
86960.4 128462.0 0
92531.5 128818.0 0
97548.4 128216.0 0
102630.0 129363.0 0
107924.0 127627.0 0
116732.0 128688.0 0
112494.0 128901.0 0
120857.0 128539.0 0
125864.0 127919.0 0
131158.0 129618.0 0
136445.0 129570.0 0
140993.0 127515.0 0
146306.0 128633.0 0
151834.0 130231.0 0
156245.0 127112.0 0
161703.0 129063.0 0
166528.0 130881.0 0
169997.0 127438.0 0
176294.0 128291.0 0
182187.0 126514.0 0
188049.0 128769.0 0
194261.0 128493.0 0
199972.0 127935.0 0
208111.0 128588.0 0
204288.0 128931.0 0
213300.0 127307.0 0
217709.0 129036.0 0
222564.0 128143.0 0
226872.0 127514.0 0
232444.0 129035.0 0
237422.0 128820.0 0
241792.0 129473.0 0
246842.0 127991.0 0
251785.0 129284.0 0
257737.0 127698.0 0
262719.0 128349.0 0
267488.0 127603.0 0
273046.0 127694.0 0
279878.0 126919.0 0
283555.0 129204.0 0
287216.0 129272.0 0
291017.0 128146.0 0
296735.0 127770.0 0
302234.0 128907.0 0
307700.0 128294.0 0
313207.0 129419.0 0
318189.0 128409.0 0
322510.0 127421.0 0
326813.0 129303.0 0
336511.0 128033.0 0
331856.0 129020.0 0
341413.0 126968.0 0
346845.0 127547.0 0
351893.0 128720.0 0
356026.0 127273.0 0
361260.0 127634.0 0
357350.0 131231.0 0
366513.0 126707.0 0
371101.0 128579.0 0
377674.0 128095.0 0
384354.0 126636.0 0
392424.0 128069.0 0
388338.0 129825.0 0
397217.0 128028.0 0
402858.0 128467.0 0
409243.0 127164.0 0
414412.0 129718.0 0
419143.0 128138.0 0
424120.0 126499.0 0
427684.0 129535.0 0
432249.0 127414.0 0
437341.0 128153.0 0
442357.0 127371.0 0
448274.0 126515.0 0
454177.0 128083.0 0
458991.0 129131.0 0
463186.0 128894.0 0
467519.0 129004.0 0
472372.0 127445.0 0
477747.0 128395.0 0
482622.0 129267.0 0
487506.0 130368.0 0
491506.0 128866.0 0
496591.0 128476.0 0
2182.12 133986.0 0
8050.26 132214.0 0
13471.7 132816.0 0
17752.1 132114.0 0
22417.0 132654.0 0
26988.1 134651.0 0
32071.7 132848.0 0
37588.4 133541.0 0
43204.9 133785.0 0
49063.5 132380.0 0
53807.2 134054.0 0
59222.7 133552.0 0
63616.8 133176.0 0
68064.9 134175.0 0
72603.0 133692.0 0
77068.8 133176.0 0
82136.1 133452.0 0
87334.1 133635.0 0
92269.2 134149.0 0
97732.2 133568.0 0
102767.0 134820.0 0
107685.0 133126.0 0
113113.0 133231.0 0
118138.0 133165.0 0
123420.0 132526.0 0
127500.0 134083.0 0
137738.0 133484.0 0
132691.0 134446.0 0
142523.0 133634.0 0
148001.0 133241.0 0
156828.0 132507.0 0
153419.0 134885.0 0
160406.0 133875.0 0
164429.0 134584.0 0
170842.0 133467.0 0
177032.0 134859.0 0
182233.0 131992.0 0
186625.0 134403.0 0
191646.0 133891.0 0
197223.0 133221.0 0
203055.0 133075.0 0
208748.0 134935.0 0
214360.0 132978.0 0
218717.0 134284.0 0
222022.0 132401.0 0
227507.0 133064.0 0
234331.0 133415.0 0
237873.0 132144.0 0
241750.0 134075.0 0
246211.0 133177.0 0
251519.0 134543.0 0
255873.0 132414.0 0
260337.0 132084.0 0
262637.0 135658.0 0
266350.0 132286.0 0
271757.0 133963.0 0
278361.0 132422.0 0
284358.0 133943.0 0
288758.0 132426.0 0
292983.0 134141.0 0
298941.0 134071.0 0
303985.0 134302.0 0
307500.0 134126.0 0
316255.0 133124.0 0
312166.0 133945.0 0
321077.0 132649.0 0
325851.0 134236.0 0
329893.0 132846.0 0
334357.0 134842.0 0
339780.0 132359.0 0
346088.0 133801.0 0
352844.0 134296.0 0
361674.0 133622.0 0
366552.0 131400.0 0
367105.0 136307.0 0
371934.0 134213.0 0
377880.0 135546.0 0
382813.0 132152.0 0
387369.0 134010.0 0
393045.0 134740.0 0
399508.0 133637.0 0
408059.0 132513.0 0
404320.0 133663.0 0
412347.0 134183.0 0
416949.0 133520.0 0
421365.0 134771.0 0
425657.0 133162.0 0
431065.0 133606.0 0
437115.0 132348.0 0
441813.0 132957.0 0
446525.0 131513.0 0
450849.0 132012.0 0
455409.0 133854.0 0
461202.0 133545.0 0
466978.0 133330.0 0
472595.0 132405.0 0
478848.0 133894.0 0
484705.0 134407.0 0
489148.0 135132.0 0
492124.0 132722.0 0
496754.0 135118.0 0
1482.5 138662.0 0
7153.99 138521.0 0
11904.1 136556.0 0
12670.3 141061.0 0
17160.9 137293.0 0
23052.3 138038.0 0
30223.8 137388.0 0
28648.1 141434.0 0
34874.6 138182.0 0
39763.8 137604.0 0
43682.1 139440.0 0
48581.3 137604.0 0
53134.2 140054.0 0
57213.1 137944.0 0
63065.5 137951.0 0
68311.3 139350.0 0
73400.6 137750.0 0
78301.6 138324.0 0
83592.9 138392.0 0
88397.3 138453.0 0
92508.0 138991.0 0
97237.1 138984.0 0
101195.0 139049.0 0
105586.0 138642.0 0
111306.0 137814.0 0
116640.0 138423.0 0
122098.0 137716.0 0
126931.0 138126.0 0
131218.0 138826.0 0
136577.0 138034.0 0
142212.0 139327.0 0
147011.0 137519.0 0
151801.0 139451.0 0
157942.0 138444.0 0
167047.0 137458.0 0
163658.0 139070.0 0
171004.0 139475.0 0
176728.0 141150.0 0
182933.0 138912.0 0
193693.0 137976.0 0
189204.0 138809.0 0
198249.0 139108.0 0
203175.0 138176.0 0
207321.0 140315.0 0
212116.0 139186.0 0
216320.0 137595.0 0
221176.0 137933.0 0
226331.0 139701.0 0
231983.0 137914.0 0
237943.0 136880.0 0
242843.0 138730.0 0
248029.0 138255.0 0
252898.0 138571.0 0
257727.0 137596.0 0
262830.0 141237.0 0
267588.0 138238.0 0
272698.0 139848.0 0
278480.0 139076.0 0
283574.0 138529.0 0
288835.0 137746.0 0
293487.0 138738.0 0
297507.0 140116.0 0
302639.0 138607.0 0
307116.0 138967.0 0
311942.0 138686.0 0
316967.0 137560.0 0
322297.0 138244.0 0
330939.0 138361.0 0
327151.0 139106.0 0
341520.0 137852.0 0
337122.0 138739.0 0
346661.0 139767.0 0
351580.0 139947.0 0
357892.0 137808.0 0
362982.0 138596.0 0
370166.0 139754.0 0
374543.0 139770.0 0
383271.0 138165.0 0
388208.0 138191.0 0
392170.0 140986.0 0
397893.0 139574.0 0
403055.0 137639.0 0
408163.0 137363.0 0
414684.0 137830.0 0
417928.0 139081.0 0
422498.0 139632.0 0
427477.0 137614.0 0
431260.0 139035.0 0
436125.0 137332.0 0
441994.0 138617.0 0
448329.0 137024.0 0
454026.0 139014.0 0
459444.0 139156.0 0
464980.0 138435.0 0
473887.0 137621.0 0
469645.0 139287.0 0
477662.0 140693.0 0
481986.0 138848.0 0
486774.0 138743.0 0
492177.0 139299.0 0
497457.0 140854.0 0
2749.54 142700.0 0
7839.06 145042.0 0
18088.1 143063.0 0
23745.1 143796.0 0
33632.0 143738.0 0
39134.0 142445.0 0
43744.3 143649.0 0
48693.0 143574.0 0
54180.7 144758.0 0
59719.5 142956.0 0
64871.0 144055.0 0
68289.3 143541.0 0
72212.9 141629.0 0
76319.6 143220.0 0
81940.8 143813.0 0
87886.1 143522.0 0
96906.5 143557.0 0
92636.9 143918.0 0
101491.0 143686.0 0
106437.0 143978.0 0
111043.0 142664.0 0
115385.0 143139.0 0
120870.0 143740.0 0
127440.0 143390.0 0
133301.0 143280.0 0
138725.0 143766.0 0
143743.0 143934.0 0
148389.0 143537.0 0
152799.0 144041.0 0
157000.0 144142.0 0
161442.0 142919.0 0
166774.0 142810.0 0
172236.0 145259.0 0
177078.0 145475.0 0
181363.0 145523.0 0
186882.0 143810.0 0
192410.0 143317.0 0
197843.0 144816.0 0
202629.0 142751.0 0
206635.0 144927.0 0
210631.0 143714.0 0
216384.0 143489.0 0
222686.0 143577.0 0
228326.0 145246.0 0
233994.0 146402.0 0
236018.0 141863.0 0
240939.0 144298.0 0
246424.0 144849.0 0
250905.0 142721.0 0
256765.0 143803.0 0
268273.0 143594.0 0
272894.0 144744.0 0
277851.0 145085.0 0
282084.0 142460.0 0
287110.0 143832.0 0
293046.0 143158.0 0
297883.0 145472.0 0
301871.0 142534.0 0
306177.0 144448.0 0
311438.0 144413.0 0
316865.0 142685.0 0
322341.0 144164.0 0
328008.0 143717.0 0
333888.0 142591.0 0
337525.0 146016.0 0
342205.0 143832.0 0
347983.0 144520.0 0
355552.0 142073.0 0
352294.0 144224.0 0
360518.0 143339.0 0
366515.0 143447.0 0
372526.0 144711.0 0
378547.0 143121.0 0
383423.0 142303.0 0
387242.0 142662.0 0
390735.0 145621.0 0
396043.0 145397.0 0
400402.0 143872.0 0
405312.0 142879.0 0
411970.0 141948.0 0
417776.0 143820.0 0
422968.0 144501.0 0
427292.0 141867.0 0
432239.0 143623.0 0
437084.0 142663.0 0
441852.0 144223.0 0
447111.0 143190.0 0
452641.0 144204.0 0
458109.0 144519.0 0
462539.0 144115.0 0
466555.0 143117.0 0
471813.0 143852.0 0
476954.0 145413.0 0
482254.0 144205.0 0
487738.0 143591.0 0
492470.0 145153.0 0
497459.0 145937.0 0
3057.65 148500.0 0
8751.94 150925.0 0
13609.4 146908.0 0
18379.6 150644.0 0
23879.9 149498.0 0
28781.9 146777.0 0
33719.3 149442.0 0
38541.2 147631.0 0
43270.7 147906.0 0
49671.5 148467.0 0
53686.6 149503.0 0
58566.1 148824.0 0
63416.4 148002.0 0
67007.0 148464.0 0
71705.6 146965.0 0
77975.5 148549.0 0
83400.2 149895.0 0
88019.2 148555.0 0
93070.4 148537.0 0
97999.8 148026.0 0
105783.0 148415.0 0
102078.0 149678.0 0
110766.0 148017.0 0
116642.0 147918.0 0
126500.0 148650.0 0
122655.0 149210.0 0
131194.0 147975.0 0
135219.0 149800.0 0
139748.0 149318.0 0
145105.0 148528.0 0
150851.0 148587.0 0
156884.0 149499.0 0
162036.0 147582.0 0
167180.0 147907.0 0
171462.0 150584.0 0
176185.0 149200.0 0
180974.0 151125.0 0
185795.0 149094.0 0
191577.0 149196.0 0
197331.0 150346.0 0
202644.0 148189.0 0
207608.0 148949.0 0
212134.0 148095.0 0
217212.0 149877.0 0
223347.0 149547.0 0
228979.0 151241.0 0
233410.0 150869.0 0
238460.0 150061.0 0
243836.0 149341.0 0
248989.0 148953.0 0
252375.0 146997.0 0
255539.0 149904.0 0
262543.0 148400.0 0
268735.0 148563.0 0
273494.0 149291.0 0
278387.0 150474.0 0
282796.0 147838.0 0
287974.0 149823.0 0
293223.0 148492.0 0
297717.0 150750.0 0
302611.0 148381.0 0
308390.0 149363.0 0
313173.0 148956.0 0
317437.0 148438.0 0
325881.0 147704.0 0
322200.0 149740.0 0
329967.0 148879.0 0
335032.0 149425.0 0
340299.0 149834.0 0
345920.0 150559.0 0
351085.0 148692.0 0
356012.0 146669.0 0
360814.0 149215.0 0
366437.0 149191.0 0
371144.0 149648.0 0
377227.0 150375.0 0
383498.0 146750.0 0
387808.0 149926.0 0
392749.0 149951.0 0
398357.0 150912.0 0
403887.0 148916.0 0
409494.0 147545.0 0
414469.0 147798.0 0
417767.0 147955.0 0
416993.0 151680.0 0
420955.0 148312.0 0
427627.0 148377.0 0
433304.0 147989.0 0
437890.0 147642.0 0
442652.0 149116.0 0
448517.0 149074.0 0
453997.0 149069.0 0
458540.0 149488.0 0
462991.0 149269.0 0
467794.0 148097.0 0
472983.0 149598.0 0
479980.0 149318.0 0
484308.0 149170.0 0
488547.0 148718.0 0
492634.0 149308.0 0
497770.0 150698.0 0
2142.5 154402.0 0
13671.5 154551.0 0
18603.3 155586.0 0
22343.7 153983.0 0
27491.2 154428.0 0
32329.1 153693.0 0
37270.8 154242.0 0
42439.5 155563.0 0
46373.2 152268.0 0
51407.9 154656.0 0
57399.6 154954.0 0
63644.4 153172.0 0
68688.2 151747.0 0
73556.8 154815.0 0
79820.2 154028.0 0
85123.6 154818.0 0
90126.2 153036.0 0
95037.0 154893.0 0
98602.3 152202.0 0
101293.0 155558.0 0
105636.0 152924.0 0
111336.0 154354.0 0
118205.0 153488.0 0
123813.0 153738.0 0
128387.0 152067.0 0
133268.0 154144.0 0
137790.0 153258.0 0
141902.0 154110.0 0
147422.0 153838.0 0
152993.0 153794.0 0
157246.0 155412.0 0
161787.0 153150.0 0
167144.0 152878.0 0
170762.0 154615.0 0
176882.0 154194.0 0
182322.0 155946.0 0
186887.0 154121.0 0
191538.0 154501.0 0
196350.0 155793.0 0
201627.0 153662.0 0
207155.0 153917.0 0
212989.0 153607.0 0
219801.0 154964.0 0
224911.0 154867.0 0
228653.0 155335.0 0
232794.0 154649.0 0
236990.0 155302.0 0
242100.0 153591.0 0
246557.0 153318.0 0
251471.0 152916.0 0
257766.0 155171.0 0
262741.0 154474.0 0
268253.0 154180.0 0
274071.0 154252.0 0
279359.0 155997.0 0
284550.0 153873.0 0
289720.0 154754.0 0
293311.0 152854.0 0
296530.0 155672.0 0
302308.0 154070.0 0
307427.0 154628.0 0
312021.0 153128.0 0
316759.0 153033.0 0
321330.0 154873.0 0
326426.0 153324.0 0
331733.0 153831.0 0
337285.0 155132.0 0
342892.0 155165.0 0
346830.0 155126.0 0
351165.0 153867.0 0
356392.0 152235.0 0
361679.0 155320.0 0
366975.0 154062.0 0
371657.0 154130.0 0
382202.0 154301.0 0
386895.0 154650.0 0
391451.0 154458.0 0
395529.0 155211.0 0
400530.0 156021.0 0
405864.0 154689.0 0
411606.0 153068.0 0
422629.0 153310.0 0
428259.0 154461.0 0
432998.0 152633.0 0
438724.0 153289.0 0
444698.0 153998.0 0
450508.0 155753.0 0
455669.0 153463.0 0
461372.0 154358.0 0
468721.0 153322.0 0
465832.0 156000.0 0
473166.0 155169.0 0
477805.0 153830.0 0
482449.0 153998.0 0
486595.0 152874.0 0
490651.0 153323.0 0
495005.0 154679.0 0
2239.97 158975.0 0
7229.67 157003.0 0
12440.0 160614.0 0
18048.8 160042.0 0
23274.6 158836.0 0
29081.5 160401.0 0
32590.5 157167.0 0
35953.2 160058.0 0
40992.9 159781.0 0
47006.7 158750.0 0
52812.1 159398.0 0
57602.4 161114.0 0
62195.1 158566.0 0
67963.2 158633.0 0
73651.0 161521.0 0
78090.1 158624.0 0
82804.2 159536.0 0
88773.7 159356.0 0
93972.2 159736.0 0
97844.0 158260.0 0
101251.0 159844.0 0
105727.0 158417.0 0
110243.0 159792.0 0
115522.0 159368.0 0
121623.0 158570.0 0
128113.0 158106.0 0
137500.0 157200.0 0
133715.0 158978.0 0
142031.0 159378.0 0
148122.0 160420.0 0
153546.0 158614.0 0
157984.0 159591.0 0
163103.0 158988.0 0
173356.0 157862.0 0
168439.0 158148.0 0
177762.0 158636.0 0
181596.0 160518.0 0
186463.0 159388.0 0
191579.0 159012.0 0
195893.0 161544.0 0
201125.0 159254.0 0
207148.0 159979.0 0
212099.0 158540.0 0
216813.0 159751.0 0
221591.0 160570.0 0
226069.0 159396.0 0
231021.0 158683.0 0
235877.0 159941.0 0
241284.0 158500.0 0
246730.0 158254.0 0
252429.0 158428.0 0
257588.0 160418.0 0
263721.0 159977.0 0
269614.0 159844.0 0
274592.0 159234.0 0
279915.0 161341.0 0
284010.0 158334.0 0
288599.0 159769.0 0
292657.0 158177.0 0
298741.0 160378.0 0
303659.0 159024.0 0
307810.0 158948.0 0
312331.0 158356.0 0
317608.0 158068.0 0
323361.0 159862.0 0
328007.0 157988.0 0
332710.0 158944.0 0
337432.0 160445.0 0
345480.0 158841.0 0
341917.0 159094.0 0
349520.0 158060.0 0
355330.0 158436.0 0
360666.0 160508.0 0
366488.0 158782.0 0
373422.0 159280.0 0
378336.0 156981.0 0
378300.0 161478.0 0
383175.0 159945.0 0
392583.0 158829.0 0
388074.0 159055.0 0
397115.0 159068.0 0
408060.0 159446.0 0
403355.0 160168.0 0
412515.0 158314.0 0
417169.0 156808.0 0
421021.0 158858.0 0
425372.0 158494.0 0
431956.0 158278.0 0
437684.0 159529.0 0
443670.0 159580.0 0
454497.0 158710.0 0
458797.0 159649.0 0
463933.0 159473.0 0
469296.0 158806.0 0
474375.0 159707.0 0
479087.0 158718.0 0
483695.0 160400.0 0
486590.0 157078.0 0
491388.0 159146.0 0
497411.0 159296.0 0
2127.29 163342.0 0
6959.84 162887.0 0
12579.8 166023.0 0
16008.3 164049.0 0
20037.0 164327.0 0
24884.6 164088.0 0
32221.3 164765.0 0
37672.5 165660.0 0
43317.5 164205.0 0
48685.7 164747.0 0
53578.9 163927.0 0
57457.9 166025.0 0
62542.2 163799.0 0
67219.3 163885.0 0
71132.6 166290.0 0
79097.5 164144.0 0
84541.3 164135.0 0
88605.2 164392.0 0
92508.1 163842.0 0
97466.6 162651.0 0
102445.0 164269.0 0
107193.0 163169.0 0
111837.0 163955.0 0
117995.0 164875.0 0
123248.0 163801.0 0
127767.0 163494.0 0
132819.0 164048.0 0
138523.0 163304.0 0
143145.0 164207.0 0
151877.0 164206.0 0
147994.0 166395.0 0
156564.0 164423.0 0
161568.0 163921.0 0
166876.0 163024.0 0
173249.0 164083.0 0
178608.0 164232.0 0
183534.0 165169.0 0
189457.0 164237.0 0
193908.0 165367.0 0
199741.0 164269.0 0
203874.0 164851.0 0
208360.0 165118.0 0
212779.0 163197.0 0
219058.0 164500.0 0
223358.0 164068.0 0
227641.0 164098.0 0
232481.0 163394.0 0
237728.0 164401.0 0
242290.0 164824.0 0
246695.0 163092.0 0
251868.0 164678.0 0
257453.0 164715.0 0
262304.0 166204.0 0
267690.0 164032.0 0
271758.0 163597.0 0
276114.0 164063.0 0
284284.0 162747.0 0
288578.0 165008.0 0
293599.0 162719.0 0
298813.0 165139.0 0
302640.0 163966.0 0
306700.0 162820.0 0
311690.0 164049.0 0
316843.0 162900.0 0
321344.0 164793.0 0
324883.0 163754.0 0
328697.0 162700.0 0
334155.0 164567.0 0
339612.0 164351.0 0
344144.0 163057.0 0
350101.0 163716.0 0
356713.0 165282.0 0
363253.0 165172.0 0
369397.0 163571.0 0
374925.0 164599.0 0
379745.0 165449.0 0
384038.0 165569.0 0
388070.0 163555.0 0
393146.0 163901.0 0
397923.0 163248.0 0
401989.0 164494.0 0
406596.0 164070.0 0
412748.0 164210.0 0
418442.0 162240.0 0
423546.0 163657.0 0
428717.0 162300.0 0
433883.0 164763.0 0
440196.0 165694.0 0
445499.0 164299.0 0
448656.0 166846.0 0
450715.0 162185.0 0
456146.0 163793.0 0
463205.0 163517.0 0
460062.0 164254.0 0
467453.0 164071.0 0
472541.0 164005.0 0
477866.0 164046.0 0
482744.0 164648.0 0
487589.0 163643.0 0
492465.0 164335.0 0
497811.0 164057.0 0
3067.46 168451.0 0
8553.4 167387.0 0
7504.08 171806.0 0
12198.0 170570.0 0
16419.6 168220.0 0
21310.8 169230.0 0
27464.5 169443.0 0
32650.6 168577.0 0
37794.1 171027.0 0
42303.1 169356.0 0
47950.4 170256.0 0
53255.7 168883.0 0
58928.4 169916.0 0
62499.3 168221.0 0
66930.2 168321.0 0
71360.0 170470.0 0
76176.9 169335.0 0
80897.5 172001.0 0
82350.4 167740.0 0
86392.2 168075.0 0
91253.1 168924.0 0
96601.1 167773.0 0
101325.0 168931.0 0
106449.0 168337.0 0
112395.0 169467.0 0
118078.0 170302.0 0
123220.0 169053.0 0
128380.0 167996.0 0
133236.0 169532.0 0
138695.0 169035.0 0
143897.0 168248.0 0
146817.0 170633.0 0
152640.0 168639.0 0
158022.0 168902.0 0
162828.0 168054.0 0
168108.0 168476.0 0
172596.0 169761.0 0
177247.0 169518.0 0
182427.0 170125.0 0
187087.0 169123.0 0
192266.0 169391.0 0
197935.0 168990.0 0
202909.0 168833.0 0
207315.0 169820.0 0
212052.0 168141.0 0
217205.0 169569.0 0
222465.0 168291.0 0
227445.0 169640.0 0
232441.0 168101.0 0
237067.0 168713.0 0
241374.0 169295.0 0
246107.0 168108.0 0
254524.0 169150.0 0
250346.0 169689.0 0
258824.0 169780.0 0
267464.0 169368.0 0
272516.0 167484.0 0
277256.0 169344.0 0
283199.0 168139.0 0
288218.0 169563.0 0
292769.0 168324.0 0
297379.0 169090.0 0
302101.0 169103.0 0
306889.0 167547.0 0
316043.0 167794.0 0
311367.0 169562.0 0
320407.0 169212.0 0
326140.0 168541.0 0
332574.0 170620.0 0
338274.0 169614.0 0
343318.0 168002.0 0
348159.0 169199.0 0
353181.0 169753.0 0
358609.0 170799.0 0
363217.0 170663.0 0
372381.0 168741.0 0
367630.0 169132.0 0
377383.0 170101.0 0
382006.0 168628.0 0
387373.0 168179.0 0
391834.0 168615.0 0
396413.0 167832.0 0
401427.0 169396.0 0
406576.0 168933.0 0
411926.0 170570.0 0
417743.0 168164.0 0
422243.0 171092.0 0
428007.0 168508.0 0
435854.0 170035.0 0
440095.0 170643.0 0
444886.0 169450.0 0
448961.0 169960.0 0
453284.0 168568.0 0
458569.0 167677.0 0
463269.0 167709.0 0
468255.0 169128.0 0
473568.0 169188.0 0
478469.0 168959.0 0
481961.0 169483.0 0
485375.0 168106.0 0
490341.0 168222.0 0
495334.0 168312.0 0
2830.05 174357.0 0
9656.16 175660.0 0
12523.1 174209.0 0
17163.6 173760.0 0
23588.8 174663.0 0
28516.6 174530.0 0
32914.8 172684.0 0
37936.6 176692.0 0
44154.1 174716.0 0
48946.7 176406.0 0
51665.3 173372.0 0
56221.7 173462.0 0
61494.6 173895.0 0
67361.4 173822.0 0
73113.8 174838.0 0
78023.8 175843.0 0
86724.3 173700.0 0
92877.7 174908.0 0
98369.1 173145.0 0
103677.0 173087.0 0
108522.0 173733.0 0
113658.0 174849.0 0
118712.0 175604.0 0
123558.0 174087.0 0
128427.0 173172.0 0
133082.0 174053.0 0
137597.0 174412.0 0
141642.0 176944.0 0
143072.0 172374.0 0
146707.0 174680.0 0
150635.0 172575.0 0
155608.0 172655.0 0
161150.0 172937.0 0
167133.0 174554.0 0
172930.0 174049.0 0
178055.0 175028.0 0
183652.0 174891.0 0
189253.0 173864.0 0
194195.0 173912.0 0
203778.0 173051.0 0
199079.0 174640.0 0
208282.0 174861.0 0
213126.0 173399.0 0
217850.0 174874.0 0
222500.0 174043.0 0
227501.0 174218.0 0
231371.0 172237.0 0
231615.0 176424.0 0
235341.0 172759.0 0
241013.0 173686.0 0
246230.0 173957.0 0
252670.0 174436.0 0
257745.0 173568.0 0
257368.0 176907.0 0
262637.0 172702.0 0
268646.0 174085.0 0
272484.0 172136.0 0
276645.0 174393.0 0
282615.0 173918.0 0
287958.0 173975.0 0
293356.0 173803.0 0
298041.0 172957.0 0
302179.0 175016.0 0
306759.0 172421.0 0
311376.0 174784.0 0
317142.0 173484.0 0
322858.0 173749.0 0
326680.0 173490.0 0
331450.0 175032.0 0
328119.0 176991.0 0
335629.0 175517.0 0
340792.0 174311.0 0
345206.0 172401.0 0
349873.0 173820.0 0
355446.0 175987.0 0
361542.0 175377.0 0
367145.0 174528.0 0
372562.0 173655.0 0
377581.0 175837.0 0
382877.0 173283.0 0
389045.0 173150.0 0
397274.0 173010.0 0
393440.0 175303.0 0
402362.0 175034.0 0
407527.0 173642.0 0
411987.0 175876.0 0
417011.0 173864.0 0
421587.0 175716.0 0
426096.0 174615.0 0
432015.0 173900.0 0
437802.0 174989.0 0
443155.0 174471.0 0
447791.0 173639.0 0
452659.0 174480.0 0
457754.0 172526.0 0
463135.0 172882.0 0
468197.0 174270.0 0
473086.0 174346.0 0
478100.0 173797.0 0
482743.0 174107.0 0
487710.0 173014.0 0
493260.0 173047.0 0
497791.0 172602.0 0
2517.84 179700.0 0
7269.32 179104.0 0
12115.8 179436.0 0
17591.5 180035.0 0
23415.4 180722.0 0
28808.3 179039.0 0
32721.7 177382.0 0
39401.7 181660.0 0
43273.3 180147.0 0
47708.3 180226.0 0
52883.1 179066.0 0
58209.4 178238.0 0
64168.7 179498.0 0
71363.1 178383.0 0
69257.4 180444.0 0
75109.2 180211.0 0
81048.5 180008.0 0
87053.5 180361.0 0
96751.0 178965.0 0
92020.2 179490.0 0
101923.0 177440.0 0
107424.0 179827.0 0
113364.0 179845.0 0
118426.0 180864.0 0
123399.0 179153.0 0
128618.0 178336.0 0
133599.0 178583.0 0
137995.0 180220.0 0
145475.0 179541.0 0
150727.0 178286.0 0
156815.0 177882.0 0
162657.0 179005.0 0
170994.0 178915.0 0
175347.0 180641.0 0
183159.0 178843.0 0
179616.0 179715.0 0
187239.0 178945.0 0
192616.0 178520.0 0
197964.0 180279.0 0
202934.0 178061.0 0
206812.0 180418.0 0
210962.0 178968.0 0
215630.0 179190.0 0
221237.0 179266.0 0
227183.0 179578.0 0
237591.0 178453.0 0
243852.0 179159.0 0
248905.0 178928.0 0
254148.0 180564.0 0
260306.0 178945.0 0
265515.0 177871.0 0
272406.0 178440.0 0
279500.0 179161.0 0
285572.0 178048.0 0
284057.0 182306.0 0
290281.0 177915.0 0
293631.0 181289.0 0
297350.0 178155.0 0
302307.0 180122.0 0
306879.0 177896.0 0
312363.0 180836.0 0
318329.0 179303.0 0
323489.0 178697.0 0
332372.0 179487.0 0
340949.0 178890.0 0
337055.0 180101.0 0
345695.0 177691.0 0
350921.0 179803.0 0
359290.0 180183.0 0
364352.0 179874.0 0
368943.0 179191.0 0
373329.0 178525.0 0
377200.0 180921.0 0
381328.0 179109.0 0
386961.0 179293.0 0
393350.0 180157.0 0
398525.0 178589.0 0
402912.0 179974.0 0
407773.0 179042.0 0
415877.0 179674.0 0
421176.0 180975.0 0
424599.0 178651.0 0
428964.0 179187.0 0
434132.0 178879.0 0
438736.0 180173.0 0
442787.0 178833.0 0
447717.0 178903.0 0
453044.0 179502.0 0
458330.0 178332.0 0
463623.0 177700.0 0
463597.0 182242.0 0
468162.0 179597.0 0
473598.0 178758.0 0
478150.0 178955.0 0
482809.0 178307.0 0
481099.0 182297.0 0
487497.0 178595.0 0
492502.0 177997.0 0
497556.0 177250.0 0
2475.47 184693.0 0
7677.44 184125.0 0
12004.9 183637.0 0
15772.4 185070.0 0
20838.9 185767.0 0
26808.1 185107.0 0
34064.4 182771.0 0
40053.0 185904.0 0
44704.3 184613.0 0
48758.5 183936.0 0
53064.2 184240.0 0
59514.2 183331.0 0
63885.2 184635.0 0
67606.0 183894.0 0
71691.7 183835.0 0
78265.3 183718.0 0
82472.3 184998.0 0
87141.1 185951.0 0
91999.6 184130.0 0
97000.4 184080.0 0
102128.0 183331.0 0
106970.0 185706.0 0
111124.0 184140.0 0
115819.0 185508.0 0
121102.0 185510.0 0
126570.0 183858.0 0
132454.0 183556.0 0
137140.0 184691.0 0
142292.0 183823.0 0
147729.0 183291.0 0
152626.0 183941.0 0
157521.0 182965.0 0
162025.0 184574.0 0
167210.0 183005.0 0
172467.0 184063.0 0
178178.0 184974.0 0
183467.0 182766.0 0
186111.0 187168.0 0
190429.0 183536.0 0
195415.0 184981.0 0
203350.0 183416.0 0
199785.0 185599.0 0
208219.0 184400.0 0
212603.0 183469.0 0
217695.0 183876.0 0
223417.0 184115.0 0
227698.0 184574.0 0
232736.0 183803.0 0
237921.0 184469.0 0
242252.0 183350.0 0
246580.0 183244.0 0
251461.0 185028.0 0
257658.0 184839.0 0
262655.0 183069.0 0
268086.0 183128.0 0
273562.0 185147.0 0
279478.0 185355.0 0
289116.0 183014.0 0
293857.0 185509.0 0
298809.0 183905.0 0
302793.0 183590.0 0
302707.0 186749.0 0
307473.0 183454.0 0
307443.0 187388.0 0
312807.0 186654.0 0
316382.0 184218.0 0
321289.0 184323.0 0
327597.0 182867.0 0
333605.0 184469.0 0
340751.0 183023.0 0
337888.0 185973.0 0
346462.0 184245.0 0
352479.0 184623.0 0
358046.0 185765.0 0
362684.0 183738.0 0
367601.0 184465.0 0
373234.0 183649.0 0
377756.0 185654.0 0
383127.0 184522.0 0
388875.0 185173.0 0
397598.0 183006.0 0
393912.0 185435.0 0
401994.0 184592.0 0
407553.0 184844.0 0
417738.0 183834.0 0
413355.0 184869.0 0
420742.0 185118.0 0
426077.0 184561.0 0
432063.0 183661.0 0
436731.0 184015.0 0
442764.0 183854.0 0
448811.0 186002.0 0
453408.0 183673.0 0
458509.0 184861.0 0
467769.0 184913.0 0
471814.0 182456.0 0
476448.0 183987.0 0
485657.0 183259.0 0
490708.0 184294.0 0
496000.0 182529.0 0
3210.45 189822.0 0
8257.15 189224.0 0
12762.5 188861.0 0
17405.9 189829.0 0
22005.9 190364.0 0
26228.6 189892.0 0
30951.3 188393.0 0
35931.1 188509.0 0
40007.7 191633.0 0
43629.1 188598.0 0
47754.4 187969.0 0
51808.0 188298.0 0
52669.1 192493.0 0
56828.7 188518.0 0
62578.3 188649.0 0
67169.7 189072.0 0
72519.6 189021.0 0
77990.9 187816.0 0
82527.2 189423.0 0
86294.8 190018.0 0
90160.0 189265.0 0
95222.3 189103.0 0
101125.0 189000.0 0
106555.0 190728.0 0
111796.0 189002.0 0
118332.0 190179.0 0
123280.0 189937.0 0
127624.0 188978.0 0
132214.0 188873.0 0
137231.0 189290.0 0
141707.0 190563.0 0
146468.0 188286.0 0
151573.0 190750.0 0
156133.0 187908.0 0
161834.0 190875.0 0
169286.0 189388.0 0
175976.0 190749.0 0
181607.0 189784.0 0
190992.0 188841.0 0
195753.0 189656.0 0
200537.0 190780.0 0
204960.0 187937.0 0
208467.0 190179.0 0
206278.0 192501.0 0
211622.0 188037.0 0
216508.0 189197.0 0
221708.0 188520.0 0
226699.0 189066.0 0
231959.0 188074.0 0
230984.0 192467.0 0
236069.0 189355.0 0
241439.0 187844.0 0
246767.0 188356.0 0
251421.0 189279.0 0
256145.0 189946.0 0
261548.0 188411.0 0
266314.0 187566.0 0
270638.0 190027.0 0
276599.0 190102.0 0
284958.0 187444.0 0
290182.0 187880.0 0
293753.0 190127.0 0
297269.0 188327.0 0
304642.0 191454.0 0
310133.0 189964.0 0
313929.0 191422.0 0
316962.0 188367.0 0
326196.0 188251.0 0
321557.0 190298.0 0
331851.0 189451.0 0
336693.0 189984.0 0
341782.0 188900.0 0
346625.0 190118.0 0
350387.0 188554.0 0
354412.0 189831.0 0
363422.0 189079.0 0
368529.0 189687.0 0
372654.0 188340.0 0
376989.0 190803.0 0
381263.0 189032.0 0
385750.0 189639.0 0
391602.0 190188.0 0
397806.0 189088.0 0
403437.0 189568.0 0
408194.0 189961.0 0
412655.0 190034.0 0
417328.0 188533.0 0
422294.0 188865.0 0
427069.0 191252.0 0
433143.0 189594.0 0
438897.0 188074.0 0
443938.0 189445.0 0
448492.0 191849.0 0
453764.0 188630.0 0
457908.0 190774.0 0
463036.0 189321.0 0
468111.0 189683.0 0
472248.0 187503.0 0
476530.0 189021.0 0
481590.0 187565.0 0
487405.0 188170.0 0
492245.0 190703.0 0
497268.0 188180.0 0
2743.23 195251.0 0
8043.01 194247.0 0
14922.5 194063.0 0
11765.5 196728.0 0
19910.4 194640.0 0
25329.9 194734.0 0
32699.1 195189.0 0
42536.9 196603.0 0
47201.5 193243.0 0
57753.3 194760.0 0
63751.1 194008.0 0
69579.0 194365.0 0
74694.4 194901.0 0
78841.1 192570.0 0
82761.3 194192.0 0
87411.7 194451.0 0
93077.5 194525.0 0
98832.2 194360.0 0
103893.0 194913.0 0
107222.0 194734.0 0
111638.0 194874.0 0
116412.0 197564.0 0
120397.0 194906.0 0
124183.0 194205.0 0
128406.0 193603.0 0
132872.0 193207.0 0
136854.0 193980.0 0
141100.0 194746.0 0
146522.0 194253.0 0
151900.0 196141.0 0
156635.0 194347.0 0
160658.0 196416.0 0
166704.0 195656.0 0
172255.0 194373.0 0
179233.0 194363.0 0
184127.0 194987.0 0
189314.0 193356.0 0
193668.0 194257.0 0
197502.0 193843.0 0
202964.0 194627.0 0
207410.0 197287.0 0
212261.0 193873.0 0
216811.0 193728.0 0
220979.0 193353.0 0
221748.0 197600.0 0
225744.0 194036.0 0
235664.0 194277.0 0
240546.0 193090.0 0
244738.0 197415.0 0
248382.0 193134.0 0
252562.0 192922.0 0
259975.0 193004.0 0
256060.0 194949.0 0
261843.0 197588.0 0
265488.0 192816.0 0
270071.0 196843.0 0
272927.0 193495.0 0
275665.0 194081.0 0
278050.0 197120.0 0
281962.0 192957.0 0
288338.0 192637.0 0
293479.0 194800.0 0
298770.0 192724.0 0
297213.0 197607.0 0
309152.0 193628.0 0
312953.0 196164.0 0
317700.0 193334.0 0
323365.0 195487.0 0
327807.0 192760.0 0
332500.0 194107.0 0
336869.0 194595.0 0
342207.0 194474.0 0
351678.0 193372.0 0
347215.0 194489.0 0
354427.0 196988.0 0
357651.0 193371.0 0
363234.0 195434.0 0
368505.0 193949.0 0
373400.0 195166.0 0
382576.0 193062.0 0
379100.0 195208.0 0
387079.0 195239.0 0
392324.0 196373.0 0
395893.0 193819.0 0
400749.0 194282.0 0
405935.0 193906.0 0
411228.0 195209.0 0
416962.0 194363.0 0
422189.0 193766.0 0
426356.0 196809.0 0
431392.0 195291.0 0
437982.0 193499.0 0
443846.0 195325.0 0
453590.0 193857.0 0
449070.0 196199.0 0
458352.0 194972.0 0
462241.0 194312.0 0
467268.0 194688.0 0
472251.0 192649.0 0
478243.0 193785.0 0
483446.0 192689.0 0
482525.0 197152.0 0
487730.0 192842.0 0
492457.0 195692.0 0
497113.0 193782.0 0
2122.08 200076.0 0
6629.87 199181.0 0
10874.9 200381.0 0
16445.3 199307.0 0
22134.0 199439.0 0
26806.2 199310.0 0
38045.0 200632.0 0
44044.4 201120.0 0
47182.2 198374.0 0
52162.2 197921.0 0
57345.7 200857.0 0
62695.9 199388.0 0
67631.1 199708.0 0
72733.9 199447.0 0
77869.6 198822.0 0
83358.2 198906.0 0
88733.7 199411.0 0
93487.5 199384.0 0
97430.5 198995.0 0
102461.0 200123.0 0
107419.0 197986.0 0
111801.0 201239.0 0
120437.0 200768.0 0
125858.0 198528.0 0
131746.0 197931.0 0
137378.0 198860.0 0
143319.0 199645.0 0
148470.0 199204.0 0
152880.0 200671.0 0
157301.0 199347.0 0
163243.0 198774.0 0
168106.0 201070.0 0
170863.0 197808.0 0
175911.0 198381.0 0
181671.0 200196.0 0
189132.0 198603.0 0
194263.0 199003.0 0
199453.0 198194.0 0
203612.0 200213.0 0
210864.0 200963.0 0
216143.0 199252.0 0
221801.0 202263.0 0
226488.0 199309.0 0
232441.0 198454.0 0
238430.0 198208.0 0
241210.0 202678.0 0
251359.0 197913.0 0
256821.0 199475.0 0
266229.0 200934.0 0
274196.0 199581.0 0
283487.0 199274.0 0
289031.0 197963.0 0
293266.0 200310.0 0
303004.0 197931.0 0
308804.0 198839.0 0
318356.0 198611.0 0
324039.0 200936.0 0
328790.0 197984.0 0
334064.0 199732.0 0
339590.0 199139.0 0
344931.0 198939.0 0
349987.0 198474.0 0
358649.0 200093.0 0
363896.0 201027.0 0
368160.0 198666.0 0
372315.0 199898.0 0
376963.0 199743.0 0
382472.0 198704.0 0
387497.0 199719.0 0
392129.0 200481.0 0
396150.0 199194.0 0
401229.0 199750.0 0
406694.0 199068.0 0
411220.0 200081.0 0
415491.0 199402.0 0
421158.0 199352.0 0
428520.0 200318.0 0
430958.0 199721.0 0
435836.0 199520.0 0
442046.0 201264.0 0
446665.0 199690.0 0
451288.0 200915.0 0
456078.0 198641.0 0
461499.0 199362.0 0
466931.0 200096.0 0
472915.0 197847.0 0
478057.0 199255.0 0
487864.0 197971.0 0
493644.0 199593.0 0
498089.0 198463.0 0
2813.74 204868.0 0
8166.15 204125.0 0
12895.3 203489.0 0
11899.9 207456.0 0
16332.8 204138.0 0
20385.2 204017.0 0
25269.6 205247.0 0
31181.5 202990.0 0
37229.0 205974.0 0
41793.7 204983.0 0
47445.0 205103.0 0
53100.7 204413.0 0
58687.5 206148.0 0
63565.2 204541.0 0
68267.7 204104.0 0
72453.3 204296.0 0
77185.2 203935.0 0
86321.7 203030.0 0
82034.5 204014.0 0
91303.5 203949.0 0
96817.3 203396.0 0
101396.0 206014.0 0
107501.0 206213.0 0
116464.0 203972.0 0
113002.0 206066.0 0
121274.0 205504.0 0
126005.0 204688.0 0
132123.0 204315.0 0
137820.0 204500.0 0
142841.0 205034.0 0
147532.0 203756.0 0
152629.0 205313.0 0
157562.0 204336.0 0
162713.0 203276.0 0
167294.0 206099.0 0
172608.0 203571.0 0
177854.0 203676.0 0
182306.0 205293.0 0
186376.0 202938.0 0
192085.0 203475.0 0
196625.0 204165.0 0
201114.0 203672.0 0
206771.0 203476.0 0
212749.0 204083.0 0
214029.0 207440.0 0
217644.0 205167.0 0
222151.0 207754.0 0
226802.0 204415.0 0
231549.0 204082.0 0
236392.0 203115.0 0
240056.0 206051.0 0
243731.0 206963.0 0
245775.0 202764.0 0
250433.0 203806.0 0
255181.0 203656.0 0
260752.0 203766.0 0
266797.0 206455.0 0
271142.0 203241.0 0
278162.0 202837.0 0
283289.0 206110.0 0
288462.0 203257.0 0
293483.0 205210.0 0
298391.0 202815.0 0
303459.0 203483.0 0
303664.0 207481.0 0
308190.0 203847.0 0
314353.0 203955.0 0
319268.0 203560.0 0
322911.0 206684.0 0
328968.0 203546.0 0
333146.0 203942.0 0
336742.0 203892.0 0
342590.0 204302.0 0
347879.0 203449.0 0
346989.0 207004.0 0
353210.0 203157.0 0
357773.0 205774.0 0
362515.0 205840.0 0
367791.0 204315.0 0
373564.0 204531.0 0
382649.0 203956.0 0
378334.0 204250.0 0
387500.0 204256.0 0
390841.0 204058.0 0
394210.0 203649.0 0
397991.0 203653.0 0
405861.0 205099.0 0
412257.0 204714.0 0
417886.0 204219.0 0
423012.0 204617.0 0
427878.0 204208.0 0
432791.0 204677.0 0
437677.0 205165.0 0
441768.0 205933.0 0
447085.0 203945.0 0
452130.0 206077.0 0
456330.0 203589.0 0
461272.0 205017.0 0
466168.0 204679.0 0
470975.0 202840.0 0
476162.0 204281.0 0
482656.0 203153.0 0
488908.0 203537.0 0
492846.0 206388.0 0
497008.0 203246.0 0
2317.68 209310.0 0
7488.63 208972.0 0
13295.6 211855.0 0
17721.9 208381.0 0
22192.7 208974.0 0
25714.3 209772.0 0
29625.3 211561.0 0
33500.7 208574.0 0
36829.9 210995.0 0
41261.5 210211.0 0
46267.1 210332.0 0
51635.5 209758.0 0
56872.5 210409.0 0
62241.3 209997.0 0
67516.0 208820.0 0
72506.7 208908.0 0
81267.2 209136.0 0
76625.3 209970.0 0
87015.0 208052.0 0
92309.0 209218.0 0
97255.7 209239.0 0
102435.0 211164.0 0
106772.0 211358.0 0
111799.0 210042.0 0
117642.0 209513.0 0
123435.0 209240.0 0
128783.0 209743.0 0
134059.0 209356.0 0
137961.0 209087.0 0
142163.0 209036.0 0
147505.0 209556.0 0
152871.0 210247.0 0
158961.0 208723.0 0
162909.0 208648.0 0
167203.0 210738.0 0
171991.0 208009.0 0
177730.0 209213.0 0
183254.0 209973.0 0
188244.0 207913.0 0
193900.0 208769.0 0
196806.0 212841.0 0
199057.0 208490.0 0
204160.0 208927.0 0
209494.0 208545.0 0
213596.0 211708.0 0
217437.0 209549.0 0
220485.0 212589.0 0
226340.0 208277.0 0
225386.0 212126.0 0
230558.0 209607.0 0
235733.0 207857.0 0
240025.0 210012.0 0
250367.0 209198.0 0
256479.0 209083.0 0
262641.0 209393.0 0
267376.0 211970.0 0
272520.0 208883.0 0
278324.0 208651.0 0
282854.0 211649.0 0
289986.0 208753.0 0
294956.0 209657.0 0
299382.0 208170.0 0
303739.0 212632.0 0
307822.0 209005.0 0
313035.0 210146.0 0
317920.0 208362.0 0
320300.0 212687.0 0
324616.0 211253.0 0
327985.0 208582.0 0
333193.0 208228.0 0
338995.0 209593.0 0
344320.0 209583.0 0
351178.0 209257.0 0
358164.0 210156.0 0
362966.0 210746.0 0
367647.0 209679.0 0
372886.0 210161.0 0
376885.0 212750.0 0
377591.0 208928.0 0
387666.0 208713.0 0
383033.0 209122.0 0
390579.0 209599.0 0
394661.0 208268.0 0
400641.0 208037.0 0
400517.0 212415.0 0
404214.0 211340.0 0
409728.0 210561.0 0
416362.0 210001.0 0
422813.0 210274.0 0
428624.0 209039.0 0
433383.0 209496.0 0
438577.0 210417.0 0
448819.0 208806.0 0
444221.0 209730.0 0
452094.0 210067.0 0
457220.0 209849.0 0
462827.0 209496.0 0
466793.0 210765.0 0
470795.0 208029.0 0
476400.0 210660.0 0
482885.0 209894.0 0
488671.0 209056.0 0
492896.0 210110.0 0
497140.0 209108.0 0
2878.51 213142.0 0
2104.63 217299.0 0
7660.86 213432.0 0
12523.0 217215.0 0
17518.9 213273.0 0
21983.0 213260.0 0
25926.2 213666.0 0
33841.2 214428.0 0
38550.8 214463.0 0
43314.5 215272.0 0
47500.0 214069.0 0
51974.7 215405.0 0
58909.6 214963.0 0
64496.8 215188.0 0
69006.8 213916.0 0
73876.8 213377.0 0
77216.5 213795.0 0
80691.3 214239.0 0
77191.1 217413.0 0
86321.3 214359.0 0
92811.6 214225.0 0
98243.0 214500.0 0
103094.0 215128.0 0
109027.0 214537.0 0
113210.0 214153.0 0
122442.0 214024.0 0
117544.0 215223.0 0
126563.0 214635.0 0
131864.0 214092.0 0
136845.0 213635.0 0
140200.0 215947.0 0
144007.0 214323.0 0
150413.0 214118.0 0
157086.0 213943.0 0
162991.0 213035.0 0
161579.0 217971.0 0
167633.0 215402.0 0
173049.0 213642.0 0
183031.0 214584.0 0
178838.0 215278.0 0
186681.0 213292.0 0
191843.0 213648.0 0
190263.0 217938.0 0
201799.0 213938.0 0
207325.0 213649.0 0
212323.0 217537.0 0
216950.0 214742.0 0
222872.0 217049.0 0
229375.0 214642.0 0
235825.0 213336.0 0
240225.0 215033.0 0
245171.0 213043.0 0
248620.0 217949.0 0
252496.0 214209.0 0
257219.0 214541.0 0
262354.0 214173.0 0
272616.0 214991.0 0
277797.0 213671.0 0
281554.0 217397.0 0
289757.0 213526.0 0
285974.0 215152.0 0
293415.0 213232.0 0
297869.0 214165.0 0
303426.0 217926.0 0
309258.0 214570.0 0
315426.0 215565.0 0
323689.0 216209.0 0
328765.0 214231.0 0
334656.0 213539.0 0
338216.0 215793.0 0
342801.0 214730.0 0
348332.0 214060.0 0
354571.0 213979.0 0
358832.0 214116.0 0
358289.0 217935.0 0
362306.0 214799.0 0
366733.0 214718.0 0
371989.0 215546.0 0
377264.0 217052.0 0
380639.0 213402.0 0
386648.0 213899.0 0
391381.0 212984.0 0
392796.0 217720.0 0
396439.0 213976.0 0
401633.0 217490.0 0
407475.0 216025.0 0
413219.0 215856.0 0
418109.0 215044.0 0
422108.0 215429.0 0
426878.0 213882.0 0
431421.0 213784.0 0
436289.0 215762.0 0
442100.0 215072.0 0
447550.0 213987.0 0
452804.0 214254.0 0
457500.0 215920.0 0
461586.0 213713.0 0
465842.0 214821.0 0
470828.0 213823.0 0
476633.0 216584.0 0
480519.0 214312.0 0
485119.0 214938.0 0
491128.0 214903.0 0
497365.0 214600.0 0
6793.22 218929.0 0
12819.2 222641.0 0
18520.4 218310.0 0
24345.7 218037.0 0
30115.1 218407.0 0
35415.9 219844.0 0
39872.8 218519.0 0
43533.4 220557.0 0
47480.8 218243.0 0
47740.8 223006.0 0
51744.2 220243.0 0
56705.1 219992.0 0
61964.0 220004.0 0
66637.8 219683.0 0
71690.4 218264.0 0
82291.1 219226.0 0
88450.1 220676.0 0
93313.1 218331.0 0
94100.4 222545.0 0
97500.0 219103.0 0
107094.0 218677.0 0
102236.0 218903.0 0
112291.0 218405.0 0
117489.0 219838.0 0
122393.0 222485.0 0
122473.0 218093.0 0
132590.0 218853.0 0
127669.0 219600.0 0
137654.0 218577.0 0
135401.0 222333.0 0
142126.0 219011.0 0
147637.0 218795.0 0
153046.0 218128.0 0
157497.0 219823.0 0
165668.0 219657.0 0
171231.0 219510.0 0
176237.0 219503.0 0
180329.0 219950.0 0
184962.0 218372.0 0
188827.0 222042.0 0
195405.0 218426.0 0
201312.0 219392.0 0
206584.0 219716.0 0
218107.0 219072.0 0
221940.0 222389.0 0
227522.0 219662.0 0
232626.0 218207.0 0
238164.0 219016.0 0
243790.0 219378.0 0
255000.0 218268.0 0
251705.0 221274.0 0
259925.0 218438.0 0
266658.0 219011.0 0
272632.0 219932.0 0
276490.0 218537.0 0
277768.0 222967.0 0
282670.0 222894.0 0
287001.0 219742.0 0
292798.0 218052.0 0
298711.0 220032.0 0
304166.0 222936.0 0
307680.0 219225.0 0
312787.0 220840.0 0
319109.0 219929.0 0
323803.0 220433.0 0
328215.0 219874.0 0
332682.0 218177.0 0
337212.0 219574.0 0
341743.0 219968.0 0
346954.0 219459.0 0
352958.0 219256.0 0
363851.0 219193.0 0
368578.0 218829.0 0
372515.0 219423.0 0
373384.0 223084.0 0
378059.0 222153.0 0
383137.0 218371.0 0
388492.0 219603.0 0
392116.0 222675.0 0
396698.0 219497.0 0
408625.0 220618.0 0
412940.0 220819.0 0
417500.0 219001.0 0
423654.0 219330.0 0
429096.0 218080.0 0
432842.0 219261.0 0
436284.0 222926.0 0
439597.0 219415.0 0
445091.0 219064.0 0
449570.0 218719.0 0
453928.0 219064.0 0
458051.0 220483.0 0
461735.0 218270.0 0
462488.0 222503.0 0
466236.0 219530.0 0
472009.0 219849.0 0
477068.0 221203.0 0
481396.0 218934.0 0
487085.0 220154.0 0
492809.0 220799.0 0
497596.0 219633.0 0
3506.57 224380.0 0
8912.79 224194.0 0
18045.9 224521.0 0
23734.8 223403.0 0
29009.0 224203.0 0
33721.3 224006.0 0
38524.6 224327.0 0
43678.3 225279.0 0
52004.1 224800.0 0
56979.5 225399.0 0
61796.4 224711.0 0
66400.2 224275.0 0
71634.3 224149.0 0
78211.4 224630.0 0
84123.1 223970.0 0
87688.4 225751.0 0
92062.5 227861.0 0
99300.5 223800.0 0
103853.0 225237.0 0
108319.0 223642.0 0
113637.0 223246.0 0
118189.0 224283.0 0
121263.0 227774.0 0
126890.0 224546.0 0
131335.0 223696.0 0
129831.0 227961.0 0
135552.0 228132.0 0
139963.0 223282.0 0
141807.0 228150.0 0
145196.0 223929.0 0
151683.0 224238.0 0
157462.0 224989.0 0
162226.0 223400.0 0
167839.0 223974.0 0
173463.0 225147.0 0
178658.0 223924.0 0
183499.0 223919.0 0
188007.0 227929.0 0
193403.0 224670.0 0
198164.0 223137.0 0
197867.0 228162.0 0
202227.0 224715.0 0
207013.0 224885.0 0
212378.0 223937.0 0
217314.0 223536.0 0
215938.0 228059.0 0
226297.0 224455.0 0
231237.0 223603.0 0
232870.0 228070.0 0
236066.0 224198.0 0
240758.0 224042.0 0
247333.0 223412.0 0
251815.0 225281.0 0
256820.0 223419.0 0
262024.0 223561.0 0
266307.0 226338.0 0
272434.0 224676.0 0
276853.0 227534.0 0
287570.0 225226.0 0
294276.0 224669.0 0
299739.0 224847.0 0
308988.0 224207.0 0
315364.0 225741.0 0
311332.0 227259.0 0
320386.0 224940.0 0
326098.0 225172.0 0
333157.0 224340.0 0
339144.0 224862.0 0
343438.0 223987.0 0
347371.0 224258.0 0
351808.0 224803.0 0
357560.0 223286.0 0
363011.0 224229.0 0
368205.0 223669.0 0
372172.0 227699.0 0
377870.0 228146.0 0
382807.0 224521.0 0
388000.0 225324.0 0
397058.0 223847.0 0
392970.0 227891.0 0
402872.0 224162.0 0
407560.0 224168.0 0
411391.0 225113.0 0
416297.0 223965.0 0
421524.0 223761.0 0
427086.0 223145.0 0
431836.0 225410.0 0
442627.0 224330.0 0
449564.0 224345.0 0
454946.0 223734.0 0
459034.0 224766.0 0
462382.0 226972.0 0
466448.0 224392.0 0
470795.0 225016.0 0
475072.0 224759.0 0
479814.0 225249.0 0
485459.0 225815.0 0
491394.0 225008.0 0
496535.0 225110.0 0
3164.76 231043.0 0
7860.85 228258.0 0
13198.7 228552.0 0
18016.5 230495.0 0
22913.6 229034.0 0
28302.8 229347.0 0
33684.8 228916.0 0
38744.2 229265.0 0
42462.5 229110.0 0
47500.0 228878.0 0
52557.4 229197.0 0
57797.2 230714.0 0
62773.9 229178.0 0
67039.8 229076.0 0
72935.3 230199.0 0
78321.3 230429.0 0
82589.4 229023.0 0
87056.7 229666.0 0
97669.7 229089.0 0
102295.0 228908.0 0
107409.0 229474.0 0
113346.0 228664.0 0
117556.0 230014.0 0
125793.0 230466.0 0
147625.0 230279.0 0
152816.0 229588.0 0
156960.0 229466.0 0
162563.0 229513.0 0
168613.0 229493.0 0
178546.0 229009.0 0
173682.0 230520.0 0
183147.0 230641.0 0
193373.0 229477.0 0
190725.0 232863.0 0
202706.0 228911.0 0
202303.0 232597.0 0
206538.0 229274.0 0
210416.0 228518.0 0
212688.0 232736.0 0
217361.0 232485.0 0
222032.0 228529.0 0
227892.0 228919.0 0
231887.0 233124.0 0
237577.0 228675.0 0
243285.0 228523.0 0
240965.0 232770.0 0
248664.0 228887.0 0
254446.0 228951.0 0
259269.0 228263.0 0
257954.0 232310.0 0
262864.0 230054.0 0
267432.0 232035.0 0
270745.0 228959.0 0
272733.0 233048.0 0
277833.0 232231.0 0
282827.0 229050.0 0
288066.0 230555.0 0
292391.0 230222.0 0
298265.0 229141.0 0
306026.0 228530.0 0
302088.0 233192.0 0
310184.0 230077.0 0
314050.0 230762.0 0
318481.0 228993.0 0
322500.0 229164.0 0
328895.0 229839.0 0
333248.0 230717.0 0
337016.0 228728.0 0
341122.0 228650.0 0
346183.0 228783.0 0
357135.0 228604.0 0
352139.0 230910.0 0
361937.0 229142.0 0
367472.0 230439.0 0
383977.0 230566.0 0
389039.0 230085.0 0
398548.0 229269.0 0
404604.0 229321.0 0
408305.0 229326.0 0
411600.0 229406.0 0
415648.0 228761.0 0
420774.0 229250.0 0
427258.0 229699.0 0
432708.0 229480.0 0
437828.0 229531.0 0
443856.0 230579.0 0
448898.0 230467.0 0
453713.0 228568.0 0
458585.0 228857.0 0
455863.0 232837.0 0
466455.0 229272.0 0
471666.0 229674.0 0
476744.0 229338.0 0
482113.0 230121.0 0
489724.0 229134.0 0
493000.0 231123.0 0
497149.0 231104.0 0
2175.08 236290.0 0
6289.96 235242.0 0
11599.4 234668.0 0
17536.7 234958.0 0
22463.8 234706.0 0
27690.2 234407.0 0
32846.5 234296.0 0
37849.1 233798.0 0
42860.5 233900.0 0
47500.0 233961.0 0
52500.0 233880.0 0
57471.3 235174.0 0
62273.8 234235.0 0
67614.2 233463.0 0
72220.4 235920.0 0
81627.6 233928.0 0
77001.3 234316.0 0
86239.0 233788.0 0
91741.1 234274.0 0
97809.7 234477.0 0
102672.0 233456.0 0
106903.0 235620.0 0
111197.0 233547.0 0
115541.0 234345.0 0
120820.0 233664.0 0
126021.0 235298.0 0
131559.0 233949.0 0
137590.0 234319.0 0
135063.0 237824.0 0
143033.0 234758.0 0
152334.0 233575.0 0
148509.0 236086.0 0
156775.0 234147.0 0
161251.0 235361.0 0
165867.0 234024.0 0
170816.0 234450.0 0
176301.0 235092.0 0
181149.0 234157.0 0
186188.0 236158.0 0
191884.0 237602.0 0
195908.0 233800.0 0
201240.0 237554.0 0
207019.0 234289.0 0
217587.0 237202.0 0
221321.0 234032.0 0
226108.0 233750.0 0
233717.0 238091.0 0
236934.0 235235.0 0
241137.0 238117.0 0
246408.0 234854.0 0
252566.0 234220.0 0
257176.0 236780.0 0
262508.0 235099.0 0
268883.0 238017.0 0
276227.0 236455.0 0
283409.0 236088.0 0
290021.0 235072.0 0
296062.0 234322.0 0
305279.0 237705.0 0
308496.0 234044.0 0
313706.0 235893.0 0
318495.0 233561.0 0
325752.0 233527.0 0
322153.0 236281.0 0
331012.0 235279.0 0
336305.0 234402.0 0
342218.0 234049.0 0
347987.0 234981.0 0
352469.0 236567.0 0
357714.0 234468.0 0
363371.0 234064.0 0
372127.0 233818.0 0
367625.0 236548.0 0
377595.0 234110.0 0
382669.0 236837.0 0
388202.0 234956.0 0
393857.0 233566.0 0
397810.0 237427.0 0
403548.0 235120.0 0
409206.0 235865.0 0
413408.0 233593.0 0
418015.0 234203.0 0
422331.0 234292.0 0
427432.0 236451.0 0
432985.0 233736.0 0
437053.0 234457.0 0
442560.0 236067.0 0
447415.0 233842.0 0
451703.0 234422.0 0
461827.0 234150.0 0
468601.0 234851.0 0
474668.0 234759.0 0
480001.0 234226.0 0
481988.0 238204.0 0
486588.0 234349.0 0
493165.0 235499.0 0
498364.0 235424.0 0
2648.26 240572.0 0
6704.61 239112.0 0
11883.6 241454.0 0
17237.5 239455.0 0
21689.6 239580.0 0
26625.8 239610.0 0
32269.6 239750.0 0
37800.7 238869.0 0
42911.0 239015.0 0
48373.5 238834.0 0
53049.3 239063.0 0
57491.6 239459.0 0
62500.0 239048.0 0
67351.0 239071.0 0
72974.1 240256.0 0
77090.1 239244.0 0
80945.4 239231.0 0
86598.4 238960.0 0
92662.9 240868.0 0
98143.0 239522.0 0
102893.0 238473.0 0
107106.0 240975.0 0
112144.0 238848.0 0
117790.0 238715.0 0
127517.0 239014.0 0
123040.0 240382.0 0
131674.0 240754.0 0
139793.0 240451.0 0
146645.0 241321.0 0
153456.0 239371.0 0
159440.0 239906.0 0
162838.0 242894.0 0
165969.0 239238.0 0
171466.0 239677.0 0
177280.0 241312.0 0
183204.0 241438.0 0
188838.0 241748.0 0
195941.0 241449.0 0
201231.0 242989.0 0
206408.0 241021.0 0
211863.0 238505.0 0
216421.0 242948.0 0
222975.0 238686.0 0
228685.0 238711.0 0
233925.0 242916.0 0
236985.0 239778.0 0
246170.0 241281.0 0
251688.0 239661.0 0
258377.0 241767.0 0
263478.0 240689.0 0
274510.0 240698.0 0
270702.0 243537.0 0
279021.0 239513.0 0
284477.0 242467.0 0
288594.0 239821.0 0
293682.0 240019.0 0
300192.0 239360.0 0
305005.0 241691.0 0
308880.0 239957.0 0
313471.0 240898.0 0
316781.0 238719.0 0
320574.0 240419.0 0
326683.0 239963.0 0
333861.0 240234.0 0
338665.0 238777.0 0
342798.0 239514.0 0
347415.0 239952.0 0
352858.0 241392.0 0
357815.0 240253.0 0
362633.0 238885.0 0
367022.0 240894.0 0
371863.0 239289.0 0
377439.0 240035.0 0
382625.0 241196.0 0
386622.0 240485.0 0
391984.0 239747.0 0
396543.0 241544.0 0
401644.0 241841.0 0
406987.0 240068.0 0
411809.0 239566.0 0
417019.0 238743.0 0
422567.0 240028.0 0
427263.0 242156.0 0
432184.0 240330.0 0
437979.0 239677.0 0
442950.0 241621.0 0
448192.0 238897.0 0
452071.0 242066.0 0
455967.0 238749.0 0
461567.0 240708.0 0
466226.0 239361.0 0
471900.0 241077.0 0
477524.0 239559.0 0
481330.0 242045.0 0
486495.0 241666.0 0
491854.0 240607.0 0
497014.0 240188.0 0
199573.0 247910.0 0
204478.0 245552.0 0
210795.0 244170.0 0
222474.0 244417.0 0
227962.0 244116.0 0
231467.0 247458.0 0
236558.0 246242.0 0
240341.0 243897.0 0
244601.0 246955.0 0
248992.0 245832.0 0
253467.0 244427.0 0
257900.0 247323.0 0
261358.0 244834.0 0
262172.0 247917.0 0
265884.0 245581.0 0
278600.0 244993.0 0
283458.0 247112.0 0
289819.0 244366.0 0
297135.0 244732.0 0
302384.0 245280.0 0
204449.0 249684.0 0
209457.0 249159.0 0
212348.0 253375.0 0
215734.0 249054.0 0
221141.0 249797.0 0
223361.0 253716.0 0
226648.0 249830.0 0
231818.0 252764.0 0
235324.0 249413.0 0
236726.0 253079.0 0
240448.0 249999.0 0
245799.0 252104.0 0
252384.0 249364.0 0
250599.0 253666.0 0
256855.0 253723.0 0
262923.0 251987.0 0
268032.0 252820.0 0
271467.0 248674.0 0
276415.0 250360.0 0
280934.0 250247.0 0
284563.0 251538.0 0
287253.0 248673.0 0
293222.0 249247.0 0
299481.0 250101.0 0
200571.0 254197.0 0
206829.0 254173.0 0
213596.0 258456.0 0
218218.0 254729.0 0
227344.0 255787.0 0
231679.0 258137.0 0
236093.0 257140.0 0
240959.0 255722.0 0
246380.0 257971.0 0
252215.0 258400.0 0
261596.0 257124.0 0
266659.0 258050.0 0
273343.0 255042.0 0
278890.0 254263.0 0
283257.0 255128.0 0
281082.0 258182.0 0
288818.0 253963.0 0
294302.0 254846.0 0
298357.0 254808.0 0
202168.0 260574.0 0
208344.0 259673.0 0
210335.0 263676.0 0
218684.0 260104.0 0
223712.0 259721.0 0
228234.0 260353.0 0
231216.0 262743.0 0
237008.0 262573.0 0
240600.0 259802.0 0
243165.0 262575.0 0
248817.0 263348.0 0
254689.0 263548.0 0
257463.0 259616.0 0
261853.0 262439.0 0
271774.0 259804.0 0
274602.0 263074.0 0
276903.0 259029.0 0
279541.0 261887.0 0
285899.0 259165.0 0
289168.0 263694.0 0
291465.0 258903.0 0
293915.0 263006.0 0
297265.0 259406.0 0
341742.0 261668.0 0
10310.7 264004.0 0
201812.0 267700.0 0
206121.0 265076.0 0
211442.0 268522.0 0
215199.0 263994.0 0
220814.0 264330.0 0
226492.0 265298.0 0
232135.0 267814.0 0
237057.0 267956.0 0
241909.0 268011.0 0
253233.0 268698.0 0
258641.0 267214.0 0
268408.0 264522.0 0
278616.0 265969.0 0
283536.0 264097.0 0
282865.0 268352.0 0
293017.0 268213.0 0
297974.0 265563.0 0
309756.0 265534.0 0
404603.0 268791.0 0
6878.9 273814.0 0
48261.5 271429.0 0
167796.0 273676.0 0
174681.0 270453.0 0
201365.0 272476.0 0
206251.0 270385.0 0
216918.0 269532.0 0
222266.0 269195.0 0
220082.0 273648.0 0
228043.0 269807.0 0
225522.0 273297.0 0
231421.0 273945.0 0
237511.0 272870.0 0
247663.0 269244.0 0
253776.0 274045.0 0
258820.0 272408.0 0
262730.0 269774.0 0
267374.0 270799.0 0
273136.0 269389.0 0
279211.0 271691.0 0
287180.0 269927.0 0
292816.0 273494.0 0
297884.0 272071.0 0
317421.0 273754.0 0
357807.0 273261.0 0
362467.0 271678.0 0
368610.0 271460.0 0
374583.0 274102.0 0
389098.0 270525.0 0
421499.0 270062.0 0
437044.0 273351.0 0
443009.0 269709.0 0
455114.0 270091.0 0
461586.0 273951.0 0
472319.0 270834.0 0
476569.0 274077.0 0
492537.0 271810.0 0
497243.0 269658.0 0
14254.8 278367.0 0
56374.4 275342.0 0
63868.7 275352.0 0
68827.6 276371.0 0
75161.9 278407.0 0
79658.9 277105.0 0
85031.3 277803.0 0
96187.4 275618.0 0
100416.0 275066.0 0
107589.0 276803.0 0
111005.0 278647.0 0
115161.0 277104.0 0
121008.0 276997.0 0
126005.0 274786.0 0
131855.0 279109.0 0
137504.0 278122.0 0
154054.0 277407.0 0
158565.0 276802.0 0
177286.0 274506.0 0
178735.0 277873.0 0
191569.0 275659.0 0
196244.0 276587.0 0
200887.0 276835.0 0
205143.0 275279.0 0
208001.0 278274.0 0
210423.0 274192.0 0
213359.0 279093.0 0
215513.0 274224.0 0
217848.0 277893.0 0
222323.0 277815.0 0
227459.0 278596.0 0
238129.0 278826.0 0
242309.0 275891.0 0
248059.0 275308.0 0
259054.0 276817.0 0
255502.0 278583.0 0
263576.0 274965.0 0
269203.0 275917.0 0
274269.0 274648.0 0
273096.0 278942.0 0
277796.0 278363.0 0
284335.0 274905.0 0
282145.0 278686.0 0
288855.0 274524.0 0
287761.0 278676.0 0
292966.0 278498.0 0
297457.0 277074.0 0
309917.0 277040.0 0
322450.0 275144.0 0
391311.0 277203.0 0
396056.0 278642.0 0
423600.0 278013.0 0
466760.0 279213.0 0
471850.0 277810.0 0
481239.0 275170.0 0
497839.0 279110.0 0
8033.11 284004.0 0
17655.2 281684.0 0
22442.4 279683.0 0
30433.9 279588.0 0
36537.1 280121.0 0
48339.7 282332.0 0
53010.0 282329.0 0
88220.9 283793.0 0
93065.2 281720.0 0
97919.2 283844.0 0
119140.0 283995.0 0
124379.0 281893.0 0
142262.0 280374.0 0
146000.0 283826.0 0
150902.0 281697.0 0
173221.0 279530.0 0
178042.0 281374.0 0
204083.0 279923.0 0
209316.0 282648.0 0
220065.0 281885.0 0
225951.0 283577.0 0
233022.0 279678.0 0
236387.0 284172.0 0
241703.0 280674.0 0
245362.0 279818.0 0
251058.0 280182.0 0
257880.0 282465.0 0
261789.0 279263.0 0
262774.0 283492.0 0
267220.0 280963.0 0
271752.0 283392.0 0
284675.0 281177.0 0
280752.0 282919.0 0
287943.0 283632.0 0
292563.0 283410.0 0
296826.0 281580.0 0
300498.0 283996.0 0
308757.0 283673.0 0
318278.0 283878.0 0
322451.0 279856.0 0
326630.0 280615.0 0
330913.0 280890.0 0
335045.0 283549.0 0
339605.0 280233.0 0
345114.0 282426.0 0
388726.0 281718.0 0
393964.0 283525.0 0
407296.0 282794.0 0
417127.0 279707.0 0
422388.0 283479.0 0
426612.0 281582.0 0
431907.0 282285.0 0
436080.0 284122.0 0
439714.0 280573.0 0
444222.0 282830.0 0
449230.0 279723.0 0
458451.0 282589.0 0
462790.0 280400.0 0
479717.0 280453.0 0
484429.0 280533.0 0
489239.0 283459.0 0
2631.23 286974.0 0
14588.8 285191.0 0
18911.2 287518.0 0
30589.4 285789.0 0
37311.7 288121.0 0
40985.6 284525.0 0
45936.2 286001.0 0
54909.3 288990.0 0
85759.2 289009.0 0
91010.0 289142.0 0
92904.6 286728.0 0
96476.5 288166.0 0
102310.0 285951.0 0
105708.0 289042.0 0
113050.0 286009.0 0
126262.0 286100.0 0
137141.0 287559.0 0
155278.0 285063.0 0
166524.0 288837.0 0
169989.0 284781.0 0
177570.0 285542.0 0
183086.0 287197.0 0
188923.0 285847.0 0
194747.0 287118.0 0
199535.0 284449.0 0
204408.0 285062.0 0
208775.0 287860.0 0
215068.0 284624.0 0
222088.0 286151.0 0
226655.0 288408.0 0
230702.0 284433.0 0
241425.0 284448.0 0
242504.0 289084.0 0
247379.0 285244.0 0
253468.0 284688.0 0
257610.0 288243.0 0
262740.0 288191.0 0
267280.0 286298.0 0
272531.0 289093.0 0
276230.0 284846.0 0
278424.0 288980.0 0
284100.0 287819.0 0
290972.0 288761.0 0
296382.0 286326.0 0
304856.0 284488.0 0
305457.0 288421.0 0
309713.0 287836.0 0
314014.0 286579.0 0
342101.0 285827.0 0
348027.0 285981.0 0
360423.0 288785.0 0
364943.0 284983.0 0
368691.0 287616.0 0
377600.0 285845.0 0
383597.0 284636.0 0
385630.0 289367.0 0
390690.0 285647.0 0
394399.0 288314.0 0
398809.0 285676.0 0
403236.0 286547.0 0
412976.0 285116.0 0
431773.0 287807.0 0
473827.0 287238.0 0
478880.0 285673.0 0
483291.0 289271.0 0
492521.0 287457.0 0
497266.0 287213.0 0
4198.95 292077.0 0
10165.2 290227.0 0
8211.08 294034.0 0
21754.5 293674.0 0
27252.5 289841.0 0
31965.1 292327.0 0
44551.6 291482.0 0
49617.5 292417.0 0
53511.7 293959.0 0
60744.6 290039.0 0
65233.2 293183.0 0
73247.1 292076.0 0
79797.4 292575.0 0
100409.0 290335.0 0
97591.4 293770.0 0
118044.0 291299.0 0
122206.0 293298.0 0
125707.0 294521.0 0
127597.0 290828.0 0
132697.0 289478.0 0
140009.0 291786.0 0
145853.0 291804.0 0
157949.0 293972.0 0
169946.0 292542.0 0
175196.0 290877.0 0
178322.0 294391.0 0
182125.0 292439.0 0
204250.0 290576.0 0
208495.0 293339.0 0
213002.0 291020.0 0
218418.0 289714.0 0
222789.0 290047.0 0
221536.0 293984.0 0
226388.0 293353.0 0
231895.0 289623.0 0
237320.0 289587.0 0
242598.0 294146.0 0
247181.0 291617.0 0
252148.0 289610.0 0
255658.0 293472.0 0
261566.0 293589.0 0
265986.0 292056.0 0
281565.0 292428.0 0
286617.0 293382.0 0
296242.0 292457.0 0
301914.0 291457.0 0
308862.0 292452.0 0
312812.0 291830.0 0
329672.0 294146.0 0
335177.0 291056.0 0
341691.0 290720.0 0
350533.0 293473.0 0
368277.0 293120.0 0
373639.0 290035.0 0
380959.0 290625.0 0
388242.0 292605.0 0
398411.0 289694.0 0
402468.0 291450.0 0
406830.0 294063.0 0
411664.0 292557.0 0
415149.0 289560.0 0
417627.0 294371.0 0
440796.0 293061.0 0
462565.0 290221.0 0
468005.0 291879.0 0
472750.0 292913.0 0
488293.0 290719.0 0
494690.0 292163.0 0
1396.57 295068.0 0
9024.03 298912.0 0
11918.4 295509.0 0
16619.4 294978.0 0
22141.1 299160.0 0
31750.6 297069.0 0
36111.9 296319.0 0
40529.6 295948.0 0
42506.5 299590.0 0
55082.9 298062.0 0
71070.6 298411.0 0
75981.4 296964.0 0
101262.0 294885.0 0
115988.0 298127.0 0
121376.0 298934.0 0
127453.0 297967.0 0
132217.0 295562.0 0
137709.0 297042.0 0
150246.0 295219.0 0
162385.0 294752.0 0
159503.0 299332.0 0
166757.0 297329.0 0
170964.0 299136.0 0
173828.0 295697.0 0
178096.0 298653.0 0
182575.0 297216.0 0
188423.0 299146.0 0
198194.0 298806.0 0
203602.0 296158.0 0
208336.0 298383.0 0
212186.0 295916.0 0
217002.0 296583.0 0
221890.0 299234.0 0
227465.0 299091.0 0
231036.0 294964.0 0
236953.0 295535.0 0
244007.0 299588.0 0
247335.0 296071.0 0
249419.0 299440.0 0
251018.0 294743.0 0
259254.0 298126.0 0
265045.0 296852.0 0
270035.0 295878.0 0
276304.0 294829.0 0
282376.0 297360.0 0
287565.0 299545.0 0
291667.0 295926.0 0
296087.0 298095.0 0
305266.0 295230.0 0
310186.0 298834.0 0
315851.0 295657.0 0
321608.0 295423.0 0
326129.0 298623.0 0
332766.0 298540.0 0
345721.0 295881.0 0
355714.0 294967.0 0
359390.0 298636.0 0
365233.0 297679.0 0
371514.0 297588.0 0
376826.0 295079.0 0
382983.0 297918.0 0
392773.0 297072.0 0
397327.0 294909.0 0
402414.0 296209.0 0
405524.0 299172.0 0
418256.0 299537.0 0
423877.0 299588.0 0
430432.0 297120.0 0
435876.0 295455.0 0
443743.0 297350.0 0
448497.0 295419.0 0
457751.0 298860.0 0
463509.0 298971.0 0
472922.0 297237.0 0
477904.0 297358.0 0
490331.0 295304.0 0
492549.0 299159.0 0
498185.0 295256.0 0
12432.9 304547.0 0
18261.9 304509.0 0
27556.0 300184.0 0
35807.4 303683.0 0
40409.5 304391.0 0
47221.1 300304.0 0
57767.4 301801.0 0
62118.7 303308.0 0
66580.1 301450.0 0
78232.9 302337.0 0
83627.7 304603.0 0
87177.6 299907.0 0
92596.4 302355.0 0
101304.0 300108.0 0
105416.0 300515.0 0
110427.0 302398.0 0
115498.0 304229.0 0
119859.0 302589.0 0
125026.0 301367.0 0
134374.0 299919.0 0
136926.0 300216.0 0
142940.0 299675.0 0
145130.0 303680.0 0
149278.0 301806.0 0
154955.0 300608.0 0
162950.0 301647.0 0
175791.0 303403.0 0
179935.0 302054.0 0
193803.0 301975.0 0
202882.0 301760.0 0
208380.0 303846.0 0
213344.0 300575.0 0
218057.0 303084.0 0
223604.0 304168.0 0
229040.0 304074.0 0
232911.0 299974.0 0
238288.0 301753.0 0
247735.0 304197.0 0
253932.0 299672.0 0
252005.0 303054.0 0
263827.0 300865.0 0
260653.0 304078.0 0
268004.0 300270.0 0
269721.0 304417.0 0
272684.0 300349.0 0
278027.0 301159.0 0
283187.0 302703.0 0
292507.0 301361.0 0
296860.0 302103.0 0
305808.0 302710.0 0
301393.0 303252.0 0
309212.0 303834.0 0
315912.0 301524.0 0
329885.0 300566.0 0
332502.0 303464.0 0
337497.0 303357.0 0
344487.0 304273.0 0
350089.0 303813.0 0
354804.0 302350.0 0
359342.0 304165.0 0
363529.0 302289.0 0
368250.0 302743.0 0
375763.0 300981.0 0
379842.0 303550.0 0
383935.0 303619.0 0
388117.0 301453.0 0
420703.0 303263.0 0
428710.0 303098.0 0
448865.0 300294.0 0
453540.0 301615.0 0
469551.0 300355.0 0
473869.0 301353.0 0
480010.0 302832.0 0
485101.0 301435.0 0
497345.0 300153.0 0
2385.26 309601.0 0
19755.7 309033.0 0
31572.7 306683.0 0
42563.5 308310.0 0
59411.4 309667.0 0
73236.5 308423.0 0
88025.0 305415.0 0
98112.3 306056.0 0
103476.0 309483.0 0
119756.0 306478.0 0
124322.0 305397.0 0
127047.0 309700.0 0
137186.0 307474.0 0
152637.0 305045.0 0
157044.0 305155.0 0
203858.0 306851.0 0
208074.0 309337.0 0
213634.0 306145.0 0
217764.0 309855.0 0
220712.0 306479.0 0
223044.0 309769.0 0
226286.0 307159.0 0
233882.0 305130.0 0
230322.0 308992.0 0
238183.0 306773.0 0
242505.0 305283.0 0
245784.0 309746.0 0
251493.0 308201.0 0
255721.0 304982.0 0
265217.0 304866.0 0
262262.0 308912.0 0
267759.0 309222.0 0
274710.0 305847.0 0
281330.0 307042.0 0
288138.0 305364.0 0
293573.0 306156.0 0
297766.0 305756.0 0
320548.0 305614.0 0
327915.0 308122.0 0
332244.0 307398.0 0
373783.0 308719.0 0
391305.0 309062.0 0
396224.0 305621.0 0
401114.0 307578.0 0
405441.0 309695.0 0
443848.0 305786.0 0
447423.0 309638.0 0
460614.0 306798.0 0
468386.0 308552.0 0
475351.0 306556.0 0
482264.0 309347.0 0
486287.0 306984.0 0
491602.0 308573.0 0
6006.39 313297.0 0
11457.4 310685.0 0
17628.4 314729.0 0
23726.9 310260.0 0
28043.2 311016.0 0
31549.5 313988.0 0
37894.0 310540.0 0
44669.6 312963.0 0
48901.4 311139.0 0
53337.5 313232.0 0
57735.5 313141.0 0
78992.8 310252.0 0
81396.5 314570.0 0
84814.0 310468.0 0
108327.0 310912.0 0
131487.0 314233.0 0
133529.0 310183.0 0
141682.0 310228.0 0
147366.0 312133.0 0
157006.0 314490.0 0
162148.0 314188.0 0
166764.0 313147.0 0
172721.0 313309.0 0
178009.0 310470.0 0
182816.0 310144.0 0
188845.0 310071.0 0
195076.0 312334.0 0
203967.0 312397.0 0
208989.0 314578.0 0
212467.0 310905.0 0
220829.0 314118.0 0
226901.0 313293.0 0
232157.0 313810.0 0
235417.0 310067.0 0
237585.0 314810.0 0
240558.0 310236.0 0
242701.0 313957.0 0
251771.0 312779.0 0
256394.0 310038.0 0
259937.0 313071.0 0
264650.0 313763.0 0
269297.0 313848.0 0
272920.0 311006.0 0
278143.0 310534.0 0
284669.0 310040.0 0
290892.0 310759.0 0
296520.0 310577.0 0
307859.0 314822.0 0
320417.0 311207.0 0
324961.0 311131.0 0
339112.0 313322.0 0
349617.0 310531.0 0
356286.0 311450.0 0
361855.0 314263.0 0
366109.0 311699.0 0
370489.0 311993.0 0
410203.0 311617.0 0
415232.0 310099.0 0
420447.0 310749.0 0
424465.0 313594.0 0
429055.0 313145.0 0
436061.0 311559.0 0
441300.0 310051.0 0
452098.0 311417.0 0
463371.0 311119.0 0
472620.0 311449.0 0
478625.0 311716.0 0
475464.0 314735.0 0
488314.0 310856.0 0
497634.0 312390.0 0
10345.6 316110.0 0
14356.5 317045.0 0
21198.9 316914.0 0
73587.4 319685.0 0
88732.2 315807.0 0
94616.0 316511.0 0
99836.4 319546.0 0
115852.0 317016.0 0
124424.0 318338.0 0
129417.0 318650.0 0
151889.0 315896.0 0
182877.0 319050.0 0
190151.0 319268.0 0
204537.0 318176.0 0
209813.0 319548.0 0
215422.0 315517.0 0
219383.0 319428.0 0
223893.0 317199.0 0
228554.0 319079.0 0
233634.0 318193.0 0
241573.0 318233.0 0
247669.0 315660.0 0
255608.0 315225.0 0
260840.0 318804.0 0
267630.0 318689.0 0
275662.0 315781.0 0
282084.0 315364.0 0
288375.0 315913.0 0
294164.0 315838.0 0
304833.0 319250.0 0
313339.0 316382.0 0
318165.0 315463.0 0
333604.0 316900.0 0
344315.0 315464.0 0
345237.0 319982.0 0
348224.0 317431.0 0
373349.0 314995.0 0
375332.0 318363.0 0
382120.0 315061.0 0
377846.0 315598.0 0
386421.0 315289.0 0
412280.0 318103.0 0
416387.0 319758.0 0
425494.0 317538.0 0
434661.0 316560.0 0
439140.0 318363.0 0
444448.0 316070.0 0
452878.0 319977.0 0
456662.0 316519.0 0
461427.0 317967.0 0
465643.0 320019.0 0
478873.0 317400.0 0
484076.0 315803.0 0
2520.43 321790.0 0
23712.7 320263.0 0
27712.7 321176.0 0
35470.8 323868.0 0
31330.3 324281.0 0
38957.8 322247.0 0
64003.3 322376.0 0
69034.9 322288.0 0
78890.1 321512.0 0
83595.1 323963.0 0
106851.0 322661.0 0
102136.0 324275.0 0
111993.0 322128.0 0
115838.0 322778.0 0
122579.0 324412.0 0
132091.0 322063.0 0
137331.0 320230.0 0
141484.0 321867.0 0
178121.0 320503.0 0
173534.0 321888.0 0
187621.0 324704.0 0
198863.0 320699.0 0
194183.0 322506.0 0
206165.0 322657.0 0
214274.0 321240.0 0
210208.0 324150.0 0
219003.0 324311.0 0
223634.0 321759.0 0
227926.0 324719.0 0
232406.0 322664.0 0
237511.0 320705.0 0
241302.0 324003.0 0
249636.0 320434.0 0
245268.0 321078.0 0
254554.0 320684.0 0
251080.0 324536.0 0
268059.0 323900.0 0
273080.0 320797.0 0
278622.0 320675.0 0
282934.0 320334.0 0
282245.0 325103.0 0
286579.0 320494.0 0
286578.0 324172.0 0
291007.0 320342.0 0
295785.0 321152.0 0
292295.0 324902.0 0
296348.0 324656.0 0
320801.0 322710.0 0
326082.0 321695.0 0
339966.0 322702.0 0
344226.0 323927.0 0
348323.0 321762.0 0
353398.0 322934.0 0
377578.0 324467.0 0
387759.0 321992.0 0
391971.0 323190.0 0
396070.0 320248.0 0
405148.0 320268.0 0
417562.0 324150.0 0
422843.0 322422.0 0
431748.0 320554.0 0
448734.0 323651.0 0
457920.0 321474.0 0
488519.0 323741.0 0
493893.0 322427.0 0
58276.5 327012.0 0
62760.5 327163.0 0
79117.6 326331.0 0
85357.4 328633.0 0
89677.3 329802.0 0
114635.0 329998.0 0
118035.0 326293.0 0
148593.0 329572.0 0
177642.0 330132.0 0
182265.0 328320.0 0
186511.0 328405.0 0
204008.0 330210.0 0
204357.0 325754.0 0
209787.0 329601.0 0
214471.0 326057.0 0
219174.0 329000.0 0
223352.0 326528.0 0
226788.0 329495.0 0
232145.0 329877.0 0
236318.0 325762.0 0
237493.0 330051.0 0
241631.0 329080.0 0
246218.0 326260.0 0
251264.0 329099.0 0
256303.0 326665.0 0
262862.0 325510.0 0
267902.0 329366.0 0
272176.0 325918.0 0
277009.0 325599.0 0
279252.0 329903.0 0
284086.0 330052.0 0
288278.0 327759.0 0
296138.0 327881.0 0
334097.0 326947.0 0
338749.0 325909.0 0
367860.0 328844.0 0
374256.0 329180.0 0
383309.0 326602.0 0
388742.0 329060.0 0
429251.0 325197.0 0
440415.0 326147.0 0
444373.0 325224.0 0
449043.0 328702.0 0
472532.0 328830.0 0
476982.0 328279.0 0
483950.0 325871.0 0
18980.9 334844.0 0
23860.2 330929.0 0
46285.1 335363.0 0
57656.8 333695.0 0
119205.0 330453.0 0
154063.0 330648.0 0
160451.0 331362.0 0
164978.0 335092.0 0
172783.0 331898.0 0
175845.0 333771.0 0
207137.0 334386.0 0
212543.0 334555.0 0
215091.0 330458.0 0
216905.0 333990.0 0
222790.0 330986.0 0
221030.0 335202.0 0
226471.0 334664.0 0
231408.0 334962.0 0
236717.0 335010.0 0
242995.0 334444.0 0
247323.0 331222.0 0
251624.0 333651.0 0
257639.0 331420.0 0
256146.0 335224.0 0
261120.0 330531.0 0
260919.0 334822.0 0
265925.0 334735.0 0
273126.0 330352.0 0
270796.0 333961.0 0
276141.0 334152.0 0
281424.0 334393.0 0
287841.0 332063.0 0
292283.0 330377.0 0
295737.0 333361.0 0
291083.0 335295.0 0
300749.0 335202.0 0
343860.0 331255.0 0
347413.0 333741.0 0
351113.0 334763.0 0
354633.0 331268.0 0
359569.0 334441.0 0
362728.0 330437.0 0
378320.0 332956.0 0
441465.0 332339.0 0
447200.0 332733.0 0
487877.0 331435.0 0
496741.0 333948.0 0
24601.3 336054.0 0
29372.6 337229.0 0
34198.8 339189.0 0
41944.7 337407.0 0
49720.9 339690.0 0
59419.7 337596.0 0
78998.1 340390.0 0
125705.0 338300.0 0
131308.0 336954.0 0
136308.0 336822.0 0
169679.0 336295.0 0
203274.0 335979.0 0
203607.0 339559.0 0
209617.0 340253.0 0
216027.0 337731.0 0
219942.0 340133.0 0
225129.0 340228.0 0
230481.0 339600.0 0
235398.0 340415.0 0
240006.0 339676.0 0
247800.0 335393.0 0
245798.0 340320.0 0
252776.0 340239.0 0
259146.0 339652.0 0
263538.0 338586.0 0
269637.0 339085.0 0
273816.0 337638.0 0
277556.0 339556.0 0
282425.0 338875.0 0
285813.0 335449.0 0
286250.0 339180.0 0
295573.0 338275.0 0
354750.0 338054.0 0
374379.0 338996.0 0
378180.0 337338.0 0
382647.0 339883.0 0
388980.0 338643.0 0
441425.0 338747.0 0
463934.0 339837.0 0
3000.82 340494.0 0
5576.43 344895.0 0
38189.5 342241.0 0
44756.1 340863.0 0
40981.1 344986.0 0
78850.0 343843.0 0
104572.0 345440.0 0
109302.0 341613.0 0
199009.0 342088.0 0
204507.0 344383.0 0
213855.0 344633.0 0
215006.0 341358.0 0
217596.0 344018.0 0
222170.0 344794.0 0
227334.0 344998.0 0
232822.0 344939.0 0
238450.0 344536.0 0
242879.0 344566.0 0
251329.0 345009.0 0
264995.0 342681.0 0
260316.0 344867.0 0
270308.0 345348.0 0
275508.0 343842.0 0
280915.0 344627.0 0
290628.0 340780.0 0
286404.0 343671.0 0
295369.0 344073.0 0
303326.0 340597.0 0
318205.0 341617.0 0
321222.0 343887.0 0
324319.0 342811.0 0
344872.0 341384.0 0
399809.0 343177.0 0
406576.0 345461.0 0
412274.0 345140.0 0
420030.0 345094.0 0
425901.0 343640.0 0
430527.0 341726.0 0
435600.0 341078.0 0
30674.9 348137.0 0
110496.0 346373.0 0
114684.0 347836.0 0
118920.0 350326.0 0
194107.0 348931.0 0
199281.0 347809.0 0
203763.0 349274.0 0
209706.0 347555.0 0
215564.0 348809.0 0
219947.0 349531.0 0
222849.0 348591.0 0
226714.0 350655.0 0
231988.0 349984.0 0
236795.0 349577.0 0
241919.0 348774.0 0
247482.0 346060.0 0
252120.0 349193.0 0
255290.0 345895.0 0
255130.0 350628.0 0
259940.0 350090.0 0
265586.0 349413.0 0
275364.0 348488.0 0
280264.0 350500.0 0
285529.0 348761.0 0
290400.0 346350.0 0
294635.0 350224.0 0
306624.0 346873.0 0
349594.0 348232.0 0
389404.0 348834.0 0
394819.0 346667.0 0
466754.0 346294.0 0
470906.0 347651.0 0
13308.9 351585.0 0
123167.0 352582.0 0
190052.0 352003.0 0
203372.0 355488.0 0
207022.0 353158.0 0
213627.0 354110.0 0
218154.0 354111.0 0
222500.0 353974.0 0
233101.0 354565.0 0
237974.0 354370.0 0
242687.0 353323.0 0
246393.0 350845.0 0
247739.0 355041.0 0
251700.0 353323.0 0
255829.0 354806.0 0
260264.0 355149.0 0
265036.0 354802.0 0
270872.0 351275.0 0
275871.0 354621.0 0
284131.0 354628.0 0
289387.0 352465.0 0
336311.0 352203.0 0
341778.0 355670.0 0
351904.0 353646.0 0
355596.0 351032.0 0
417609.0 351219.0 0
431254.0 352546.0 0
2103.89 358372.0 0
4937.82 355812.0 0
9627.86 356065.0 0
187646.0 358241.0 0
204452.0 359122.0 0
209713.0 357320.0 0
213389.0 359806.0 0
218306.0 358771.0 0
222726.0 358884.0 0
228118.0 355913.0 0
226680.0 360443.0 0
231449.0 359234.0 0
236417.0 359159.0 0
241624.0 357970.0 0
247090.0 360156.0 0
253246.0 359368.0 0
258473.0 359423.0 0
262430.0 358768.0 0
269992.0 356638.0 0
266448.0 360660.0 0
273824.0 359995.0 0
280221.0 357431.0 0
282083.0 360462.0 0
288834.0 358019.0 0
294884.0 356852.0 0
329037.0 358659.0 0
361777.0 357386.0 0
367623.0 357438.0 0
378832.0 356166.0 0
385884.0 360187.0 0
208611.0 361602.0 0
204665.0 364775.0 0
213534.0 365023.0 0
218165.0 363525.0 0
222182.0 363600.0 0
225759.0 365010.0 0
230740.0 364716.0 0
236520.0 364378.0 0
242380.0 364316.0 0
247901.0 365724.0 0
252046.0 364232.0 0
256535.0 364032.0 0
261403.0 363650.0 0
271274.0 363970.0 0
278168.0 360936.0 0
281975.0 364924.0 0
285750.0 361925.0 0
289876.0 362696.0 0
294930.0 363609.0 0
315116.0 364120.0 0
320148.0 361996.0 0
325382.0 362386.0 0
371598.0 361001.0 0
375018.0 362934.0 0
390115.0 362543.0 0
1680.3 375588.0 0
5486.5 375206.0 0
9969.8 375275.0 0
14452.6 375184.0 0
18626.6 375142.0 0
23168.6 375110.0 0
27043.4 375450.0 0
30885.4 375266.0 0
35193.8 366221.0 0
37418.8 375658.0 0
41321.8 375471.0 0
46049.2 375131.0 0
49547.3 375345.0 0
53183.3 375837.0 0
57350.2 375167.0 0
61774.7 371546.0 0
65194.7 375213.0 0
68590.3 370154.0 0
68661.0 365778.0 0
74935.4 367380.0 0
77891.3 375272.0 0
81538.5 375131.0 0
86513.5 375182.0 0
90847.8 369736.0 0
95263.3 375259.0 0
99922.6 375342.0 0
103668.0 375637.0 0
110964.0 375505.0 0
107232.0 375502.0 0
115012.0 375374.0 0
118775.0 375950.0 0
122560.0 375494.0 0
127553.0 375397.0 0
132459.0 375122.0 0
137098.0 371235.0 0
139476.0 366481.0 0
144683.0 367181.0 0
149546.0 370117.0 0
154306.0 368311.0 0
157661.0 372687.0 0
161221.0 369336.0 0
164949.0 375311.0 0
168741.0 375535.0 0
171833.0 375386.0 0
175664.0 375266.0 0
179467.0 375748.0 0
182766.0 375290.0 0
186277.0 375381.0 0
190115.0 376107.0 0
194197.0 375128.0 0
198187.0 375092.0 0
196563.0 377477.0 0
199804.0 376752.0 0
208958.0 367155.0 0
266160.0 366523.0 0
276404.0 366025.0 0
287124.0 366929.0 0
292000.0 367885.0 0
295743.0 369720.0 0
301084.0 373221.0 0
302576.0 368875.0 0
310048.0 375113.0 0
306187.0 371830.0 0
313582.0 376171.0 0
317562.0 376259.0 0
321687.0 375693.0 0
324984.0 375727.0 0
328365.0 375541.0 0
332366.0 375427.0 0
336590.0 375113.0 0
340349.0 375905.0 0
344106.0 375464.0 0
349010.0 375897.0 0
353182.0 375931.0 0
356825.0 375090.0 0
361362.0 375348.0 0
366196.0 375986.0 0
370890.0 375282.0 0
376443.0 375314.0 0
373608.0 377309.0 0
380442.0 375758.0 0
384376.0 375478.0 0
388785.0 375999.0 0
393998.0 375220.0 0
397526.0 375499.0 0
400528.0 375331.0 0
404509.0 375333.0 0
408867.0 375047.0 0
410946.0 377406.0 0
413516.0 375120.0 0
418240.0 375164.0 0
422484.0 375459.0 0
426722.0 375622.0 0
430417.0 375247.0 0
434440.0 375432.0 0
438798.0 375072.0 0
443357.0 375201.0 0
441570.0 377227.0 0
446773.0 375146.0 0
451963.0 375410.0 0
456758.0 375565.0 0
461772.0 375573.0 0
466077.0 375618.0 0
470656.0 375549.0 0
474704.0 375322.0 0
479742.0 375309.0 0
484441.0 375528.0 0
488158.0 375311.0 0
492911.0 375204.0 0
497831.0 375506.0 0
4061.71 378730.0 0
1269.3 378675.0 0
1388.5 381407.0 0
7770.24 378016.0 0
10052.6 380610.0 0
5675.54 382241.0 0
12188.9 378202.0 0
13898.1 382109.0 0
16235.2 379020.0 0
20790.4 378547.0 0
25342.9 378483.0 0
23358.2 382295.0 0
27095.1 381121.0 0
29111.8 378411.0 0
30286.7 381765.0 0
34540.4 375537.0 0
33002.7 378739.0 0
37478.2 379013.0 0
40842.2 380088.0 0
38826.3 382330.0 0
44634.2 378067.0 0
44081.9 381353.0 0
48404.7 377992.0 0
51795.0 379376.0 0
47918.7 381295.0 0
56291.7 378963.0 0
60970.3 376643.0 0
59521.3 381282.0 0
64593.6 379800.0 0
68887.8 375315.0 0
68577.9 378252.0 0
71643.7 371662.0 0
71538.8 380162.0 0
72195.4 376120.0 0
75173.8 378792.0 0
75395.9 375532.0 0
78864.1 378325.0 0
83680.5 378417.0 0
83686.4 381692.0 0
88287.3 379230.0 0
91238.9 375785.0 0
93199.3 380087.0 0
97001.3 378622.0 0
100940.0 379030.0 0
98135.4 381962.0 0
104641.0 378973.0 0
108864.0 378950.0 0
112823.0 379058.0 0
116907.0 379451.0 0
120842.0 379994.0 0
125483.0 379729.0 0
130332.0 378468.0 0
133901.0 378240.0 0
132642.0 381102.0 0
129367.0 381626.0 0
135848.0 376030.0 0
136750.0 380113.0 0
138177.0 376215.0 0
141551.0 375274.0 0
140479.0 379235.0 0
143889.0 377874.0 0
146246.0 375443.0 0
147487.0 379219.0 0
150881.0 376185.0 0
154909.0 375618.0 0
154715.0 379412.0 0
158041.0 377081.0 0
160664.0 379532.0 0
158353.0 380929.0 0
161431.0 376082.0 0
165916.0 378114.0 0
163591.0 379876.0 0
167308.0 381505.0 0
169448.0 378675.0 0
173308.0 378716.0 0
177032.0 378164.0 0
179348.0 379370.0 0
181329.0 381779.0 0
182944.0 378421.0 0
184460.0 381513.0 0
187101.0 379308.0 0
190700.0 380744.0 0
193069.0 378170.0 0
195166.0 380125.0 0
198905.0 379898.0 0
300914.0 377543.0 0
305052.0 379342.0 0
303933.0 375630.0 0
309162.0 378486.0 0
306532.0 375756.0 0
313088.0 379899.0 0
321088.0 379708.0 0
317270.0 381775.0 0
323869.0 378267.0 0
324248.0 381317.0 0
326560.0 378856.0 0
327353.0 381234.0 0
330279.0 379277.0 0
334433.0 378610.0 0
341222.0 379058.0 0
338233.0 378134.0 0
338156.0 381221.0 0
345203.0 380056.0 0
349743.0 380287.0 0
354007.0 380152.0 0
358084.0 378069.0 0
358359.0 381789.0 0
362229.0 379797.0 0
366991.0 380719.0 0
370235.0 379123.0 0
373594.0 380867.0 0
381866.0 379137.0 0
377575.0 379813.0 0
385663.0 378775.0 0
384088.0 382446.0 0
388523.0 381432.0 0
396186.0 381764.0 0
392768.0 379560.0 0
398079.0 378676.0 0
400997.0 381785.0 0
402490.0 378111.0 0
406741.0 377772.0 0
404735.0 380338.0 0
409098.0 381048.0 0
413183.0 379966.0 0
416022.0 377767.0 0
417212.0 382246.0 0
420057.0 378904.0 0
422123.0 382415.0 0
428098.0 379254.0 0
424362.0 379227.0 0
431438.0 378295.0 0
431261.0 380912.0 0
433241.0 381009.0 0
429279.0 382568.0 0
434983.0 378713.0 0
437750.0 378332.0 0
436548.0 382039.0 0
440225.0 380501.0 0
444862.0 379141.0 0
448825.0 382407.0 0
448965.0 377890.0 0
452536.0 379585.0 0
455492.0 379198.0 0
457387.0 382277.0 0
459797.0 379121.0 0
461339.0 382291.0 0
464052.0 379727.0 0
468574.0 379104.0 0
466974.0 382708.0 0
471636.0 381881.0 0
473074.0 378665.0 0
476660.0 378404.0 0
476013.0 382214.0 0
482656.0 378400.0 0
479823.0 380474.0 0
484331.0 382367.0 0
486402.0 378670.0 0
488627.0 382485.0 0
490124.0 378809.0 0
494684.0 379203.0 0
498630.0 379159.0 0
1885.13 384776.0 0
10115.0 384048.0 0
6197.03 387077.0 0
14523.0 386189.0 0
10380.5 387556.0 0
18541.4 383242.0 0
19307.5 387099.0 0
23091.6 386007.0 0
26976.9 384307.0 0
30805.2 385499.0 0
34921.6 382761.0 0
34730.7 387107.0 0
38382.1 385906.0 0
41153.0 386730.0 0
45149.4 383779.0 0
41527.6 383664.0 0
44095.4 387092.0 0
51077.7 382326.0 0
48608.6 385171.0 0
54556.4 382236.0 0
52269.0 384768.0 0
55481.7 386577.0 0
57121.6 383600.0 0
59610.6 385608.0 0
63394.4 384154.0 0
66891.0 386301.0 0
68174.1 382536.0 0
71262.8 384588.0 0
75270.8 382955.0 0
79866.9 382120.0 0
78892.9 386432.0 0
83330.0 385745.0 0
86621.6 382699.0 0
90567.3 383602.0 0
87262.7 386064.0 0
95019.5 384628.0 0
99571.7 385554.0 0
102102.0 382497.0 0
104302.0 385858.0 0
106803.0 382735.0 0
111262.0 382739.0 0
109129.0 386166.0 0
114996.0 382593.0 0
114211.0 386717.0 0
118768.0 383996.0 0
122551.0 383081.0 0
126462.0 384452.0 0
122566.0 386382.0 0
130579.0 383770.0 0
130143.0 387070.0 0
134511.0 384784.0 0
139721.0 384283.0 0
143960.0 381459.0 0
144565.0 385246.0 0
151097.0 381182.0 0
147927.0 383383.0 0
151101.0 385570.0 0
155280.0 384047.0 0
161706.0 382383.0 0
159732.0 384654.0 0
164791.0 384357.0 0
171086.0 382625.0 0
168784.0 386057.0 0
172843.0 385859.0 0
176279.0 382618.0 0
180231.0 385611.0 0
183888.0 384243.0 0
187536.0 384018.0 0
191091.0 384784.0 0
193446.0 382964.0 0
196522.0 383267.0 0
194289.0 386861.0 0
199545.0 382997.0 0
198981.0 386706.0 0
300864.0 382214.0 0
304609.0 383130.0 0
301707.0 386539.0 0
305573.0 385789.0 0
309123.0 382926.0 0
308373.0 386872.0 0
313215.0 383442.0 0
315134.0 385576.0 0
311860.0 386257.0 0
318514.0 387146.0 0
321433.0 384196.0 0
326286.0 385350.0 0
329894.0 382810.0 0
334163.0 383050.0 0
331481.0 387035.0 0
341217.0 382945.0 0
337992.0 384570.0 0
340424.0 387217.0 0
344600.0 384706.0 0
348286.0 383750.0 0
351778.0 383783.0 0
346874.0 386860.0 0
349875.0 387113.0 0
355706.0 384212.0 0
353430.0 386339.0 0
360151.0 384955.0 0
363978.0 383525.0 0
364900.0 386951.0 0
367444.0 384630.0 0
370541.0 383269.0 0
375229.0 385432.0 0
379923.0 383307.0 0
379691.0 387645.0 0
382740.0 385911.0 0
386947.0 386411.0 0
392682.0 385161.0 0
397874.0 384947.0 0
401881.0 385660.0 0
405433.0 384334.0 0
409485.0 384985.0 0
413089.0 383789.0 0
416127.0 386567.0 0
420093.0 385495.0 0
425766.0 383117.0 0
424140.0 386861.0 0
432857.0 384112.0 0
428624.0 386537.0 0
436856.0 385981.0 0
439785.0 384055.0 0
443514.0 383197.0 0
446278.0 386686.0 0
453623.0 382902.0 0
451466.0 386123.0 0
456228.0 386755.0 0
463811.0 383755.0 0
460158.0 385042.0 0
462668.0 386536.0 0
466662.0 386806.0 0
469801.0 384871.0 0
473455.0 385888.0 0
477503.0 385600.0 0
480367.0 384112.0 0
484098.0 386227.0 0
488619.0 386759.0 0
492739.0 382720.0 0
494035.0 386546.0 0
497834.0 382728.0 0
498368.0 386566.0 0
1899.56 388723.0 0
1442.78 392356.0 0
8816.78 390163.0 0
5538.46 391761.0 0
12129.9 390239.0 0
16600.7 390716.0 0
22492.8 390520.0 0
26829.8 388235.0 0
31755.1 390544.0 0
37077.5 390138.0 0
40834.0 389467.0 0
44298.0 391551.0 0
47677.4 389160.0 0
51575.0 388241.0 0
54497.1 390514.0 0
58788.8 389679.0 0
63049.6 388433.0 0
70140.9 388091.0 0
66765.1 391048.0 0
71543.1 391419.0 0
74550.4 387906.0 0
75747.6 392262.0 0
78440.7 390024.0 0
82108.7 389466.0 0
86149.4 389114.0 0
84636.2 392255.0 0
91048.8 388366.0 0
88304.7 392326.0 0
96429.2 389186.0 0
101469.0 389373.0 0
106589.0 389456.0 0
110775.0 389540.0 0
116399.0 390407.0 0
113209.0 391671.0 0
119105.0 388216.0 0
119503.0 391453.0 0
126187.0 389092.0 0
122607.0 390601.0 0
129879.0 391264.0 0
137137.0 388639.0 0
133324.0 388999.0 0
142553.0 389050.0 0
147670.0 387420.0 0
147095.0 391481.0 0
151024.0 389556.0 0
153910.0 388037.0 0
158239.0 388807.0 0
162095.0 390602.0 0
162523.0 387273.0 0
166087.0 389528.0 0
171506.0 390011.0 0
175864.0 387573.0 0
175978.0 391067.0 0
179939.0 389803.0 0
184842.0 388176.0 0
187830.0 391556.0 0
189417.0 387676.0 0
192476.0 390593.0 0
197839.0 391303.0 0
305637.0 389187.0 0
301237.0 390506.0 0
309995.0 389455.0 0
314430.0 389663.0 0
318541.0 391398.0 0
322880.0 389329.0 0
328364.0 390690.0 0
333456.0 391301.0 0
336053.0 387678.0 0
337819.0 391400.0 0
344326.0 388224.0 0
342112.0 391316.0 0
347151.0 390836.0 0
356588.0 387975.0 0
352521.0 390678.0 0
361153.0 389649.0 0
356962.0 391928.0 0
365731.0 390348.0 0
369999.0 388276.0 0
374125.0 389957.0 0
377247.0 390264.0 0
372265.0 392781.0 0
375442.0 392647.0 0
380176.0 391015.0 0
383090.0 389371.0 0
385996.0 390961.0 0
390400.0 390233.0 0
396656.0 388190.0 0
394490.0 389323.0 0
394437.0 392196.0 0
400306.0 388624.0 0
397907.0 391683.0 0
402592.0 392425.0 0
404107.0 388488.0 0
406226.0 390968.0 0
407884.0 388289.0 0
412136.0 387917.0 0
410186.0 392400.0 0
415365.0 391253.0 0
419422.0 389207.0 0
423147.0 391268.0 0
426893.0 390268.0 0
429974.0 390114.0 0
433039.0 387988.0 0
433136.0 392226.0 0
437049.0 389960.0 0
441502.0 387811.0 0
440515.0 391878.0 0
445108.0 391582.0 0
449212.0 389385.0 0
453244.0 390149.0 0
457390.0 391128.0 0
460085.0 388669.0 0
460885.0 392109.0 0
464035.0 389820.0 0
468565.0 391118.0 0
470364.0 387916.0 0
473068.0 389952.0 0
476284.0 388334.0 0
477601.0 392218.0 0
480641.0 388179.0 0
481881.0 391806.0 0
484919.0 389482.0 0
488300.0 390710.0 0
492398.0 390542.0 0
497752.0 390458.0 0
2758.96 396569.0 0
9710.11 393106.0 0
7477.16 395662.0 0
12992.8 393851.0 0
11131.8 397016.0 0
19821.7 393437.0 0
16665.4 397260.0 0
22407.1 395612.0 0
26614.7 392918.0 0
26213.6 397661.0 0
31292.5 395862.0 0
35861.5 393964.0 0
40114.3 393210.0 0
37902.5 395635.0 0
40502.1 397502.0 0
44244.3 395311.0 0
50148.2 393548.0 0
47030.8 397319.0 0
53877.0 397130.0 0
56993.7 393819.0 0
61185.0 396208.0 0
62083.4 392538.0 0
65431.0 395169.0 0
69453.4 394879.0 0
73205.8 394470.0 0
76604.9 396269.0 0
80411.4 393919.0 0
85072.2 396483.0 0
89557.3 395818.0 0
93181.7 392971.0 0
95870.2 395530.0 0
98880.9 393680.0 0
104089.0 393820.0 0
109205.0 393023.0 0
107243.0 397293.0 0
116981.0 393810.0 0
112752.0 396128.0 0
121889.0 395033.0 0
126310.0 393252.0 0
129861.0 394923.0 0
134099.0 393153.0 0
138957.0 392305.0 0
138105.0 396809.0 0
143229.0 394624.0 0
147521.0 395180.0 0
151017.0 393519.0 0
154919.0 391687.0 0
154926.0 395788.0 0
159558.0 393653.0 0
163976.0 393099.0 0
168251.0 393759.0 0
173941.0 395213.0 0
178446.0 393095.0 0
183051.0 392836.0 0
179583.0 396001.0 0
186962.0 395668.0 0
183608.0 396794.0 0
191126.0 394742.0 0
194579.0 394118.0 0
196678.0 395751.0 0
194325.0 397453.0 0
199361.0 395271.0 0
304725.0 392792.0 0
301348.0 395281.0 0
308045.0 392252.0 0
307317.0 396858.0 0
311341.0 393020.0 0
315363.0 393902.0 0
312349.0 396420.0 0
318956.0 395531.0 0
321794.0 393393.0 0
325430.0 393800.0 0
322748.0 396759.0 0
330644.0 395432.0 0
326500.0 397212.0 0
335527.0 394991.0 0
339867.0 394789.0 0
344392.0 394779.0 0
349402.0 394862.0 0
353939.0 395168.0 0
360556.0 393537.0 0
358191.0 395088.0 0
361838.0 396902.0 0
364060.0 393575.0 0
366203.0 396753.0 0
368317.0 393081.0 0
370700.0 396561.0 0
375161.0 396491.0 0
378462.0 393584.0 0
379496.0 397279.0 0
382838.0 393882.0 0
385790.0 397389.0 0
387794.0 394083.0 0
392060.0 394644.0 0
396098.0 395055.0 0
394140.0 397396.0 0
399951.0 395154.0 0
406274.0 394296.0 0
403617.0 397653.0 0
413803.0 395843.0 0
419398.0 394395.0 0
426126.0 393493.0 0
423708.0 395308.0 0
427247.0 397038.0 0
429160.0 393364.0 0
431939.0 396275.0 0
436849.0 394607.0 0
442071.0 395483.0 0
438915.0 397323.0 0
446602.0 395990.0 0
449769.0 393135.0 0
451493.0 397077.0 0
454552.0 393860.0 0
458537.0 395010.0 0
462003.0 395695.0 0
464990.0 393744.0 0
468398.0 395699.0 0
464791.0 397756.0 0
472381.0 393880.0 0
476446.0 396983.0 0
481529.0 395847.0 0
485400.0 393277.0 0
485977.0 396897.0 0
490060.0 394699.0 0
493912.0 397976.0 0
498840.0 393883.0 0
495219.0 394015.0 0
498256.0 397019.0 0
2859.89 402304.0 0
7757.92 399774.0 0
12278.8 401447.0 0
21658.3 399963.0 0
25521.5 401922.0 0
30443.2 401076.0 0
35727.0 398596.0 0
39789.6 402341.0 0
44593.6 400627.0 0
50135.6 400068.0 0
55155.1 401573.0 0
57826.2 398007.0 0
60793.3 401462.0 0
64231.9 398790.0 0
68476.5 399495.0 0
72934.6 397773.0 0
76233.4 399546.0 0
73201.9 402055.0 0
80235.9 399049.0 0
77564.7 402711.0 0
84403.7 401292.0 0
88829.3 400085.0 0
93443.7 398422.0 0
97682.9 397917.0 0
101696.0 398731.0 0
97399.2 401869.0 0
105130.0 401508.0 0
110465.0 401584.0 0
115000.0 400027.0 0
117764.0 397695.0 0
121713.0 400137.0 0
117955.0 401350.0 0
126909.0 398273.0 0
129626.0 402223.0 0
132839.0 398441.0 0
137843.0 401232.0 0
142358.0 399564.0 0
146096.0 398126.0 0
150444.0 398318.0 0
154420.0 399773.0 0
158860.0 398505.0 0
164072.0 397494.0 0
166182.0 401472.0 0
169086.0 398536.0 0
173031.0 399831.0 0
177119.0 399322.0 0
181769.0 399685.0 0
186157.0 399597.0 0
190397.0 398768.0 0
198223.0 398720.0 0
194504.0 401989.0 0
199051.0 402283.0 0
302453.0 399653.0 0
315881.0 397862.0 0
311586.0 400421.0 0
316089.0 402327.0 0
319842.0 399336.0 0
324376.0 400810.0 0
329237.0 399943.0 0
334008.0 399632.0 0
337840.0 398001.0 0
338397.0 401874.0 0
341729.0 398427.0 0
346662.0 398904.0 0
351479.0 399272.0 0
356805.0 399231.0 0
360833.0 400131.0 0
364464.0 400938.0 0
368680.0 399446.0 0
372691.0 400834.0 0
377065.0 400632.0 0
381149.0 401218.0 0
382733.0 398372.0 0
385518.0 401751.0 0
389939.0 398500.0 0
394145.0 400865.0 0
398168.0 398755.0 0
401757.0 401679.0 0
406305.0 402563.0 0
409200.0 398077.0 0
410732.0 402239.0 0
413657.0 400351.0 0
417302.0 398465.0 0
417807.0 402813.0 0
422235.0 399072.0 0
426548.0 401196.0 0
430472.0 399823.0 0
429400.0 402639.0 0
435529.0 399865.0 0
440223.0 399289.0 0
440109.0 402882.0 0
443676.0 399588.0 0
448255.0 400343.0 0
453059.0 401617.0 0
456085.0 398438.0 0
457183.0 402599.0 0
460703.0 399377.0 0
464986.0 402090.0 0
468128.0 399500.0 0
471911.0 398580.0 0
474839.0 401189.0 0
483962.0 399790.0 0
479452.0 400468.0 0
489173.0 399189.0 0
486578.0 403043.0 0
490281.0 402392.0 0
493296.0 401735.0 0
497699.0 400759.0 0
8150.94 404872.0 0
13267.2 406755.0 0
17409.4 402835.0 0
18287.3 406728.0 0
22214.6 404769.0 0
27169.2 405492.0 0
31138.5 405607.0 0
35113.7 403543.0 0
34153.4 407795.0 0
38646.9 407413.0 0
43606.5 406155.0 0
47496.8 404100.0 0
51312.6 404750.0 0
55069.6 405624.0 0
58443.9 404786.0 0
65015.1 402750.0 0
62806.9 406900.0 0
68871.3 405073.0 0
74645.0 406564.0 0
81043.7 403038.0 0
79434.5 406218.0 0
83912.1 405616.0 0
88159.3 404357.0 0
91423.6 406569.0 0
92786.0 402983.0 0
96214.0 406422.0 0
101377.0 404406.0 0
106507.0 405475.0 0
111397.0 406814.0 0
115266.0 403888.0 0
119718.0 404387.0 0
125052.0 404243.0 0
129956.0 406970.0 0
133716.0 403333.0 0
134616.0 407156.0 0
142142.0 403836.0 0
138198.0 405630.0 0
146833.0 402168.0 0
145711.0 406386.0 0
151708.0 403278.0 0
149929.0 407175.0 0
156773.0 403208.0 0
162232.0 402749.0 0
159131.0 406832.0 0
166089.0 404604.0 0
169973.0 403480.0 0
173064.0 407433.0 0
174807.0 403164.0 0
177097.0 406195.0 0
179526.0 403011.0 0
181587.0 407295.0 0
184373.0 403189.0 0
187215.0 407274.0 0
189233.0 403045.0 0
192835.0 407467.0 0
197990.0 405661.0 0
301569.0 404139.0 0
304951.0 406716.0 0
307006.0 402722.0 0
308048.0 407315.0 0
311848.0 405746.0 0
320743.0 403781.0 0
317089.0 407074.0 0
324327.0 405162.0 0
327651.0 403897.0 0
331037.0 406821.0 0
331637.0 402721.0 0
335108.0 404442.0 0
339482.0 407137.0 0
343288.0 403112.0 0
344006.0 407318.0 0
348714.0 403777.0 0
351496.0 407380.0 0
353907.0 403689.0 0
359811.0 404540.0 0
364847.0 406409.0 0
368730.0 403390.0 0
371881.0 405412.0 0
375324.0 404619.0 0
378984.0 404078.0 0
382415.0 405257.0 0
387015.0 406605.0 0
390042.0 402966.0 0
391413.0 406392.0 0
393879.0 404402.0 0
397865.0 403867.0 0
399205.0 406862.0 0
402384.0 405829.0 0
406601.0 405835.0 0
410117.0 406215.0 0
413581.0 403644.0 0
415153.0 407554.0 0
419918.0 406545.0 0
423064.0 403970.0 0
427758.0 405609.0 0
432172.0 403268.0 0
431967.0 407305.0 0
435808.0 404776.0 0
442311.0 406697.0 0
439106.0 406730.0 0
444752.0 403887.0 0
449879.0 405304.0 0
454486.0 404893.0 0
457881.0 406925.0 0
460985.0 403763.0 0
462314.0 407436.0 0
466087.0 406405.0 0
470716.0 403826.0 0
473461.0 407699.0 0
477068.0 404813.0 0
482037.0 404022.0 0
484977.0 406624.0 0
490982.0 407087.0 0
495419.0 404343.0 0
498571.0 404329.0 0
3210.35 407939.0 0
1603.89 412014.0 0
8536.44 409497.0 0
5464.48 412591.0 0
12613.5 412021.0 0
17395.6 410781.0 0
21028.7 408447.0 0
24805.7 408829.0 0
21847.5 411821.0 0
29890.3 410120.0 0
25687.3 412840.0 0
35656.5 412060.0 0
40778.5 411600.0 0
44414.7 410456.0 0
48272.0 408523.0 0
47182.6 412403.0 0
52992.4 408847.0 0
55847.9 412320.0 0
51070.2 412778.0 0
57638.6 408353.0 0
60033.2 411022.0 0
63667.5 412583.0 0
66907.2 409628.0 0
71094.5 409435.0 0
74090.0 410713.0 0
77783.1 410118.0 0
82384.7 409694.0 0
84993.6 412814.0 0
87561.4 409133.0 0
92560.9 410112.0 0
100052.0 408371.0 0
97199.8 411008.0 0
101481.0 412243.0 0
103864.0 408633.0 0
106206.0 412503.0 0
107866.0 409063.0 0
111555.0 411850.0 0
116628.0 408384.0 0
121575.0 407982.0 0
121520.0 411877.0 0
125537.0 409707.0 0
129812.0 412322.0 0
133577.0 410156.0 0
137576.0 409807.0 0
141820.0 408463.0 0
146951.0 410639.0 0
143565.0 411276.0 0
151667.0 411218.0 0
154558.0 407570.0 0
155826.0 411527.0 0
159994.0 410823.0 0
163422.0 407562.0 0
164559.0 411752.0 0
168400.0 408738.0 0
172484.0 412355.0 0
176894.0 410048.0 0
180821.0 411786.0 0
184568.0 410817.0 0
188902.0 412213.0 0
198042.0 410070.0 0
193854.0 412829.0 0
301563.0 409033.0 0
305642.0 410303.0 0
309754.0 410392.0 0
313738.0 409778.0 0
318329.0 412562.0 0
321870.0 408239.0 0
324154.0 412292.0 0
326385.0 408376.0 0
330082.0 411963.0 0
335042.0 409379.0 0
338779.0 412297.0 0
343161.0 411087.0 0
347498.0 408825.0 0
356035.0 408652.0 0
351647.0 411503.0 0
361416.0 410308.0 0
366026.0 410441.0 0
369038.0 407925.0 0
369543.0 411467.0 0
373357.0 409172.0 0
376112.0 412795.0 0
378449.0 408172.0 0
380063.0 412049.0 0
383151.0 409436.0 0
390725.0 409333.0 0
387440.0 411550.0 0
395520.0 408365.0 0
400476.0 409616.0 0
397652.0 412454.0 0
405807.0 409704.0 0
411304.0 411290.0 0
416125.0 412877.0 0
419369.0 410078.0 0
424216.0 409212.0 0
428647.0 409837.0 0
432112.0 412436.0 0
436049.0 409190.0 0
436753.0 412669.0 0
441248.0 411025.0 0
445546.0 408350.0 0
446366.0 412935.0 0
449344.0 409949.0 0
453714.0 408880.0 0
456578.0 412488.0 0
460161.0 410564.0 0
464143.0 411103.0 0
469129.0 410182.0 0
474071.0 411633.0 0
476923.0 409011.0 0
478238.0 412037.0 0
480977.0 408388.0 0
482222.0 412963.0 0
485936.0 410596.0 0
494018.0 411675.0 0
489976.0 412977.0 0
497379.0 408290.0 0
497928.0 413007.0 0
2405.62 416046.0 0
8988.82 413665.0 0
7143.32 417717.0 0
11891.3 416646.0 0
19587.0 414196.0 0
16277.3 415394.0 0
22615.0 415605.0 0
28588.5 413822.0 0
27298.0 417558.0 0
31684.4 415091.0 0
35402.6 416871.0 0
39396.2 415754.0 0
43970.1 414773.0 0
48273.1 415682.0 0
54163.8 417124.0 0
59379.2 415154.0 0
63644.4 417387.0 0
69393.0 414784.0 0
75405.5 414112.0 0
80424.0 414435.0 0
84951.5 416629.0 0
82018.2 417913.0 0
89278.5 414343.0 0
94191.0 413913.0 0
98217.4 415677.0 0
103497.0 417319.0 0
109070.0 416521.0 0
116859.0 413596.0 0
113225.0 416271.0 0
120981.0 416713.0 0
125378.0 414724.0 0
135496.0 414978.0 0
140536.0 412875.0 0
144455.0 414606.0 0
148825.0 414848.0 0
153637.0 415635.0 0
158134.0 414644.0 0
161802.0 414530.0 0
165211.0 415668.0 0
168219.0 413557.0 0
170768.0 416703.0 0
177521.0 415264.0 0
174008.0 417931.0 0
183837.0 415305.0 0
188162.0 416696.0 0
191309.0 415745.0 0
198077.0 415216.0 0
194388.0 416863.0 0
301923.0 413142.0 0
301924.0 417089.0 0
306839.0 414963.0 0
312534.0 413956.0 0
321936.0 416521.0 0
326951.0 416124.0 0
334669.0 413579.0 0
332008.0 416981.0 0
337696.0 417468.0 0
342940.0 415623.0 0
347201.0 413559.0 0
351541.0 416153.0 0
356863.0 414080.0 0
361794.0 414862.0 0
366360.0 414539.0 0
371567.0 415323.0 0
375910.0 416823.0 0
379598.0 415831.0 0
383616.0 414014.0 0
387954.0 416818.0 0
392616.0 413536.0 0
396972.0 416734.0 0
402083.0 414578.0 0
407837.0 415156.0 0
412847.0 416473.0 0
417481.0 417048.0 0
421691.0 414548.0 0
427117.0 413731.0 0
430477.0 417804.0 0
435280.0 416037.0 0
439091.0 414874.0 0
443037.0 416194.0 0
447966.0 417951.0 0
451718.0 413876.0 0
452282.0 417890.0 0
455895.0 416864.0 0
460965.0 415189.0 0
466326.0 415036.0 0
471213.0 415178.0 0
479213.0 415302.0 0
475723.0 415414.0 0
482313.0 417165.0 0
486190.0 415199.0 0
490272.0 417315.0 0
494350.0 415532.0 0
497996.0 416924.0 0
2695.67 421060.0 0
7155.67 422177.0 0
10857.1 420990.0 0
15099.5 419759.0 0
19599.5 418691.0 0
18245.2 422547.0 0
23406.1 419209.0 0
22609.6 422911.0 0
28030.8 423063.0 0
32245.4 419684.0 0
37875.3 420922.0 0
42070.2 418615.0 0
43258.7 422924.0 0
45997.0 418872.0 0
49916.6 418646.0 0
48788.9 422693.0 0
54345.4 422910.0 0
59126.2 419934.0 0
63630.6 422302.0 0
67044.6 419834.0 0
70781.6 420279.0 0
74230.6 418251.0 0
78593.4 419834.0 0
83524.8 420822.0 0
88126.3 419793.0 0
93365.3 418737.0 0
98675.9 421299.0 0
103499.0 422465.0 0
107594.0 421280.0 0
112268.0 420430.0 0
116469.0 418578.0 0
115967.0 422634.0 0
120247.0 421503.0 0
124820.0 420060.0 0
129983.0 418268.0 0
135496.0 421387.0 0
140821.0 418039.0 0
139762.0 421804.0 0
145915.0 418674.0 0
143347.0 422818.0 0
149963.0 418528.0 0
148576.0 422891.0 0
157610.0 418510.0 0
153516.0 420903.0 0
161972.0 418490.0 0
167092.0 419514.0 0
163544.0 422639.0 0
172078.0 421712.0 0
176853.0 420251.0 0
180902.0 418851.0 0
185682.0 420575.0 0
191322.0 420005.0 0
197198.0 420572.0 0
302403.0 421500.0 0
311076.0 418259.0 0
306890.0 420144.0 0
315976.0 418028.0 0
315737.0 422655.0 0
320064.0 421027.0 0
324399.0 419898.0 0
328829.0 420792.0 0
333709.0 421722.0 0
338116.0 422816.0 0
342595.0 420911.0 0
347142.0 418300.0 0
351445.0 421134.0 0
355396.0 418811.0 0
359665.0 418669.0 0
363732.0 418095.0 0
363042.0 423106.0 0
367894.0 419455.0 0
373230.0 420795.0 0
378628.0 420214.0 0
383248.0 418796.0 0
387584.0 422630.0 0
392838.0 419756.0 0
400051.0 419738.0 0
404824.0 419319.0 0
409567.0 419895.0 0
415548.0 421072.0 0
420808.0 419920.0 0
425327.0 418104.0 0
427532.0 421675.0 0
434845.0 419988.0 0
439037.0 419114.0 0
443565.0 421233.0 0
448152.0 423093.0 0
453898.0 422220.0 0
459061.0 420058.0 0
463957.0 419694.0 0
468903.0 419370.0 0
473750.0 419187.0 0
478207.0 418646.0 0
476862.0 422885.0 0
481573.0 421554.0 0
486122.0 419827.0 0
494019.0 419361.0 0
490448.0 422590.0 0
494617.0 423030.0 0
497847.0 421025.0 0
1103.76 424731.0 0
4743.57 426033.0 0
1147.55 427279.0 0
9657.62 425573.0 0
14256.7 424452.0 0
19176.0 427500.0 0
24882.4 427492.0 0
29772.7 427928.0 0
33422.2 424403.0 0
37974.4 426123.0 0
42128.2 427710.0 0
46406.6 426895.0 0
51160.7 427442.0 0
55717.1 427861.0 0
59459.3 425105.0 0
64114.4 427394.0 0
68603.7 424428.0 0
74330.4 423245.0 0
72357.5 427960.0 0
80612.2 424548.0 0
76899.7 427316.0 0
86402.1 425454.0 0
90755.1 428653.0 0
92155.7 424173.0 0
96594.0 426411.0 0
101287.0 425915.0 0
106232.0 426219.0 0
110706.0 424602.0 0
114617.0 426628.0 0
118523.0 425187.0 0
122641.0 425431.0 0
128758.0 425023.0 0
134394.0 426105.0 0
139252.0 424790.0 0
142327.0 427545.0 0
145865.0 426180.0 0
148712.0 427004.0 0
153002.0 426467.0 0
158488.0 423692.0 0
162962.0 427450.0 0
167623.0 424838.0 0
172382.0 427980.0 0
176322.0 424513.0 0
176873.0 427975.0 0
180849.0 423152.0 0
185107.0 425860.0 0
189169.0 424113.0 0
193466.0 424843.0 0
198039.0 425824.0 0
302005.0 426084.0 0
310939.0 422822.0 0
306281.0 424309.0 0
309373.0 426947.0 0
313864.0 427027.0 0
319153.0 426248.0 0
324834.0 424770.0 0
330349.0 425472.0 0
335622.0 426361.0 0
341453.0 427240.0 0
347212.0 423217.0 0
351293.0 426255.0 0
346838.0 427281.0 0
356583.0 423668.0 0
369213.0 425316.0 0
377185.0 426103.0 0
382335.0 423359.0 0
384681.0 427234.0 0
392213.0 424425.0 0
389428.0 427778.0 0
396947.0 423496.0 0
399571.0 427759.0 0
402247.0 423856.0 0
406836.0 423297.0 0
403069.0 427531.0 0
406904.0 427953.0 0
411423.0 424583.0 0
415627.0 427259.0 0
419130.0 424356.0 0
423735.0 423827.0 0
427740.0 425508.0 0
432306.0 423778.0 0
438646.0 424419.0 0
444099.0 426589.0 0
450682.0 427985.0 0
456321.0 427323.0 0
461539.0 424992.0 0
466630.0 423494.0 0
468093.0 428314.0 0
471573.0 423830.0 0
475475.0 428518.0 0
480897.0 426192.0 0
485449.0 424433.0 0
488930.0 427367.0 0
484787.0 428382.0 0
493545.0 426517.0 0
497832.0 425407.0 0
2424.82 430518.0 0
7733.18 430268.0 0
12839.2 429401.0 0
16907.3 433328.0 0
22171.8 432085.0 0
27182.2 432350.0 0
34394.1 429477.0 0
38891.0 430525.0 0
42634.3 431842.0 0
47785.3 432358.0 0
53660.1 431894.0 0
59781.8 430508.0 0
64955.1 432639.0 0
68238.4 429282.0 0
70917.7 432242.0 0
75313.0 431652.0 0
81667.2 430329.0 0
87141.7 430885.0 0
94669.6 430967.0 0
99838.9 430460.0 0
105167.0 431580.0 0
110494.0 429777.0 0
115077.0 430936.0 0
119391.0 429356.0 0
121965.0 433188.0 0
124451.0 429686.0 0
128493.0 430998.0 0
132762.0 430090.0 0
137719.0 428893.0 0
141428.0 432251.0 0
146455.0 430613.0 0
151320.0 431057.0 0
157856.0 429787.0 0
167242.0 429729.0 0
163547.0 432264.0 0
176826.0 431605.0 0
180534.0 428362.0 0
181355.0 433186.0 0
184484.0 430323.0 0
189755.0 429429.0 0
195244.0 429156.0 0
198265.0 431858.0 0
305670.0 428797.0 0
301642.0 430116.0 0
310626.0 432357.0 0
316863.0 431000.0 0
322836.0 429793.0 0
325122.0 433206.0 0
327578.0 429654.0 0
332394.0 429781.0 0
337074.0 431927.0 0
345667.0 430922.0 0
342075.0 433203.0 0
350112.0 431473.0 0
354976.0 430064.0 0
359936.0 428404.0 0
358636.0 433262.0 0
364833.0 428595.0 0
368381.0 430296.0 0
372643.0 430151.0 0
377186.0 431278.0 0
381179.0 430642.0 0
386117.0 432031.0 0
391293.0 432493.0 0
394637.0 428391.0 0
398229.0 432415.0 0
402899.0 430974.0 0
411644.0 429786.0 0
407798.0 433247.0 0
416225.0 432519.0 0
419948.0 428782.0 0
421944.0 433354.0 0
424868.0 428872.0 0
427071.0 433497.0 0
430401.0 429431.0 0
435196.0 428103.0 0
434767.0 432870.0 0
439678.0 430026.0 0
446313.0 431081.0 0
450008.0 433271.0 0
454634.0 432161.0 0
459063.0 430759.0 0
463280.0 430107.0 0
466394.0 433333.0 0
471512.0 433202.0 0
481343.0 431069.0 0
486440.0 432948.0 0
492464.0 431603.0 0
497622.0 429748.0 0
4862.17 433483.0 0
10770.5 435311.0 0
32343.3 434379.0 0
37679.5 435070.0 0
57496.4 435305.0 0
78436.3 434982.0 0
85123.6 433898.0 0
90571.2 433472.0 0
96134.4 435799.0 0
101452.0 435670.0 0
108935.0 434229.0 0
113172.0 434790.0 0
117879.0 434113.0 0
125783.0 433889.0 0
136280.0 434476.0 0
154594.0 434395.0 0
159717.0 434873.0 0
167565.0 434179.0 0
172346.0 433839.0 0
186272.0 434364.0 0
193954.0 434318.0 0
304388.0 433798.0 0
320683.0 434194.0 0
369737.0 433548.0 0
375064.0 433938.0 0
442847.0 434172.0 0
461611.0 434844.0 0
477350.0 434170.0 0
481939.0 435358.0 0
490358.0 436515.0 0
494523.0 436210.0 0
497929.0 434140.0 0
POINT_DATA 5000
SCALARS Radius float 1
LOOKUP_TABLE default
5782.6 5529.52 4796.58 3979.26 3471.03 5253.55 5820.48 4862.21 5113.21 3929.19 4107.03 4478.15 5379.87 5925.6 4501.51 4792.73 4736.58 4931.38 3485.26 4329.05 4151.94 4049.23 5337.48 6124.89 5708.81 5252.48 4780.03 5495.39 3996.0 3856.1 4665.12 3383.4 4133.88 4834.9 3850.77 6044.04 5415.48 5120.0 3863.18 2356.98 4998.37 6182.6 5492.18 5258.36 5061.3 3642.12 3163.97 5812.43 5122.66 5906.14 5484.19 7513.1 5254.28 4436.4 5733.48 4672.91 5580.89 3588.44 5645.7 5176.86 6810.52 5840.26 3672.51 6110.27 5561.06 5073.35 3615.22 5670.04 4380.59 3589.27 6716.79 3607.45 5759.91 7613.27 4951.03 5255.32 6037.08 5096.78 6756.95 4129.43 6324.23 3843.58 3320.52 4194.5 4270.53 5344.25 5191.63 4593.7 4150.99 4216.92 4742.68 4344.58 5634.83 5495.84 6268.1 4861.06 5374.51 5320.28 6739.08 4797.52 4569.12 4298.67 5960.66 6608.73 5011.84 7034.11 6261.42 4502.5 3771.48 4043.57 4271.69 5681.38 4138.42 3708.04 5513.6 3240.09 4556.36 6082.81 3191.99 4685.34 5601.05 4929.8 3586.91 3103.0 3554.9 4015.92 5542.21 4487.31 3936.02 4044.71 5980.74 4094.62 4927.02 5546.39 5325.36 5484.83 5085.53 5351.6 4730.36 4715.55 5867.73 3951.75 5013.56 4499.64 4375.68 5542.27 5054.98 6030.06 5170.02 3557.27 4927.31 4688.68 4402.52 4517.56 4182.53 5903.42 3955.56 3761.32 4118.05 4366.19 5553.16 2938.66 4940.78 4231.61 4008.92 3942.53 3379.84 4827.82 3997.1 3260.67 5123.52 3038.33 4392.68 4333.2 7199.21 4523.7 2240.39 5091.39 5293.9 6142.94 3912.37 4727.24 4602.25 4790.08 5082.47 4763.45 5445.87 3815.26 4704.72 4177.94 4571.7 5896.46 5022.8 3784.5 3780.23 6481.79 5224.12 7042.12 4819.73 6326.39 4471.58 5873.69 4962.09 3999.48 4359.62 6946.21 2586.12 5433.8 4011.77 5499.11 3633.87 5922.5 5198.77 5987.17 6013.14 2765.2 4901.41 5110.37 5664.98 4382.74 5927.43 4651.28 3693.63 4384.42 4516.43 5481.78 5637.59 4937.14 5043.05 5816.2 5693.81 5109.54 6483.19 3829.13 5945.65 6759.9 5538.89 7021.47 5416.38 6059.59 4955.55 2720.68 5701.86 3563.63 4238.81 4468.59 5885.03 2837.58 5325.02 5200.76 5017.13 4862.64 5185.34 4432.58 6684.56 3968.64 4688.67 2635.86 5292.64 6166.5 5065.13 5936.02 5305.17 4861.08 4003.05 5390.22 4805.87 4712.33 5227.21 5697.78 4667.36 4091.31 6372.62 4254.17 4295.38 5615.42 7565.34 5923.5 4612.68 4281.49 4973.83 6342.25 6691.39 4840.84 5135.69 5344.0 4020.32 6045.46 4245.72 5908.1 6048.7 6133.92 3719.84 4178.4 3095.48 4166.08 4123.6 4850.14 5163.55 3382.7 6817.32 4319.79 6098.14 4472.17 4203.26 5188.81 4730.41 6057.22 5062.71 6125.34 4527.08 5347.48 4850.01 3970.25 5147.67 3979.82 5011.31 5138.31 5264.06 4659.59 6327.9 4048.37 6355.42 4362.19 5690.56 4948.92 3115.91 3307.12 4493.48 5924.89 4002.16 4174.52 4138.16 3486.22 4684.5 6230.49 6458.82 5418.62 4601.27 5493.32 5740.68 5926.61 6051.14 5836.15 3261.21 4345.55 6704.06 3653.41 3871.88 3856.01 5246.2 4390.66 5279.39 3673.74 4827.23 5205.43 6116.18 7447.37 4924.6 4385.06 4733.32 7184.19 2899.43 2924.37 4290.3 3867.67 5399.73 4660.72 3888.21 5891.05 6038.78 6902.81 6644.76 5629.19 5090.24 4786.6 5740.84 6445.94 5530.87 4310.18 7134.64 5978.9 4187.56 3629.62 4997.27 4301.06 4877.67 4290.14 6562.18 4156.38 5316.75 4541.21 4164.68 5669.65 5934.22 5624.49 5762.59 7092.87 4666.81 3703.1 3954.91 6471.55 2965.01 6643.85 3637.61 5501.93 6222.42 5654.31 3745.84 4938.74 5690.26 4156.2 4497.59 5965.78 4374.35 4810.12 5643.58 5215.05 4292.06 5577.04 5006.58 4602.86 3688.8 4548.16 3369.23 5449.18 5492.26 5244.78 5762.84 3937.74 4749.8 6084.86 5478.92 4778.34 5551.36 6894.71 3091.3 4414.54 5789.98 6138.47 7054.71 3641.64 5489.43 5747.75 4277.89 5054.25 4796.33 4195.44 5539.32 5360.19 6496.85 5600.93 4874.39 5541.59 4124.71 5728.85 6337.56 4911.47 5803.39 5863.59 4381.97 6257.19 3255.82 5242.73 2812.98 4065.69 5603.15 4695.45 6052.7 3921.18 3798.62 5308.1 3666.57 4907.89 4937.02 5655.21 4645.41 4433.59 4320.28 5542.14 4218.06 5480.13 6308.71 4716.19 5514.76 3456.98 3498.2 5105.16 3066.13 4302.5 6006.16 6009.88 7055.53 5013.67 5826.04 5339.78 4970.88 4143.78 4763.66 4636.5 4940.42 5923.4 5085.71 5499.39 5644.82 5463.38 5945.21 5696.88 5607.14 3923.03 5975.63 5252.34 6396.74 4138.46 2775.04 3821.72 4986.77 6318.18 5586.81 4621.75 3948.17 4551.24 5358.59 4220.88 4515.71 6519.71 6640.13 5082.6 5810.84 4230.54 5094.44 3748.24 4655.49 4467.94 4850.81 6038.14 2540.31 6029.66 5527.54 5573.7 5697.4 4727.62 4270.95 4055.8 7325.81 5280.17 6425.26 5143.58 4794.96 6186.19 4839.34 5083.08 6834.49 5525.39 3998.5 5938.34 4024.3 6394.38 5555.28 5169.36 4737.14 4686.65 5834.74 5556.96 5788.23 5581.75 6392.01 3599.45 6730.19 4907.06 4073.93 3735.44 6043.3 5952.75 6332.36 6122.55 2739.94 4931.53 4223.33 5911.67 3323.28 6695.82 6405.76 5794.24 4678.38 5448.61 5050.65 4827.33 5206.48 5513.57 5729.23 5226.0 3365.82 4538.95 5965.15 4780.2 6090.91 4946.42 5019.93 5081.78 6116.33 6263.44 6343.14 5774.97 5462.21 5750.71 5470.77 4831.47 4643.85 4004.04 4289.17 5564.02 4274.61 2965.79 6898.19 6035.6 5137.34 4481.53 5330.45 4581.13 3610.4 4219.07 6387.01 5367.52 3092.35 4322.15 5210.03 3629.96 5478.47 5351.39 6142.37 6061.47 4933.21 5375.47 4723.12 5120.49 5201.36 5262.61 6302.8 5409.61 6038.2 4005.44 5206.78 5555.88 6732.43 5028.96 3866.16 6362.12 4484.76 4840.01 2980.99 5611.2 7933.0 4455.12 5173.87 4894.16 5380.13 5711.87 5118.27 4941.22 5932.23 5791.61 3369.13 4479.66 3043.85 5367.2 5461.13 4726.76 5839.13 5495.68 5489.34 5163.9 5708.14 5537.72 3920.42 8332.24 6155.31 4553.56 5329.64 6049.55 5709.62 5835.78 4127.74 2476.04 5133.97 3942.07 7443.72 3937.08 5260.34 4709.35 6586.45 4373.3 4750.78 4163.5 5724.64 5078.86 5100.1 3561.29 4963.34 3295.83 4459.28 4260.92 5960.56 4118.84 4020.95 6313.06 3474.39 6470.3 4200.03 6062.05 5082.74 6915.83 6072.45 4410.55 7099.43 5526.14 5198.29 5423.0 5077.33 3856.59 4746.52 5413.79 6338.89 6202.55 5025.39 4714.54 5893.5 3320.11 5030.91 6022.17 5119.37 3982.23 6163.38 4566.18 3459.9 4964.09 4809.42 5024.9 4306.53 5659.17 5094.81 5972.06 5713.22 5861.71 4359.04 3183.98 3794.63 4524.28 3778.1 5152.36 4511.82 5826.64 4220.65 6820.42 4816.2 6321.41 4896.52 4751.02 3372.79 5184.56 5282.64 4715.72 4669.66 4808.52 5046.33 5607.24 5053.92 6352.26 3847.38 3818.59 4863.72 5002.48 6623.85 4262.82 5102.36 4342.9 5069.84 4051.44 4241.89 5054.74 5941.72 5991.09 6600.94 4788.58 5371.02 6155.1 5876.71 6262.72 5029.78 6515.84 4888.6 2990.77 4739.14 4918.77 4371.99 4219.78 3885.86 5235.29 4479.94 6250.23 6413.02 4863.27 5862.86 6049.79 3493.7 5374.98 4719.7 6939.12 4735.33 5411.85 5092.37 6444.77 6314.07 4287.63 5315.4 6449.45 3975.31 3689.45 3824.16 5572.95 3868.18 6723.16 5584.06 7111.16 4547.19 3817.13 5507.24 6851.54 4583.31 4503.89 5806.08 4853.39 4997.27 4093.08 4449.22 5543.27 4717.05 5287.2 6135.57 5998.38 4312.67 5423.8 4270.24 4989.15 5017.78 5015.69 6175.81 4727.24 6677.09 4305.57 6959.81 4829.35 5201.67 4424.7 4089.76 5526.55 3192.41 5215.15 4987.87 3315.57 5804.71 4764.96 5727.3 4242.52 5356.51 4277.88 4087.15 3057.03 4143.08 7500.97 3948.23 5228.18 5787.31 5065.11 3927.99 5868.82 4978.31 4050.9 4099.77 4537.32 4981.9 4656.78 5126.91 3600.43 5131.24 5196.67 6496.67 5474.8 3664.11 5117.47 4925.63 5882.65 4434.19 5187.7 4623.61 4188.3 6261.75 5177.64 4255.31 5453.3 4407.9 3492.19 4584.5 5122.63 4703.08 6345.13 5274.19 5516.95 4406.4 4413.85 4844.57 4027.46 4470.98 5776.37 4516.28 3627.82 4044.45 5125.78 5344.43 4373.47 5045.38 5350.88 5372.61 3686.21 6480.17 5023.15 4377.07 3813.22 5101.59 5570.3 4336.42 5243.29 7589.94 3130.65 5628.24 5856.11 3327.49 4109.88 4234.94 4562.29 5013.13 5080.66 3417.33 4926.42 4164.13 4642.34 4520.1 4947.52 5874.89 4293.03 5813.4 4389.21 3791.79 4925.44 4754.05 4951.47 6084.93 4307.28 3697.96 4739.42 5538.93 5020.12 4745.45 2631.9 5281.28 6255.18 4668.71 4758.21 7228.46 6362.14 6719.88 5978.82 5266.5 4523.88 4066.38 4948.98 5227.52 4414.48 4092.24 5163.02 7144.24 4906.82 5687.83 5004.23 6442.69 6320.71 4648.04 3464.83 6607.87 4721.32 3293.56 3163.78 5274.14 4903.82 5746.28 4082.47 5511.6 4338.08 4378.3 6134.99 4094.73 4989.56 4718.54 4440.57 5548.29 6766.43 2315.64 4390.41 5226.56 5599.49 5313.22 3905.51 3999.94 4864.22 3901.8 5759.46 5083.41 3921.08 4190.31 5678.96 5262.19 4244.9 6070.58 6034.41 5452.83 5130.91 5402.24 4519.22 6445.22 3844.9 3695.36 3963.86 3848.93 4306.11 5935.47 3402.32 5903.66 4528.49 5004.67 5365.89 5992.26 3960.8 5070.39 4980.85 5714.58 5110.45 5208.32 5248.77 4083.97 4607.02 5153.74 4528.09 3895.51 4165.81 6291.51 4128.98 5882.89 6246.22 4188.32 5246.61 4100.38 5344.77 4723.48 4899.11 5097.87 4278.07 7267.18 6256.02 5320.92 5269.18 4406.1 5034.59 4942.77 4263.33 4454.63 5080.18 5912.61 3279.1 4403.98 4560.84 4729.43 5776.57 4562.74 5683.26 5598.74 5139.5 7493.3 4814.55 3527.05 5698.77 2477.07 6413.11 4305.16 5092.28 4965.89 5659.95 4152.85 2908.7 4453.64 4517.73 5469.47 5660.16 3838.47 2588.37 6736.03 6235.57 3623.87 5916.16 6934.37 6113.95 4050.08 4097.57 5017.5 5563.79 6171.13 5511.88 4512.11 7055.42 5486.68 6048.86 4285.32 5490.43 5022.28 5197.52 4959.34 4948.5 4527.02 4531.14 5013.42 4564.34 3838.56 4871.44 5076.35 6020.48 6375.99 5200.05 5234.29 5313.66 5419.37 4466.03 4511.54 5409.33 5196.0 4923.9 4973.78 3329.99 3947.47 3296.27 5091.68 4713.25 4204.84 6243.0 6673.96 3556.85 3161.47 5441.96 3435.9 5174.89 4288.3 5370.52 4652.29 5774.81 3746.31 5498.32 5027.98 5346.27 6475.1 4969.21 2691.29 2845.98 4880.14 5289.52 5314.85 4305.43 5450.44 6510.17 5742.65 5592.32 5381.16 5565.13 6193.35 6086.96 5233.78 3701.27 5653.9 5046.21 4929.14 5894.61 3979.54 5304.13 5944.09 5833.06 4923.41 4497.31 5384.76 5529.42 5257.12 5243.43 4537.14 5551.9 3757.34 6415.61 4687.64 4419.71 5037.06 4541.8 5175.29 5842.56 5887.15 5412.31 3087.09 3423.15 4890.5 3981.07 5452.42 5328.22 6853.85 2395.5 3497.9 5941.61 5782.48 6248.6 5683.61 3836.45 5100.25 6894.26 4986.51 5339.38 5178.99 5383.07 4591.87 4790.78 4247.15 6552.22 5651.07 6248.81 5273.35 4091.8 2651.49 4645.58 5512.23 5275.32 5985.29 4898.94 4178.15 4613.31 4733.04 6119.09 5788.66 7531.29 5069.25 5048.89 5935.03 3991.03 6390.78 7435.25 6826.57 4788.87 4249.46 4495.87 3702.37 6022.72 4643.31 5527.33 6917.52 5402.21 4989.09 4982.31 3848.54 4307.48 5941.4 5331.02 4871.96 4863.23 4402.67 4470.61 4631.83 4384.88 6887.27 6008.49 4806.34 4287.53 5612.21 5945.08 4968.03 3306.14 5490.58 4863.79 4702.06 3830.46 6031.67 4689.15 6138.12 4428.78 4655.16 5409.66 4345.67 4765.72 4642.66 4039.91 4752.14 5329.59 4888.12 4950.97 5512.16 3197.63 4863.96 5191.08 5203.08 7480.41 5163.77 4488.85 3731.84 4901.07 5186.3 3436.15 4151.76 4020.4 3493.47 4596.75 4933.65 5443.58 4558.46 5805.86 4049.02 4470.4 5311.03 5255.12 6169.11 5615.35 4027.09 6422.84 4502.18 5379.09 4602.85 4962.77 5872.05 4853.02 6259.23 5181.4 5088.44 5670.2 4711.62 4247.23 4114.24 4268.65 4694.83 5509.42 4354.08 4256.43 5936.36 4520.62 3903.75 4755.47 4485.99 5127.16 5475.8 5314.69 6050.81 5543.46 5965.81 4750.17 5660.85 2330.66 3990.25 4177.19 3691.0 4752.51 3587.05 6229.37 6718.19 5282.91 4425.84 3797.33 7256.35 4800.69 6566.1 3555.86 6386.78 4996.99 4896.39 6081.14 5480.83 4220.46 4607.85 5128.57 6000.7 3169.67 5604.21 3361.92 6710.88 5395.14 3967.48 6213.04 6622.11 3685.13 6790.73 5251.4 3867.19 5857.79 5276.7 5036.58 6119.63 5411.02 4752.9 4287.16 5199.44 4062.5 4435.51 5374.07 4588.7 5683.95 3766.55 4579.69 3554.48 5010.2 6496.52 5005.85 4216.17 6484.17 4721.02 4254.37 3374.08 4031.78 6098.1 5708.99 5687.85 5346.68 5296.29 4611.53 4285.66 4896.11 5172.53 4135.62 5801.99 5534.94 5210.48 7644.38 7552.94 6101.92 5323.3 4998.21 4662.56 5166.79 5349.31 2976.22 3405.98 4649.22 5394.55 5094.52 4946.74 2682.24 5996.33 5928.32 5229.48 5475.7 4016.18 5526.75 5435.74 4244.99 5327.45 5560.26 6185.89 3997.96 4439.35 3460.94 6184.4 3758.07 4373.45 4236.14 4407.87 5733.62 5282.51 4460.92 5945.89 4042.28 4105.55 4340.76 6065.22 4221.28 4456.39 5514.84 3633.79 5421.53 5937.08 6070.3 5233.29 4312.56 4612.06 5204.04 4750.58 5926.11 6667.68 5235.11 5211.38 5089.62 4590.55 4741.26 5920.32 4255.85 5097.69 3988.3 6543.13 5149.72 5776.96 5464.25 5486.48 5301.47 4617.55 3645.12 5424.88 5415.85 8659.64 5469.13 6027.62 6123.03 5966.61 5711.11 4575.94 4938.72 3546.71 5768.57 5564.23 5950.04 4231.83 2435.33 6401.43 4558.47 5020.71 2681.29 5094.48 3872.61 4238.4 4318.48 6132.95 5266.22 4860.33 3685.13 6004.68 4051.34 3627.55 6239.84 4635.6 4256.67 3457.48 3931.07 6430.39 5417.15 3688.16 4681.72 3949.6 4945.39 3950.63 5415.19 6631.19 4612.62 3619.07 4275.57 4467.04 5626.61 6385.23 5817.25 2983.99 2614.4 5061.98 6363.92 6205.93 4923.24 5830.72 4419.61 3828.81 5309.98 4082.57 5255.18 5169.9 3004.16 4767.78 5235.17 4421.12 4779.5 4435.36 5254.49 6649.96 4303.19 5784.3 3914.2 4256.57 6088.68 4643.56 4135.08 5620.74 4778.82 6124.08 5467.84 5053.95 5266.01 5253.37 5767.9 6515.8 5869.4 3685.65 3701.16 4186.6 5895.77 4732.09 6136.49 4356.25 4757.74 4216.95 4209.49 5742.74 4244.21 4947.24 3875.05 6200.54 5148.58 4199.45 6599.66 4055.54 4233.8 5765.42 6098.95 4997.83 4893.49 5325.44 5021.88 5956.65 4498.25 4188.87 3735.24 6574.95 4074.48 6333.29 5731.57 5997.88 5839.71 5576.92 6408.83 3930.79 4004.35 5226.97 3312.06 5180.76 3361.26 6799.4 5278.36 5865.39 4427.28 6079.11 3082.32 3658.37 7440.72 5376.71 5703.6 6326.18 5661.62 4867.08 6648.68 4713.74 5407.78 4084.49 6632.99 4537.6 5147.36 7177.44 4563.46 6553.94 5726.66 5460.65 5652.0 5463.41 5225.33 4929.75 6045.22 4614.3 5134.39 3532.3 5769.98 5442.32 2221.99 3580.58 4863.01 5356.79 5657.36 3619.79 5029.47 6306.21 2978.76 2040.66 7016.27 5884.9 3876.21 5689.26 4916.22 6022.7 4940.84 5750.07 4809.67 6045.67 3946.28 3821.94 5439.9 5367.73 3540.11 4640.06 3456.47 4652.01 5421.64 7234.66 4207.54 4886.12 6419.12 4976.12 4817.16 5453.98 3991.42 4388.63 5102.75 4200.09 4597.29 5931.77 5151.21 5398.64 6817.57 4477.04 3614.96 3886.68 5703.74 5662.55 5737.92 4360.23 5365.24 5293.51 4763.96 5754.18 5008.63 3418.99 4480.95 4993.35 4409.63 5521.25 3661.9 5370.85 5949.46 3178.54 3776.94 4765.02 5629.39 4448.13 5070.29 4807.28 2261.36 5075.55 4266.03 5280.69 4220.03 6923.84 5227.59 5449.46 6179.96 5703.07 6113.54 4662.43 6260.79 3963.76 4043.66 5528.53 6799.88 3062.43 5990.52 5426.78 2967.38 4159.35 6477.91 4237.98 3091.67 6439.37 4081.97 5401.99 5580.92 5973.33 5067.46 3583.21 2511.46 4011.37 2775.69 4785.25 6519.43 5876.64 5424.46 4857.84 4908.49 4962.21 4858.44 3468.42 4673.35 4771.13 4992.42 5297.19 4351.38 4833.46 5933.7 7248.4 5280.12 4444.97 5984.81 3498.16 4409.27 4588.99 5471.74 3548.39 3673.28 4928.27 4858.51 3375.28 5625.65 4301.61 6107.89 4446.84 5660.55 5148.08 4834.87 5760.22 3672.21 5938.17 4795.43 5097.95 5108.06 3573.73 4693.52 6853.04 4745.43 5831.96 4747.55 3056.7 3755.95 6234.32 4586.19 4446.06 3450.93 4270.74 5132.68 6595.03 4558.15 6218.95 5222.16 4690.55 5107.23 5136.08 5558.68 4802.32 4010.57 4599.38 2684.03 5246.47 6157.04 4768.61 4522.21 5506.19 6719.94 4950.67 5832.37 6166.29 5453.6 5409.63 5294.77 4709.05 4630.82 6109.49 4813.08 5860.67 4540.86 5332.65 3764.1 4835.83 5604.35 6316.56 4332.87 6420.81 4715.58 4450.7 5151.52 5369.08 3101.75 4347.74 4009.62 5291.9 2081.58 6505.78 5461.55 3298.2 4270.15 6865.76 6449.64 6464.8 4684.44 4749.59 5799.69 3809.69 5571.72 3208.96 7051.9 4184.23 4144.57 5550.75 6834.41 6226.14 5466.33 3000.29 5721.05 4247.69 4209.31 4514.39 6242.79 4321.21 4344.34 3583.49 5052.84 4366.74 5297.16 3184.64 5206.33 5530.49 5653.03 3718.69 4514.79 2216.82 4509.89 4940.28 6752.75 5269.38 5607.3 2928.82 4222.4 4000.43 3420.08 4568.41 4912.04 4539.07 5464.68 2685.81 5591.76 4585.31 6625.18 5323.91 4570.98 5097.45 6293.89 2761.07 5737.75 4983.39 5366.52 3778.02 5533.72 5533.42 7132.12 3678.08 5518.57 4187.31 6191.29 3240.51 7422.36 4527.99 5161.01 4298.15 4628.4 6051.83 4642.93 5941.9 4263.16 3973.12 3077.84 6024.75 4497.78 5567.93 5987.42 4442.22 6451.33 5413.31 3012.99 6400.08 4743.59 5208.14 3317.83 4396.25 3763.05 5092.24 5549.49 5423.42 4518.04 4766.06 4874.18 5012.5 5435.19 7093.13 4953.1 5818.95 4093.99 3940.49 4406.05 4680.94 5828.35 5876.72 5236.43 5285.07 4680.14 4608.41 4187.94 5980.59 5021.77 3796.15 4801.8 7216.98 5271.02 5718.28 4601.74 5950.45 5713.03 5849.65 5134.67 4165.21 4215.0 4936.96 4603.5 4481.76 5452.78 5065.26 4304.41 6192.0 5885.28 6579.31 3004.34 5323.55 3022.6 4914.45 4811.76 4698.87 4661.03 5160.59 3624.7 4691.91 5262.35 4475.83 4255.34 4510.8 5889.35 5010.04 4394.56 4275.07 5825.38 4185.61 4047.87 5742.47 4917.99 6552.21 5417.8 5146.37 4836.16 5300.96 5151.11 5463.48 5730.33 5545.46 4376.7 4543.1 5190.61 8325.01 3764.06 4440.81 4523.39 5278.56 5434.47 6642.76 5829.22 5631.14 4243.79 5811.18 5433.65 4008.15 4887.76 4669.06 4811.32 4286.49 6184.88 5829.32 5551.95 3918.87 2275.45 4633.05 4901.2 6605.86 4383.56 4990.79 3562.79 4516.53 4122.92 3604.14 4452.54 5089.1 2711.19 5474.15 4028.32 4099.92 4884.59 3858.06 4511.7 4083.79 4304.63 5263.27 6300.92 4173.54 5599.29 6038.68 5046.12 4807.4 7013.17 3805.67 6506.86 5088.57 5580.34 3852.6 5775.31 4706.5 4647.67 5375.12 4356.36 4892.44 5578.94 7610.49 4286.17 3684.56 6028.09 5375.1 4172.6 5313.12 5351.56 3984.88 5318.53 4732.09 4320.42 4281.98 7165.9 5064.79 5344.83 5480.3 7509.24 4146.81 5896.26 5388.78 6101.13 4573.72 5099.21 6969.28 5636.4 4367.78 5698.96 4350.12 5227.02 5670.0 4232.16 5222.51 4344.51 5680.94 3834.43 3781.77 5581.55 5193.01 3474.5 6550.44 3860.83 6348.03 5732.27 4792.39 5146.37 6917.62 4013.38 4343.78 5263.3 3352.35 4909.65 6523.86 7693.4 4326.48 4437.07 3449.37 5491.9 6405.0 4659.16 5789.55 4909.31 6522.59 5711.62 4798.17 5166.79 5425.98 6479.39 2895.63 4997.91 5079.22 5381.54 5810.77 4714.83 7519.2 6355.68 4478.6 3953.55 4063.9 4469.54 4314.56 3928.53 5606.51 5740.65 3834.47 6349.67 6329.53 4590.01 6101.86 4227.41 5993.0 4803.57 5966.42 4110.59 3332.49 5354.66 4214.44 5378.23 4787.97 3746.36 6789.23 3989.7 4777.03 4246.61 5452.36 3804.5 6486.37 5498.42 3344.57 5220.76 7046.11 3427.63 4863.97 6342.48 5756.75 5599.7 4587.67 4163.74 3665.95 4296.69 4095.75 3319.67 3603.51 4298.45 5283.8 4076.59 6609.84 5135.96 6464.15 5658.37 4707.06 4972.17 6074.94 5491.37 4250.88 4222.77 3783.54 5268.38 3475.67 5527.23 4805.33 7038.89 3863.67 4814.12 5067.56 6137.8 6069.3 2735.53 5116.6 3747.03 2783.85 4356.49 4526.81 3994.07 4219.94 5907.46 4264.91 6740.71 5399.29 5971.22 6602.43 3568.28 5996.66 4405.42 2995.67 3598.08 4599.81 5698.23 7300.58 3608.06 6633.61 5217.95 4867.7 5484.36 4277.24 4075.28 5291.05 5161.1 4619.2 5166.41 5067.56 2596.96 5701.75 4350.15 4139.3 6541.45 4750.49 5078.31 5391.48 4923.43 5131.15 4847.14 3950.27 5116.66 3566.79 5374.67 4981.43 4741.28 5069.89 4215.2 4157.29 6813.72 5327.75 4609.02 4896.65 4638.18 4196.37 6448.66 4453.97 6945.98 5138.2 3503.41 5783.48 4449.98 4701.5 4504.35 4771.65 4840.44 5093.82 5951.81 3924.14 6918.35 4834.3 6238.32 6804.79 6471.42 5369.5 4428.14 5164.1 4124.49 4479.11 5714.25 6685.4 5699.53 4850.06 6332.01 7044.29 4234.18 7085.01 5980.95 6193.08 3862.77 5887.01 5168.35 5388.39 5335.47 3728.18 5633.61 5048.19 6799.23 4888.27 4592.15 6487.56 4854.11 5533.19 4998.22 5417.21 6104.26 5583.61 6063.64 4986.71 7382.3 4022.56 5522.21 3772.3 4855.01 6208.9 4923.57 3340.09 6061.63 2279.05 4829.35 8137.11 5484.32 6650.77 4067.96 4824.12 7104.73 6162.3 3272.75 4264.54 3516.27 7043.44 4263.78 4643.9 5228.75 6047.14 5009.83 5210.38 5717.8 3629.44 5003.78 3299.24 6246.56 4061.6 2603.64 5107.0 6212.15 6502.97 4783.07 4946.23 4852.58 6083.28 5211.6 3556.79 5806.31 5456.71 7317.04 6412.67 7001.83 5012.97 4036.91 5589.37 5439.49 6639.64 5212.43 5454.12 6348.54 4066.57 5642.35 6372.13 6357.47 5404.01 6016.19 5535.91 3230.13 6176.67 5325.96 5412.24 5016.02 4920.21 4581.37 4049.16 5851.61 3936.95 6153.94 6836.82 3858.17 4631.99 4740.98 3185.39 5128.77 7122.87 5797.36 4243.26 4153.84 5119.86 5089.26 5084.17 4901.44 3776.8 5096.43 6156.21 2460.79 4653.83 6171.71 3628.89 6589.82 4668.88 5027.43 5522.75 5867.64 4438.58 6059.93 5602.53 5073.02 6545.43 3472.91 6760.92 4989.2 4711.04 7144.05 4506.18 2970.9 6542.5 4383.47 5971.21 6318.23 4206.98 5156.76 6101.57 4891.38 4793.65 2949.12 5955.86 4532.89 4533.37 4848.46 5742.09 2779.99 2884.65 5887.38 6942.34 3658.05 5478.11 5526.31 5030.15 4058.87 5174.75 5048.55 5932.07 4984.46 4024.31 5948.71 5844.72 3856.53 3992.97 5460.89 6040.74 5260.85 4054.22 7228.94 5393.65 4961.99 5807.46 4648.21 4393.16 3311.29 4549.69 6423.81 6192.77 6413.15 6103.11 5416.45 6459.51 4955.16 4904.51 4147.31 5989.05 5751.15 5950.88 4441.22 5853.89 6551.93 4595.12 3110.13 4386.8 6484.43 4625.67 3485.54 6735.97 5305.59 3636.15 4330.58 5754.6 3288.01 4355.83 6870.97 2202.77 5351.86 6056.87 5474.01 4149.55 6201.86 3380.69 5166.89 4140.4 3639.44 5446.4 5725.37 4725.01 3868.62 5966.75 4729.42 3104.96 4844.83 5244.78 5652.87 6114.89 5135.63 6384.7 5952.38 3896.27 5807.52 5230.02 5307.35 7554.58 4731.21 5491.63 3124.7 6102.98 5138.33 3477.1 5769.14 5261.19 4811.22 6379.14 5216.26 4749.96 5377.37 5483.7 5018.69 4899.73 3152.86 5457.66 6394.19 5973.89 5963.36 5518.11 5087.14 4342.18 5169.48 6016.08 6776.22 6064.71 4467.13 6060.17 5934.82 5415.45 4385.81 6592.93 6350.71 5096.24 3381.82 7107.63 4831.93 4023.93 5868.89 5494.28 4099.26 4834.39 5493.89 3831.52 4918.76 4208.41 5826.78 2856.55 6214.73 4553.68 3758.22 4268.19 4532.7 3205.68 5561.74 6100.73 4788.08 4908.75 6556.26 4593.7 4349.13 3687.65 3634.5 5478.95 3851.85 4019.34 4658.24 3623.19 5869.67 4906.11 4311.48 4387.39 4564.1 5825.55 4848.14 5366.22 6193.73 3742.11 4192.21 5712.35 5701.52 4743.9 4158.91 5311.55 5321.17 3360.86 3719.11 4869.25 5545.21 3877.8 6418.11 4501.78 5039.12 4824.81 5135.5 5007.21 5545.59 5206.47 4057.17 7066.96 4263.65 6106.43 6761.81 5467.63 4127.53 5210.75 5175.89 5361.87 5232.85 6816.66 4473.29 3971.08 6204.65 4482.9 6818.91 3503.65 4869.48 5510.96 4745.16 4584.81 5509.51 5719.79 3199.4 4316.5 5254.24 4914.03 3597.43 5086.29 5144.56 5139.18 3034.16 5551.43 5049.99 4201.03 4333.87 4458.64 3657.69 6015.02 4922.49 3572.94 5001.58 4820.17 6456.58 5244.98 5366.11 4384.28 5944.3 7307.21 5640.72 3619.72 4565.93 4504.52 5615.84 4464.73 5788.97 6440.38 3274.85 4580.06 4835.97 6419.64 5262.47 4587.7 5196.92 5644.81 4568.64 5666.95 4642.2 6555.44 6358.93 2205.51 3894.64 3703.49 4374.74 4757.2 5975.23 4745.79 4211.82 6550.4 4891.67 5513.8 4887.52 6631.28 5350.88 6571.31 4392.65 5429.3 4944.51 6653.07 4697.91 5179.17 5071.98 4371.08 5148.1 7261.51 4968.14 5949.73 4312.48 5527.13 6370.33 4278.57 5081.08 6318.25 6864.06 5001.87 4312.15 3644.78 4883.63 4078.93 3814.65 3886.72 7778.01 4034.05 5127.82 5798.38 6436.74 3862.91 3419.87 4456.26 3908.98 5113.6 6328.42 5851.63 4954.81 5610.53 5755.15 3926.11 5464.83 5414.58 4991.35 3512.94 5601.55 4807.35 5334.36 5750.35 4489.99 3683.86 5293.75 5658.14 5473.72 7124.45 5144.44 2617.39 5034.69 4198.94 3217.67 5079.64 5470.04 6003.78 5684.25 3766.69 5188.53 4882.66 4521.75 4027.63 5603.68 4526.34 5610.95 5532.72 3220.8 5042.75 4598.92 5579.39 5270.51 4979.52 5490.75 5224.64 5214.63 3495.68 5783.94 4202.77 5836.14 6008.81 5510.9 4505.28 3492.83 5585.14 7039.98 6006.89 5792.98 5910.86 5690.96 5805.1 4456.11 4027.33 4810.98 5026.76 5091.22 3563.14 6282.38 5212.92 5556.0 5748.9 3742.31 4608.34 5695.79 2781.96 4431.23 4467.0 4994.65 4258.98 3903.91 4929.6 3919.62 4368.28 4548.45 5730.61 4508.18 4062.56 5969.37 4928.35 4509.46 6163.54 5212.37 5438.92 5110.11 4244.49 5036.98 4120.07 4813.33 3840.21 5569.2 6746.66 5420.67 5635.32 4827.61 4316.45 5409.08 5481.64 5673.75 5241.22 6647.08 6263.3 3422.29 4501.05 4407.79 6548.29 3990.96 5352.24 7362.42 5793.12 5469.17 5473.05 4373.2 4583.52 6711.21 6280.13 5244.22 5832.29 4438.76 4960.64 4983.3 5401.4 5053.15 5124.17 6239.68 7320.78 4234.88 5782.43 4708.31 3873.92 4092.07 5347.9 5657.55 5727.79 5188.82 5043.14 5072.5 4749.18 3663.0 6304.49 4420.6 4475.38 3622.8 5917.34 5740.98 6545.99 4728.55 4554.68 4945.0 4658.11 4551.26 5114.07 7142.95 4559.74 5064.67 6618.21 3717.47 4504.86 6200.63 4583.94 1937.5 3844.54 3538.53 996.652 6500.49 2628.22 5965.58 5058.51 4050.03 4952.52 3429.57 5410.33 5661.6 6099.28 5285.75 5385.03 4169.15 4778.37 5360.67 5968.54 5592.54 4537.03 3247.97 4114.2 4904.37 4326.06 4651.64 5034.46 5757.29 5016.46 5061.75 3769.24 3743.76 5153.18 3425.69 4971.29 2606.51 3864.92 6119.99 4159.81 4446.58 5372.82 4402.17 4775.49 4681.29 5749.6 3845.9 4174.44 4834.44 4213.05 4224.3 4717.73 4928.85 4546.96 4316.0 5424.55 5134.72 5287.25 4770.51 3787.08 5630.9 4140.92 4585.04 6570.35 4383.68 6666.67 6063.44 5046.31 4337.32 5849.53 4680.69 3352.34 4901.29 3242.31 4898.29 5372.25 5730.2 3234.26 4830.13 3494.16 5134.17 5370.9 4074.16 4904.35 6172.27 5390.33 5124.34 4358.81 5278.54 5729.0 5729.92 4179.87 6224.13 4761.84 3661.67 5510.45 4730.14 3994.39 5499.59 5667.51 6331.74 4198.9 5431.29 5235.87 5273.37 3904.07 5553.94 6502.99 4392.75 4921.1 4191.01 5577.41 6511.37 4012.92 4462.87 4218.16 4933.49 6139.64 4692.32 4474.83 5236.24 3127.83 4242.63 3269.54 7407.91 4051.18 4651.99 4420.11 5863.0 6127.39 4972.18 5329.76 4124.76 7200.89 4802.98 4833.55 7224.99 3908.56 5265.63 5684.88 4431.06 4645.86 5620.88 4941.52 4529.77 5900.0 4325.13 4262.74 3783.79 5078.73 4248.14 5279.19 4016.6 5192.92 5275.57 4786.66 5891.25 5370.1 5902.67 5393.76 3684.15 7123.04 5906.57 7541.76 4932.29 4990.23 3784.94 4833.67 5325.91 5157.38 4646.51 4546.44 6203.03 4700.07 4732.37 5713.36 4704.92 4287.25 3987.69 3814.16 4589.06 4216.44 3999.5 4346.07 6102.49 5836.26 6015.22 6061.85 6449.06 5241.75 4731.53 5640.12 5760.98 4954.76 5764.52 4390.64 6523.78 4608.01 4045.67 6005.95 4308.49 4581.1 6241.77 5317.19 7360.12 6223.98 5821.49 7050.08 5580.44 5998.13 4763.4 5454.11 4236.86 6010.59 4128.1 2955.36 4618.73 4506.66 3220.29 4439.71 4141.21 4064.58 5023.41 3791.41 952.938 4184.21 5473.89 6089.45 5265.21 4985.3 4966.07 4400.14 4666.12 6219.34 4920.88 4013.86 4177.47 2918.64 5345.73 4770.63 5678.58 4385.49 5114.23 5495.0 5512.44 4454.74 4826.52 2904.46 4685.4 3763.9 4577.73 4288.45 4147.49 5419.57 4081.34 4642.74 5384.86 3770.22 5150.84 4848.98 5184.98 5087.97 5339.82 4519.03 4930.17 5110.27 4085.96 4745.44 5762.82 4612.68 4232.33 5462.6 5617.29 3035.06 5770.92 4262.19 3093.38 4597.88 5095.52 4878.93 2002.78 4941.02 5806.61 3682.35 5182.13 3965.3 6110.48 5515.73 4125.9 4564.41 5426.4 5951.86 5247.01 5853.12 5702.4 5810.17 4657.24 5674.63 5340.05 4639.8 4212.15 4263.18 4489.29 4301.93 4924.07 5120.92 4918.64 5162.67 4636.53 3646.95 5537.61 3402.44 6084.88 4491.96 4199.44 4467.51 4479.5 6261.67 5460.57 3435.13 5065.78 5703.34 4521.42 6668.98 6649.52 6043.34 4939.56 4747.68 4959.72 4712.17 4845.91 4461.67 5784.37 3142.09 6793.1 6016.87 6715.73 5209.55 4841.7 4678.7 3450.07 3306.84 3484.81 5308.33 4271.07 6710.14 5759.79 4896.43 4462.35 3200.6 6206.98 6638.25 5078.59 4775.04 2403.72 4721.98 5252.82 4397.06 3543.98 4053.12 5056.26 5878.55 4014.44 6604.72 6002.77 4431.46 4610.55 3207.84 4967.02 3977.98 4614.49 5400.69 4128.93 4462.5 5573.31 5004.68 3808.04 4723.71 4405.61 5348.11 6273.6 5003.3 3668.93 4009.24 3756.96 6245.52 3954.77 5077.29 6740.35 4550.92 6023.07 6506.63 4598.54 5218.42 5188.22 4512.07 5984.8 3986.41 3469.18 6240.42 5146.0 4788.7 4607.18 3228.27 3956.24 7558.99 4142.1 5043.14 5333.04 5445.91 4521.99 4812.59 3794.47 6842.54 7115.67 5675.45 3361.11 6038.56 2807.46 5599.16 4179.8 4023.88 3488.34 5428.24 5800.81 5166.05 3125.13 7035.54 5866.91 6075.99 5191.26 5995.4 4184.47 4841.23 4196.62 2804.54 3372.95 5819.0 6347.72 6334.53 5580.95 3549.92 3393.59 4032.06 5246.81 5089.1 5888.95 5394.78 3463.34 2853.68 5329.84 4998.37 6559.82 3879.83 6565.95 5658.35 4577.98 5886.81 5684.05 4708.17 2741.2 3779.45 5167.53 5763.05 5357.39 4252.18 6296.54 5797.21 4208.37 6019.35 3825.48 3460.93 5124.86 4629.02 5469.35 5117.64 4313.38 6598.99 5250.56 3633.58 2468.16 6294.14 4339.97 5203.75 5169.09 5122.38 2459.88 5262.85 4210.24 5470.67 5901.71 5342.9 5252.22 5733.12 5043.34 6436.29 5136.87 7145.73 5233.76 6405.69 3669.32 4762.1 5700.79 4927.73 4705.68 2832.83 5827.3 6036.99 3010.1 3825.98 5087.03 4667.84 3906.41 4691.15 4123.08 4512.6 4260.38 4636.45 4932.27 5225.11 6793.49 6060.19 4962.35 7350.26 5591.77 4556.19 4168.52 4659.88 5685.74 4140.04 3495.3 5890.25 5766.05 4474.96 4084.87 4790.63 5259.29 3584.05 4589.22 4916.75 4818.53 5097.85 5584.64 6189.04 6224.64 4221.03 3799.55 5638.51 5082.66 4550.77 3563.33 3550.88 5536.0 6786.37 5790.42 5106.46 6562.92 3612.44 4850.5 4758.76 5367.05 5647.11 4088.72 3945.62 3743.85 6236.46 5342.17 6379.3 5015.67 3795.63 5189.4 4576.71 4894.15 4337.93 5201.3 4345.51 4048.73 6223.33 5024.32 5813.79 4644.88 4068.31 3671.06 4683.28 4668.8 5322.11 4697.49 5735.08 4726.2 5034.05 4816.51 4711.15 4658.59 3810.68 6478.35 3990.94 4756.8 5477.8 5463.06 4176.32 5260.52 3185.09 5532.75 6949.65 2945.34 5676.61 5846.95 5064.23 5268.15 5701.63 4603.04 4870.94 4620.95 5368.93 4488.39 6121.56 5914.5 6006.16 5721.14 4608.62 5407.96 5084.5 4987.28 4071.75 6562.03 4815.47 4759.99 3899.7 5134.33 5214.4 3629.49 5399.43 5034.34 5695.44 3835.81 3422.21 3916.42 4449.73 6538.04 6157.59 5848.41 4090.28 4246.83 4493.79 4932.56 5638.7 4279.44 4899.19 6643.4 5058.34 4028.22 5575.11 4983.1 5293.13 4507.36 6224.85 6406.8 5403.97 4795.08 5648.78 6875.73 5501.73 6081.3 4697.24 4983.43 5117.52 6311.89 6549.8 2820.07 5129.68 4825.73 5076.84 4165.36 5288.33 4871.77 5811.26 5062.77 4884.93 5069.9 6028.63 3673.6 4494.15 5146.1 6215.87 6485.77 6060.06 5866.42 5544.27 5393.43 6896.55 4685.65 5377.01 6470.23 5939.22 4271.93 4215.05 3626.86 5125.17 4604.1 6371.96 4859.01 5076.11 5524.45 7133.44 4426.02 5600.21 3953.26 4750.81 4282.11 4474.39 5467.51 5459.92 4625.53 2347.41 5453.77 4096.47 4357.11 5005.6 5114.67 5486.89 6069.78 5589.53 7208.19 4241.68 4549.51 3587.93 5196.08 4975.85 4517.29 4095.83 5695.25 5323.95 4495.75 6171.01 5716.42 6229.83 5796.26 4468.26 4523.81 5578.18 5293.37 5271.88 5933.54 5559.79 7168.2 4602.57 3419.07 4571.74 3763.85 3565.32 5740.78 4096.86 5710.33 4796.12 3622.48 5344.44 5001.51 6432.8 4626.72 5115.42 5131.77 3186.07 4082.4 5549.71 4410.82 4369.86 4967.51 4368.12 6443.99 2646.13 4365.58 3889.98 5193.58 3720.7 5490.64 5698.53 3769.2 4507.46 5036.14 5537.34 5884.99 3667.93 5192.49 3487.31 5726.42 4674.9 7025.09 3392.26 4433.12 3918.94 2549.95 5461.72 5487.63 3768.46 3852.82 5138.93 6945.69 5118.86 7086.69 5368.66 4304.64 6170.9 5833.78 4436.48 5226.42 5615.35 5758.98 3967.76 5288.64 6213.24 4217.36 6734.39 5679.74 5942.45 4150.76 4851.18 4228.53 6123.46 5005.72 5368.52 6142.88 5155.28 5111.26 5205.38 5388.73 4764.83 1969.87 3132.34 4949.55 4600.71 3957.38 4841.28 5262.79 5927.2 6889.5 5035.71 4710.88 4419.79 5300.17 5407.69 3869.39 5152.78 5960.5 4896.67 5534.23 4117.9 4753.76 6025.77 4638.09 4781.9 6815.96 4441.91 5339.6 5330.26 5828.25 4725.11 5418.12 5322.07 5934.05 5770.07 4714.66 5990.75 5101.6 4984.17 4656.01 5781.62 6589.13 4037.86 5602.62 2030.03 3543.37 4542.16 5714.51 2809.19 5628.97 4916.7 4104.04 5353.66 2638.82 5030.33 5593.79 5234.2 5025.42 4965.24 6379.38 6257.79 5327.05 5438.55 4849.5 5353.23 4434.65 5977.66 5209.5 5106.33 5065.74 5791.25 5198.94 4873.23 4028.35 6731.89 5464.05 2980.31 5879.24 5410.6 3148.79 5453.2 6348.93 6824.53 5997.91 4332.64 5385.86 4742.82 4422.23 6791.86 4209.0 4820.68 5482.76 5173.82 5728.58 3745.02 7212.97 6297.99 4211.36 5378.24 3856.73 3604.31 4450.49 5817.74 3468.45 5887.71 6022.78 4087.32 5517.65 4009.68 6647.85 3303.49 2569.12 4161.32 4622.73 5256.75 5161.74 7336.37 4361.24 6599.28 5932.28 5099.9 2960.5 5783.38 4975.32 4298.7 3902.48 3043.77 5237.55 4183.4 3909.94 6030.39 4733.79 4905.53 3799.01 4823.06 7392.65 5254.49 5319.1 3757.23 6828.8 6883.86 5987.88 3579.59 6161.94 4065.28 5057.59 4461.14 5285.6 4574.54 5575.11 5490.54 5615.06 5203.54 4047.95 5507.38 6142.94 4416.87 5001.69 6581.56 4057.4 4052.43 3980.46 5383.9 3934.11 5158.44 3886.56 4466.22 4496.51 6153.71 5917.08 6561.94 5483.37 5259.21 5092.93 4256.08 2803.01 5881.93 4444.0 6771.18 6182.19 5327.39 7415.84 4981.81 4138.59 4970.55 4938.33 4484.78 4621.33 5527.27 5104.39 4612.13 5847.91 4934.66 5846.6 4984.01 4109.44 4903.84 4290.49 4557.1 6688.53 4605.39 5927.1 6175.27 5876.51 4103.76 4286.61 4094.63 4733.41 2932.52 5264.83 4603.66 4969.68 5136.51 3901.53 6815.51 5232.16 5313.86 4457.05 3989.26 6031.22 3618.64 4930.72 5485.84 6424.77 4887.73 4335.79 5453.69 5918.95 5432.04 4538.89 5689.56 6556.86 5114.51 5129.4 4655.37 5585.25 5023.61 6351.89 6530.78 5059.37 5560.23 4742.35 4139.39 5394.79 5645.54 5088.64 6264.03 6589.8 4526.87 4151.74 6920.92 3729.16 3783.36 4174.22 3573.84 3038.91 4181.93 3922.28 6570.43 3350.99 3820.19 3445.92 4979.5 5236.69 5524.28 4586.82 3133.28 4745.37 5939.29 6026.04 6200.05 5418.98 5859.17 4034.41 4052.49 5061.74 5522.34 5326.03 6189.67 4420.35 5717.45 4948.96 5256.82 4013.86 4061.87 4645.93 5165.31 5448.64 3798.09 4585.37 4288.5 6417.61 5715.51 3721.69 4511.05 3456.3 6074.39 5317.83 6738.9 4399.52 4460.89 4554.24 4157.1 3939.96 8052.53 4867.12 5910.66 6044.01 6520.19 4637.3 5141.03 1458.87 5734.07 4840.44 8123.59 3997.68 4819.83 5765.14 4767.54 5157.73 4541.22 4946.08 3539.68 4696.03 6217.33 6177.68 4698.7 6270.59 2848.44 6045.26 6500.45 4907.55 5743.8 5084.76 6666.34 6605.11 4757.87 3557.46 6636.43 5431.14 5971.95 6298.8 3689.24 5178.07 5189.91 5151.19 5777.26 4171.02 5703.84 7012.36 3530.82 5797.32 5028.06 4886.99 4002.99 5159.67 3921.27 3161.1 3572.73 3702.45 4746.15 6275.25 3720.38 6892.33 4758.84 4731.37 4505.3 4452.36 3976.0 4672.86 4511.34 6463.71 4068.41 5009.21 4574.03 5290.37 5850.38 5264.08 3562.8 4227.66 4730.97 4691.01 4594.89 5192.82 5245.95 5821.42 4067.89 4515.02 6294.09 4924.52 4571.57 5131.07 4121.07 2970.24 4197.87 5105.54 5658.05 5731.43 6353.81 3518.14 3414.67 5444.36 4150.44 5044.68 5771.98 5899.78 2649.69 5000.74 5117.83 5772.57 5268.27 4813.81 3882.37 5244.95 4634.25 4095.4 5901.8 6351.48 5395.12 5783.69 3830.7 6210.0 5432.4 3483.61 5350.9 4262.52 7430.48 5992.06 5545.68 4970.12 4967.93 6369.66 5973.57 5922.62 6241.48 6033.28 5957.82 4801.16 6286.27 5071.38 6327.54 5121.08 2927.84 5616.66 5688.77 4802.36 5368.28 5466.13 6229.64 4220.43 6263.87 5075.23 4975.56 7282.36 3826.01 4645.91 5581.01 3928.99 6834.92 4125.75 6379.33 5130.57 5652.73 3979.46 6321.97 3985.93 6412.84 6509.54 2589.19 6119.0 3792.06 5128.59 4993.49 4293.3 5587.3 4864.38 6583.37 3688.83 5631.32 4491.26 5793.14 6345.2 4609.65 5704.61 4832.21 5410.73 4379.91 5087.3 4942.63 6139.74 4975.57 7066.26 3057.3 6150.31 3677.85 5214.71 4677.84 4811.11 3463.53 5379.52 6126.03 5314.67 6044.69 5563.47 5651.46 6593.1 4066.36 4000.51 5462.1 6033.93 6032.45 5011.37 4026.03 2827.92 6908.32 3467.11 5336.61 4817.75 6153.26 4848.15 5637.53 4439.09 5523.81 5648.59 4718.61 5188.57 3873.79 5357.33 5717.67 5252.37 5515.59 3224.81 4499.54 5037.58 5640.67 6572.17 6080.69 3751.73 5555.89 4766.47 4871.1 5678.08 3917.09 6009.93 5872.45 4414.09 5125.45 3784.68 4188.16 3717.22 6305.9 6649.21 5507.07 2943.17 4654.92 5327.71 4880.78 4322.56 5257.38 5509.09 5625.02 5212.05 5479.86 4829.77 4444.92 6959.88 5971.9 5749.53 3746.62 5090.48 5247.73 5402.45 5034.02 5582.28 4769.62 5945.25 6071.59 4649.5 3856.4 6079.55 4696.06 5485.61 4137.16 4937.36 6189.29 5308.4 5984.55 5310.33 6581.13 4569.32 6126.5 4034.88 6322.0 3511.5 6007.1 5488.96 5067.92 3188.21 5128.03 5919.27 3720.92 4793.06 6271.22 6637.38 3421.81 6188.33 3920.64 6111.23 6916.18 5786.06 5873.62 3868.69 4996.91 3920.44 4450.51 6033.72 4866.8 3768.62 3851.47 4966.74 2329.93 4959.94 1635.31 5639.4 3162.27 6185.73 4083.24 5516.37 5092.44 4441.44 5432.2 4232.44 3312.3 4612.4 5563.09 6381.58 3282.57 5212.2 4798.13 4611.21 5108.42 6697.45 4630.5 6296.36 4432.32 4451.76 7885.41 3775.38 4046.22 6457.89 4104.97 4844.2 4575.72 5114.61 6118.13 3374.62 4926.62 4420.3 6332.64 4202.12 6492.44 4613.32 4083.1 5270.1 3482.73 5191.29 4957.99 5130.56 4947.64 4063.26 5345.05 4997.89 4542.62 3470.69 4859.95 5286.55 4132.08 5522.18 5223.1 3873.72 4850.49 4981.55 4592.49 5144.23 3625.98 6188.62 6474.5 4702.32 4414.06 4763.04 5944.52 4413.56 4532.67 4876.37 5316.05 2513.38 4908.32 5260.13 3995.08 5019.84 5181.31 4810.74 5985.75 5784.38 5475.83 4149.17 4329.8 5728.27 5803.3 5672.46 5108.84 4582.12 4295.25 4520.14 7394.47 5357.14 4729.45 4850.95 6261.13 5374.09 4720.34 5244.47 5378.75 6186.24 5510.89 5822.7 3780.07 4137.41 4159.89 5466.49 5178.55 5447.74 4038.17 5007.41 3692.99 4907.48 6213.74 4369.87 4488.41 6938.87 5412.07 5512.57 4806.99 6520.96 3771.91 5856.43 5217.62 3465.03 6178.19 4746.19 5349.85 4616.81 5715.25 5172.1 4362.94 4469.82 6545.78 4870.14 3354.94 4404.87 5237.27 5105.72 5767.65 4750.76 5003.49 5782.25 4907.03 5497.27 4081.77 5617.91 4948.21 2181.29 4987.01 4706.31 2694.25 6265.48 4735.99 4203.68 4739.56 5145.39 3996.93 6351.95 5195.09 5200.1 7679.2 5093.28 6131.52 4311.92 2626.41 6009.88 4699.77 5093.41 6842.35 5464.34 6153.07 3621.63 5801.89 5908.57 7296.47 5050.2 4821.41 4924.53 5616.11 4499.52 3874.12 4028.13 3900.93 4457.73 6476.35 3113.64 6260.58 4067.24 3053.19 5202.33 3074.49 4487.51 4246.24 6805.02 5354.48 4900.26 5783.88 4167.55 5002.38 6705.93 4865.11 4731.16 5502.14 6470.87 4495.33 5282.67 5747.9 3864.19 4287.93 5146.69 6203.24 6818.23 5081.65 6679.12 5652.19 5806.74 3878.8 6578.62 4813.55 6284.12 4796.04 3839.0 5229.56 6011.4 5799.86 3330.85 4672.34 6052.22 5376.41 5003.63 2932.2 4695.7 4944.08 4082.01 5269.39 3964.03 4216.33 5832.72 3903.9 4444.95 4721.2 5161.02 3943.77 3124.49 5242.38 6081.35 5003.81 6262.18 3818.37 5566.5 4701.03 3352.46 5663.36 6225.05 5434.04 5125.53 3997.52 4444.54 4881.51 5779.9 4909.74 5310.33 6729.99 6664.54 3922.98 5161.73 5259.48 4777.96 4008.67 5254.93 4803.4 6833.5 6608.94 5742.39 2613.78 4780.16 5417.07 3834.01 5656.84 4433.23 5738.37 4813.24 5759.19 4739.41 5847.27 4490.2 4304.75 5480.86 6139.9 6571.26 5402.81 4919.13 4600.81 5640.63 4124.33 5168.97 4358.06 5093.51 5647.93 4280.92 6201.49 5449.09 5154.74 4605.61 4465.56 4131.08 6898.8 5386.95 6540.57 5332.11 5315.71 6004.72 6158.93 4823.14 5438.5 4621.32 5699.4 5237.76 4698.94 4286.84 3948.21 5669.15 5296.05 5263.86 6988.4 5056.32 5533.52 5410.33 4747.24 4380.86 5302.53 4909.13 5576.16 4305.35 5648.02 3308.75 5210.22 2451.27 5677.42 2701.42 4929.35 5606.22 6673.92 5151.68 4884.94 5459.52 4609.98 4738.72 4752.31 5240.97 4276.59 5579.04 5405.6 5994.21 5403.81 4884.93 5082.25 4759.38 6964.78 4374.05 5299.03 5036.84 4565.36 5813.68 4025.08 5040.9 3618.53 4770.21 8013.28 3846.55 3796.73 4644.68 3082.16 2892.36 5981.54 6789.66 5416.41 5312.2 6760.64 4706.59 2515.5 5734.84 5551.79 3982.31 4950.07 4720.22 4333.23 5561.63 4328.76 3747.96 5611.29 5940.5 6568.45 5004.22 4601.54 7263.57 4696.92 5705.96 3832.09 6437.99 6632.04 7360.62 4893.72 4985.45 4072.4 4983.56 5373.78 4714.52 5345.65 4489.18 2489.44 5499.37 5863.36 4632.75 4752.94 4994.98 3950.53 6423.96 6058.13 5894.69 6550.61 4987.01 6635.51 4060.17 6094.34 6051.35 6779.82 5543.67 4287.61 4867.13 3999.81 4604.34 4439.17 4502.12 5442.79 5051.39 6327.61 4633.59 5733.59 5362.15 4455.61 3695.72 6874.6 5106.9 5569.85 5523.96 3929.35 4223.53 4733.37 6960.97 4287.15 5282.51 5504.65 5669.41 5732.11 3919.47 5596.68 3783.35 4868.66 4004.39 5159.9 5283.65 4987.48 5943.61 4248.58 5911.29 4694.27 4542.25 4849.21 5177.88 4785.55 3793.83 6981.47 4582.24 3916.15 5145.13 3860.8 7370.52 4726.5 4521.88 3724.23 5103.3 4963.88 5888.94 4122.2 4727.98 5175.88 5267.65 5739.69 4516.26 4790.16 3509.34 5360.88 3166.37 4977.64 5369.42 5207.08 5699.51 5205.53 4587.19 4883.13 5543.05 6028.89 4836.76 5333.16 5551.09 4888.17 5755.98 4501.1 5392.85 5581.47 4384.91 4274.05 5275.27 4277.54 4713.56 4531.46 5925.82 4739.5 6210.48 6377.45 4863.27 3255.93 6853.07 5575.8 5268.93 5306.31 4535.94 3037.72 4523.9 5126.08 5604.0 3760.4 4951.02 4602.7 4037.16 6395.63 5479.17 5020.37 4414.23 5233.88 5245.4 6189.81 5438.6 5467.05 3647.26 3731.58 5077.2 5529.09 5448.68 4072.95 4491.62 3865.5 4182.05 
SCALARS Velocity float 1
LOOKUP_TABLE default
1.19185 1.19186 1.1918 1.19183 1.19182 1.19182 1.19178 1.19184 1.19183 1.19178 1.19182 1.19178 1.19179 1.19178 1.19178 1.1918 1.19178 1.19178 1.19178 1.19178 1.19178 1.19177 1.19181 1.1918 1.19178 1.19178 1.19177 1.19178 1.19178 1.19178 1.19178 1.19178 1.19179 1.1918 1.19181 1.19181 1.19181 1.1918 1.19179 1.19177 1.1918 1.19179 1.19178 1.19181 1.19178 1.19178 1.19184 1.19182 1.19178 1.19179 1.1918 1.19178 1.1918 1.19177 1.19182 1.19183 1.19178 1.19177 1.19178 1.19179 1.19179 1.19184 1.19183 1.19178 1.19188 1.19181 1.19177 1.19178 1.19178 1.19178 1.1918 1.19176 1.19185 1.19179 1.19186 1.19187 1.19183 1.19179 1.1918 1.19185 1.19187 1.19184 1.19182 1.19178 1.19181 1.19184 1.19185 1.1918 1.1918 1.19178 1.19181 1.19185 1.1919 1.19181 1.19182 1.19182 1.19181 1.19178 1.19179 1.19179 1.19192 1.19186 1.19181 1.19183 1.19185 1.19186 1.19183 1.19184 1.19184 1.19184 1.19178 1.19179 1.19178 1.19178 1.1918 1.19178 1.19178 1.19178 1.19178 1.19182 1.19178 1.19181 1.19178 1.19178 1.19178 1.19179 1.19178 1.19178 1.19178 1.19178 1.19178 1.1918 1.19181 1.19181 1.19182 1.19181 1.1918 1.19179 1.19178 1.19181 1.19179 1.19181 1.19181 1.19177 1.19182 1.19184 1.19179 1.19177 1.19185 1.19182 1.19179 1.19179 1.19179 1.19184 1.19192 1.19192 1.19177 1.19178 1.19181 1.19179 1.19184 1.19183 1.19178 1.19189 1.19182 1.19178 1.19178 1.19181 1.19179 1.19187 1.19177 1.19179 1.19185 1.1919 1.19186 1.19186 1.19186 1.19179 1.19179 1.19187 1.19178 1.19184 1.19183 1.19177 1.19181 1.19185 1.19186 1.19178 1.19181 1.19177 1.19182 1.19187 1.19177 1.19181 1.19181 1.19182 1.19181 1.19181 1.1918 1.19179 1.19178 1.19187 1.19188 1.19184 1.19188 1.19185 1.19187 1.19183 1.19178 1.19184 1.1918 1.19178 1.19187 1.19178 1.1918 1.19178 1.19178 1.19178 1.19178 1.19182 1.19178 1.19181 1.19179 1.19182 1.19178 1.19179 1.19178 1.19177 1.19179 1.19178 1.1918 1.1918 1.19181 1.19182 1.19182 1.19181 1.19181 1.19179 1.19178 1.1918 1.19178 1.19181 1.19181 1.19178 1.19182 1.19184 1.19179 1.19177 1.19177 1.19185 1.19181 1.19179 1.1918 1.19185 1.19195 1.19183 1.19179 1.19183 1.19186 1.19181 1.19185 1.19183 1.19181 1.1919 1.19182 1.19185 1.19181 1.19192 1.19179 1.19187 1.19178 1.19182 1.19179 1.19182 1.19191 1.19187 1.19185 1.19185 1.19179 1.19187 1.19178 1.19186 1.19184 1.19185 1.19178 1.19182 1.19182 1.19186 1.19197 1.19179 1.19175 1.19183 1.19177 1.19179 1.19192 1.19181 1.19189 1.19182 1.19175 1.1918 1.19181 1.19178 1.19187 1.19185 1.19184 1.19189 1.1919 1.19187 1.19183 1.19178 1.19182 1.19178 1.19178 1.19186 1.1918 1.1918 1.19181 1.19178 1.19178 1.19176 1.19182 1.19181 1.19181 1.19182 1.19179 1.19177 1.19178 1.19178 1.19179 1.1918 1.19179 1.19186 1.19182 1.19181 1.19181 1.19182 1.19181 1.1918 1.19179 1.19183 1.19179 1.19181 1.19179 1.19181 1.19172 1.19183 1.19183 1.19183 1.19178 1.19184 1.19184 1.19181 1.19182 1.19185 1.19184 1.19188 1.19197 1.19182 1.1918 1.19184 1.19184 1.19182 1.19178 1.19178 1.19192 1.19178 1.19199 1.19184 1.1919 1.19181 1.1918 1.19187 1.19178 1.1918 1.19191 1.19191 1.19184 1.19183 1.19184 1.19186 1.19172 1.19189 1.19185 1.19183 1.1919 1.19178 1.19198 1.1918 1.19184 1.19197 1.19181 1.19181 1.19195 1.19178 1.19189 1.19194 1.1918 1.19189 1.1918 1.19182 1.19182 1.19181 1.1919 1.19185 1.19182 1.19181 1.19184 1.19189 1.19188 1.19187 1.19185 1.19181 1.19189 1.19181 1.19172 1.19177 1.19187 1.1918 1.19181 1.19183 1.19178 1.1918 1.19177 1.19182 1.19178 1.19181 1.19182 1.1918 1.19178 1.19188 1.19179 1.19178 1.1918 1.19179 1.19182 1.19178 1.19179 1.19181 1.19182 1.19181 1.19178 1.19183 1.19183 1.1918 1.19181 1.19177 1.19176 1.19179 1.19171 1.1918 1.19188 1.19178 1.19173 1.19185 1.1918 1.19181 1.19184 1.19185 1.19196 1.19182 1.19179 1.19184 1.1918 1.19182 1.19178 1.19177 1.19177 1.19188 1.19194 1.19191 1.19181 1.19176 1.19187 1.19178 1.19182 1.19177 1.1918 1.19181 1.19191 1.19192 1.19187 1.19173 1.19185 1.19185 1.19185 1.19186 1.19177 1.19199 1.19191 1.19184 1.19193 1.19181 1.19185 1.19173 1.19182 1.19185 1.19183 1.19184 1.19175 1.19191 1.19183 1.19182 1.1918 1.19191 1.19181 1.19182 1.19188 1.19184 1.1918 1.19189 1.19181 1.19168 1.19179 1.19178 1.19189 1.19184 1.19186 1.19179 1.1918 1.19182 1.19183 1.1918 1.19181 1.19182 1.1918 1.19175 1.19188 1.19179 1.19179 1.1918 1.19182 1.19178 1.19179 1.19177 1.1918 1.19181 1.19181 1.1918 1.19179 1.19183 1.1918 1.19178 1.19175 1.19179 1.19179 1.19178 1.1918 1.19178 1.19181 1.1918 1.19179 1.19182 1.19181 1.19191 1.19195 1.19179 1.1918 1.19184 1.1918 1.19176 1.19177 1.19177 1.19173 1.19188 1.19193 1.19182 1.19196 1.19178 1.19173 1.19187 1.19186 1.19182 1.19186 1.19177 1.19187 1.19194 1.19191 1.1919 1.19178 1.19185 1.19182 1.19185 1.19189 1.19195 1.19198 1.1919 1.19175 1.19191 1.19181 1.19188 1.19176 1.19184 1.19178 1.19182 1.1918 1.19178 1.19191 1.19183 1.19171 1.1918 1.1919 1.19181 1.1918 1.1918 1.19186 1.19187 1.19184 1.1918 1.19189 1.19179 1.19168 1.19179 1.19179 1.19174 1.19183 1.19178 1.19178 1.1918 1.19184 1.19182 1.19181 1.19175 1.19179 1.19179 1.1918 1.19183 1.19182 1.1918 1.19178 1.19178 1.19178 1.19179 1.19176 1.19179 1.1918 1.19182 1.1918 1.1918 1.19183 1.1918 1.19182 1.19174 1.1918 1.19179 1.19178 1.19181 1.19178 1.19175 1.19187 1.1919 1.19198 1.19181 1.19192 1.19191 1.19194 1.19179 1.1918 1.19184 1.1918 1.1917 1.19176 1.19173 1.19178 1.19181 1.19226 1.19191 1.19175 1.19177 1.19176 1.19192 1.19187 1.19185 1.19183 1.19176 1.19186 1.19182 1.19191 1.19193 1.19184 1.19186 1.19183 1.19189 1.19206 1.19195 1.19197 1.19196 1.19184 1.19172 1.19189 1.19179 1.19187 1.19175 1.19184 1.19189 1.19181 1.19178 1.19184 1.19177 1.19183 1.19171 1.1918 1.19178 1.19176 1.1918 1.19184 1.19171 1.19183 1.19188 1.19176 1.19184 1.19188 1.19179 1.19179 1.19177 1.19175 1.19181 1.19174 1.19182 1.19186 1.19183 1.1918 1.1918 1.19179 1.19178 1.19183 1.1918 1.19178 1.19176 1.1918 1.19178 1.1918 1.19173 1.19178 1.19179 1.1918 1.19181 1.19179 1.19179 1.19183 1.19181 1.19184 1.19175 1.19191 1.19177 1.19177 1.19181 1.19174 1.19177 1.1918 1.19191 1.19178 1.19184 1.19191 1.19191 1.19192 1.19177 1.19194 1.1919 1.19212 1.19175 1.19196 1.19178 1.19173 1.19182 1.19191 1.19188 1.19183 1.19165 1.19178 1.19191 1.19187 1.19176 1.19182 1.19176 1.19186 1.1918 1.19192 1.19183 1.19186 1.19183 1.19181 1.19185 1.19188 1.19179 1.19172 1.1919 1.19183 1.19182 1.19177 1.19187 1.19182 1.19184 1.1917 1.19189 1.19177 1.1919 1.19178 1.19181 1.19178 1.19178 1.19175 1.19178 1.19183 1.19172 1.19183 1.19173 1.1918 1.1918 1.19178 1.19178 1.19177 1.19176 1.19174 1.19182 1.19177 1.19171 1.19189 1.19182 1.1918 1.19179 1.19176 1.19176 1.19182 1.1918 1.1918 1.19178 1.1918 1.19176 1.1918 1.19172 1.19178 1.19179 1.19179 1.19182 1.19178 1.19179 1.19183 1.1918 1.19183 1.19179 1.19189 1.19178 1.19186 1.19177 1.19183 1.19176 1.19182 1.19191 1.19179 1.19178 1.19188 1.19188 1.19189 1.19179 1.19192 1.19193 1.19197 1.19192 1.19203 1.19192 1.19175 1.19165 1.19187 1.19185 1.19181 1.19165 1.19192 1.19177 1.19189 1.1918 1.19182 1.19176 1.19185 1.19182 1.19181 1.19178 1.19182 1.19189 1.19184 1.19181 1.19183 1.19185 1.19197 1.19192 1.19185 1.19178 1.19191 1.19184 1.19179 1.19188 1.19184 1.19167 1.19177 1.19189 1.19177 1.1919 1.19192 1.19183 1.19177 1.19169 1.19174 1.19173 1.19174 1.19182 1.19167 1.19177 1.19186 1.19177 1.19174 1.19178 1.19181 1.1918 1.19175 1.19184 1.19181 1.1917 1.19178 1.19182 1.19178 1.19179 1.19175 1.19176 1.19181 1.19179 1.19178 1.19181 1.19178 1.19176 1.19176 1.19171 1.19178 1.19179 1.19178 1.19178 1.19176 1.19177 1.1918 1.19178 1.19178 1.19178 1.19179 1.19182 1.19178 1.19177 1.19194 1.19163 1.19191 1.1919 1.1918 1.19178 1.19184 1.19187 1.19201 1.19191 1.19191 1.19192 1.19199 1.19192 1.1918 1.19195 1.19173 1.19168 1.19171 1.19186 1.19186 1.19182 1.19154 1.19189 1.19189 1.19176 1.19183 1.1918 1.19186 1.1918 1.19151 1.19188 1.19181 1.19182 1.19184 1.19181 1.19184 1.19185 1.1917 1.1918 1.19187 1.19186 1.19186 1.19172 1.19181 1.19193 1.19184 1.19168 1.19169 1.19178 1.19188 1.19176 1.19178 1.19195 1.19183 1.19176 1.19171 1.19174 1.19175 1.1917 1.19174 1.19184 1.19192 1.19177 1.19183 1.19176 1.19178 1.19175 1.19181 1.1918 1.19175 1.19179 1.19184 1.19182 1.1918 1.19172 1.19181 1.19178 1.19179 1.19175 1.19174 1.19181 1.19179 1.19178 1.19181 1.19178 1.19176 1.19182 1.19176 1.19178 1.19178 1.19181 1.19174 1.19175 1.19177 1.19179 1.19178 1.19178 1.19177 1.1918 1.19182 1.19181 1.19175 1.19194 1.19161 1.19187 1.19189 1.19186 1.19178 1.19196 1.19185 1.19205 1.19194 1.19188 1.1919 1.19194 1.19182 1.19155 1.19195 1.19168 1.19155 1.19163 1.19184 1.19181 1.19174 1.19187 1.19176 1.19173 1.19178 1.19182 1.19181 1.19194 1.19177 1.19166 1.19181 1.19169 1.19191 1.1918 1.19181 1.19183 1.19182 1.19182 1.19178 1.19182 1.19178 1.19173 1.19178 1.19195 1.19167 1.19183 1.19169 1.19178 1.19187 1.19138 1.19192 1.19199 1.19187 1.19171 1.1918 1.19176 1.1917 1.19176 1.19185 1.19193 1.19174 1.19176 1.19176 1.19175 1.19173 1.19177 1.1918 1.1918 1.19178 1.19177 1.19177 1.19179 1.19183 1.19177 1.19174 1.19173 1.1918 1.19179 1.19178 1.19181 1.19177 1.19177 1.19178 1.19184 1.19185 1.19178 1.19177 1.19181 1.19174 1.19178 1.19177 1.19179 1.19174 1.19176 1.19178 1.1918 1.19182 1.19178 1.19175 1.19203 1.19204 1.19175 1.19186 1.19186 1.19182 1.19178 1.19178 1.192 1.19189 1.19204 1.19194 1.19198 1.19187 1.1919 1.19177 1.19184 1.19195 1.19155 1.19177 1.19174 1.19181 1.19178 1.19185 1.19185 1.19179 1.19192 1.19166 1.19181 1.19177 1.19179 1.19181 1.19177 1.19172 1.19175 1.19175 1.19181 1.19177 1.19179 1.19183 1.1918 1.19161 1.19178 1.19157 1.19175 1.19177 1.19166 1.19161 1.19171 1.19182 1.19149 1.19153 1.19187 1.19185 1.192 1.19175 1.19188 1.19173 1.19182 1.19179 1.1917 1.19175 1.19184 1.1918 1.19174 1.19175 1.19175 1.19182 1.19175 1.19178 1.19187 1.19171 1.19186 1.19172 1.19175 1.19178 1.19176 1.19181 1.19175 1.19174 1.19173 1.1918 1.19178 1.19179 1.19173 1.19178 1.19183 1.19184 1.1918 1.1918 1.19178 1.19179 1.19176 1.19174 1.19176 1.19176 1.19181 1.19162 1.1917 1.19187 1.19192 1.19171 1.19189 1.19194 1.19184 1.19179 1.19178 1.19202 1.19203 1.19187 1.19207 1.19199 1.19177 1.19187 1.19187 1.19199 1.19192 1.19157 1.19181 1.19169 1.19189 1.19178 1.19175 1.19185 1.19202 1.19179 1.19174 1.19175 1.19178 1.19178 1.19167 1.19175 1.19181 1.19171 1.19177 1.19176 1.19181 1.19166 1.19179 1.19172 1.19156 1.19179 1.19174 1.19166 1.19161 1.19173 1.19184 1.19184 1.19148 1.19154 1.19187 1.19185 1.19178 1.19194 1.19173 1.19187 1.19172 1.19178 1.19179 1.19175 1.19178 1.19162 1.19171 1.19175 1.19177 1.19176 1.19182 1.19176 1.19178 1.19173 1.19175 1.19182 1.19171 1.19175 1.19176 1.19178 1.1918 1.19178 1.19175 1.19172 1.19169 1.1918 1.19178 1.19172 1.19174 1.1918 1.19185 1.19181 1.19179 1.19182 1.1918 1.19177 1.19177 1.19175 1.19174 1.19174 1.19181 1.19175 1.19173 1.19182 1.19194 1.1918 1.19164 1.19189 1.19185 1.19197 1.19189 1.1919 1.19194 1.19192 1.192 1.19183 1.19182 1.19176 1.19188 1.19196 1.19226 1.19225 1.19196 1.19196 1.19155 1.19159 1.19193 1.19177 1.19191 1.19177 1.19167 1.19188 1.19206 1.1918 1.19177 1.19165 1.19173 1.19174 1.19177 1.19171 1.19173 1.1918 1.19177 1.19176 1.19174 1.1918 1.19168 1.19163 1.19179 1.19176 1.19174 1.19166 1.19161 1.19183 1.19148 1.19151 1.19183 1.19188 1.19188 1.19182 1.19173 1.19179 1.19178 1.19177 1.19177 1.19161 1.19168 1.19172 1.1917 1.19178 1.19177 1.19183 1.19182 1.19178 1.19176 1.19175 1.19176 1.1918 1.19171 1.19175 1.19177 1.19177 1.1918 1.19177 1.19174 1.19173 1.1917 1.19181 1.19179 1.19172 1.19177 1.19178 1.19174 1.19182 1.19179 1.19181 1.19178 1.19184 1.19173 1.19174 1.19187 1.19184 1.19153 1.19171 1.19194 1.19202 1.19188 1.19162 1.19182 1.19169 1.19177 1.19199 1.19188 1.1919 1.19203 1.1919 1.19191 1.19179 1.19176 1.19191 1.19177 1.19173 1.19193 1.19207 1.19158 1.19197 1.19192 1.19176 1.19192 1.19187 1.19149 1.19173 1.19174 1.19205 1.19181 1.19168 1.19164 1.19174 1.19175 1.19178 1.19173 1.19174 1.19175 1.19171 1.19174 1.19169 1.19168 1.19172 1.19174 1.19176 1.19172 1.19174 1.19165 1.19175 1.19177 1.19179 1.19168 1.19177 1.19175 1.19178 1.19188 1.19172 1.19178 1.19173 1.19179 1.19182 1.19178 1.19179 1.19162 1.19165 1.19168 1.19177 1.19177 1.19175 1.19178 1.19173 1.19178 1.19178 1.19177 1.19176 1.19178 1.19175 1.19177 1.19174 1.19178 1.19175 1.19178 1.1918 1.19178 1.19172 1.19178 1.19178 1.19174 1.19174 1.19181 1.1918 1.19182 1.19181 1.19186 1.19173 1.19165 1.19196 1.19186 1.19179 1.19177 1.192 1.19188 1.19193 1.19178 1.19175 1.19197 1.19204 1.19196 1.1919 1.19197 1.19193 1.19196 1.19187 1.19174 1.19173 1.19175 1.19164 1.19187 1.19187 1.19175 1.19189 1.1919 1.19159 1.19195 1.19197 1.19195 1.19181 1.19178 1.19148 1.19171 1.19179 1.19173 1.19184 1.19187 1.19167 1.19163 1.19166 1.1917 1.19175 1.19173 1.19174 1.19173 1.19169 1.19172 1.19168 1.19184 1.19171 1.19169 1.19176 1.19172 1.19167 1.19177 1.19165 1.19175 1.19182 1.1917 1.19178 1.19169 1.19172 1.19172 1.19186 1.19172 1.19177 1.19173 1.1918 1.19178 1.19176 1.19179 1.19162 1.19169 1.19166 1.19177 1.19178 1.19176 1.19175 1.19178 1.19173 1.19178 1.19178 1.19177 1.19176 1.19178 1.19175 1.19178 1.19173 1.1917 1.19181 1.19178 1.19172 1.1918 1.19176 1.19172 1.19173 1.19188 1.1918 1.19183 1.1918 1.19185 1.19172 1.19178 1.19195 1.19178 1.19173 1.19194 1.19193 1.19182 1.19175 1.19183 1.19164 1.19189 1.19193 1.19186 1.19179 1.19193 1.19185 1.19176 1.19203 1.19182 1.19198 1.19193 1.19179 1.1917 1.19168 1.19172 1.19174 1.19182 1.19166 1.19171 1.19143 1.19173 1.19173 1.19178 1.19174 1.19174 1.19167 1.19171 1.19168 1.19184 1.19171 1.19179 1.1918 1.19173 1.19167 1.19165 1.1916 1.19168 1.19181 1.19168 1.19178 1.19169 1.19185 1.19167 1.19175 1.19172 1.19178 1.19176 1.19176 1.19177 1.19179 1.19173 1.19166 1.1917 1.19166 1.19163 1.19167 1.19177 1.19176 1.19178 1.19173 1.19179 1.19179 1.19177 1.19176 1.19178 1.19175 1.19172 1.19171 1.19173 1.1917 1.19178 1.19178 1.19172 1.19175 1.19177 1.19172 1.19173 1.19187 1.19182 1.19178 1.19173 1.19182 1.19183 1.19189 1.19165 1.19187 1.19213 1.19178 1.19195 1.19191 1.19193 1.19177 1.19179 1.19211 1.19161 1.19185 1.19203 1.19189 1.19187 1.19189 1.19183 1.1919 1.192 1.19178 1.1918 1.19176 1.19193 1.19203 1.19202 1.19179 1.19177 1.19179 1.19188 1.19199 1.19171 1.19178 1.19169 1.19196 1.19197 1.19174 1.19185 1.19161 1.19172 1.1916 1.19174 1.19178 1.19178 1.19177 1.1918 1.19171 1.19169 1.19167 1.19172 1.1917 1.19182 1.19171 1.19172 1.19167 1.19173 1.19162 1.19169 1.1918 1.19168 1.19172 1.19168 1.19171 1.19185 1.19172 1.19174 1.19173 1.19178 1.19178 1.19178 1.19178 1.19174 1.19171 1.19166 1.19162 1.19167 1.19166 1.19166 1.19172 1.19175 1.19178 1.19173 1.19178 1.19175 1.19178 1.19175 1.19176 1.19175 1.19171 1.19172 1.19172 1.19174 1.19178 1.19178 1.19178 1.19175 1.19177 1.19171 1.19175 1.19193 1.1918 1.1917 1.19172 1.19182 1.19183 1.19185 1.19174 1.1918 1.19171 1.19217 1.19196 1.1919 1.19196 1.19182 1.19186 1.19174 1.19209 1.19198 1.19187 1.19179 1.19191 1.19174 1.1919 1.19198 1.1918 1.19179 1.19174 1.19194 1.19199 1.19179 1.19176 1.19173 1.19178 1.1919 1.19194 1.19171 1.19158 1.19174 1.19179 1.19182 1.1916 1.19171 1.19159 1.19178 1.19178 1.1919 1.19173 1.1918 1.1918 1.19174 1.19173 1.19172 1.19166 1.19179 1.19169 1.19178 1.19171 1.19173 1.19173 1.19171 1.19162 1.19177 1.19174 1.19173 1.19171 1.19167 1.19177 1.19169 1.19171 1.19171 1.19175 1.19176 1.19178 1.19178 1.19177 1.19178 1.1918 1.19179 1.19163 1.19168 1.19178 1.19165 1.19171 1.19178 1.19179 1.19175 1.19177 1.19177 1.19177 1.19177 1.19175 1.19176 1.19175 1.19176 1.19175 1.19178 1.19172 1.19178 1.19178 1.19178 1.19171 1.19174 1.19174 1.19177 1.19193 1.1918 1.19178 1.19168 1.19186 1.19173 1.19181 1.19182 1.19182 1.19178 1.19209 1.1919 1.19177 1.19195 1.19178 1.19208 1.19187 1.19177 1.19198 1.19194 1.19175 1.19184 1.19188 1.19194 1.19187 1.19177 1.19188 1.19177 1.19161 1.19199 1.19178 1.19177 1.19167 1.19166 1.19167 1.19158 1.1918 1.19172 1.19181 1.19183 1.19182 1.19163 1.19174 1.19162 1.19175 1.19175 1.19177 1.19179 1.19179 1.1918 1.19172 1.19166 1.19167 1.19185 1.19168 1.19167 1.19173 1.19175 1.1917 1.19168 1.19161 1.19166 1.19175 1.19174 1.19171 1.19167 1.19176 1.19178 1.19169 1.19171 1.19176 1.19178 1.19176 1.19176 1.19179 1.19177 1.19164 1.19172 1.19175 1.19174 1.19165 1.19175 1.19177 1.19174 1.19178 1.19177 1.19176 1.19175 1.19177 1.19178 1.19179 1.19178 1.19178 1.19172 1.19184 1.19184 1.19185 1.19177 1.19178 1.19181 1.19172 1.19179 1.19178 1.19177 1.19174 1.19174 1.19177 1.19168 1.19182 1.19183 1.19182 1.19178 1.19176 1.19189 1.19189 1.19212 1.19197 1.19176 1.19171 1.19185 1.19174 1.19185 1.19172 1.19171 1.19184 1.19185 1.19184 1.19188 1.19174 1.1916 1.192 1.19178 1.19173 1.19164 1.19166 1.19165 1.19166 1.19157 1.19178 1.19187 1.19176 1.19166 1.1917 1.19163 1.19176 1.19178 1.19175 1.19174 1.19179 1.19172 1.19166 1.19168 1.19178 1.19172 1.19169 1.19178 1.19185 1.19184 1.19174 1.19178 1.19178 1.19167 1.19186 1.19175 1.19173 1.19171 1.1918 1.19172 1.19166 1.19169 1.1917 1.19176 1.19178 1.19176 1.19176 1.19178 1.19177 1.19177 1.19176 1.19165 1.19174 1.19177 1.19174 1.19178 1.19177 1.19176 1.19176 1.19177 1.19178 1.19175 1.19178 1.19179 1.19176 1.19178 1.19177 1.19174 1.19178 1.1918 1.19177 1.19178 1.1918 1.19178 1.19169 1.1918 1.19171 1.19174 1.19166 1.19182 1.19181 1.19184 1.1918 1.1918 1.19171 1.19176 1.19186 1.19188 1.19187 1.19193 1.19198 1.19191 1.19178 1.19172 1.19149 1.19175 1.1919 1.19221 1.19166 1.19171 1.19185 1.19189 1.19172 1.1916 1.19196 1.19162 1.1919 1.19162 1.19165 1.19165 1.19176 1.19179 1.19188 1.19169 1.19179 1.19164 1.19167 1.19179 1.19179 1.19174 1.19158 1.19172 1.19179 1.19172 1.19164 1.19174 1.19175 1.19173 1.19168 1.19173 1.19177 1.19178 1.1918 1.19173 1.19178 1.19173 1.19172 1.19178 1.19178 1.19167 1.19169 1.1917 1.19176 1.19178 1.19177 1.19178 1.19178 1.19178 1.19177 1.19177 1.19176 1.19178 1.19165 1.19175 1.19178 1.19178 1.19178 1.19177 1.19178 1.19175 1.19177 1.19174 1.19178 1.19179 1.19178 1.19171 1.19176 1.19179 1.19169 1.19179 1.19171 1.19165 1.19169 1.19168 1.19176 1.1917 1.19171 1.1917 1.19175 1.19182 1.19169 1.19178 1.19178 1.19192 1.19186 1.19178 1.19175 1.1918 1.19153 1.1917 1.1922 1.19184 1.19147 1.19173 1.19171 1.19159 1.19189 1.19179 1.19166 1.19159 1.19163 1.19189 1.19164 1.19183 1.19163 1.19173 1.19178 1.19156 1.19177 1.19161 1.19173 1.19189 1.1918 1.19168 1.19166 1.19177 1.19171 1.19178 1.19178 1.19173 1.19179 1.19174 1.19175 1.19173 1.19167 1.19172 1.19173 1.19177 1.19176 1.19178 1.19173 1.19179 1.19173 1.19172 1.19176 1.19173 1.1917 1.19173 1.1917 1.19176 1.19176 1.19177 1.19178 1.19178 1.19178 1.19177 1.19177 1.19178 1.19178 1.19178 1.19175 1.19178 1.19178 1.19178 1.19178 1.19178 1.19176 1.19177 1.19177 1.19178 1.19178 1.19177 1.19176 1.19177 1.19171 1.19176 1.1918 1.19178 1.19172 1.1917 1.19175 1.19169 1.19164 1.19174 1.19167 1.19165 1.19173 1.19156 1.19173 1.19182 1.19167 1.19172 1.19176 1.1917 1.19195 1.19185 1.19186 1.19166 1.19157 1.19166 1.19185 1.19142 1.19166 1.19178 1.19177 1.19163 1.19149 1.19135 1.19177 1.19162 1.19173 1.19166 1.19154 1.19175 1.19174 1.1917 1.19175 1.19167 1.19168 1.19168 1.19178 1.19169 1.19179 1.19179 1.19177 1.1918 1.19173 1.19173 1.19178 1.19174 1.19178 1.19174 1.19167 1.19172 1.19173 1.19176 1.19178 1.19177 1.19173 1.19176 1.19173 1.19165 1.19165 1.19172 1.19173 1.1917 1.19176 1.19178 1.19177 1.19178 1.19178 1.19178 1.19177 1.19177 1.19178 1.19178 1.19178 1.19175 1.19178 1.19178 1.19178 1.19178 1.19178 1.19176 1.19177 1.19177 1.19177 1.19177 1.19178 1.19178 1.19172 1.19177 1.19175 1.19172 1.19171 1.19178 1.19162 1.19171 1.19174 1.19168 1.19166 1.19148 1.19164 1.1916 1.19166 1.19162 1.19169 1.19172 1.19183 1.19199 1.1918 1.19164 1.19156 1.19167 1.19179 1.19138 1.19175 1.19171 1.19162 1.19177 1.1916 1.19154 1.19157 1.1916 1.19137 1.19148 1.1919 1.19146 1.19165 1.19173 1.19179 1.19177 1.19175 1.19167 1.19168 1.1917 1.19171 1.19165 1.19172 1.19178 1.19173 1.19179 1.19173 1.19173 1.19172 1.19177 1.19179 1.19171 1.19178 1.19171 1.19174 1.19176 1.19176 1.19173 1.19176 1.19173 1.19177 1.19174 1.19177 1.19165 1.19166 1.19172 1.19176 1.19179 1.19156 1.19167 1.19184 1.19199 1.19178 1.19185 1.19161 1.19185 1.19178 1.1918 1.19174 1.19181 1.19185 1.19148 1.19162 1.19174 1.19155 1.19165 1.19176 1.19155 1.19174 1.19181 1.19168 1.19182 1.19184 1.19168 1.19174 1.19186 1.19188 1.19179 1.19179 1.19179 1.19187 1.19168 1.19182 1.1917 1.19164 1.19159 1.19173 1.19147 1.19149 1.1916 1.19168 1.19181 1.19166 1.19183 1.1917 1.1916 1.19171 1.19185 1.19188 1.19175 1.1918 1.19154 1.19168 1.19168 1.19162 1.19178 1.19154 1.19149 1.19173 1.19167 1.19179 1.19171 1.19158 1.19167 1.19155 1.19177 1.19168 1.19186 1.19187 1.19185 1.19172 1.19181 1.19178 1.19154 1.19178 1.19177 1.19173 1.1916 1.19144 1.1914 1.1915 1.19161 1.19172 1.19178 1.19178 1.19179 1.19173 1.19166 1.19176 1.1916 1.19177 1.19164 1.19186 1.19188 1.19187 1.19172 1.19167 1.1916 1.19149 1.1914 1.19182 1.19193 1.19178 1.19178 1.19178 1.19178 1.19178 1.19178 1.19176 1.19173 1.19178 1.19162 1.19167 1.19175 1.1916 1.19161 1.19185 1.19164 1.19188 1.19172 1.1918 1.19168 1.19184 1.1916 1.19185 1.19182 1.19183 1.19178 1.19178 1.19178 1.19178 1.19178 1.19178 1.19178 1.19178 1.19178 1.19178 1.19178 1.19178 1.19178 1.19178 1.19178 1.19178 1.19178 1.19178 1.19178 1.19178 1.19178 1.19178 1.19178 1.19178 1.19178 1.19178 1.19178 1.19178 1.19178 1.19178 1.19178 1.19178 1.19178 1.19178 1.19178 1.19178 1.19178 1.19175 1.19171 1.19165 1.19167 1.19175 1.19181 1.19188 1.19171 1.19157 1.19206 1.19203 1.19155 1.19173 1.19193 1.19174 1.19166 1.19176 1.19173 1.19187 1.19197 1.1919 1.19177 1.19179 1.19183 1.19182 1.19178 1.19178 1.19178 1.19178 1.19178 1.19178 1.19178 1.19178 1.19178 1.19178 1.19178 1.19178 1.19178 1.19178 1.19178 1.19178 1.19178 1.19178 1.19178 1.19178 1.19178 1.19178 1.19178 1.19178 1.19178 1.19178 1.1917 1.19167 1.19178 1.19153 1.19161 1.19165 1.1918 1.1916 1.19161 1.19184 1.19168 1.19163 1.19158 1.19168 1.1918 1.19191 1.19176 1.19179 1.19171 1.19201 1.19185 1.19178 1.19178 1.19178 1.19178 1.19178 1.19178 1.19178 1.19178 1.19178 1.19178 1.19178 1.19178 1.19178 1.19178 1.19178 1.19178 1.19178 1.19178 1.19178 1.19178 1.19178 1.19178 1.19178 1.19178 1.19178 1.19178 1.19178 1.19178 1.19178 1.19178 1.19178 1.19178 1.19178 1.19178 1.19178 1.19178 1.19178 1.19178 1.19178 1.19178 1.19178 1.19178 1.19178 1.19178 1.19178 1.19182 1.19168 1.192 1.19169 1.19188 1.19156 1.19176 1.19153 1.19159 1.19176 1.19175 1.19168 1.19149 1.19138 1.1916 1.19156 1.19168 1.19175 1.19187 1.19197 1.19175 1.19184 1.19176 1.19171 1.19178 1.19178 1.19178 1.19178 1.19178 1.19178 1.19178 1.19178 1.19178 1.19178 1.19178 1.19178 1.19178 1.19178 1.19178 1.19178 1.19178 1.19178 1.19178 1.19178 1.19178 1.19178 1.19178 1.19178 1.19178 1.19178 1.19178 1.19178 1.19178 1.19178 1.19178 1.19178 1.19178 1.19178 1.19178 1.19178 1.19178 1.19178 1.19178 1.19178 1.19178 1.19178 1.19178 1.19178 1.19178 1.19178 1.19177 1.19177 1.19168 1.19156 1.19171 1.19159 1.19176 1.19168 1.19179 1.1916 1.19166 1.19172 1.19166 1.19146 1.19137 1.19178 1.19153 1.19169 1.19191 1.19171 1.1919 1.19177 1.19179 1.19178 1.19178 1.19178 1.19178 1.19178 1.19178 1.19178 1.19178 1.19178 1.19178 1.19178 1.19178 1.19178 1.19178 1.19178 1.19178 1.19178 1.19178 1.19178 1.19178 1.19178 1.19178 1.19178 1.19178 1.19178 1.19178 1.19178 1.19178 1.19178 1.19178 1.19178 1.19178 1.19178 1.19178 1.19178 1.19178 1.19178 1.19178 1.19178 1.19178 1.19178 1.19178 1.19178 1.19178 1.19177 1.19177 1.19179 1.19203 1.19168 1.1918 1.19167 1.19165 1.19162 1.19177 1.19159 1.19166 1.19166 1.19163 1.19167 1.19161 1.1914 1.19157 1.19186 1.1918 1.19164 1.19165 1.19192 1.19173 1.19164 1.19178 1.19177 1.19178 1.19178 1.19178 1.19178 1.19178 1.19178 1.19178 1.19178 1.19178 1.19178 1.19178 1.19178 1.19178 1.19178 1.19178 1.19178 1.19178 1.19178 1.19178 1.19178 1.19178 1.19178 1.19178 1.19178 1.19178 1.19178 1.19178 1.19178 1.19178 1.19178 1.19178 1.19178 1.19178 1.19178 1.19178 1.19178 1.19178 1.19178 1.19178 1.19178 1.19178 1.19178 1.19178 1.19178 1.19178 1.19178 1.19178 1.19178 1.19178 1.19178 1.19178 1.19178 1.19178 1.19178 1.19178 1.19167 1.19172 1.19179 1.1917 1.19139 1.1918 1.19177 1.19183 1.19178 1.19169 1.19173 1.19178 1.1918 1.1919 1.19182 1.19168 1.19177 1.19171 1.19161 1.19188 1.19173 1.19182 1.19189 1.19175 1.19178 1.19178 1.19178 1.19178 1.19178 1.19178 1.19178 1.19178 1.19178 1.19178 1.19178 1.19178 1.19178 1.19178 1.19178 1.19178 1.19178 1.19178 1.19178 1.19178 1.19178 1.19178 1.19178 1.19178 1.19178 1.19178 1.19178 1.19178 1.19178 1.19178 1.19178 1.19178 1.19178 1.19178 1.19178 1.19178 1.19178 1.19178 1.19178 1.19177 1.19166 1.19197 1.19171 1.19151 1.19172 1.19182 1.19176 1.19175 1.19194 1.19178 1.19183 1.1918 1.19156 1.19178 1.19167 1.19166 1.19178 1.19162 1.19182 1.19158 1.19178 1.19178 1.19178 1.19178 1.19178 1.19178 1.19178 1.19178 1.19178 1.19178 1.19178 1.19178 1.19178 1.19178 1.19178 1.19178 1.19178 1.19178 1.19178 1.19178 1.19178 1.19178 1.19178 1.19178 1.19178 1.19178 1.19178 1.19178 1.19178 1.19178 1.19178 1.19178 1.19178 1.19178 1.19178 1.19178 1.19178 1.19178 1.19178 1.19178 1.19178 1.19178 1.19178 1.19186 1.19174 1.19155 1.19219 1.19159 1.19185 1.19166 1.19177 1.19163 1.19178 1.1918 1.19182 1.19166 1.19166 1.19164 1.19159 1.19178 1.19198 1.19171 1.19179 1.19178 1.19178 1.19178 1.19178 1.19178 1.19178 1.19178 1.19178 1.19178 1.19178 1.19178 1.19178 1.19178 1.19178 1.19178 1.19178 1.19178 1.19178 1.19178 1.19178 1.19178 1.19178 1.19178 1.19178 1.19178 1.19178 1.19178 1.19178 1.19178 1.19178 1.19178 1.19178 1.19178 1.19178 1.19178 1.19178 1.19166 1.19176 1.1918 1.19179 1.19175 1.19186 1.19179 1.19178 1.19187 1.19178 1.19164 1.19164 1.19168 1.19182 1.19168 1.19178 1.19178 1.19178 1.19178 1.19178 1.19178 1.19178 1.19178 1.19178 1.19178 1.19178 1.19178 1.19178 1.19178 1.19178 1.19178 1.19178 1.19178 1.19178 1.19178 1.19178 1.19178 1.19178 1.19178 1.19178 1.19178 1.19178 1.19178 1.19178 1.19178 1.19178 1.19178 1.19178 1.19178 1.19178 1.19178 1.19178 1.19178 1.19178 1.19178 1.19178 1.19178 1.19178 1.19178 1.19178 1.19178 1.19178 1.19178 1.19177 1.19185 1.19175 1.19179 1.19174 1.19181 1.19197 1.19175 1.19177 1.19174 1.19175 1.19177 1.1917 1.19164 1.19183 1.19157 1.19179 1.19174 1.1917 1.19167 1.19186 1.19181 1.19175 1.19177 1.19178 1.19178 1.19178 1.19178 1.19178 1.19178 1.19178 1.19178 1.19178 1.19178 1.19178 1.19178 1.19178 1.19178 1.19178 1.19178 1.19178 1.19178 1.19178 1.19178 1.19178 1.19178 1.19178 1.19178 1.19178 1.19178 1.19178 1.19178 1.19178 1.19177 1.19174 1.19175 1.19182 1.19179 1.19173 1.19184 1.19168 1.19174 1.19174 1.19177 1.19182 1.19164 1.19174 1.19158 1.19166 1.19178 1.19162 1.19166 1.19175 1.19172 1.19177 1.19178 1.19178 1.19178 1.19178 1.19178 1.19178 1.19178 1.19178 1.19178 1.19178 1.19178 1.19178 1.19178 1.19178 1.19178 1.19178 1.19178 1.19178 1.19178 1.19178 1.19178 1.19178 1.19178 1.19178 1.19169 1.19173 1.19172 1.19169 1.19164 1.19184 1.19167 1.19171 1.19177 1.19174 1.19159 1.19169 1.19156 1.19162 1.19159 1.19152 1.19175 1.19159 1.19177 1.19178 1.19172 1.19165 1.19159 1.19176 1.19179 1.19178 1.19178 1.19178 1.19178 1.19178 1.19178 1.19178 1.19178 1.19178 1.19178 1.19178 1.19178 1.19178 1.19178 1.19178 1.19178 1.19178 1.19178 1.19178 1.19178 1.19178 1.19178 1.19178 1.19178 1.19156 1.19167 1.19161 1.19174 1.19166 1.19169 1.1917 1.1916 1.19157 1.19162 1.19168 1.19178 1.19144 1.19159 1.19186 1.19178 1.19177 1.19177 1.19159 1.19178 1.19178 1.19178 1.19178 1.19178 1.19178 1.19178 1.19178 1.19178 1.19178 1.19178 1.19178 1.19178 1.19178 1.19178 1.19182 1.19172 1.19166 1.19165 1.19159 1.19178 1.19176 1.19164 1.19169 1.19153 1.19154 1.19182 1.19177 1.19135 1.19178 1.19163 1.19177 1.19179 1.19173 1.19166 1.19178 1.19178 1.19178 1.19178 1.19178 1.19178 1.19178 1.19178 1.19178 1.19178 1.19178 1.19178 1.19178 1.19178 1.19178 1.19178 1.1918 1.19169 1.19171 1.19179 1.19174 1.19179 1.19176 1.19162 1.19176 1.19155 1.19163 1.19182 1.19173 1.19172 1.19176 1.19159 1.19157 1.19161 1.19178 1.19176 1.19173 1.19178 1.19178 1.19178 1.19178 1.19178 1.19178 1.19178 1.19178 1.19177 1.19172 1.19164 1.19177 1.19178 1.19178 1.19165 1.19181 1.19178 1.19168 1.19165 1.1916 1.19175 1.19175 1.19156 1.19178 1.19179 1.19156 1.19178 1.19178 1.19178 1.19178 1.19178 1.19178 1.19178 1.19178 1.19178 1.19178 1.19178 1.19178 1.19174 1.19175 1.19179 1.19179 1.19178 1.19176 1.19171 1.19178 1.19175 1.19161 1.19171 1.19178 1.19177 1.19175 1.19178 1.19174 1.19178 1.19179 1.19161 1.1918 1.19178 1.19178 1.19178 1.19178 1.19178 1.19175 1.19177 1.19175 1.1918 1.19181 1.19173 1.1917 1.19178 1.19167 1.19177 1.1917 1.19172 1.19179 1.19177 1.19175 1.19178 1.19176 1.19155 1.19177 1.19178 1.19178 1.19178 1.19178 1.19178 1.19178 0.0136016 0.000897034 0.0249486 0.0124138 0.0150468 0.0142967 0.0454873 0.0978249 1.19178 0.254264 0.195209 0.0639588 0.391489 0.479275 0.769729 1.27274 0.247658 1.19174 1.19178 1.19178 0.21447 0.355882 0.35909 1.19178 0.128969 0.0186934 0.139384 0.222935 0.173908 0.302385 0.276114 0.110595 0.235533 0.30872 1.19321 1.19178 1.19178 1.19179 1.19178 2.11513 1.98721 0.395387 0.409587 0.372931 0.0671183 0.0815931 0.124966 0.0965061 0.0745293 0.0672599 0.0105227 0.0412765 0.0250449 1.19176 1.19176 1.19177 1.19178 1.19178 1.19178 3.79309 1.34241 0.270372 1.21642 0.211408 0.190383 0.244557 0.252048 0.202946 0.220461 0.175108 0.126634 0.0741248 0.0560111 0.063926 0.0740545 0.0687081 0.0642179 0.0648618 0.0606362 0.0667778 0.0486371 0.027525 0.0123798 0.0122775 0.0194674 0.017804 0.0166941 0.0172689 0.0124908 0.0172362 0.0241116 0.0326285 0.0369702 0.0427122 0.0455624 0.0612463 0.0734978 0.0681902 0.100637 0.0997861 0.0417889 0.130054 0.138452 0.174338 0.157217 0.0793269 0.0453315 0.0333686 0.0110253 0.0134955 0.00372411 0.0314659 0.0243613 0.0326913 0.0316875 0.0227272 0.0249295 0.0354792 0.0134849 0.00286759 0.023328 0.0213031 0.0163704 0.0244137 0.0668624 0.188645 0.0768609 0.144719 0.180977 0.148502 0.345465 0.146069 0.454187 0.195684 0.107199 0.373046 0.911584 0.727767 0.177204 0.26392 0.159612 1.18623 0.405192 0.584422 0.740295 0.358774 0.294006 0.162642 0.121389 0.210558 0.256369 0.249958 0.328676 0.267191 0.185901 0.280928 0.278674 0.299716 0.333566 0.281347 0.225732 0.428142 0.225565 0.474695 0.508954 0.178732 0.307037 0.332859 0.430374 0.398593 0.631705 0.624776 0.37518 0.266361 0.587906 0.474054 1.10401 1.10411 0.882853 0.410018 0.158132 0.899276 0.624929 0.176587 0.301493 0.139945 0.13245 0.0607907 0.0371217 0.0519494 0.0766573 0.0911852 0.0300247 0.0497478 0.0665457 1.73195 0.639073 1.7309 0.713332 1.28552 0.387389 0.285651 0.37796 0.315791 0.124263 0.222167 0.123221 0.109471 0.130298 0.0844568 0.105225 0.108402 0.0769264 0.0769551 0.0720091 0.0622723 0.0672904 0.0697275 0.0673787 0.0665846 0.0548515 0.0309339 0.0433706 0.0146534 0.0290253 0.0172871 0.0145285 0.0122522 0.00828342 0.0111989 0.0121591 0.0119279 0.0106928 0.0108832 0.0145066 0.0181162 0.00933724 0.0174879 0.00403583 0.0110139 0.0121787 0.0129129 0.00769499 0.0375478 0.0106505 0.0493338 0.0393094 0.0350928 0.0442578 0.109987 0.171817 0.103998 0.141056 0.215773 0.346506 0.171941 0.147599 0.121907 0.0986235 0.094007 0.0770557 0.102222 0.117928 0.12105 0.0808535 0.0657738 0.103566 0.0521792 0.0317503 0.0151221 0.0304437 0.0149733 0.0324947 0.0336701 0.0313299 0.038733 0.03675 0.0134598 0.0253408 0.0359932 0.0406551 0.076819 0.124689 0.116349 0.139899 0.147879 0.159243 0.146416 0.133871 0.0681247 0.127477 0.202893 0.246263 0.524635 0.774537 0.488975 0.229404 0.168078 0.0940866 0.354721 0.305496 0.441878 0.155838 0.254268 0.299402 0.218532 0.275932 0.211477 0.0326069 0.13256 0.0392785 0.0791148 0.0704912 0.0912297 0.149553 0.163469 0.156352 0.158775 0.40433 0.34211 0.41979 0.365455 0.382267 0.445483 0.63224 0.538221 0.218678 0.492101 0.386975 0.0839367 1.26504 0.784192 0.875383 0.433534 0.654058 0.382526 0.286832 0.155398 0.0562597 0.0519658 0.0564096 0.0691055 0.0485548 0.0641595 0.0737129 0.087009 1.20358 0.603521 0.648837 0.47208 0.401014 0.375057 0.279668 0.26039 0.297667 0.227184 0.245287 0.251223 0.140589 0.109752 0.139735 0.0813391 0.0935785 0.0830745 0.0767907 0.0644026 0.0741011 0.0647166 0.067537 0.0653216 0.0670162 0.0595447 0.0671546 0.0580071 0.0622485 0.0542445 0.051214 0.0350626 0.0417404 0.0314302 0.0279791 0.0190232 0.0210404 0.0154358 0.0114267 0.00740968 0.0073311 0.0110177 0.0104649 0.00894591 0.0214639 0.0224629 0.0215047 0.0271994 0.0233343 0.0935005 0.105625 0.205135 0.254737 0.3681 0.241239 0.131606 0.185097 0.120333 0.0615496 0.125607 0.119872 0.0765794 0.130133 0.0600077 0.0627547 0.0338453 0.0279583 0.0125348 0.0384713 0.0423586 0.0359515 0.0379394 0.0427601 0.0469969 0.0385504 0.0353896 0.0938911 0.153342 0.159213 0.200733 0.221947 0.343701 0.437879 0.367328 0.165112 0.386108 0.239152 0.355118 0.173021 0.132468 0.0364631 0.0786725 0.0471635 0.0639265 0.160736 0.170147 0.128434 0.0566371 0.0953699 0.16925 0.308811 0.224661 0.296225 0.249211 0.315377 0.242746 0.304511 0.365382 0.302992 0.347104 0.482609 0.380915 0.44471 0.227811 0.442574 0.0804921 0.326833 0.379568 0.30619 0.157606 0.128707 0.103092 0.080264 0.0996517 0.0854104 0.109888 0.0992013 0.370604 0.437553 0.178531 0.159563 0.117998 0.1701 0.142436 0.111532 0.147631 0.0995616 0.0695303 0.0581391 0.0555581 0.0588168 0.0604339 0.0617512 0.0684141 0.0620227 0.057496 0.0590406 0.0572731 0.0638023 0.0599945 0.0494474 0.0363113 0.0333247 0.0288879 0.0267476 0.0222241 0.0279977 0.0245656 0.0281961 0.0290271 0.0205246 0.0251027 0.0153748 0.0091686 0.0254204 0.0226967 0.0270714 0.0451054 0.0483959 0.0587851 0.037556 0.0881032 0.0474398 0.0300154 0.0693182 0.0390198 0.0399038 0.329089 0.287133 0.152768 0.31996 0.108369 0.27489 0.178805 0.2215 0.171843 0.137376 0.136285 0.108159 0.0872936 0.0634599 0.0432827 0.0261887 0.043755 0.0362722 0.0392572 0.045446 0.0419663 0.0525787 0.0503736 0.0453069 0.0484225 0.0474603 0.0613987 0.113676 0.14333 0.126686 0.11639 0.175438 0.257212 0.266793 0.139733 0.259321 0.176044 0.218316 0.185398 0.250685 0.272701 0.093188 0.0655589 0.0892108 0.151347 0.170215 0.168223 0.0937031 0.0685989 0.176224 0.166245 0.233233 0.194362 0.229549 0.272563 0.297018 0.292488 0.322018 0.266273 0.313323 0.319638 0.367514 0.354171 0.322744 0.296301 0.173614 0.244845 0.193901 0.116018 0.104013 0.123552 0.11707 0.115961 0.124623 0.142982 0.130679 0.137014 0.105231 0.368612 0.337692 0.1965 0.225653 0.150075 0.16813 0.117986 0.132704 0.122345 0.113948 0.134091 0.115895 0.114716 0.104941 0.0803725 0.0587217 0.059133 0.0677444 0.0740459 0.0705593 0.0749112 0.0736115 0.0729566 0.0692857 0.0673949 0.0569903 0.0523431 0.0513762 0.0428304 0.0389026 0.0369205 0.033376 0.0334661 0.0357917 0.0312887 0.0305364 0.0369832 0.039329 0.046466 0.0723321 0.0699807 0.0848575 0.0821638 0.105117 0.122585 0.204495 0.211177 0.242189 0.044472 0.353505 0.309836 0.289877 0.47891 0.508112 0.237419 0.153552 0.122896 0.137478 0.113571 0.0962837 0.0718721 0.0360359 0.0305497 0.0127053 0.0204279 0.0163525 0.0430675 0.044757 0.0481477 0.052734 0.054185 0.06061 0.092045 0.122822 0.19545 0.163627 0.195501 0.206476 0.18105 0.208002 0.184335 0.192016 0.0899338 0.162097 0.0801892 0.137058 0.0692977 0.0977607 0.109337 0.132911 0.11064 0.123641 0.165757 0.17122 0.203423 0.224386 0.236443 0.22244 0.272664 0.245937 0.271129 0.252355 0.281556 0.317778 0.297896 0.266706 0.244485 0.222295 0.178036 0.178951 0.153733 0.160593 0.130423 0.126923 0.136983 0.132607 0.136963 0.149066 0.219567 0.121108 0.144823 0.0903458 0.109787 0.0862288 0.0972645 0.0984341 0.0746343 0.0762369 0.0589982 0.0546079 0.0674647 0.0736646 0.0722777 0.0713082 0.0713521 0.0657276 0.0574579 0.0508426 0.0451537 0.0454523 0.0383852 0.0392567 0.0402575 0.0472351 0.0514609 0.0376041 0.0496629 0.0459054 0.0566255 0.0545564 0.0755157 0.111146 0.118258 0.142934 0.193361 0.209004 0.227843 0.255906 0.375418 0.476131 0.313155 0.426314 0.0875441 0.299812 0.180762 0.137335 0.083113 0.070576 0.0753733 0.0489536 0.0740951 0.0827792 0.0510211 0.0274216 0.0481217 0.0559532 0.0571018 0.0659162 0.0617594 0.0579359 0.0520548 0.0692549 0.0620305 0.093986 0.147387 0.158927 0.180468 0.183091 0.176987 0.173431 0.168806 0.163227 0.129744 0.109458 0.128167 0.110411 0.0944907 0.118528 0.103488 0.124116 0.142343 0.155101 0.167096 0.190804 0.220485 0.248123 0.230611 0.2509 0.238092 0.26515 0.248822 0.321436 0.30869 0.249921 0.176437 0.227651 0.199612 0.191603 0.174788 0.159294 0.166315 0.155159 0.160923 0.150765 0.158958 0.146132 0.15009 0.136963 0.129587 0.145053 0.125395 0.0824941 0.148282 0.0934266 0.0944218 0.0909209 0.0620583 0.0707688 0.0767365 0.0685344 0.0673635 0.0686067 0.0600801 0.0714367 0.0672097 0.0702106 0.0757242 0.0749658 0.075064 0.0709683 0.0665197 0.0684537 0.0667941 0.0587271 0.0529865 0.0484102 0.0400796 0.044972 0.0419719 0.0443162 0.0492572 0.0517853 0.0648821 0.0690466 0.0558878 0.0821602 0.0772335 0.0592374 0.0514463 0.214886 0.152553 0.158987 0.226633 0.0598268 0.301703 0.272738 0.260205 0.206932 0.59684 0.639366 0.250875 0.0903644 0.106612 0.0692653 0.0839385 0.0636251 0.04342 0.0328838 0.00416159 0.0488798 0.0580654 0.0554555 0.0550033 0.0590763 0.0645301 0.0638368 0.0608244 0.0652335 0.0590191 0.0639361 0.0756685 0.081976 0.102184 0.136307 0.103438 0.156212 0.140552 0.116107 0.163896 0.164638 0.15487 0.16827 0.178053 0.142323 0.139335 0.115782 0.10411 0.11774 0.116332 0.132552 0.121031 0.130481 0.153306 0.155039 0.156341 0.15842 0.179619 0.237051 0.210553 0.222496 0.21548 0.224005 0.24324 0.262178 0.253259 0.212158 0.194946 0.216082 0.222638 0.196653 0.192666 0.190154 0.176153 0.189977 0.168121 0.164049 0.164972 0.156335 0.140953 0.124876 0.095882 0.0577035 0.070367 0.0704244 0.0647329 0.0626266 0.0587481 0.0777799 0.0679742 0.0712039 0.0704363 0.0689295 0.0778575 0.0721598 0.0735928 0.0738343 0.0727027 0.0702282 0.0704105 0.0645029 0.0550546 0.0610303 0.0545064 0.0544861 0.0502034 0.0550892 0.0501176 0.057257 0.0573356 0.0671094 0.0891962 0.108363 0.103762 0.0865711 0.0885525 0.119151 0.108249 0.147964 0.135558 0.143392 0.0694664 0.0777615 0.149301 0.258176 0.369082 0.4359 0.178125 0.103767 0.0795699 0.0621162 0.0704136 0.0658187 0.0564379 0.0273754 0.0579103 0.0323023 0.0249542 0.0619652 0.0591315 0.0629438 0.0580057 0.0651736 0.0647706 0.0692249 0.0636061 0.0643956 0.0679665 0.0701343 0.075946 0.0809277 0.0811865 0.110066 0.134219 0.128438 0.149628 0.147345 0.115607 0.0932178 0.110876 0.113265 0.107683 0.117372 0.133403 0.150519 0.158551 0.153644 0.187827 0.224675 0.204947 0.228973 0.214613 0.226728 0.216209 0.215553 0.192699 0.189166 0.193066 0.21305 0.171619 0.159732 0.169502 0.160166 0.166316 0.144191 0.132531 0.0957416 0.0926877 0.0490418 0.0610568 0.0604988 0.0570246 0.0652784 0.0619443 0.0700574 0.0689603 0.0702814 0.0666949 0.0679955 0.0667165 0.0615425 0.062231 0.0604522 0.0561605 0.0554008 0.0571575 0.0568723 0.0605668 0.0639387 0.0733373 0.0916622 0.0899532 0.108456 0.065696 0.114694 0.135303 0.103351 0.0550543 0.108284 0.0717522 0.156542 0.206834 0.285575 0.197717 0.0417313 0.0321378 0.0135288 0.0378473 0.0496645 0.0307926 0.0115011 0.0288726 0.0644626 0.0646873 0.0607063 0.0644787 0.0696724 0.0723625 0.0711045 0.0749062 0.0732148 0.0747151 0.0821714 0.0816921 0.086083 0.0771153 0.0945245 0.088564 0.089848 0.107751 0.107703 0.118659 0.136295 0.122566 0.0959607 0.0969603 0.103037 0.100572 0.12682 0.127105 0.140154 0.160724 0.166118 0.163453 0.168496 0.185954 0.196107 0.180732 0.209995 0.211319 0.20826 0.203409 0.227829 0.217641 0.213021 0.220655 0.19198 0.194121 0.195565 0.157004 0.165974 0.170309 0.160921 0.156703 0.136099 0.0988607 0.0556659 0.0604951 0.0675107 0.0620686 0.0485778 0.0652465 0.0626053 0.0800644 0.0878155 0.0765685 0.0730106 0.0675782 0.0639478 0.0669161 0.0683196 0.0674767 0.0657709 0.0662704 0.0595849 0.0569071 0.0589295 0.0581123 0.0643186 0.0643129 0.0605371 0.104532 0.0709761 0.131033 0.265438 0.138292 0.056025 0.0687454 0.0363977 0.117004 0.22251 0.183346 0.116195 0.021728 0.022407 0.0352178 0.0281151 0.031647 0.0215911 0.0277396 0.0342383 0.0244583 0.0650142 0.0668793 0.0646957 0.0658319 0.0621729 0.0832269 0.0774363 0.0803817 0.0853554 0.0817593 0.092256 0.0909759 0.0884759 0.0900247 0.0990887 0.101609 0.111978 0.100283 0.0981788 0.0964366 0.108304 0.0956418 0.102877 0.0983796 0.128305 0.126575 0.122902 0.16058 0.138364 0.160704 0.142675 0.174904 0.172505 0.194497 0.203077 0.209651 0.21679 0.221047 0.211248 0.194997 0.18356 0.16895 0.171588 0.180158 0.158452 0.153149 0.138837 0.140015 0.134454 0.11126 0.0597354 0.0776627 0.0751174 0.0665233 0.0642446 0.081392 0.0760053 0.101331 0.09438 0.0793358 0.0753088 0.0947363 0.0691977 0.0656733 0.0638236 0.0578161 0.0571165 0.0592148 0.0601432 0.0628867 0.0665754 0.0621977 0.0632085 0.0724839 0.0838629 0.0658453 0.120182 0.159325 0.191632 0.194276 0.264659 0.137774 0.111042 0.0828391 0.0602219 0.170904 0.134314 0.101375 0.0953789 0.0874932 0.0528219 0.0444849 0.0215869 0.0320693 0.00943807 0.0129937 0.0654711 0.0696964 0.0606424 0.0892119 0.100101 0.0793136 0.0846601 0.0902851 0.0889712 0.0928442 0.0914133 0.104918 0.0983943 0.10425 0.0894563 0.0937516 0.0842116 0.088859 0.130446 0.124706 0.109631 0.0999358 0.12763 0.143672 0.153113 0.160991 0.168003 0.165138 0.180672 0.199874 0.207735 0.215146 0.198883 0.193661 0.192984 0.182748 0.161351 0.164432 0.149866 0.136521 0.129071 0.108616 0.0885931 0.125869 0.0789146 0.0791007 0.0808693 0.0895933 0.0932614 0.0879062 0.0820399 0.0958975 0.0850244 0.0834894 0.0775197 0.077829 0.0770386 0.0722291 0.0642125 0.058595 0.0616732 0.0638074 0.0660024 0.0657831 0.0643511 0.0664558 0.0662443 0.108527 0.135851 0.104739 0.117577 0.205228 0.148307 0.13893 0.140907 0.204079 0.0724178 0.187629 0.0983461 0.0517723 0.0313598 0.0407537 0.127556 0.112986 0.0812044 0.0125783 0.0232585 0.0169396 0.00115544 0.0669215 0.0953325 0.086464 0.0859865 0.106227 0.0825134 0.0798425 0.119067 0.11686 0.106891 0.0960955 0.116689 0.138207 0.153234 0.170978 0.180952 0.196275 0.200819 0.169915 0.145706 0.129232 0.11705 0.0944129 0.0560227 0.0488826 0.196209 0.0682807 0.0375121 0.0150783 0.0267133 0.0250921 0.00388236 
SCALARS Stress float 1
LOOKUP_TABLE default
-12586100000.0 -12610300000.0 -12560900000.0 -12561300000.0 -12557300000.0 -12569400000.0 -12549700000.0 -12576300000.0 -12576000000.0 -12553200000.0 -12557900000.0 -12549700000.0 -12554100000.0 -12549700000.0 -12549700000.0 -12555800000.0 -12549700000.0 -12549700000.0 -12550600000.0 -12549700000.0 -12550600000.0 -12552600000.0 -12563200000.0 -12569500000.0 -12561300000.0 -12557500000.0 -12554800000.0 -12552500000.0 -12550300000.0 -12549700000.0 -12549700000.0 -12549700000.0 -12552500000.0 -12556200000.0 -12557700000.0 -12569700000.0 -12562900000.0 -12557800000.0 -12551900000.0 -12549900000.0 -12556400000.0 -12556400000.0 -12550200000.0 -12560900000.0 -12550000000.0 -12550500000.0 -12557900000.0 -12581700000.0 -12577600000.0 -12571200000.0 -12578800000.0 -12553600000.0 -12559800000.0 -12554200000.0 -12580700000.0 -12581800000.0 -12551400000.0 -12551200000.0 -12551900000.0 -12557100000.0 -12556700000.0 -12579300000.0 -12559900000.0 -12556400000.0 -12596000000.0 -12569100000.0 -12558500000.0 -12557400000.0 -12555300000.0 -12554300000.0 -12572600000.0 -12566600000.0 -12590800000.0 -12565100000.0 -12652500000.0 -12624500000.0 -12639900000.0 -12631500000.0 -12622800000.0 -12622100000.0 -12606300000.0 -12560700000.0 -12555500000.0 -12549700000.0 -12556600000.0 -12572000000.0 -12574900000.0 -12561600000.0 -12555400000.0 -12554200000.0 -12566100000.0 -12573100000.0 -12639000000.0 -12625300000.0 -12623900000.0 -12578600000.0 -12596700000.0 -12550200000.0 -12570400000.0 -12554100000.0 -12720400000.0 -12660600000.0 -12700800000.0 -12735000000.0 -12816900000.0 -12857800000.0 -12789500000.0 -12592300000.0 -12576800000.0 -12577200000.0 -12549700000.0 -12565300000.0 -12550500000.0 -12549700000.0 -12572500000.0 -12549700000.0 -12549700000.0 -12554900000.0 -12549700000.0 -12561100000.0 -12549700000.0 -12599900000.0 -12549700000.0 -12549700000.0 -12549700000.0 -12551900000.0 -12550000000.0 -12549700000.0 -12550500000.0 -12553700000.0 -12564800000.0 -12568900000.0 -12593500000.0 -12593100000.0 -12628700000.0 -12620500000.0 -12576900000.0 -12568100000.0 -12557500000.0 -12572800000.0 -12586200000.0 -12578300000.0 -12576700000.0 -12556600000.0 -12570400000.0 -12623800000.0 -12558400000.0 -12580400000.0 -12597100000.0 -12590000000.0 -12576000000.0 -12572600000.0 -12553600000.0 -12595300000.0 -12583800000.0 -12673600000.0 -12549900000.0 -12549700000.0 -12567000000.0 -12566100000.0 -12629700000.0 -12569600000.0 -12549700000.0 -12641300000.0 -12573000000.0 -12549700000.0 -12549700000.0 -12560200000.0 -12580100000.0 -12561700000.0 -12551300000.0 -12628500000.0 -12660100000.0 -12684200000.0 -12662600000.0 -12737400000.0 -12559800000.0 -12572100000.0 -12562200000.0 -12795000000.0 -12551600000.0 -12608300000.0 -12601800000.0 -12576800000.0 -12579800000.0 -12639700000.0 -12652600000.0 -12549700000.0 -12570300000.0 -12552400000.0 -12600200000.0 -12805600000.0 -12642500000.0 -12628400000.0 -12626100000.0 -12694900000.0 -12719900000.0 -12684400000.0 -12693500000.0 -12594400000.0 -12549700000.0 -12895300000.0 -12799600000.0 -12802500000.0 -12809700000.0 -12703700000.0 -12557800000.0 -12796900000.0 -12634000000.0 -12675700000.0 -12627500000.0 -12631500000.0 -12614600000.0 -12558700000.0 -12597100000.0 -12549800000.0 -12550400000.0 -12560900000.0 -12549700000.0 -12584200000.0 -12549700000.0 -12615200000.0 -12551200000.0 -12558200000.0 -12549700000.0 -12562000000.0 -12561600000.0 -12563900000.0 -12569600000.0 -12579600000.0 -12604200000.0 -12602300000.0 -12660700000.0 -12642300000.0 -12698500000.0 -12576400000.0 -12670100000.0 -12647500000.0 -12619600000.0 -12655700000.0 -12550300000.0 -12553700000.0 -12623900000.0 -12549700000.0 -12582400000.0 -12656700000.0 -12561700000.0 -12554700000.0 -12552400000.0 -12685000000.0 -12629800000.0 -12568600000.0 -12564400000.0 -12634200000.0 -12860200000.0 -12646700000.0 -12625800000.0 -12607900000.0 -12678200000.0 -12689300000.0 -12908500000.0 -12811600000.0 -12822600000.0 -12821200000.0 -12633400000.0 -12679600000.0 -12711900000.0 -12719500000.0 -12676300000.0 -12709500000.0 -12658000000.0 -12668400000.0 -12589500000.0 -12741900000.0 -12721900000.0 -13045000000.0 -13235900000.0 -12625200000.0 -12591700000.0 -12618800000.0 -12582400000.0 -13115600000.0 -12885800000.0 -12846800000.0 -12691000000.0 -12695400000.0 -12682200000.0 -12869400000.0 -12721000000.0 -12684500000.0 -12623800000.0 -12821300000.0 -12556500000.0 -12592400000.0 -12566700000.0 -12645800000.0 -12577800000.0 -12729500000.0 -12708600000.0 -12705900000.0 -12702900000.0 -12549700000.0 -12978100000.0 -12572100000.0 -12682300000.0 -12948800000.0 -12665600000.0 -12774400000.0 -12858300000.0 -12584400000.0 -12668100000.0 -12549700000.0 -12574200000.0 -12640800000.0 -12599900000.0 -12604700000.0 -12621000000.0 -12586400000.0 -12599100000.0 -12585200000.0 -12655000000.0 -12606800000.0 -12666100000.0 -12583900000.0 -12572600000.0 -12565100000.0 -12549700000.0 -12551300000.0 -12555700000.0 -12560000000.0 -12552800000.0 -12579700000.0 -12627100000.0 -12654000000.0 -12604500000.0 -12814100000.0 -12774800000.0 -12707200000.0 -12821000000.0 -12786500000.0 -12796700000.0 -12882100000.0 -12882600000.0 -12752300000.0 -12701500000.0 -12667900000.0 -12825000000.0 -12587200000.0 -12558900000.0 -12598500000.0 -12707800000.0 -12556200000.0 -12676200000.0 -12597200000.0 -12804000000.0 -12765900000.0 -13151600000.0 -12649300000.0 -12609200000.0 -12669900000.0 -12603700000.0 -12883400000.0 -12549700000.0 -12549700000.0 -12706900000.0 -12549700000.0 -12873400000.0 -12868400000.0 -12780500000.0 -12755500000.0 -12684400000.0 -13028500000.0 -12993300000.0 -12960200000.0 -13125800000.0 -13008100000.0 -12643400000.0 -12935600000.0 -13382800000.0 -13316400000.0 -13254700000.0 -13405600000.0 -12566200000.0 -12557700000.0 -12836700000.0 -12849900000.0 -12947000000.0 -12788300000.0 -12934500000.0 -12716200000.0 -12656800000.0 -12609800000.0 -12889500000.0 -12666800000.0 -12811000000.0 -12933300000.0 -12965300000.0 -13130400000.0 -12669500000.0 -12569500000.0 -12563900000.0 -12654700000.0 -12563500000.0 -13266600000.0 -12600100000.0 -13044900000.0 -12825000000.0 -13207100000.0 -12665500000.0 -12725400000.0 -12624600000.0 -12835300000.0 -12707800000.0 -12740500000.0 -12575800000.0 -12570800000.0 -12726000000.0 -12672000000.0 -12586500000.0 -12639400000.0 -12573700000.0 -12580400000.0 -12552900000.0 -12630100000.0 -12551200000.0 -12640900000.0 -12683500000.0 -12611400000.0 -12583300000.0 -12591100000.0 -12574500000.0 -12552900000.0 -12598700000.0 -12572400000.0 -12740900000.0 -12684500000.0 -12619300000.0 -12575400000.0 -12854500000.0 -13053200000.0 -12932300000.0 -12582900000.0 -12720600000.0 -12603600000.0 -12594500000.0 -12605000000.0 -12791100000.0 -12588500000.0 -12673100000.0 -12831000000.0 -13127700000.0 -12663700000.0 -12608500000.0 -12774400000.0 -12582600000.0 -12777700000.0 -13044600000.0 -12606800000.0 -13309400000.0 -12779900000.0 -12620100000.0 -12801300000.0 -12590500000.0 -13030200000.0 -12549700000.0 -12555800000.0 -12575300000.0 -12795100000.0 -13298200000.0 -12583900000.0 -12560700000.0 -12907000000.0 -12879300000.0 -12572900000.0 -12631700000.0 -13117700000.0 -12871300000.0 -13089200000.0 -13144800000.0 -12608900000.0 -12852700000.0 -12875200000.0 -12867400000.0 -13360100000.0 -13100100000.0 -12565900000.0 -12551300000.0 -12895800000.0 -12564100000.0 -13327200000.0 -13393800000.0 -13457000000.0 -13308900000.0 -13004100000.0 -13066400000.0 -12955300000.0 -12582000000.0 -12652800000.0 -12557900000.0 -13100300000.0 -12863500000.0 -12772400000.0 -12806800000.0 -13131200000.0 -12564700000.0 -12587800000.0 -13284000000.0 -12950200000.0 -12957600000.0 -12915400000.0 -12847300000.0 -12710800000.0 -12782600000.0 -12577200000.0 -12570800000.0 -12725500000.0 -12930200000.0 -12932700000.0 -12909900000.0 -12904000000.0 -12881600000.0 -12838200000.0 -13023600000.0 -12932000000.0 -12919100000.0 -12976400000.0 -13032400000.0 -12835100000.0 -12843600000.0 -12753600000.0 -12811200000.0 -12550200000.0 -12578800000.0 -12622800000.0 -12555400000.0 -13211700000.0 -12607200000.0 -12577400000.0 -12653200000.0 -12753600000.0 -12721200000.0 -12552200000.0 -12575600000.0 -12552600000.0 -12838000000.0 -12784500000.0 -12596000000.0 -12686900000.0 -13026000000.0 -13089600000.0 -13075100000.0 -13119500000.0 -13465100000.0 -12941200000.0 -13502200000.0 -12840200000.0 -12947100000.0 -13274300000.0 -12990100000.0 -12615500000.0 -12828800000.0 -12964100000.0 -13084800000.0 -13191300000.0 -14009900000.0 -13189200000.0 -13244300000.0 -13063200000.0 -12793500000.0 -12793700000.0 -12976800000.0 -12718900000.0 -13048800000.0 -13076500000.0 -12765100000.0 -13271700000.0 -12658400000.0 -12945700000.0 -12863400000.0 -12799800000.0 -12636600000.0 -13117500000.0 -13109800000.0 -12960200000.0 -13878500000.0 -13477600000.0 -12722900000.0 -12735500000.0 -13159400000.0 -12864000000.0 -12798100000.0 -12836900000.0 -12549700000.0 -12756500000.0 -12669000000.0 -12630400000.0 -13296300000.0 -12944500000.0 -12892300000.0 -12918600000.0 -13701100000.0 -14454700000.0 -13116700000.0 -12954400000.0 -13853400000.0 -13309200000.0 -12970800000.0 -12883600000.0 -12967700000.0 -12679500000.0 -12617300000.0 -12733400000.0 -12604800000.0 -12597500000.0 -12985900000.0 -12675900000.0 -12550500000.0 -12556000000.0 -12705400000.0 -12691000000.0 -12781200000.0 -12639300000.0 -12587800000.0 -12670800000.0 -12551900000.0 -12562500000.0 -12779100000.0 -12796200000.0 -12857900000.0 -12839800000.0 -13028500000.0 -12963900000.0 -12733800000.0 -12784200000.0 -12928200000.0 -12677100000.0 -12615700000.0 -12624700000.0 -12672400000.0 -12566100000.0 -12756300000.0 -12652300000.0 -12659900000.0 -12921300000.0 -12914300000.0 -12748400000.0 -12810400000.0 -12814100000.0 -12592600000.0 -12839200000.0 -12581900000.0 -12899400000.0 -13083000000.0 -12929600000.0 -13565400000.0 -12960600000.0 -12731600000.0 -13107800000.0 -12821400000.0 -12852300000.0 -12876100000.0 -12781700000.0 -12549700000.0 -12558600000.0 -12671200000.0 -13696300000.0 -12809600000.0 -12782100000.0 -13532800000.0 -13623600000.0 -13619900000.0 -13869100000.0 -13578400000.0 -13449400000.0 -13401300000.0 -13715800000.0 -14074400000.0 -13878700000.0 -14035500000.0 -14215200000.0 -13808900000.0 -14305000000.0 -13409200000.0 -13291300000.0 -13285800000.0 -13990700000.0 -12800800000.0 -12807900000.0 -12955300000.0 -12945700000.0 -12887000000.0 -12859100000.0 -12983600000.0 -12630200000.0 -12885300000.0 -12549700000.0 -13266800000.0 -12582000000.0 -12581100000.0 -12558800000.0 -12808300000.0 -12549700000.0 -14326500000.0 -14348600000.0 -14264300000.0 -13543800000.0 -13497500000.0 -13331200000.0 -13483200000.0 -13236800000.0 -13394200000.0 -13523200000.0 -13099900000.0 -13150500000.0 -13096500000.0 -12994400000.0 -12966600000.0 -12880900000.0 -12754500000.0 -12617600000.0 -12616000000.0 -12858500000.0 -12617000000.0 -12705200000.0 -12747100000.0 -12730700000.0 -12768300000.0 -12551300000.0 -12648400000.0 -12574200000.0 -12693200000.0 -12604200000.0 -12900300000.0 -12815300000.0 -13074900000.0 -12657900000.0 -12634600000.0 -12663800000.0 -12759400000.0 -12666700000.0 -12713100000.0 -12603800000.0 -12798900000.0 -12629600000.0 -12691200000.0 -12657700000.0 -12662600000.0 -12593500000.0 -12654400000.0 -12764000000.0 -12851200000.0 -13458300000.0 -13676400000.0 -13493200000.0 -14048700000.0 -13655300000.0 -12895400000.0 -12836000000.0 -12622200000.0 -12763500000.0 -12616400000.0 -12549700000.0 -12703300000.0 -12651500000.0 -14083100000.0 -12740900000.0 -12836700000.0 -12955600000.0 -12549700000.0 -13006800000.0 -12837800000.0 -12558700000.0 -13134000000.0 -12840000000.0 -12976500000.0 -13346600000.0 -13752400000.0 -13078800000.0 -12864600000.0 -13403600000.0 -12954200000.0 -13481000000.0 -14625800000.0 -12568000000.0 -12586100000.0 -12950100000.0 -13387200000.0 -12852000000.0 -12798600000.0 -13216200000.0 -12943600000.0 -12821000000.0 -13043200000.0 -13405600000.0 -12550800000.0 -12599100000.0 -12553500000.0 -12892200000.0 -12549700000.0 -12549700000.0 -13927900000.0 -13971400000.0 -12958000000.0 -12777300000.0 -12626600000.0 -12613200000.0 -12671600000.0 -13437300000.0 -12549700000.0 -12941400000.0 -12915300000.0 -12916400000.0 -12865200000.0 -12572900000.0 -12589800000.0 -12659400000.0 -12616600000.0 -12730700000.0 -12747200000.0 -12854200000.0 -12562200000.0 -12793400000.0 -12745400000.0 -12588100000.0 -12660500000.0 -12662700000.0 -12857200000.0 -12842100000.0 -12812600000.0 -12815800000.0 -12930600000.0 -13125600000.0 -12869800000.0 -12983500000.0 -13110500000.0 -12856300000.0 -12896400000.0 -13161400000.0 -13316700000.0 -13269200000.0 -13163400000.0 -13065700000.0 -13193700000.0 -13185500000.0 -13297600000.0 -13344000000.0 -13127400000.0 -13315800000.0 -13801000000.0 -12549700000.0 -13141100000.0 -13152500000.0 -13762500000.0 -12638100000.0 -13557100000.0 -13493200000.0 -12579800000.0 -13534900000.0 -13309000000.0 -13162600000.0 -13192700000.0 -13428100000.0 -13352700000.0 -12568600000.0 -12673600000.0 -12750400000.0 -12848800000.0 -12555300000.0 -13130800000.0 -12980900000.0 -13371200000.0 -12746400000.0 -13232200000.0 -13026700000.0 -12715700000.0 -12549700000.0 -13054400000.0 -13431200000.0 -13238400000.0 -12784400000.0 -13023400000.0 -13357000000.0 -12928000000.0 -13074500000.0 -14842500000.0 -12549700000.0 -13303000000.0 -13377900000.0 -12554300000.0 -12587800000.0 -13379200000.0 -12864900000.0 -12558400000.0 -13276000000.0 -12870500000.0 -12693300000.0 -13006900000.0 -12621200000.0 -13032600000.0 -13613000000.0 -12817300000.0 -12561300000.0 -13705900000.0 -13227100000.0 -12601200000.0 -12579900000.0 -12709500000.0 -13450000000.0 -12847200000.0 -12774300000.0 -12557200000.0 -12553400000.0 -12636600000.0 -12726400000.0 -12590000000.0 -12564100000.0 -12549700000.0 -12748100000.0 -12801400000.0 -12834300000.0 -12743700000.0 -12559900000.0 -12734000000.0 -12637400000.0 -12782700000.0 -12759700000.0 -12551000000.0 -12581200000.0 -12623100000.0 -12612800000.0 -12549900000.0 -12891300000.0 -12962700000.0 -12549900000.0 -12954700000.0 -12580900000.0 -12920000000.0 -12549700000.0 -12550000000.0 -12802400000.0 -12554900000.0 -12962300000.0 -12549700000.0 -12550700000.0 -12583800000.0 -12927300000.0 -12939000000.0 -13110100000.0 -13661100000.0 -12549700000.0 -13116100000.0 -13149800000.0 -12585700000.0 -13681000000.0 -13113300000.0 -13084400000.0 -13839500000.0 -12769500000.0 -12610000000.0 -12823600000.0 -12620600000.0 -12967300000.0 -12588500000.0 -13424200000.0 -12707100000.0 -13063400000.0 -12784200000.0 -13082400000.0 -13508300000.0 -13318900000.0 -14410300000.0 -13968100000.0 -13938400000.0 -13862500000.0 -13778800000.0 -14093400000.0 -14055900000.0 -14000600000.0 -14291900000.0 -14367400000.0 -15026400000.0 -13244600000.0 -13022700000.0 -15263600000.0 -15690200000.0 -14277100000.0 -13831900000.0 -13562000000.0 -12992500000.0 -12999400000.0 -13359200000.0 -12843600000.0 -12812000000.0 -12752000000.0 -13256000000.0 -12551800000.0 -12978100000.0 -13114700000.0 -12652400000.0 -12657400000.0 -12784800000.0 -12876900000.0 -12658900000.0 -12625600000.0 -13879400000.0 -13332000000.0 -12559600000.0 -12722900000.0 -12767500000.0 -13372000000.0 -12549700000.0 -12797800000.0 -12603600000.0 -12624500000.0 -12581800000.0 -12557900000.0 -12805800000.0 -12779100000.0 -12658800000.0 -12655700000.0 -12771800000.0 -12622500000.0 -13017600000.0 -12700100000.0 -12609900000.0 -12776800000.0 -12697800000.0 -12628800000.0 -12720600000.0 -12553000000.0 -12637900000.0 -12557800000.0 -12575400000.0 -12550700000.0 -13076800000.0 -12555500000.0 -12814200000.0 -12770400000.0 -12942900000.0 -13044300000.0 -12554900000.0 -12562300000.0 -12810000000.0 -12799900000.0 -13166400000.0 -12592600000.0 -12604600000.0 -12728000000.0 -12855500000.0 -12968200000.0 -12768800000.0 -13893300000.0 -12781900000.0 -13543400000.0 -13532100000.0 -12670700000.0 -15040200000.0 -14187400000.0 -14362100000.0 -14107800000.0 -13437300000.0 -13042500000.0 -13120900000.0 -13080700000.0 -13076400000.0 -13021100000.0 -13993200000.0 -13637100000.0 -12743600000.0 -12966600000.0 -13098100000.0 -12673700000.0 -12549700000.0 -13757000000.0 -13105800000.0 -12895700000.0 -12955500000.0 -12624700000.0 -13393200000.0 -13235600000.0 -12701400000.0 -13555700000.0 -12690700000.0 -12574600000.0 -14188500000.0 -14007200000.0 -14027600000.0 -13742500000.0 -12549700000.0 -13522400000.0 -12549700000.0 -13843800000.0 -12641600000.0 -13177200000.0 -12578000000.0 -12558600000.0 -13212600000.0 -12644200000.0 -12853600000.0 -12648900000.0 -13257300000.0 -12601000000.0 -12937500000.0 -12815700000.0 -12918700000.0 -13645000000.0 -13269000000.0 -13215400000.0 -13399900000.0 -13547900000.0 -12909800000.0 -12997000000.0 -12976200000.0 -13116000000.0 -12977700000.0 -12949200000.0 -12990600000.0 -12676700000.0 -12716900000.0 -12876900000.0 -12569500000.0 -13152200000.0 -12801700000.0 -12825900000.0 -12973700000.0 -12866100000.0 -12892600000.0 -12886400000.0 -12895400000.0 -12635500000.0 -12549700000.0 -12655000000.0 -12634300000.0 -12571800000.0 -13146800000.0 -12577600000.0 -12679500000.0 -12677900000.0 -12999500000.0 -13048900000.0 -12793400000.0 -12916500000.0 -12695200000.0 -12570700000.0 -13135500000.0 -12549700000.0 -12553600000.0 -12700800000.0 -13095500000.0 -12722900000.0 -13080700000.0 -12869700000.0 -13701200000.0 -12549700000.0 -12549700000.0 -13642200000.0 -13762200000.0 -14297800000.0 -13660800000.0 -12638500000.0 -13690500000.0 -13473500000.0 -13256900000.0 -13323400000.0 -12665000000.0 -12847500000.0 -12801900000.0 -12696800000.0 -13250200000.0 -12549700000.0 -13633100000.0 -14039300000.0 -13706700000.0 -13826600000.0 -13719400000.0 -14404100000.0 -14830500000.0 -13149100000.0 -13241800000.0 -13390300000.0 -12611300000.0 -14176300000.0 -12815700000.0 -12961700000.0 -13430000000.0 -12814600000.0 -12900200000.0 -12824600000.0 -12638300000.0 -14545100000.0 -12887800000.0 -14446200000.0 -13568500000.0 -14064200000.0 -14344400000.0 -15225600000.0 -15421200000.0 -15065000000.0 -14890600000.0 -15233500000.0 -15100600000.0 -15268800000.0 -15123000000.0 -14212300000.0 -13476900000.0 -14271300000.0 -14157200000.0 -14363200000.0 -15013600000.0 -13564500000.0 -12557000000.0 -12808300000.0 -12960900000.0 -12754200000.0 -12711000000.0 -12690700000.0 -12731300000.0 -12593500000.0 -12592700000.0 -12613300000.0 -12971600000.0 -12847600000.0 -12808700000.0 -12825600000.0 -13045800000.0 -13441200000.0 -12617200000.0 -12722100000.0 -12779400000.0 -12549700000.0 -12670900000.0 -12592400000.0 -13112900000.0 -13110500000.0 -13101600000.0 -13261200000.0 -12940600000.0 -12982600000.0 -12941100000.0 -13030200000.0 -13185400000.0 -12856700000.0 -12634000000.0 -12757300000.0 -12747300000.0 -12791200000.0 -12973300000.0 -13237300000.0 -13111000000.0 -13713600000.0 -12877900000.0 -13057000000.0 -13755200000.0 -12549700000.0 -14960000000.0 -15013600000.0 -14133000000.0 -13475000000.0 -14795300000.0 -13800100000.0 -12773300000.0 -12724000000.0 -12803000000.0 -13456700000.0 -13739700000.0 -13324500000.0 -13259000000.0 -14407400000.0 -12778600000.0 -12562600000.0 -12734400000.0 -13530500000.0 -12867400000.0 -13527900000.0 -12555300000.0 -12550400000.0 -13326000000.0 -13721800000.0 -15111700000.0 -13685800000.0 -12788800000.0 -13188400000.0 -12714900000.0 -12901900000.0 -12740000000.0 -12727700000.0 -14729700000.0 -13377100000.0 -13978500000.0 -12717100000.0 -12634300000.0 -13126500000.0 -12578900000.0 -12800100000.0 -13005500000.0 -12865800000.0 -12681700000.0 -13038500000.0 -13487600000.0 -13518800000.0 -13194600000.0 -13323900000.0 -13181500000.0 -12726400000.0 -12555900000.0 -12556900000.0 -12584300000.0 -12549700000.0 -14065500000.0 -13869800000.0 -12575400000.0 -12758900000.0 -12789900000.0 -12792000000.0 -12608500000.0 -12689000000.0 -12578500000.0 -12562200000.0 -12752400000.0 -12614800000.0 -12629700000.0 -12618200000.0 -12679400000.0 -12735600000.0 -12549700000.0 -13176700000.0 -13042900000.0 -12926100000.0 -13106000000.0 -13011300000.0 -12979800000.0 -13057800000.0 -12723500000.0 -12770200000.0 -12582700000.0 -12710600000.0 -13138300000.0 -12836900000.0 -12666400000.0 -12571600000.0 -12557000000.0 -13174800000.0 -12623600000.0 -12558600000.0 -12566600000.0 -12673200000.0 -12581200000.0 -13421900000.0 -12588600000.0 -12903000000.0 -12898600000.0 -13776800000.0 -12716400000.0 -12710100000.0 -12690200000.0 -13925000000.0 -14276300000.0 -15288200000.0 -12578100000.0 -12585700000.0 -14144600000.0 -13134100000.0 -13102100000.0 -12581000000.0 -12940500000.0 -12617800000.0 -12679300000.0 -12902600000.0 -12621600000.0 -12698800000.0 -12838800000.0 -14237800000.0 -12831300000.0 -13288000000.0 -14004300000.0 -13275500000.0 -13537300000.0 -12679000000.0 -14262900000.0 -13827200000.0 -13219400000.0 -13390200000.0 -13493300000.0 -13391000000.0 -13193100000.0 -13844700000.0 -12974100000.0 -12563300000.0 -13003000000.0 -12610800000.0 -13292900000.0 -13710300000.0 -13099600000.0 -14057700000.0 -13984800000.0 -13569000000.0 -13462300000.0 -12945100000.0 -12591300000.0 -13623500000.0 -12992400000.0 -12759400000.0 -13370400000.0 -12713100000.0 -12574600000.0 -12557300000.0 -12580400000.0 -12558100000.0 -12811600000.0 -14151100000.0 -13566800000.0 -13555500000.0 -12886700000.0 -12820900000.0 -12704600000.0 -12690900000.0 -13020600000.0 -12857500000.0 -12661000000.0 -12645000000.0 -12773700000.0 -12566700000.0 -12590600000.0 -12553300000.0 -12620800000.0 -12683800000.0 -12610000000.0 -13026500000.0 -12597000000.0 -12574200000.0 -12654300000.0 -12555800000.0 -12656800000.0 -12552400000.0 -12856600000.0 -12711100000.0 -12855000000.0 -13237800000.0 -13635800000.0 -12796300000.0 -12578400000.0 -13110300000.0 -12735300000.0 -12853900000.0 -12733900000.0 -12613400000.0 -12568200000.0 -12670900000.0 -13521200000.0 -12634900000.0 -12793100000.0 -12560100000.0 -13532400000.0 -13513800000.0 -14614000000.0 -14243700000.0 -14242700000.0 -14557800000.0 -14473800000.0 -15097300000.0 -12629600000.0 -12558400000.0 -15378000000.0 -13867800000.0 -12613000000.0 -12577900000.0 -13455900000.0 -12696300000.0 -12639000000.0 -12785500000.0 -12753700000.0 -13038300000.0 -14581600000.0 -13517300000.0 -14652500000.0 -13204100000.0 -13043700000.0 -12992700000.0 -13938500000.0 -12675900000.0 -12627200000.0 -12903600000.0 -12553700000.0 -13536200000.0 -12566900000.0 -13127800000.0 -13812600000.0 -12822300000.0 -12855800000.0 -13109200000.0 -13463500000.0 -13282300000.0 -14180800000.0 -13648500000.0 -13126100000.0 -13748700000.0 -12845200000.0 -13309800000.0 -13829600000.0 -13953900000.0 -14108900000.0 -13251600000.0 -13334400000.0 -13382200000.0 -13183100000.0 -13348300000.0 -12681600000.0 -12582900000.0 -12605800000.0 -12608100000.0 -12615600000.0 -12762900000.0 -13698800000.0 -13438900000.0 -12765700000.0 -12950900000.0 -12837500000.0 -12727500000.0 -12791700000.0 -12863100000.0 -12801100000.0 -12817300000.0 -12838100000.0 -12839400000.0 -12711300000.0 -12688300000.0 -13099700000.0 -12731000000.0 -12574300000.0 -12551900000.0 -12672900000.0 -12558300000.0 -12635000000.0 -12549700000.0 -12783500000.0 -12775000000.0 -12712900000.0 -12673900000.0 -13058000000.0 -13002900000.0 -12809800000.0 -13021000000.0 -13165700000.0 -12685600000.0 -12743600000.0 -12720800000.0 -12684600000.0 -12594600000.0 -13787400000.0 -12916200000.0 -12586200000.0 -13107800000.0 -12564300000.0 -13384600000.0 -13142100000.0 -12704800000.0 -12888300000.0 -15761700000.0 -12870900000.0 -18105500000.0 -15575700000.0 -13745900000.0 -12554800000.0 -12551500000.0 -13804100000.0 -14305600000.0 -15121900000.0 -12583800000.0 -12661700000.0 -12758900000.0 -12931600000.0 -13321500000.0 -12593100000.0 -14949500000.0 -14634400000.0 -12549700000.0 -12614200000.0 -13352700000.0 -12557400000.0 -12884800000.0 -12921400000.0 -13099600000.0 -13931300000.0 -12648400000.0 -12630100000.0 -12914000000.0 -13050200000.0 -13599500000.0 -13319100000.0 -12899400000.0 -12733600000.0 -13704000000.0 -13202900000.0 -13090700000.0 -13598700000.0 -12999000000.0 -13182300000.0 -13747300000.0 -13306000000.0 -13617900000.0 -12563900000.0 -12556800000.0 -12712900000.0 -13172900000.0 -12549700000.0 -12900100000.0 -12804600000.0 -12945900000.0 -13087200000.0 -12659500000.0 -13154100000.0 -12653900000.0 -12579100000.0 -12617500000.0 -12557400000.0 -12567400000.0 -12680700000.0 -13011300000.0 -13263900000.0 -12551600000.0 -12549700000.0 -12926100000.0 -12698700000.0 -12627700000.0 -12694100000.0 -12583400000.0 -12661200000.0 -12593600000.0 -12603200000.0 -12628500000.0 -12566700000.0 -12549700000.0 -12895900000.0 -12872600000.0 -12863700000.0 -12899200000.0 -12969800000.0 -13025900000.0 -12629200000.0 -12631800000.0 -12624000000.0 -12718300000.0 -12948100000.0 -12783200000.0 -13211700000.0 -12985300000.0 -12867800000.0 -12682300000.0 -12926500000.0 -12549700000.0 -13053700000.0 -14137500000.0 -13296400000.0 -13273100000.0 -13521200000.0 -13577700000.0 -13420400000.0 -13302000000.0 -13205900000.0 -13812800000.0 -14406500000.0 -13746200000.0 -15081500000.0 -13133600000.0 -13820900000.0 -13005500000.0 -15186200000.0 -13735600000.0 -13231600000.0 -13064200000.0 -13149700000.0 -13422000000.0 -13116700000.0 -12907600000.0 -13612900000.0 -12881700000.0 -12814700000.0 -13500000000.0 -13266200000.0 -12549700000.0 -12553200000.0 -13098800000.0 -12898300000.0 -13580000000.0 -13197300000.0 -12989700000.0 -13499000000.0 -12579500000.0 -12552000000.0 -13711600000.0 -12989100000.0 -13176800000.0 -13287200000.0 -13779100000.0 -13670300000.0 -13837700000.0 -12549700000.0 -12679100000.0 -13187700000.0 -12610800000.0 -13069200000.0 -12626000000.0 -12579300000.0 -12605900000.0 -12595100000.0 -12592800000.0 -12609000000.0 -12640900000.0 -13106700000.0 -12564000000.0 -13005400000.0 -13145700000.0 -12756400000.0 -12747700000.0 -12641600000.0 -12619300000.0 -12674700000.0 -12609500000.0 -12698000000.0 -12633600000.0 -12752200000.0 -12709400000.0 -12706700000.0 -12751500000.0 -12761500000.0 -12602700000.0 -12580300000.0 -12550200000.0 -12560400000.0 -12606500000.0 -12602000000.0 -12995100000.0 -12949000000.0 -12863400000.0 -12970500000.0 -13299700000.0 -12549700000.0 -13006700000.0 -13155200000.0 -12843700000.0 -12694100000.0 -12679500000.0 -13330400000.0 -13351600000.0 -12549700000.0 -12853900000.0 -14297000000.0 -13013500000.0 -12570600000.0 -12903700000.0 -12795700000.0 -12553300000.0 -13665900000.0 -13580600000.0 -13846600000.0 -13323700000.0 -19271900000.0 -12579600000.0 -14345900000.0 -13713800000.0 -14961600000.0 -16800800000.0 -15406900000.0 -15100600000.0 -14241800000.0 -13737400000.0 -14227600000.0 -15360400000.0 -12563000000.0 -13819500000.0 -12653800000.0 -12661100000.0 -12549700000.0 -13739200000.0 -12902600000.0 -12625300000.0 -13166000000.0 -12871600000.0 -12992100000.0 -13193400000.0 -13299600000.0 -12798100000.0 -12590600000.0 -12549700000.0 -12553700000.0 -12561900000.0 -12828800000.0 -13174500000.0 -12973400000.0 -12781500000.0 -13280900000.0 -12889700000.0 -13249500000.0 -12748100000.0 -12692800000.0 -12569600000.0 -12875100000.0 -12762600000.0 -12813700000.0 -12566700000.0 -13679200000.0 -13836500000.0 -13763000000.0 -13925600000.0 -14291800000.0 -13301600000.0 -12588700000.0 -12549700000.0 -12595600000.0 -12560700000.0 -12558000000.0 -12568800000.0 -12623400000.0 -12843100000.0 -12740200000.0 -12928600000.0 -12573900000.0 -12924000000.0 -12766100000.0 -12571000000.0 -12571300000.0 -12612900000.0 -12609600000.0 -12565900000.0 -12699100000.0 -12580300000.0 -12563500000.0 -12578100000.0 -12576700000.0 -12602300000.0 -12638300000.0 -12558700000.0 -12552200000.0 -12553100000.0 -12549700000.0 -12552900000.0 -12753500000.0 -12776100000.0 -12555000000.0 -12572100000.0 -13008200000.0 -12890100000.0 -13346000000.0 -13500600000.0 -12917900000.0 -12749400000.0 -13738900000.0 -13194900000.0 -12820000000.0 -13698300000.0 -14073500000.0 -14007700000.0 -13809300000.0 -12553800000.0 -13204200000.0 -12815800000.0 -12824200000.0 -12895700000.0 -14354600000.0 -14852400000.0 -16962300000.0 -15414300000.0 -15688000000.0 -16231300000.0 -12701400000.0 -13575300000.0 -14506800000.0 -13657600000.0 -13425700000.0 -14383800000.0 -15298000000.0 -13555900000.0 -13976300000.0 -14307800000.0 -12916100000.0 -12784300000.0 -13684200000.0 -12660300000.0 -12712400000.0 -12701800000.0 -12797100000.0 -12864600000.0 -12865800000.0 -12550100000.0 -12549700000.0 -12640700000.0 -12816700000.0 -12653300000.0 -12657900000.0 -13060900000.0 -12863300000.0 -12578400000.0 -13215700000.0 -12660500000.0 -13060900000.0 -12549700000.0 -13069900000.0 -12949100000.0 -12756700000.0 -12890400000.0 -12747700000.0 -12642900000.0 -12861300000.0 -12874500000.0 -12988500000.0 -13451100000.0 -13000400000.0 -13025200000.0 -13264300000.0 -13098500000.0 -12578400000.0 -12600000000.0 -12549700000.0 -12686900000.0 -12561500000.0 -12557700000.0 -12596600000.0 -12557700000.0 -12638500000.0 -12870100000.0 -12549700000.0 -12667200000.0 -12704400000.0 -12596200000.0 -12557900000.0 -12579900000.0 -12550900000.0 -12608300000.0 -12656700000.0 -12706000000.0 -12563300000.0 -12559200000.0 -12551100000.0 -12558000000.0 -12576600000.0 -12549900000.0 -12589200000.0 -12552300000.0 -12550700000.0 -12556800000.0 -12557500000.0 -12637700000.0 -12631100000.0 -12922600000.0 -12914700000.0 -12561300000.0 -13366800000.0 -12736500000.0 -12653600000.0 -12703800000.0 -14099800000.0 -13780700000.0 -12873000000.0 -13617800000.0 -13845400000.0 -15409400000.0 -12550900000.0 -14436200000.0 -13343600000.0 -13537200000.0 -13038500000.0 -15072400000.0 -12635700000.0 -12608000000.0 -13822900000.0 -15919600000.0 -15309200000.0 -15558900000.0 -15766600000.0 -14281700000.0 -14008500000.0 -14632400000.0 -13089500000.0 -13129900000.0 -12549700000.0 -15691800000.0 -12579800000.0 -14001500000.0 -13614900000.0 -12616800000.0 -12655600000.0 -12590500000.0 -12712000000.0 -12792700000.0 -12724300000.0 -12817500000.0 -12869100000.0 -12834300000.0 -12797800000.0 -12771500000.0 -12554100000.0 -12622500000.0 -12694000000.0 -12620400000.0 -12922700000.0 -12780600000.0 -12767200000.0 -12648600000.0 -12809500000.0 -12720400000.0 -13007800000.0 -12719500000.0 -12636100000.0 -12695700000.0 -12759000000.0 -12745000000.0 -12742400000.0 -12822300000.0 -12716800000.0 -13031700000.0 -12551900000.0 -12550200000.0 -13575500000.0 -12820600000.0 -12678300000.0 -12549700000.0 -12677400000.0 -12676700000.0 -12647100000.0 -12650600000.0 -12648700000.0 -12568400000.0 -12788300000.0 -12574600000.0 -12816200000.0 -12780900000.0 -12671400000.0 -12680700000.0 -12681900000.0 -12625500000.0 -12647800000.0 -12551000000.0 -12596100000.0 -12549700000.0 -12559100000.0 -12550800000.0 -12575700000.0 -12560500000.0 -12626700000.0 -12559200000.0 -12579500000.0 -12558300000.0 -12551000000.0 -12665300000.0 -12590200000.0 -12575100000.0 -12842800000.0 -12552800000.0 -12819200000.0 -13410300000.0 -13196300000.0 -13379000000.0 -13885900000.0 -13901100000.0 -12601600000.0 -12954000000.0 -12859900000.0 -13766100000.0 -12750900000.0 -14408100000.0 -14701600000.0 -13482600000.0 -14666300000.0 -13211300000.0 -13123300000.0 -16481700000.0 -19405300000.0 -12808900000.0 -12757200000.0 -12568000000.0 -15589500000.0 -13091100000.0 -15118800000.0 -12675600000.0 -13901700000.0 -12549700000.0 -14897700000.0 -13137900000.0 -12748200000.0 -13048600000.0 -13760300000.0 -12916100000.0 -12939400000.0 -12839500000.0 -12806200000.0 -12876600000.0 -12658000000.0 -12553200000.0 -12813900000.0 -12877000000.0 -12597000000.0 -12576800000.0 -12724600000.0 -12589100000.0 -12642200000.0 -12659000000.0 -12549700000.0 -12760600000.0 -12933600000.0 -12549700000.0 -12634400000.0 -12695200000.0 -12561600000.0 -12554300000.0 -12550900000.0 -12631900000.0 -12584900000.0 -12751800000.0 -12930300000.0 -12955000000.0 -12634000000.0 -12855500000.0 -13357400000.0 -12800800000.0 -12733600000.0 -12599500000.0 -12550000000.0 -12580600000.0 -12570200000.0 -12562200000.0 -12576100000.0 -12572200000.0 -12564000000.0 -12635200000.0 -12619800000.0 -12572900000.0 -12582900000.0 -12587600000.0 -12597800000.0 -12626900000.0 -12649500000.0 -12629800000.0 -12593700000.0 -12607100000.0 -12618200000.0 -12646200000.0 -12639700000.0 -12615200000.0 -12642700000.0 -12610000000.0 -12682200000.0 -12762500000.0 -12711200000.0 -12840600000.0 -12780300000.0 -13146200000.0 -12989900000.0 -12997300000.0 -13276400000.0 -12632800000.0 -12866000000.0 -12574100000.0 -13567200000.0 -13488000000.0 -12977100000.0 -13731600000.0 -12637100000.0 -12790800000.0 -14607600000.0 -13173600000.0 -14043300000.0 -12827600000.0 -15362700000.0 -15628700000.0 -12549700000.0 -14082300000.0 -13482100000.0 -12552200000.0 -16859600000.0 -12810300000.0 -17556100000.0 -12619200000.0 -12635200000.0 -12616700000.0 -15336200000.0 -13735000000.0 -14815200000.0 -14028100000.0 -13475700000.0 -13944400000.0 -14134400000.0 -13994200000.0 -13133100000.0 -12973200000.0 -12988500000.0 -13022000000.0 -13235500000.0 -13223200000.0 -12914800000.0 -12582900000.0 -12568500000.0 -12811900000.0 -12695700000.0 -12676700000.0 -12556800000.0 -12909800000.0 -12652400000.0 -12641500000.0 -12728700000.0 -12761600000.0 -13130000000.0 -12656900000.0 -12922600000.0 -12825200000.0 -12756200000.0 -12762800000.0 -12550300000.0 -12608100000.0 -12677100000.0 -12553600000.0 -12634200000.0 -13100300000.0 -12651700000.0 -12708100000.0 -12579800000.0 -12555700000.0 -12570800000.0 -12549700000.0 -12549700000.0 -12551000000.0 -12565200000.0 -12557800000.0 -12551300000.0 -12549700000.0 -12569400000.0 -12580400000.0 -12550600000.0 -12549700000.0 -12549700000.0 -12550400000.0 -12549700000.0 -12576900000.0 -12625300000.0 -12619200000.0 -12615900000.0 -12602500000.0 -12595100000.0 -12632400000.0 -13090500000.0 -12636200000.0 -12742400000.0 -12695300000.0 -13176600000.0 -12891800000.0 -12826400000.0 -13012100000.0 -12557900000.0 -13637600000.0 -13235700000.0 -12555100000.0 -13373700000.0 -13735800000.0 -14417800000.0 -15000100000.0 -12582000000.0 -12876600000.0 -17561400000.0 -14443500000.0 -13081900000.0 -15060900000.0 -13643800000.0 -16946000000.0 -12812200000.0 -12602300000.0 -13133400000.0 -17898100000.0 -12557700000.0 -15056300000.0 -16056600000.0 -17414100000.0 -15015800000.0 -15457400000.0 -12937200000.0 -13975900000.0 -14254000000.0 -13407700000.0 -12946000000.0 -12578100000.0 -12549700000.0 -12938900000.0 -12993600000.0 -13135000000.0 -13174500000.0 -13206500000.0 -12889200000.0 -13340000000.0 -12992200000.0 -12653500000.0 -12602800000.0 -12549700000.0 -12549700000.0 -12763300000.0 -12606600000.0 -12625900000.0 -12625500000.0 -12650900000.0 -12929000000.0 -12638500000.0 -12639800000.0 -12651200000.0 -12597300000.0 -12641300000.0 -12737900000.0 -12572600000.0 -12569300000.0 -12649200000.0 -12554300000.0 -12875000000.0 -12800000000.0 -12710500000.0 -12686900000.0 -12558400000.0 -12554300000.0 -12561800000.0 -12549700000.0 -12550000000.0 -12551500000.0 -12560800000.0 -12554800000.0 -12549700000.0 -12549700000.0 -12549700000.0 -12565000000.0 -12550000000.0 -12549700000.0 -12549700000.0 -12553100000.0 -12550600000.0 -12574900000.0 -12558200000.0 -12558100000.0 -12550700000.0 -12561100000.0 -12575400000.0 -12572500000.0 -12606200000.0 -12628000000.0 -12625800000.0 -12612900000.0 -12569700000.0 -12726700000.0 -12793700000.0 -12635100000.0 -12817400000.0 -12887700000.0 -12984800000.0 -13038200000.0 -13104000000.0 -13099400000.0 -13273300000.0 -12728400000.0 -14048400000.0 -14498300000.0 -13846300000.0 -14624900000.0 -15450900000.0 -15839200000.0 -14748200000.0 -15655600000.0 -16579700000.0 -17514800000.0 -18867600000.0 -16553800000.0 -15480000000.0 -15431700000.0 -14144700000.0 -13054900000.0 -13629100000.0 -15607600000.0 -13990800000.0 -13668100000.0 -12935700000.0 -12646700000.0 -12674600000.0 -12633400000.0 -12843800000.0 -12572900000.0 -12622400000.0 -12594400000.0 -12642800000.0 -12846000000.0 -12907200000.0 -12650800000.0 -12790000000.0 -12630600000.0 -12679700000.0 -12626000000.0 -12604100000.0 -12589900000.0 -12707900000.0 -12550300000.0 -12562500000.0 -12552800000.0 -12560000000.0 -12766000000.0 -12563100000.0 -12555400000.0 -12636200000.0 -12549700000.0 -12568400000.0 -12800600000.0 -12752800000.0 -12844400000.0 -12895200000.0 -12742500000.0 -12595600000.0 -12634800000.0 -12557000000.0 -12551900000.0 -12549700000.0 -12553200000.0 -12549700000.0 -12549700000.0 -12550000000.0 -12553400000.0 -12551200000.0 -12549700000.0 -12549700000.0 -12549700000.0 -12555300000.0 -12549700000.0 -12549700000.0 -12549700000.0 -12549900000.0 -12551500000.0 -12566500000.0 -12561300000.0 -12561800000.0 -12560400000.0 -12552400000.0 -12554100000.0 -12556200000.0 -12574000000.0 -12557800000.0 -12566000000.0 -12602100000.0 -12582800000.0 -12568900000.0 -12624500000.0 -12564900000.0 -12592300000.0 -12633500000.0 -12696800000.0 -12723500000.0 -12608300000.0 -12712600000.0 -13050200000.0 -13605400000.0 -14064100000.0 -14822500000.0 -12596800000.0 -13250400000.0 -14785400000.0 -13179800000.0 -13414500000.0 -14021100000.0 -15421100000.0 -13826900000.0 -14412100000.0 -16108900000.0 -12783000000.0 -13402600000.0 -13395200000.0 -13175700000.0 -15902300000.0 -12616200000.0 -12909500000.0 -12752600000.0 -12889400000.0 -12857400000.0 -12848600000.0 -12576800000.0 -12557200000.0 -12554300000.0 -12558700000.0 -12578900000.0 -12582200000.0 -12568600000.0 -12557700000.0 -12687100000.0 -12651800000.0 -12549700000.0 -12573700000.0 -12567100000.0 -12567300000.0 -12593300000.0 -12587500000.0 -12583400000.0 -12594400000.0 -12614600000.0 -12550000000.0 -12631800000.0 -12615900000.0 -12557400000.0 -12576800000.0 -12559500000.0 -12586900000.0 -12566000000.0 -12559700000.0 -12588300000.0 -12562800000.0 -12556800000.0 -12694000000.0 -12686100000.0 -12618800000.0 -12973700000.0 -13023500000.0 -12917500000.0 -13387000000.0 -13648500000.0 -14888600000.0 -14117200000.0 -14757300000.0 -14072500000.0 -13606000000.0 -14080900000.0 -16863800000.0 -12554600000.0 -13918600000.0 -13906800000.0 -13815000000.0 -13181800000.0 -13410500000.0 -15214100000.0 -12589000000.0 -13002200000.0 -12753000000.0 -13750200000.0 -14316300000.0 -12935100000.0 -13111900000.0 -12637700000.0 -16417600000.0 -13980200000.0 -14308200000.0 -12561600000.0 -13711800000.0 -13182500000.0 -12889900000.0 -19138000000.0 -15090900000.0 -16084800000.0 -15671500000.0 -14865800000.0 -13518000000.0 -13268300000.0 -13308300000.0 -15070800000.0 -12767400000.0 -13072600000.0 -13331400000.0 -13465500000.0 -13442400000.0 -14761400000.0 -14154300000.0 -12846700000.0 -14806500000.0 -16056400000.0 -18499600000.0 -13762800000.0 -14855400000.0 -13921700000.0 -13182700000.0 -12549700000.0 -13359800000.0 -15715200000.0 -12643100000.0 -12696000000.0 -13056600000.0 -12913000000.0 -13384000000.0 -13407500000.0 -14268700000.0 -12562800000.0 -14082800000.0 -12751400000.0 -12712300000.0 -12763400000.0 -18039600000.0 -13555700000.0 -12549700000.0 -12847600000.0 -12549700000.0 -13007800000.0 -13545200000.0 -13399500000.0 -15032600000.0 -12772400000.0 -12633800000.0 -12642800000.0 -12651700000.0 -12549700000.0 -12549700000.0 -12686100000.0 -13429700000.0 -13155800000.0 -15058500000.0 -14522500000.0 -12956900000.0 -14418000000.0 -13655400000.0 -13641500000.0 -12946500000.0 -13377400000.0 -14897000000.0 -13190400000.0 -14222400000.0 -14323500000.0 -12926000000.0 -12659100000.0 -12549700000.0 -12549700000.0 -12549700000.0 -12549700000.0 -12549700000.0 -12549700000.0 -12654000000.0 -13155100000.0 -13510100000.0 -13746700000.0 -13522500000.0 -13044300000.0 -13771800000.0 -13919200000.0 -13149000000.0 -18224700000.0 -13538700000.0 -13224300000.0 -13243000000.0 -14483900000.0 -12896500000.0 -15169500000.0 -13494100000.0 -12756200000.0 -12644800000.0 -12549700000.0 -12549700000.0 -12549700000.0 -12549700000.0 -12549700000.0 -12549700000.0 -12549700000.0 -12549700000.0 -12549700000.0 -12549700000.0 -12549700000.0 -12549700000.0 -12549700000.0 -12549700000.0 -12549700000.0 -12549700000.0 -12549700000.0 -12549700000.0 -12549700000.0 -12549700000.0 -12549700000.0 -12549700000.0 -12549700000.0 -12549700000.0 -12549700000.0 -12549700000.0 -12549700000.0 -12549700000.0 -12549700000.0 -12549700000.0 -12549700000.0 -12549700000.0 -12549700000.0 -12549700000.0 -12549800000.0 -12549700000.0 -12549700000.0 -12589300000.0 -13087700000.0 -12830100000.0 -12889200000.0 -12576600000.0 -12932000000.0 -12912500000.0 -13834900000.0 -15345400000.0 -14296600000.0 -14091100000.0 -18781000000.0 -12658000000.0 -13195200000.0 -12871800000.0 -15218400000.0 -15028300000.0 -13460000000.0 -12606800000.0 -13294400000.0 -12567500000.0 -13167900000.0 -13753000000.0 -12702900000.0 -12572100000.0 -12549700000.0 -12549700000.0 -12549700000.0 -12549700000.0 -12549700000.0 -12549700000.0 -12549700000.0 -12549700000.0 -12549700000.0 -12549700000.0 -12549700000.0 -12549700000.0 -12549700000.0 -12549700000.0 -12549700000.0 -12549700000.0 -12549700000.0 -12549700000.0 -12549700000.0 -12549700000.0 -12549700000.0 -12549700000.0 -12549700000.0 -12549700000.0 -12549700000.0 -12550100000.0 -12939800000.0 -12956100000.0 -13639800000.0 -13967700000.0 -14877800000.0 -12842700000.0 -13561900000.0 -14132200000.0 -16211800000.0 -13651200000.0 -12636800000.0 -14002700000.0 -14711000000.0 -13922400000.0 -12555700000.0 -12767300000.0 -13884300000.0 -12590200000.0 -12592400000.0 -12720300000.0 -12577000000.0 -12551000000.0 -12549700000.0 -12549700000.0 -12549700000.0 -12549700000.0 -12549700000.0 -12549700000.0 -12549700000.0 -12549700000.0 -12549700000.0 -12549700000.0 -12549700000.0 -12549700000.0 -12549700000.0 -12549700000.0 -12549700000.0 -12549700000.0 -12549700000.0 -12549700000.0 -12549700000.0 -12549700000.0 -12549700000.0 -12549700000.0 -12549700000.0 -12549700000.0 -12549700000.0 -12549700000.0 -12549700000.0 -12549700000.0 -12549700000.0 -12549700000.0 -12549700000.0 -12549700000.0 -12549700000.0 -12549700000.0 -12549700000.0 -12549700000.0 -12549700000.0 -12549700000.0 -12549700000.0 -12549700000.0 -12549700000.0 -12549700000.0 -12560900000.0 -12606600000.0 -12633500000.0 -12678200000.0 -12729700000.0 -13181600000.0 -12814800000.0 -13087400000.0 -13908000000.0 -13288300000.0 -13361600000.0 -13226400000.0 -14032400000.0 -13854000000.0 -16763400000.0 -15430700000.0 -15241900000.0 -14220700000.0 -14416200000.0 -12746000000.0 -12700800000.0 -13568900000.0 -13710600000.0 -12854100000.0 -12632300000.0 -12555900000.0 -12562700000.0 -12552500000.0 -12549700000.0 -12549700000.0 -12549700000.0 -12549700000.0 -12549700000.0 -12549700000.0 -12549700000.0 -12549700000.0 -12549700000.0 -12549700000.0 -12549700000.0 -12549700000.0 -12549700000.0 -12549700000.0 -12549700000.0 -12549700000.0 -12549700000.0 -12549700000.0 -12549700000.0 -12549700000.0 -12549700000.0 -12549700000.0 -12549700000.0 -12549700000.0 -12549700000.0 -12549700000.0 -12549700000.0 -12549700000.0 -12549700000.0 -12549700000.0 -12549700000.0 -12549700000.0 -12549700000.0 -12549700000.0 -12549700000.0 -12549700000.0 -12549700000.0 -12549700000.0 -12549700000.0 -12549700000.0 -12549700000.0 -12549700000.0 -12549700000.0 -12550300000.0 -12551900000.0 -12571700000.0 -12836200000.0 -12649000000.0 -13130500000.0 -13396100000.0 -13449100000.0 -13779600000.0 -12558700000.0 -13882600000.0 -13533200000.0 -13404100000.0 -15111400000.0 -14637000000.0 -15307600000.0 -12549700000.0 -13999800000.0 -13733800000.0 -13495100000.0 -12943800000.0 -12699700000.0 -12567400000.0 -12554700000.0 -12549900000.0 -12549800000.0 -12549700000.0 -12549700000.0 -12549700000.0 -12549700000.0 -12549700000.0 -12549700000.0 -12549700000.0 -12549700000.0 -12549700000.0 -12549700000.0 -12549700000.0 -12549700000.0 -12549700000.0 -12549700000.0 -12549700000.0 -12549700000.0 -12549700000.0 -12549700000.0 -12549700000.0 -12549700000.0 -12549700000.0 -12549700000.0 -12549700000.0 -12549700000.0 -12549700000.0 -12549700000.0 -12549700000.0 -12549700000.0 -12549700000.0 -12549700000.0 -12549700000.0 -12549700000.0 -12549700000.0 -12549700000.0 -12549700000.0 -12549700000.0 -12549700000.0 -12549700000.0 -12549700000.0 -12549700000.0 -12549700000.0 -12549700000.0 -12553000000.0 -12576600000.0 -12592900000.0 -12727600000.0 -12721500000.0 -12722000000.0 -12772900000.0 -12669800000.0 -14560000000.0 -14163600000.0 -13354200000.0 -13230100000.0 -14680900000.0 -14216000000.0 -13177400000.0 -13292300000.0 -14957400000.0 -12582000000.0 -14646500000.0 -16007500000.0 -14951800000.0 -13565800000.0 -12904800000.0 -12570500000.0 -12591300000.0 -12549700000.0 -12552500000.0 -12551000000.0 -12550200000.0 -12549700000.0 -12549700000.0 -12549700000.0 -12549700000.0 -12549700000.0 -12549700000.0 -12549700000.0 -12549700000.0 -12549700000.0 -12549700000.0 -12549700000.0 -12549700000.0 -12549700000.0 -12549700000.0 -12549700000.0 -12549700000.0 -12549700000.0 -12549700000.0 -12549700000.0 -12549700000.0 -12549700000.0 -12549700000.0 -12549700000.0 -12549700000.0 -12549700000.0 -12549700000.0 -12549700000.0 -12549700000.0 -12549700000.0 -12549700000.0 -12549700000.0 -12549700000.0 -12549700000.0 -12549700000.0 -12549700000.0 -12549700000.0 -12549700000.0 -12549700000.0 -12549700000.0 -12549700000.0 -12549700000.0 -12549700000.0 -12549700000.0 -12549700000.0 -12549700000.0 -12549700000.0 -12549700000.0 -12549700000.0 -12549700000.0 -12549700000.0 -12549700000.0 -12549700000.0 -12549700000.0 -12623200000.0 -12947600000.0 -13231600000.0 -12571400000.0 -13988000000.0 -12556400000.0 -12923600000.0 -13721600000.0 -14368400000.0 -14095600000.0 -13114400000.0 -12805900000.0 -14554600000.0 -12737700000.0 -14160600000.0 -13774900000.0 -12611100000.0 -15398700000.0 -13207600000.0 -12838000000.0 -12589400000.0 -12583100000.0 -12634700000.0 -12557600000.0 -12549700000.0 -12549700000.0 -12549700000.0 -12549700000.0 -12549700000.0 -12549700000.0 -12549700000.0 -12549700000.0 -12549700000.0 -12549700000.0 -12549700000.0 -12549700000.0 -12549700000.0 -12549700000.0 -12549700000.0 -12549700000.0 -12549700000.0 -12549700000.0 -12549700000.0 -12549700000.0 -12549700000.0 -12549700000.0 -12549700000.0 -12549700000.0 -12549700000.0 -12549700000.0 -12549700000.0 -12549700000.0 -12549700000.0 -12549700000.0 -12549700000.0 -12549700000.0 -12549700000.0 -12549700000.0 -12549700000.0 -12549700000.0 -12549700000.0 -12549700000.0 -12549700000.0 -12575500000.0 -13982200000.0 -12729100000.0 -12637500000.0 -12751600000.0 -12744300000.0 -13200000000.0 -12833600000.0 -13363100000.0 -12612500000.0 -13551500000.0 -13232500000.0 -12786400000.0 -13785000000.0 -12549700000.0 -15162100000.0 -15069300000.0 -12549700000.0 -13384800000.0 -12887900000.0 -12675500000.0 -12549700000.0 -12549700000.0 -12549700000.0 -12549700000.0 -12549700000.0 -12549700000.0 -12549700000.0 -12549700000.0 -12549700000.0 -12549700000.0 -12549700000.0 -12549700000.0 -12549700000.0 -12549700000.0 -12549700000.0 -12549700000.0 -12549700000.0 -12549700000.0 -12549700000.0 -12549700000.0 -12549700000.0 -12549700000.0 -12549700000.0 -12549700000.0 -12549700000.0 -12549700000.0 -12549700000.0 -12549700000.0 -12549700000.0 -12549700000.0 -12549700000.0 -12549700000.0 -12549700000.0 -12549700000.0 -12549700000.0 -12549700000.0 -12549700000.0 -12549700000.0 -12549700000.0 -12549700000.0 -12549700000.0 -12549700000.0 -12549700000.0 -12624600000.0 -13150200000.0 -13509400000.0 -12758700000.0 -12643200000.0 -12687400000.0 -12584500000.0 -12553000000.0 -13262000000.0 -13300600000.0 -12999700000.0 -13024100000.0 -13015300000.0 -14757300000.0 -13130900000.0 -15587000000.0 -12549700000.0 -12622700000.0 -13450400000.0 -12649500000.0 -12549700000.0 -12549700000.0 -12549700000.0 -12549700000.0 -12549700000.0 -12549700000.0 -12549700000.0 -12549700000.0 -12549700000.0 -12549700000.0 -12549700000.0 -12549700000.0 -12549700000.0 -12549700000.0 -12549700000.0 -12549700000.0 -12549700000.0 -12549700000.0 -12549700000.0 -12549700000.0 -12549700000.0 -12549700000.0 -12549700000.0 -12549700000.0 -12549700000.0 -12549700000.0 -12549700000.0 -12549700000.0 -12549700000.0 -12549700000.0 -12549700000.0 -12549700000.0 -12549700000.0 -12549700000.0 -12549700000.0 -12549700000.0 -12659500000.0 -12864100000.0 -13370400000.0 -12558500000.0 -12782200000.0 -12855600000.0 -12801900000.0 -13109300000.0 -14041600000.0 -12884500000.0 -15909400000.0 -13219700000.0 -15248700000.0 -13466300000.0 -13643800000.0 -12673600000.0 -12549700000.0 -12549700000.0 -12549700000.0 -12549700000.0 -12549700000.0 -12549700000.0 -12549700000.0 -12549700000.0 -12549700000.0 -12549700000.0 -12549700000.0 -12549700000.0 -12549700000.0 -12549700000.0 -12549700000.0 -12549700000.0 -12549700000.0 -12549700000.0 -12549700000.0 -12549700000.0 -12549700000.0 -12549700000.0 -12549700000.0 -12549700000.0 -12549700000.0 -12549700000.0 -12549700000.0 -12549700000.0 -12549700000.0 -12549700000.0 -12549700000.0 -12549700000.0 -12549700000.0 -12549700000.0 -12549700000.0 -12549700000.0 -12549700000.0 -12549700000.0 -12549700000.0 -12549700000.0 -12549700000.0 -12549700000.0 -12549700000.0 -12549700000.0 -12549700000.0 -12549700000.0 -12549700000.0 -12576800000.0 -13285700000.0 -12885400000.0 -12554000000.0 -12619900000.0 -12656300000.0 -12904800000.0 -13037800000.0 -13124100000.0 -14415800000.0 -13334000000.0 -14305100000.0 -14102900000.0 -12578400000.0 -13903700000.0 -13652500000.0 -13009300000.0 -12819400000.0 -13344200000.0 -13085200000.0 -12713400000.0 -12622900000.0 -12555400000.0 -12575100000.0 -12549700000.0 -12549700000.0 -12549700000.0 -12549700000.0 -12549700000.0 -12549700000.0 -12549700000.0 -12549700000.0 -12549700000.0 -12549700000.0 -12549700000.0 -12549700000.0 -12549700000.0 -12549700000.0 -12549700000.0 -12549700000.0 -12549700000.0 -12549700000.0 -12549700000.0 -12549700000.0 -12549700000.0 -12549700000.0 -12549700000.0 -12549700000.0 -12549700000.0 -12549700000.0 -12549700000.0 -12549700000.0 -12549700000.0 -12590700000.0 -12552700000.0 -12892500000.0 -13208800000.0 -12564500000.0 -12558100000.0 -12706900000.0 -12828700000.0 -13497900000.0 -13116800000.0 -13033200000.0 -12836700000.0 -13622800000.0 -12808100000.0 -14169300000.0 -14623000000.0 -14417400000.0 -13769200000.0 -13422900000.0 -13065600000.0 -13150600000.0 -12591000000.0 -12549700000.0 -12549700000.0 -12549700000.0 -12549700000.0 -12549700000.0 -12549700000.0 -12549700000.0 -12549700000.0 -12549700000.0 -12549700000.0 -12549700000.0 -12549700000.0 -12549700000.0 -12549700000.0 -12549700000.0 -12549700000.0 -12549700000.0 -12549700000.0 -12549700000.0 -12549700000.0 -12549700000.0 -12549700000.0 -12549700000.0 -12549700000.0 -13208600000.0 -13183200000.0 -13336700000.0 -12582400000.0 -13404300000.0 -13481800000.0 -13614700000.0 -14163200000.0 -13709500000.0 -12562300000.0 -14311500000.0 -12629000000.0 -14429800000.0 -12879700000.0 -14305500000.0 -15030900000.0 -12809600000.0 -12657900000.0 -13276200000.0 -12570800000.0 -12822500000.0 -12958000000.0 -12853200000.0 -12793400000.0 -12721500000.0 -12549700000.0 -12549700000.0 -12549700000.0 -12549700000.0 -12549700000.0 -12549700000.0 -12549700000.0 -12549700000.0 -12549700000.0 -12549700000.0 -12549700000.0 -12549700000.0 -12549700000.0 -12549700000.0 -12549700000.0 -12549700000.0 -12549700000.0 -12549700000.0 -12549700000.0 -12549700000.0 -12549700000.0 -12549700000.0 -12549700000.0 -12549700000.0 -12929600000.0 -12746500000.0 -12782800000.0 -12691600000.0 -12793000000.0 -13187400000.0 -13228200000.0 -13998100000.0 -13902400000.0 -13451900000.0 -12586600000.0 -12549700000.0 -14383900000.0 -13291900000.0 -13089900000.0 -12549700000.0 -12555900000.0 -12550400000.0 -12634900000.0 -12549700000.0 -12549700000.0 -12549700000.0 -12549700000.0 -12549700000.0 -12549700000.0 -12549700000.0 -12549700000.0 -12549700000.0 -12549700000.0 -12549700000.0 -12549700000.0 -12549700000.0 -12549700000.0 -12549700000.0 -12609700000.0 -12791500000.0 -12831600000.0 -12694900000.0 -12774300000.0 -12745400000.0 -12783700000.0 -13075300000.0 -12700700000.0 -12840000000.0 -12651700000.0 -12585700000.0 -12647900000.0 -13900500000.0 -12549700000.0 -13123400000.0 -12724300000.0 -12789100000.0 -12584700000.0 -12603400000.0 -12549700000.0 -12549700000.0 -12549700000.0 -12549700000.0 -12549700000.0 -12549700000.0 -12549700000.0 -12549700000.0 -12549700000.0 -12549700000.0 -12549700000.0 -12549700000.0 -12549700000.0 -12549700000.0 -12549700000.0 -12564600000.0 -12576200000.0 -12626500000.0 -12822300000.0 -12560100000.0 -12564300000.0 -12583900000.0 -12607600000.0 -12791700000.0 -12587600000.0 -12716400000.0 -12886900000.0 -12555700000.0 -12951300000.0 -12951400000.0 -12822900000.0 -13133700000.0 -13150800000.0 -13248000000.0 -12549700000.0 -12625400000.0 -12582100000.0 -12549700000.0 -12549700000.0 -12549700000.0 -12549700000.0 -12549700000.0 -12549700000.0 -12549700000.0 -12549700000.0 -12553900000.0 -12556300000.0 -12707000000.0 -12552200000.0 -12549700000.0 -12549700000.0 -12699600000.0 -12583500000.0 -12549700000.0 -12818100000.0 -12841000000.0 -12712900000.0 -12733300000.0 -12650900000.0 -12744900000.0 -12549700000.0 -12581900000.0 -13000000000.0 -12549700000.0 -12549700000.0 -12549700000.0 -12549700000.0 -12549700000.0 -12549700000.0 -12549700000.0 -12549700000.0 -12549700000.0 -12549700000.0 -12549700000.0 -12549700000.0 -12612500000.0 -12592000000.0 -12569600000.0 -12560400000.0 -12560000000.0 -12555200000.0 -12637900000.0 -12550700000.0 -12561300000.0 -12818500000.0 -12710200000.0 -12549700000.0 -12551100000.0 -12658100000.0 -12550200000.0 -12595900000.0 -12558800000.0 -12568100000.0 -12846900000.0 -12631900000.0 -12549700000.0 -12549700000.0 -12549700000.0 -12549700000.0 -12549700000.0 -12560800000.0 -12554500000.0 -12574800000.0 -12571500000.0 -12575500000.0 -12585000000.0 -12644500000.0 -12639700000.0 -12695000000.0 -12552600000.0 -12564100000.0 -12576900000.0 -12564000000.0 -12562600000.0 -12572500000.0 -12551600000.0 -12559200000.0 -12602900000.0 -12561900000.0 -12549700000.0 -12549700000.0 -12549700000.0 -12549700000.0 -12549700000.0 -12549700000.0 -2.67322e+12 -4.10554e+12 -3.65254e+12 -4.84186e+12 -4.04571e+12 -4.09964e+12 -3.94195e+12 -3.78257e+12 -12549700000.0 -3.19153e+12 -5.67205e+12 -2.97466e+12 -3.60466e+12 -5.20193e+12 -4.65092e+12 -14312800000.0 -4.58747e+12 -12549000000.0 -12549700000.0 -12549700000.0 -2.13202e+12 -4.71278e+12 -5.3296e+12 -12549700000.0 -4.72259e+12 -4.96508e+12 -3.8439e+12 -4.14988e+12 -3.80075e+12 -4.55953e+12 -4.271e+12 -5.86288e+12 -5.80961e+12 -4.83189e+12 -12579800000.0 -12549700000.0 -12549700000.0 -12549900000.0 -12549600000.0 -1.10356e+12 -557592000000.0 -3.58587e+12 -3.75526e+12 -3.07744e+12 -4.17366e+12 -4.57562e+12 -2.78885e+12 -4.4839e+12 -4.98442e+12 -4.23969e+12 -2.21277e+12 -3.32772e+12 -2.17747e+12 -12557200000.0 -12562300000.0 -12552700000.0 -12550800000.0 -12550100000.0 -12549800000.0 -1.33589e+12 -152008000000.0 -4.04019e+12 -13074100000.0 -4.76779e+12 -6.84806e+12 -4.32077e+12 -3.28619e+12 -4.7793e+12 -4.5232e+12 -4.26438e+12 -4.07329e+12 -5.85879e+12 -6.74621e+12 -5.22111e+12 -3.74833e+12 -5.34988e+12 -7.36588e+12 -4.53588e+12 -5.00053e+12 -5.69864e+12 -4.60891e+12 -4.42459e+12 -6.64422e+12 -5.97076e+12 -2.56814e+12 -4.07759e+12 -3.80104e+12 -3.72012e+12 -4.66154e+12 -4.0339e+12 -3.91985e+12 -5.22441e+12 -4.63835e+12 -3.90153e+12 -4.42081e+12 -4.59652e+12 -2.72825e+12 -5.23846e+12 -4.09042e+12 -5.67793e+12 -6.46995e+12 -6.09012e+12 -5.88017e+12 -5.27843e+12 -5.09078e+12 -6.74783e+12 -4.37484e+12 -5.01385e+12 -6.43445e+12 -4.3101e+12 -4.91503e+12 -2.85756e+12 -2.60937e+12 -6.613e+12 -5.43477e+12 -8.62217e+12 -6.14711e+12 -6.11225e+12 -7.7497e+12 -1.11371e+13 -5.46035e+12 -7.25332e+12 -4.0654e+12 -5.69447e+12 -4.70072e+12 -3.4929e+12 -7.14717e+12 -6.92776e+12 -5.16989e+12 -1.83463e+12 -6.89375e+12 -4.235e+12 -4.81129e+12 -5.86932e+12 -5.98923e+12 -7.18707e+12 -7.27349e+12 -7.09729e+12 -1.11923e+13 -3.06672e+12 -5.48724e+12 -12433100000.0 -6.19873e+12 -4.42248e+12 -5.16917e+12 -3.01983e+12 -7.36498e+12 -6.98393e+12 -5.09402e+12 -8.89086e+12 -5.73549e+12 -8.76116e+12 -7.71861e+12 -5.26463e+12 -4.96988e+12 -7.28443e+12 -6.91925e+12 -6.77708e+12 -7.99812e+12 -7.32242e+12 -1.10849e+13 -5.64712e+12 -3.56537e+12 -5.10411e+12 -4.06144e+12 -2.88892e+12 -7.25552e+12 -3.51289e+12 -4.40564e+12 -5.8759e+12 -3.99861e+12 -4.49854e+12 -6.17998e+12 -6.30548e+12 -4.06774e+12 -6.43301e+12 -5.35715e+12 -3.00328e+12 -4.09043e+12 -4.47447e+12 -4.75706e+12 -4.19911e+12 -5.69208e+12 -4.89532e+12 -9.18724e+12 -2.76226e+12 -4.88826e+12 -4.16652e+12 -6.56175e+12 -3.79423e+12 -7.04948e+12 -7.06491e+12 -3.94755e+12 -4.79811e+12 -4.1683e+12 -4.3394e+12 -7.79002e+12 -2.77824e+12 -6.6676e+12 -2.83594e+12 -7.50555e+12 -5.42263e+12 -9.70222e+12 -3.3387e+12 -4.83213e+12 -3.96708e+12 -2.26604e+12 -6.99716e+12 -7.46558e+12 -4.16521e+12 -4.25022e+12 -6.23256e+12 -1.04574e+13 -6.47241e+12 -1.03392e+13 -7.23044e+12 -5.18707e+12 -8.88626e+12 -7.74932e+12 -5.29881e+12 -6.53169e+12 -7.33846e+12 -7.59865e+12 -4.61581e+12 -6.72195e+12 -8.81104e+12 -5.12626e+12 -1.03383e+13 -7.63627e+12 -7.79229e+12 -4.61431e+12 -5.63408e+12 -4.9261e+12 -8.33148e+12 -6.45574e+12 -6.84129e+12 -8.40253e+12 -6.83946e+12 -6.28006e+12 -6.27694e+12 -7.13228e+12 -5.5314e+12 -1.48963e+12 -2.93307e+12 -5.64987e+12 -5.01028e+12 -4.32807e+12 -5.61042e+12 -6.46582e+12 -8.5536e+12 -1.01978e+13 -6.89262e+12 -5.6696e+12 -4.96721e+12 -6.38584e+12 -7.24747e+12 -3.83977e+12 -6.46782e+12 -8.27296e+12 -5.69525e+12 -7.02614e+12 -4.86148e+12 -6.05318e+12 -7.80675e+12 -6.01463e+12 -6.10994e+12 -9.70812e+12 -5.67188e+12 -6.9186e+12 -7.54003e+12 -8.60876e+12 -4.12441e+12 -4.7276e+12 -6.52762e+12 -7.30557e+12 -6.97381e+12 -5.09993e+12 -7.81362e+12 -6.09598e+12 -5.42778e+12 -5.08974e+12 -7.40366e+12 -9.0341e+12 -4.68384e+12 -6.31668e+12 -1.72073e+12 -3.52204e+12 -4.54186e+12 -6.63096e+12 -2.45401e+12 -6.72423e+12 -5.2926e+12 -4.15668e+12 -5.93658e+12 -2.30434e+12 -5.71326e+12 -7.14247e+12 -5.88369e+12 -6.02879e+12 -5.71977e+12 -8.72093e+12 -8.60627e+12 -6.47314e+12 -6.42697e+12 -5.66457e+12 -7.1533e+12 -4.97485e+12 -7.62324e+12 -6.1595e+12 -6.05852e+12 -5.66847e+12 -7.47381e+12 -6.32806e+12 -5.2374e+12 -4.50332e+12 -8.05533e+12 -6.17807e+12 -2.70005e+12 -7.264e+12 -6.10003e+12 -2.88769e+12 -6.27364e+12 -8.23553e+12 -9.55634e+12 -7.80127e+12 -5.04155e+12 -6.50216e+12 -5.26298e+12 -4.35204e+12 -9.08102e+12 -4.08607e+12 -5.31661e+12 -5.85777e+12 -6.49625e+12 -6.95951e+12 -3.81491e+12 -1.06135e+13 -8.46967e+12 -4.65286e+12 -6.19472e+12 -3.8734e+12 -3.60629e+12 -4.9157e+12 -6.68306e+12 -2.43119e+12 -4.98217e+12 -5.07804e+12 -4.46408e+12 -4.69474e+12 -4.03338e+12 -9.00558e+12 -3.09776e+12 -2.20973e+12 -4.24492e+12 -4.80648e+12 -5.6986e+12 -6.02037e+12 -1.08647e+13 -5.14129e+12 -9.30396e+12 -8.0242e+12 -6.03313e+12 -2.8878e+12 -6.54121e+12 -5.65824e+12 -4.38146e+12 -3.76767e+12 -2.6195e+12 -5.79132e+12 -4.17938e+12 -3.79638e+12 -7.39983e+12 -5.59834e+12 -5.37485e+12 -4.01542e+12 -5.70195e+12 -1.02552e+13 -6.5828e+12 -6.06216e+12 -3.84123e+12 -9.31374e+12 -9.60479e+12 -7.60608e+12 -3.74114e+12 -7.94942e+12 -4.59804e+12 -6.10301e+12 -4.87941e+12 -6.39504e+12 -5.14724e+12 -6.1699e+12 -6.54692e+12 -6.53559e+12 -6.1057e+12 -4.47699e+12 -7.32374e+12 -8.1315e+12 -5.005e+12 -5.83912e+12 -8.34847e+12 -3.81813e+12 -3.93791e+12 -3.70592e+12 -6.00919e+12 -4.04241e+12 -5.92157e+12 -3.96855e+12 -4.88333e+12 -4.90609e+12 -7.3472e+12 -7.87446e+12 -8.95136e+12 -5.49864e+12 -4.48662e+12 -4.1526e+12 -3.08622e+12 -2.16561e+12 -6.64469e+12 -4.43957e+12 -8.98902e+12 -7.37278e+12 -6.2003e+12 -1.01423e+13 -5.0628e+12 -3.73467e+12 -4.60779e+12 -5.88014e+12 -4.82872e+12 -5.00611e+12 -6.28541e+12 -5.66785e+12 -4.93042e+12 -6.04872e+12 -4.94323e+12 -6.8032e+12 -4.9677e+12 -4.12577e+12 -5.14032e+12 -4.0111e+12 -4.71084e+12 -8.54683e+12 -4.07275e+12 -7.272e+12 -8.08266e+12 -7.08194e+12 -3.96391e+12 -4.19294e+12 -3.3778e+12 -4.65151e+12 -2.16429e+12 -5.81033e+12 -4.14507e+12 -4.98819e+12 -5.64162e+12 -3.79227e+12 -8.79542e+12 -5.74266e+12 -5.59996e+12 -3.93046e+12 -3.89079e+12 -7.03302e+12 -3.13602e+12 -5.27473e+12 -5.42054e+12 -7.51523e+12 -5.4495e+12 -4.45233e+12 -5.99102e+12 -6.77493e+12 -5.75904e+12 -4.36886e+12 -6.41235e+12 -5.67646e+12 -5.03984e+12 -3.84082e+12 -4.41474e+12 -5.67333e+12 -5.04195e+12 -7.447e+12 -8.45352e+12 -5.12765e+12 -6.61528e+12 -4.23922e+12 -4.27485e+12 -5.72755e+12 -5.77901e+12 -5.60779e+12 -7.16888e+12 -8.14747e+12 -4.12892e+12 -4.26915e+12 -8.47693e+12 -3.47919e+12 -2.96598e+12 -3.36092e+12 -2.89101e+12 -2.27042e+12 -3.75236e+12 -3.77864e+12 -8.53624e+12 -2.88363e+12 -3.61058e+12 -3.00105e+12 -5.43359e+12 -5.11493e+12 -5.53347e+12 -4.67908e+12 -2.55944e+12 -5.00202e+12 -7.55219e+12 -6.80899e+12 -7.70104e+12 -6.36276e+12 -6.82739e+12 -3.59978e+12 -4.04217e+12 -5.73859e+12 -6.28014e+12 -6.05884e+12 -7.6081e+12 -4.4232e+12 -5.92201e+12 -5.54783e+12 -5.80912e+12 -3.32642e+12 -3.63909e+12 -4.33671e+12 -5.55594e+12 -5.49798e+12 -3.57497e+12 -4.46886e+12 -4.47577e+12 -7.43511e+12 -6.45639e+12 -3.35852e+12 -4.41669e+12 -3.10083e+12 -7.3437e+12 -4.29956e+12 -5.77072e+12 -3.79959e+12 -4.2619e+12 -4.96575e+12 -3.03004e+12 -4.44685e+12 -1.01606e+13 -4.41263e+12 -6.92164e+12 -6.72225e+12 -7.99721e+12 -4.15483e+12 -4.47502e+12 -640863000000.0 -5.95813e+12 -4.14421e+12 -9.65163e+12 -4.21304e+12 -4.98498e+12 -5.26951e+12 -4.1537e+12 -4.78503e+12 -3.7266e+12 -4.56182e+12 -2.9615e+12 -4.1876e+12 -6.90417e+12 -6.0887e+12 -4.64255e+12 -7.279e+12 -2.71695e+12 -6.60114e+12 -7.97418e+12 -4.6971e+12 -5.91349e+12 -4.97775e+12 -7.28649e+12 -7.0907e+12 -4.07777e+12 -2.59136e+12 -7.65965e+12 -6.62248e+12 -6.35903e+12 -6.97488e+12 -3.21966e+12 -5.0825e+12 -5.12014e+12 -4.79864e+12 -5.22144e+12 -3.58668e+12 -5.73079e+12 -7.1151e+12 -2.71314e+12 -5.72191e+12 -4.38444e+12 -4.52272e+12 -3.38748e+12 -5.1779e+12 -3.54998e+12 -2.26171e+12 -2.04028e+12 -2.00785e+12 -5.24072e+12 -4.74642e+12 -3.37477e+12 -6.85376e+12 -4.24977e+12 -4.30822e+12 -4.20716e+12 -3.52747e+12 -3.50652e+12 -3.94785e+12 -3.69269e+12 -6.43522e+12 -3.34966e+12 -4.2645e+12 -3.84672e+12 -5.05293e+12 -6.26552e+12 -5.31282e+12 -3.02108e+12 -3.92515e+12 -3.61384e+12 -4.37316e+12 -3.65668e+12 -5.25741e+12 -4.79294e+12 -5.23022e+12 -3.13209e+12 -3.41477e+12 -6.24812e+12 -4.99112e+12 -4.21865e+12 -5.12258e+12 -3.3498e+12 -1.97435e+12 -3.65095e+12 -5.66055e+12 -4.59869e+12 -5.91734e+12 -7.30741e+12 -2.93351e+12 -2.60185e+12 -4.47057e+12 -3.45872e+12 -4.37875e+12 -5.93933e+12 -6.10551e+12 -2.23772e+12 -4.54226e+12 -4.99823e+12 -6.17571e+12 -5.3087e+12 -4.37259e+12 -3.31952e+12 -5.31014e+12 -3.95504e+12 -2.96421e+12 -6.55888e+12 -7.46668e+12 -4.74749e+12 -6.39359e+12 -3.07995e+12 -7.00354e+12 -4.96555e+12 -1.98905e+12 -5.75522e+12 -2.38302e+12 -6.37982e+12 -6.24655e+12 -4.43111e+12 -3.96702e+12 -4.71555e+12 -6.17758e+12 -5.45691e+12 -5.82873e+12 -5.9699e+12 -5.78196e+12 -5.65404e+12 -4.94e+12 -6.14575e+12 -5.17573e+12 -6.28434e+12 -4.8971e+12 -1.66454e+12 -5.27888e+12 -4.66445e+12 -3.52558e+12 -4.77539e+12 -5.20509e+12 -6.73803e+12 -4.07893e+12 -5.52151e+12 -3.61058e+12 -4.74818e+12 -8.4335e+12 -3.27082e+12 -3.98531e+12 -5.21841e+12 -3.11219e+12 -6.6463e+12 -2.94842e+12 -5.54089e+12 -3.87294e+12 -5.27846e+12 -3.43433e+12 -6.31725e+12 -3.42484e+12 -7.30271e+12 -6.17756e+12 -588293000000.0 -6.23585e+12 -3.02559e+12 -4.5414e+12 -4.25258e+12 -2.87233e+12 -5.39471e+12 -2.79345e+12 -5.99872e+12 -1.74682e+12 -4.70335e+12 -3.43963e+12 -5.7549e+12 -6.61325e+12 -3.47068e+12 -4.61613e+12 -3.79111e+12 -3.57e+12 -3.79406e+12 -3.70308e+12 -4.13825e+12 -6.64601e+12 -3.88542e+12 -8.30504e+12 -2.74091e+12 -5.98176e+12 -2.7929e+12 -3.64492e+12 -3.39901e+12 -3.6555e+12 -2.47615e+12 -3.6103e+12 -6.02531e+12 -4.8588e+12 -5.82299e+12 -5.80171e+12 -3.75711e+12 -6.54513e+12 -3.12116e+12 -2.35914e+12 -5.96938e+12 -4.66045e+12 -5.29156e+12 -4.32549e+12 -2.75585e+12 -1.93341e+12 -6.77038e+12 -2.74389e+12 -3.79319e+12 -4.03963e+12 -6.73732e+12 -3.98379e+12 -5.66723e+12 -2.87841e+12 -4.35971e+12 -4.63373e+12 -4.43343e+12 -4.931e+12 -2.79381e+12 -4.59659e+12 -5.58052e+12 -4.16171e+12 -5.24769e+12 -2.85122e+12 -3.20735e+12 -2.70711e+12 -4.09882e+12 -4.72457e+12 -5.83848e+12 -2.47138e+12 -3.89644e+12 -3.06886e+12 -4.61985e+12 -5.36123e+12 -2.71153e+12 -5.07806e+12 -4.27167e+12 -3.47753e+12 -4.28151e+12 -3.05484e+12 -3.49259e+12 -2.4637e+12 -3.41889e+12 -5.47409e+12 -3.23853e+12 -1.40851e+12 -2.85092e+12 -4.12285e+12 -3.40996e+12 -3.02246e+12 -4.21622e+12 -2.72805e+12 -2.89057e+12 -3.85651e+12 -4.22771e+12 -3.71224e+12 -2.67884e+12 -6.10967e+12 -4.07289e+12 -5.24954e+12 -2.50492e+12 -3.65652e+12 -4.17035e+12 -3.70396e+12 -3.75414e+12 -4.25908e+12 -3.06376e+12 -5.69536e+12 -4.89096e+12 -3.10494e+12 -2.48964e+12 -4.88944e+12 -2.70085e+12 -4.96647e+12 -3.24337e+12 -4.0523e+12 -5.18414e+12 -4.33268e+12 -5.17805e+12 -4.1184e+12 -4.10599e+12 -2.18169e+12 -4.10963e+12 -3.21826e+12 -5.45649e+12 -1.93819e+12 -4.21694e+12 -4.78063e+12 -3.39203e+12 -1.63805e+12 -4.17392e+12 -5.40646e+12 -2.56022e+12 -2.82039e+12 -4.46116e+12 -6.79849e+12 -2.1975e+12 -5.42399e+12 -2.67332e+12 -6.06279e+12 -6.88989e+12 -5.06554e+12 -5.83896e+12 -2.68353e+12 -3.5156e+12 -2.82953e+12 -2.28574e+12 -4.53234e+12 -3.91335e+12 -2.66743e+12 -2.88226e+12 -3.20848e+12 -1.08428e+12 -3.13069e+12 -717296000000.0 -3.85737e+12 -1.47693e+12 -4.53032e+12 -2.97835e+12 -4.4653e+12 -3.33386e+12 -3.30738e+12 -4.02757e+12 -2.46554e+12 -1.9555e+12 -3.85114e+12 -5.00057e+12 -5.75403e+12 -1.69498e+12 -3.43143e+12 -3.86074e+12 -3.32079e+12 -3.94265e+12 -4.46733e+12 -3.84005e+12 -4.96783e+12 -2.724e+12 -3.32893e+12 -6.98203e+12 -2.62676e+12 -2.19868e+12 -3.74959e+12 -2.12214e+12 -2.05255e+12 -2.33631e+12 -2.88021e+12 -4.79159e+12 -2.01267e+12 -3.08462e+12 -2.68874e+12 -3.88376e+12 -2.06887e+12 -4.68259e+12 -2.51071e+12 -2.19516e+12 -2.73364e+12 -1.64483e+12 -3.99896e+12 -3.07799e+12 -2.76002e+12 -3.70031e+12 -2.44148e+12 -3.19558e+12 -4.31312e+12 -3.29551e+12 -1.90571e+12 -2.92935e+12 -3.6806e+12 -2.3578e+12 -2.62664e+12 -3.13022e+12 -2.1771e+12 -2.76867e+12 -2.68214e+12 -2.42544e+12 -2.79864e+12 -1.89571e+12 -3.73203e+12 -4.83316e+12 -3.3237e+12 -1.79737e+12 -2.03253e+12 -4.45718e+12 -3.39518e+12 -2.64961e+12 -2.55744e+12 -3.23841e+12 -1.21778e+12 -2.57129e+12 -3.00896e+12 -1.61433e+12 -2.67361e+12 -3.72008e+12 -2.78476e+12 -3.52877e+12 -3.18543e+12 -4.28576e+12 -2.89437e+12 -3.30639e+12 -2.87684e+12 -2.76257e+12 -4.20291e+12 -2.67294e+12 -2.80956e+12 -1.64278e+12 -3.23745e+12 -5.59667e+12 -3.85474e+12 -1.7658e+12 -2.67445e+12 -3.79354e+12 -3.56018e+12 -1.95092e+12 -2.83097e+12 -3.26764e+12 -5.24505e+12 -3.55879e+12 -3.13095e+12 -1.57516e+12 -2.17247e+12 -2.1748e+12 -2.9453e+12 -2.59985e+12 -2.71314e+12 -2.5198e+12 -3.0666e+12 -1.98928e+12 -2.50656e+12 -4.26674e+12 -2.17792e+12 -3.23691e+12 -5.1823e+12 -2.84555e+12 -3.66499e+12 -4.16613e+12 -5.15092e+12 -1.95394e+12 -3.25158e+12 -3.75132e+12 -1.5301e+12 -3.22852e+12 -2.95729e+12 -3.14753e+12 -3.80951e+12 -4.71339e+12 -3.3619e+12 -2.90034e+12 -1.99618e+12 -4.30412e+12 -3.29901e+12 -1.83461e+12 -2.50599e+12 -2.62757e+12 -3.4335e+12 -4.50679e+12 -3.57515e+12 -3.21073e+12 -3.04001e+12 -2.11946e+12 -2.67348e+12 -2.30317e+12 -2.27875e+12 -2.41394e+12 -254640000000.0 -2.40118e+12 -2.49527e+12 -1.70246e+12 -3.63263e+12 -2.63683e+12 -2.30725e+12 -1.95248e+12 -2.15489e+12 -1.6345e+12 -2.91527e+12 -2.7948e+12 -2.13038e+12 -4.29301e+12 -2.9412e+12 -3.50137e+12 -1.73853e+12 -1.41708e+12 -2.85506e+12 -3.55005e+12 -2.33121e+12 -4.12672e+12 -3.10339e+12 -4.69632e+12 -1.43291e+12 -4.17464e+12 -4.00479e+12 -5.33946e+12 -3.25234e+12 -2.7478e+12 -2.52878e+12 -2.43426e+12 -2.44699e+12 -1.92443e+12 -1.82375e+12 -1.28072e+12 -1.48861e+12 -3.66896e+12 -1.07204e+12 -3.5715e+12 -2.13154e+12 -1.18359e+12 -1.89258e+12 -844708000000.0 -1.6379e+12 -1.07277e+12 -3.75978e+12 -2.92427e+12 -2.15831e+12 -3.49665e+12 -2.07413e+12 -1.64686e+12 -3.09335e+12 -1.50063e+12 -1.5057e+12 -3.04155e+12 -3.59861e+12 -2.28418e+12 -1.99974e+12 -2.22658e+12 -1.74609e+12 -1.52488e+12 -3.14835e+12 -4.08662e+12 -5.00467e+12 -3.02738e+12 -4.35841e+12 -3.03803e+12 -3.27162e+12 -1.49038e+12 -4.14896e+12 -1.41653e+12 -2.93068e+12 -2.77676e+12 -2.27526e+12 -2.81465e+12 -2.80265e+12 -3.11039e+12 -1.75434e+12 -1.51252e+12 -2.75329e+12 -2.55756e+12 -2.32904e+12 -1.13588e+12 -2.65605e+12 -2.9017e+12 -1.07759e+12 -2.6162e+12 -1.17856e+12 -1.43879e+12 -1.98939e+12 -1.41011e+12 -1.03119e+12 -1.93975e+12 -2.28155e+12 -1.57626e+12 -1.3667e+12 -1.3871e+12 -2.32851e+12 -1.65152e+12 -1.87787e+12 -1.43583e+12 -1.3076e+12 -2.06968e+12 -1.04653e+12 -2.14522e+12 -2.41733e+12 -2.01447e+12 -1.72247e+12 -1.77694e+12 -2.62244e+12 -2.87272e+12 -2.39984e+12 -2.44208e+12 -2.1868e+12 -4.51358e+12 -3.58368e+12 -1.42457e+12 -2.20189e+12 -2.17697e+12 -2.39008e+12 -1.40079e+12 -2.46966e+12 -1.14452e+12 -4.55717e+12 -2.4669e+12 -1.8839e+12 -1.01284e+12 -1.55738e+12 -1.53844e+12 -1.56328e+12 -1.84177e+12 -1.85942e+12 -3.17131e+12 -1.25713e+12 -2.64276e+12 -2.50271e+12 -1.42629e+12 -1.56916e+12 -2.24397e+12 -1.24316e+12 -2.89289e+12 -2.04604e+12 -1.19772e+12 -2.76073e+12 -1.78174e+12 -2.23524e+12 -592268000000.0 -1.29754e+12 -2.30711e+12 -1.78174e+12 -2.35095e+12 -1.54406e+12 -3.08229e+12 -2.4898e+12 -1.69884e+12 -2.43326e+12 -878944000000.0 -2.01903e+12 -1.8542e+12 -1.45538e+12 -3.78579e+12 -2.65027e+12 -2.59224e+12 -944986000000.0 -2.64542e+12 -2.1504e+12 -2.81781e+12 -1.43975e+12 -1.97479e+12 -1.63037e+12 -1.59938e+12 -1.57523e+12 -1.95524e+12 -3.5082e+12 -1.77274e+12 -2.35301e+12 -2.5922e+12 -2.35599e+12 -2.48638e+12 -2.58483e+12 -1.58893e+12 -1.6798e+12 -1.95322e+12 -2.09622e+12 -3.03325e+12 -1.72074e+12 -1.81192e+12 -1.10032e+12 -2.15456e+12 -350719000000.0 -2.33279e+12 -487376000000.0 -1.45272e+12 -2.44915e+12 -2.09763e+12 -872467000000.0 -1.20554e+12 -1.68655e+12 -901665000000.0 -1.35274e+12 -1.50277e+12 -1.14934e+12 -954114000000.0 -2.24031e+12 -1.57369e+12 -1.91616e+12 -1.07498e+12 -902257000000.0 -1.49196e+12 -1.38655e+12 -2.41856e+12 -937320000000.0 -1.38375e+12 -1.16897e+12 -1.26677e+12 -1.89577e+12 -590295000000.0 -1.05752e+12 -1.17264e+12 -1.28149e+12 -2.14548e+12 -1.19571e+12 -644589000000.0 -818427000000.0 -297554000000.0 -476107000000.0 -1.42635e+12 -3.1324e+12 -1.16651e+12 -1.51244e+12 -2.03e+12 -1.88216e+12 -456361000000.0 -2.81266e+12 -2.38182e+12 -1.16888e+12 -978540000000.0 -947284000000.0 -561334000000.0 -2.02678e+12 -664418000000.0 -803422000000.0 -2.14597e+12 -1.79999e+12 -2.36734e+12 -1.14154e+12 -395937000000.0 -1.47035e+12 -1.14086e+12 -1.40386e+12 -776394000000.0 -1.73238e+12 -1.62085e+12 -2.12308e+12 -1.91895e+12 -1.11056e+12 -1.03001e+12 -624908000000.0 -843860000000.0 -940402000000.0 -1.61318e+12 -1.99854e+12 -437880000000.0 -963840000000.0 -1.84459e+12 -765702000000.0 -1.51552e+12 -1.13747e+12 -1.2769e+12 -1.95713e+12 -1.34468e+12 -1.10715e+12 -1.45407e+12 -1.01433e+12 -1.38656e+12 -435292000000.0 -1.04284e+12 -2.61898e+12 -1.786e+12 -1.97264e+12 -533895000000.0 -710564000000.0 -966986000000.0 -969860000000.0 -919873000000.0 -195769000000.0 -1.14401e+12 -386063000000.0 -760863000000.0 -547046000000.0 -686746000000.0 -1.2608e+12 -1.00021e+12 -302815000000.0 -677752000000.0 -511624000000.0 -676229000000.0 -240413000000.0 -471836000000.0 -173616000000.0 -370712000000.0 -1.13167e+12 -604703000000.0 -1.15759e+12 -1.01205e+12 -959041000000.0 -823159000000.0 -638370000000.0 -1.0962e+12 -150895000000.0 -859656000000.0 -536169000000.0 -1.03213e+12 -1.04496e+12 -548071000000.0 -903563000000.0 -755012000000.0 -644170000000.0 -1.03378e+12 -513073000000.0 -323063000000.0 -958512000000.0 -185067000000.0 -488820000000.0 -1.65924e+12 -1.12579e+12 -308926000000.0 -1.44108e+12 -394883000000.0 -643817000000.0 -459947000000.0 -554164000000.0 -172902000000.0 -816565000000.0 -967794000000.0 -809014000000.0 -651438000000.0 -371280000000.0 -511226000000.0 -845458000000.0 -1.6163e+12 -163552000000.0 -1.08824e+12 -470486000000.0 -799313000000.0 -182737000000.0 -388206000000.0 -388142000000.0 -364607000000.0 -1.15241e+12 -228215000000.0 -150143000000.0 -616663000000.0 -255750000000.0 -419252000000.0 -1.1706e+12 -242419000000.0 -1.20457e+12 -212298000000.0 -749376000000.0 -1.21525e+12 -215579000000.0 -706804000000.0 -453401000000.0 -168600000000.0 -416572000000.0 -762316000000.0 -1.23453e+12 -332272000000.0 -539338000000.0 -490499000000.0 -663907000000.0 -1.11712e+12 -654523000000.0 -81557900000.0 -611387000000.0 -414147000000.0 -243343000000.0 -260254000000.0 -197126000000.0 -70822000000.0 -237395000000.0 -256348000000.0 -352032000000.0 -247486000000.0 -260269000000.0 -192373000000.0 -134539000000.0 -442271000000.0 -424123000000.0 -371758000000.0 -171970000000.0 -285831000000.0 -222858000000.0 -424368000000.0 -234370000000.0 -317363000000.0 -85639600000.0 -96787600000.0 -244890000000.0 -249571000000.0 -310085000000.0 -153698000000.0 -192286000000.0 -134894000000.0 -170540000000.0 