# vtk DataFile Version 2.0
Time step 53
ASCII
DATASET UNSTRUCTURED_GRID
POINTS 5000 float
27669.2 62751.0 0
372012.0 62845.6 0
403650.0 63234.0 0
2398.29 65842.6 0
8534.03 65216.0 0
6062.49 68536.0 0
12438.9 65050.1 0
16747.6 64368.0 0
22243.6 66015.9 0
33205.0 65438.4 0
38185.3 66022.2 0
42703.9 66175.6 0
47472.2 66081.7 0
52137.1 66181.4 0
57004.9 65021.0 0
62763.5 66096.8 0
67994.7 66230.3 0
72702.5 65362.7 0
77500.0 66109.7 0
82500.0 66098.9 0
87407.7 65397.2 0
92500.0 66137.1 0
97192.5 66158.6 0
101292.0 66075.7 0
105946.0 65465.2 0
111936.0 65944.4 0
117850.0 66129.5 0
123330.0 66206.2 0
128345.0 66327.1 0
133428.0 65575.8 0
138124.0 66259.3 0
142500.0 66180.4 0
147500.0 66114.0 0
152501.0 66083.8 0
157589.0 65711.3 0
162561.0 65866.5 0
167010.0 65408.2 0
171830.0 64291.2 0
177734.0 64329.5 0
182938.0 63515.7 0
183533.0 68583.8 0
187393.0 65370.5 0
192498.0 66532.2 0
196079.0 65694.6 0
201747.0 65055.0 0
207650.0 65819.2 0
212985.0 65154.7 0
218128.0 66240.7 0
222479.0 66253.1 0
225794.0 65482.1 0
230434.0 65354.2 0
235810.0 66352.2 0
241170.0 65056.5 0
246502.0 67057.9 0
252680.0 65041.9 0
259052.0 65516.5 0
263773.0 66605.0 0
268740.0 65513.9 0
273935.0 65809.2 0
278881.0 64460.6 0
282030.0 67793.1 0
286325.0 66100.8 0
291717.0 66556.8 0
297319.0 64425.3 0
303664.0 65209.4 0
307730.0 67779.7 0
312126.0 65634.3 0
317929.0 66251.1 0
323245.0 66156.6 0
327581.0 66427.7 0
332206.0 66026.2 0
337223.0 65735.4 0
341019.0 66946.3 0
345896.0 65281.2 0
350686.0 67204.5 0
355258.0 66187.5 0
361815.0 64828.0 0
367954.0 66161.1 0
377031.0 64817.3 0
382609.0 65691.5 0
388132.0 64992.3 0
394019.0 64308.2 0
399200.0 65976.8 0
408587.0 64446.2 0
412474.0 66096.8 0
417500.0 66142.8 0
422737.0 64253.6 0
427271.0 65962.2 0
432478.0 63765.5 0
437541.0 66119.1 0
442088.0 65060.7 0
446251.0 64641.4 0
450665.0 65409.2 0
455208.0 65348.9 0
460242.0 65192.6 0
465793.0 65582.0 0
471628.0 64838.5 0
477063.0 63642.0 0
481305.0 66505.2 0
485844.0 63574.2 0
491674.0 65112.9 0
497601.0 63606.3 0
2284.55 70856.9 0
6738.92 73581.2 0
11087.3 69568.1 0
17332.6 70270.2 0
23005.5 71526.0 0
28519.5 69102.7 0
34969.3 70713.0 0
40341.8 71031.5 0
44464.7 71373.2 0
48279.9 70076.2 0
52500.0 71141.6 0
57995.3 70462.3 0
62850.0 71196.3 0
67505.2 70868.1 0
72115.9 70482.4 0
77500.0 71267.8 0
82116.1 70913.9 0
87907.8 70155.0 0
92500.0 71276.8 0
97183.4 70905.5 0
102467.0 70810.3 0
108243.0 70056.3 0
112500.0 71213.1 0
117500.0 71294.6 0
122500.0 71217.5 0
127727.0 70760.2 0
132494.0 71111.0 0
137520.0 71125.8 0
142774.0 70603.0 0
146926.0 70951.0 0
151937.0 70828.6 0
156861.0 69760.5 0
161296.0 70580.7 0
166509.0 70080.0 0
172971.0 69860.1 0
178375.0 69741.7 0
188604.0 69816.0 0
193571.0 70676.4 0
198250.0 70039.3 0
203920.0 70674.7 0
213692.0 69705.0 0
209357.0 70889.0 0
217601.0 71311.4 0
222032.0 71077.5 0
226801.0 69717.2 0
232205.0 70779.1 0
237686.0 71603.5 0
243283.0 71427.7 0
248462.0 71131.4 0
252678.0 71602.0 0
257263.0 70155.0 0
262325.0 70780.6 0
267061.0 70356.8 0
271610.0 69660.0 0
277075.0 70063.8 0
282828.0 71479.8 0
287500.0 71191.1 0
292913.0 71047.9 0
298250.0 69935.7 0
303119.0 70879.9 0
307441.0 71072.7 0
312501.0 71385.7 0
317474.0 71126.4 0
322433.0 70624.6 0
327500.0 71171.3 0
332500.0 71243.7 0
337713.0 70576.8 0
343308.0 69971.4 0
347752.0 70367.5 0
352668.0 71094.3 0
361441.0 70140.6 0
357754.0 70607.7 0
365113.0 69832.8 0
372930.0 69646.4 0
378819.0 69368.1 0
382004.0 70506.4 0
388375.0 70080.5 0
393554.0 70455.2 0
402999.0 69433.5 0
398136.0 70890.0 0
408388.0 68727.0 0
412865.0 70038.9 0
417520.0 70658.4 0
422128.0 68890.3 0
428327.0 70904.5 0
424121.0 73707.5 0
433429.0 68998.6 0
437510.0 71187.5 0
443214.0 69342.9 0
447602.0 68651.4 0
451946.0 69886.7 0
457176.0 70075.9 0
462429.0 71566.0 0
466599.0 70151.7 0
470193.0 71332.0 0
475181.0 70131.5 0
480797.0 71780.2 0
486589.0 69763.4 0
492077.0 72013.7 0
496837.0 69115.5 0
2238.62 76780.8 0
11843.3 75397.4 0
16323.4 75477.4 0
20502.9 75487.4 0
27043.9 75935.3 0
32616.0 75768.7 0
38263.9 75544.2 0
42970.8 75931.2 0
47589.0 74797.3 0
51800.6 76562.3 0
56554.7 76082.5 0
62115.2 76052.2 0
67697.8 75712.0 0
73695.3 76025.1 0
78211.1 76465.2 0
81954.5 75640.0 0
86960.3 75670.8 0
92531.5 76027.7 0
97548.4 75424.8 0
102630.0 76572.3 0
107924.0 74836.2 0
116732.0 75897.7 0
112494.0 76109.9 0
120857.0 75747.8 0
125864.0 75128.2 0
131158.0 76827.0 0
136445.0 76779.3 0
140992.0 74723.8 0
146305.0 75842.3 0
151834.0 77440.1 0
156244.0 74321.2 0
161703.0 76271.3 0
166528.0 78089.6 0
169996.0 74646.5 0
176294.0 75499.4 0
182187.0 73722.8 0
188048.0 75977.6 0
194261.0 75702.6 0
199972.0 75144.4 0
208111.0 75797.6 0
204288.0 76139.6 0
213300.0 74515.8 0
217709.0 76245.1 0
222564.0 75351.8 0
226872.0 74722.1 0
232444.0 76243.8 0
237422.0 76029.4 0
241792.0 76682.7 0
246841.0 75199.5 0
251784.0 76493.2 0
257738.0 74907.0 0
262720.0 75558.2 0
267489.0 74811.3 0
273047.0 74900.0 0
279878.0 74127.1 0
283554.0 76412.6 0
287215.0 76480.2 0
291016.0 75354.2 0
296734.0 74979.1 0
302234.0 76114.7 0
307700.0 75502.5 0
313207.0 76627.7 0
318188.0 75616.3 0
322509.0 74629.8 0
326812.0 76511.3 0
336512.0 75241.3 0
331856.0 76226.9 0
341414.0 74176.8 0
346846.0 74754.1 0
351893.0 75929.3 0
356026.0 74481.7 0
361261.0 74842.7 0
357349.0 78439.2 0
366513.0 73913.7 0
366550.0 78606.4 0
371101.0 75787.1 0
377673.0 75303.1 0
384354.0 73844.0 0
392424.0 75277.9 0
388338.0 77032.3 0
397217.0 75237.7 0
402858.0 75674.5 0
409244.0 74371.9 0
414413.0 76926.2 0
419145.0 75347.7 0
427686.0 76743.7 0
432249.0 74621.9 0
437342.0 75359.0 0
442359.0 74579.9 0
448276.0 73724.4 0
446524.0 78721.2 0
454179.0 75290.8 0
458992.0 76340.5 0
463188.0 76103.5 0
467519.0 76210.2 0
472372.0 74654.0 0
477746.0 75602.1 0
482622.0 76475.0 0
487506.0 77578.0 0
491506.0 76075.1 0
496591.0 75684.2 0
2182.12 81194.8 0
8050.23 79421.7 0
13471.9 80024.3 0
11905.7 83764.4 0
17752.4 79321.7 0
22417.4 79860.9 0
26989.1 81858.2 0
32072.9 80056.1 0
37589.6 80748.9 0
43206.2 80994.3 0
49063.6 79588.6 0
53807.2 81263.0 0
59223.1 80761.3 0
63617.0 80383.8 0
68064.9 81383.8 0
72603.0 80900.7 0
77068.8 80384.5 0
82136.1 80661.0 0
87334.0 80844.5 0
92269.2 81358.3 0
97732.1 80777.0 0
102767.0 82028.7 0
107685.0 80334.4 0
113113.0 80439.1 0
118139.0 80373.8 0
123420.0 79735.4 0
127500.0 81291.9 0
137738.0 80693.3 0
132691.0 81655.0 0
142524.0 80842.7 0
148002.0 80450.4 0
156828.0 79715.1 0
153420.0 82093.4 0
160406.0 81084.2 0
164429.0 81793.1 0
170842.0 80675.6 0
177032.0 82067.4 0
182233.0 79201.3 0
186625.0 81612.0 0
191646.0 81098.9 0
197223.0 80429.8 0
203055.0 80283.7 0
208748.0 82143.7 0
214360.0 80186.6 0
218717.0 81494.0 0
222020.0 79609.4 0
227505.0 80272.4 0
234333.0 80623.2 0
237875.0 79353.4 0
241749.0 81283.3 0
246210.0 80384.7 0
251518.0 81751.6 0
255872.0 79622.3 0
260336.0 79291.9 0
262636.0 82866.4 0
266349.0 79493.4 0
271756.0 81168.8 0
278361.0 79630.0 0
284358.0 81151.6 0
288758.0 79633.7 0
292983.0 81349.4 0
298941.0 81279.0 0
303985.0 81511.5 0
307500.0 81335.3 0
316257.0 80330.7 0
312166.0 81154.1 0
321079.0 79854.8 0
325851.0 81444.1 0
329893.0 80053.3 0
334357.0 82050.5 0
339780.0 79567.7 0
346088.0 81008.7 0
352844.0 81504.9 0
361674.0 80830.4 0
367104.0 83513.6 0
371934.0 81421.0 0
377880.0 82754.4 0
382813.0 79360.0 0
387369.0 81217.6 0
393045.0 81950.1 0
399508.0 80844.2 0
408059.0 79720.7 0
404321.0 80871.1 0
412346.0 81389.9 0
416948.0 80729.8 0
421365.0 81975.8 0
425659.0 80371.0 0
431067.0 80813.8 0
437115.0 79553.8 0
441811.0 80165.6 0
450849.0 79218.3 0
455406.0 81063.5 0
461200.0 80752.5 0
466975.0 80536.1 0
472594.0 79613.4 0
478847.0 81101.2 0
484704.0 81616.1 0
489148.0 82340.2 0
492124.0 79930.5 0
496754.0 82326.7 0
1482.51 85869.3 0
7155.35 85729.5 0
12671.5 88269.6 0
17161.8 84501.0 0
23053.3 85245.0 0
30224.5 84595.7 0
28648.7 88642.0 0
34875.2 85389.9 0
39764.5 84813.0 0
43683.5 86646.9 0
48583.2 84813.0 0
53135.2 87264.3 0
57213.6 85153.5 0
63064.6 85158.8 0
68310.1 86559.4 0
73401.5 84958.8 0
72212.2 88837.5 0
78302.6 85532.9 0
83593.9 85601.7 0
88398.3 85661.8 0
92509.0 86200.5 0
97237.0 86192.4 0
101195.0 86258.1 0
105585.0 85850.6 0
111306.0 85023.0 0
116640.0 85631.9 0
122098.0 84925.6 0
126931.0 85333.5 0
131218.0 86035.5 0
136577.0 85243.4 0
142212.0 86536.1 0
147012.0 84727.6 0
151801.0 86660.0 0
157942.0 85653.0 0
167047.0 84667.6 0
163657.0 86278.5 0
171003.0 86683.7 0
176727.0 88358.7 0
182933.0 86121.3 0
193693.0 85184.5 0
189204.0 86017.4 0
198249.0 86317.1 0
203174.0 85384.5 0
207321.0 87524.3 0
212115.0 86395.4 0
216320.0 84803.7 0
221175.0 85143.3 0
226331.0 86910.3 0
231983.0 85121.7 0
237943.0 84089.3 0
242843.0 85939.9 0
248029.0 85462.8 0
252897.0 85779.7 0
257727.0 84804.5 0
262829.0 88445.5 0
267587.0 85445.4 0
272697.0 87053.8 0
278480.0 86284.4 0
283573.0 85738.3 0
288835.0 84954.2 0
293487.0 85947.3 0
297506.0 87324.6 0
302639.0 85816.8 0
307115.0 86176.8 0
311941.0 85895.4 0
316965.0 84767.5 0
322296.0 85450.3 0
330937.0 85568.3 0
327150.0 86314.6 0
341522.0 85061.5 0
337123.0 85947.0 0
346657.0 86976.1 0
351577.0 87155.4 0
357892.0 85017.5 0
362982.0 85804.6 0
370163.0 86962.3 0
374540.0 86976.6 0
383272.0 85371.4 0
388210.0 85398.1 0
392170.0 88196.5 0
397892.0 86781.4 0
403054.0 84846.8 0
408162.0 84570.8 0
414685.0 85037.8 0
417929.0 86290.7 0
422500.0 86836.5 0
427477.0 84820.4 0
431264.0 86242.5 0
436128.0 84538.4 0
441997.0 85825.8 0
448332.0 84232.3 0
454028.0 86224.3 0
459446.0 86365.0 0
464982.0 85643.1 0
473889.0 84829.8 0
469647.0 86494.8 0
477663.0 87903.0 0
481986.0 86054.9 0
486773.0 85951.0 0
492177.0 86507.7 0
497457.0 88062.3 0
2749.67 89907.3 0
7838.87 92250.3 0
18088.5 90271.3 0
23745.7 91003.3 0
28782.8 93985.0 0
33633.4 90946.4 0
39135.7 89654.0 0
43746.5 90856.7 0
48695.2 90782.7 0
54182.5 91968.7 0
59720.7 90164.9 0
64872.1 91264.8 0
68290.1 90748.7 0
76319.1 90428.2 0
81940.3 91022.3 0
87885.6 90730.8 0
96906.3 90765.4 0
92636.6 91126.7 0
101491.0 90895.1 0
106437.0 91186.9 0
111043.0 89872.4 0
115385.0 90348.2 0
120870.0 90950.2 0
127441.0 90597.8 0
133301.0 90488.6 0
138726.0 90975.5 0
143744.0 91143.0 0
148389.0 90745.3 0
152799.0 91250.1 0
157000.0 91350.6 0
161442.0 90128.2 0
166774.0 90019.4 0
172235.0 92468.0 0
177078.0 92683.9 0
181363.0 92732.1 0
186882.0 91018.7 0
192411.0 90525.0 0
197843.0 92025.3 0
202629.0 89960.5 0
206637.0 92136.4 0
210631.0 90923.2 0
216384.0 90698.3 0
222686.0 90786.2 0
228326.0 92455.1 0
233993.0 93610.9 0
236017.0 89072.1 0
240938.0 91506.6 0
246423.0 92058.4 0
250904.0 89929.8 0
256764.0 91011.9 0
268273.0 90801.5 0
272894.0 91950.8 0
277850.0 92294.0 0
282084.0 89668.6 0
287109.0 91040.1 0
293046.0 90366.7 0
297883.0 92681.7 0
301871.0 89743.7 0
306177.0 91657.4 0
311437.0 91623.4 0
316864.0 89892.7 0
322340.0 91370.5 0
328008.0 90925.6 0
333887.0 89797.3 0
337521.0 93225.2 0
342202.0 91042.1 0
347980.0 91728.1 0
355549.0 89280.7 0
352291.0 91432.8 0
356010.0 93876.6 0
360516.0 90546.2 0
366513.0 90656.3 0
372525.0 91918.7 0
378545.0 90326.7 0
383421.0 89509.8 0
387240.0 89868.9 0
383496.0 93956.8 0
390731.0 92829.8 0
396042.0 92604.9 0
400401.0 91080.7 0
405311.0 90087.4 0
411971.0 89155.1 0
417777.0 91025.8 0
422969.0 91705.7 0
427295.0 89073.9 0
432241.0 90833.2 0
437085.0 89870.1 0
441852.0 91432.1 0
447111.0 90397.2 0
452640.0 91413.3 0
458109.0 91726.7 0
462539.0 91324.0 0
466556.0 90325.2 0
471814.0 91061.4 0
476954.0 92622.3 0
482254.0 91411.9 0
487738.0 90799.4 0
492469.0 92364.1 0
497459.0 93146.1 0
3058.11 95707.0 0
8752.29 98133.9 0
13610.1 94117.3 0
18380.4 97853.0 0
23880.6 96705.4 0
33720.0 96650.4 0
38542.3 94839.4 0
43272.0 95113.8 0
49672.6 95675.8 0
53687.2 96713.7 0
58566.5 96032.8 0
63416.8 95211.5 0
67007.3 95674.2 0
68689.5 98956.3 0
71705.4 94173.4 0
77975.0 95758.5 0
83400.1 97104.3 0
88018.9 95763.7 0
93070.7 95745.7 0
98000.1 95235.0 0
105783.0 95623.4 0
102078.0 96888.2 0
110765.0 95226.1 0
116642.0 95127.4 0
126500.0 95859.2 0
122654.0 96418.4 0
131193.0 95183.3 0
135218.0 97009.0 0
139747.0 96527.1 0
145104.0 95736.9 0
150850.0 95796.0 0
156884.0 96707.9 0
162036.0 94791.1 0
167180.0 95116.4 0
171462.0 97792.7 0
176185.0 96408.6 0
180973.0 98334.1 0
185795.0 96303.2 0
191577.0 96404.4 0
197331.0 97555.1 0
202645.0 95397.3 0
207609.0 96159.2 0
212134.0 95303.7 0
217212.0 97085.7 0
223347.0 96756.0 0
228979.0 98449.7 0
233411.0 98078.0 0
238461.0 97271.2 0
243836.0 96548.8 0
248991.0 96160.5 0
252376.0 94202.9 0
255537.0 97112.6 0
262544.0 95606.9 0
268736.0 95770.2 0
273495.0 96497.4 0
278387.0 97683.5 0
282796.0 95047.1 0
287975.0 97031.0 0
293224.0 95700.5 0
297717.0 97960.9 0
302610.0 95590.9 0
308389.0 96573.5 0
313173.0 96165.6 0
317438.0 95647.0 0
325879.0 94904.7 0
322203.0 96946.5 0
329964.0 96089.0 0
335028.0 96634.7 0
340295.0 97043.2 0
345916.0 97765.3 0
351082.0 95899.3 0
360812.0 96423.0 0
366435.0 96401.0 0
371143.0 96855.2 0
377225.0 97583.5 0
387807.0 97132.4 0
392748.0 97159.3 0
398356.0 98119.7 0
403887.0 96124.4 0
409494.0 94752.3 0
414469.0 95001.8 0
417767.0 95161.0 0
416991.0 98885.9 0
420957.0 95517.3 0
427626.0 95584.9 0
433303.0 95199.6 0
437889.0 94849.4 0
442650.0 96325.5 0
448517.0 96281.7 0
453997.0 96279.0 0
458539.0 96696.5 0
462991.0 96476.4 0
467794.0 95305.2 0
472983.0 96807.5 0
479982.0 96525.7 0
484311.0 96379.8 0
488549.0 95926.0 0
492636.0 96518.6 0
497770.0 97906.4 0
2142.5 101612.0 0
7229.67 104213.0 0
13671.7 101761.0 0
18604.1 102795.0 0
22344.8 101191.0 0
27492.3 101638.0 0
32330.2 100902.0 0
37272.3 101449.0 0
42440.7 102772.0 0
46373.4 99476.7 0
51408.7 101864.0 0
57400.5 102163.0 0
63645.5 100381.0 0
73558.0 102025.0 0
79821.3 101237.0 0
85124.7 102029.0 0
90126.9 100245.0 0
95038.0 102101.0 0
98603.7 99410.4 0
101293.0 102767.0 0
105637.0 100133.0 0
111337.0 101563.0 0
118204.0 100698.0 0
123812.0 100946.0 0
128387.0 99276.2 0
133268.0 101353.0 0
137790.0 100467.0 0
141902.0 101319.0 0
147422.0 101048.0 0
152993.0 101003.0 0
157246.0 102622.0 0
161786.0 100359.0 0
167144.0 100087.0 0
170762.0 101824.0 0
176881.0 101403.0 0
182321.0 103155.0 0
186887.0 101330.0 0
191537.0 101709.0 0
196349.0 103002.0 0
201626.0 100870.0 0
207153.0 101127.0 0
212987.0 100814.0 0
219801.0 102174.0 0
224910.0 102077.0 0
228653.0 102543.0 0
232798.0 101859.0 0
236990.0 102512.0 0
242102.0 100800.0 0
246559.0 100525.0 0
251470.0 100125.0 0
257766.0 102379.0 0
262740.0 101681.0 0
268253.0 101387.0 0
274071.0 101459.0 0
279358.0 103207.0 0
284548.0 101080.0 0
289724.0 101961.0 0
293312.0 100057.0 0
296526.0 102882.0 0
302306.0 101276.0 0
307427.0 101838.0 0
312020.0 100338.0 0
316759.0 100241.0 0
321330.0 102080.0 0
326427.0 100531.0 0
331733.0 101040.0 0
337285.0 102344.0 0
342892.0 102374.0 0
346827.0 102332.0 0
351163.0 101075.0 0
356391.0 99445.0 0
361676.0 102528.0 0
366973.0 101272.0 0
371655.0 101337.0 0
382200.0 101509.0 0
378335.0 104190.0 0
386894.0 101857.0 0
391451.0 101667.0 0
395528.0 102419.0 0
400529.0 103229.0 0
405863.0 101898.0 0
411605.0 100276.0 0
417167.0 104013.0 0
422627.0 100517.0 0
428258.0 101670.0 0
432998.0 99843.7 0
438724.0 100496.0 0
444698.0 101206.0 0
450508.0 102961.0 0
455670.0 100673.0 0
461373.0 101565.0 0
468723.0 100530.0 0
465833.0 103208.0 0
473167.0 102380.0 0
477805.0 101037.0 0
482449.0 101208.0 0
486594.0 100081.0 0
486586.0 104285.0 0
490650.0 100533.0 0
495005.0 101887.0 0
2239.97 106184.0 0
12440.7 107824.0 0
18049.7 107251.0 0
23275.2 106045.0 0
29083.7 107611.0 0
32590.8 104376.0 0
35952.1 107268.0 0
40991.7 106990.0 0
47008.7 105959.0 0
52812.1 106608.0 0
57603.1 108323.0 0
62195.9 105776.0 0
67964.1 105842.0 0
73651.8 108731.0 0
78090.1 105833.0 0
82804.0 106745.0 0
88774.2 106567.0 0
93973.0 106944.0 0
97844.3 105468.0 0
101251.0 107053.0 0
105727.0 105626.0 0
110243.0 107002.0 0
115522.0 106577.0 0
121623.0 105778.0 0
128112.0 105315.0 0
137500.0 104409.0 0
133715.0 106188.0 0
142031.0 106587.0 0
148122.0 107630.0 0
153546.0 105823.0 0
157983.0 106801.0 0
163103.0 106197.0 0
173356.0 105071.0 0
168439.0 105357.0 0
177762.0 105845.0 0
181596.0 107727.0 0
186463.0 106597.0 0
191579.0 106220.0 0
195892.0 108753.0 0
201124.0 106462.0 0
207148.0 107188.0 0
212098.0 105747.0 0
216812.0 106960.0 0
221590.0 107778.0 0
226069.0 106605.0 0
231021.0 105891.0 0
235877.0 107150.0 0
241284.0 105709.0 0
246730.0 105461.0 0
252429.0 105637.0 0
257588.0 107627.0 0
263719.0 107184.0 0
269612.0 107051.0 0
274590.0 106441.0 0
279917.0 108551.0 0
284011.0 105541.0 0
288600.0 106976.0 0
292659.0 105383.0 0
298744.0 107585.0 0
303662.0 106229.0 0
307813.0 106155.0 0
312335.0 105566.0 0
317612.0 105279.0 0
323360.0 107069.0 0
328006.0 105196.0 0
332709.0 106153.0 0
337436.0 107657.0 0
345477.0 106047.0 0
341914.0 106303.0 0
349517.0 105267.0 0
355327.0 105645.0 0
360664.0 107716.0 0
366485.0 105992.0 0
373419.0 106488.0 0
378300.0 108686.0 0
383175.0 107154.0 0
392581.0 106038.0 0
388072.0 106262.0 0
397113.0 106277.0 0
408059.0 106655.0 0
403354.0 107376.0 0
412514.0 105522.0 0
421019.0 106064.0 0
425370.0 105702.0 0
431956.0 105487.0 0
437683.0 106735.0 0
443668.0 106788.0 0
450716.0 109393.0 0
454498.0 105919.0 0
458800.0 106856.0 0
463934.0 106681.0 0
469297.0 106018.0 0
474376.0 106916.0 0
479087.0 105925.0 0
483695.0 107609.0 0
491385.0 106353.0 0
497411.0 106504.0 0
2127.61 110552.0 0
6960.62 110098.0 0
12581.9 113233.0 0
16008.8 111259.0 0
20037.5 111537.0 0
24885.1 111296.0 0
32222.3 111977.0 0
37673.7 112870.0 0
43318.5 111413.0 0
48686.6 111957.0 0
53580.0 111136.0 0
57459.3 113234.0 0
62542.2 111008.0 0
67219.3 111093.0 0
71133.1 113499.0 0
79099.3 111352.0 0
84543.0 111343.0 0
88606.8 111603.0 0
92508.1 111051.0 0
97466.4 109860.0 0
102445.0 111479.0 0
107194.0 110378.0 0
111837.0 111165.0 0
117994.0 112085.0 0
123247.0 111010.0 0
127766.0 110703.0 0
132819.0 111258.0 0
138522.0 110512.0 0
143145.0 111416.0 0
151877.0 111416.0 0
147994.0 113605.0 0
156564.0 111634.0 0
161568.0 111130.0 0
166875.0 110233.0 0
173249.0 111292.0 0
178608.0 111441.0 0
183533.0 112378.0 0
189457.0 111447.0 0
193907.0 112576.0 0
199741.0 111479.0 0
203874.0 112060.0 0
208359.0 112327.0 0
212779.0 110406.0 0
219058.0 111708.0 0
223358.0 111277.0 0
227641.0 111307.0 0
232481.0 110601.0 0
237723.0 111612.0 0
242285.0 112031.0 0
246691.0 110299.0 0
251863.0 111887.0 0
257453.0 111924.0 0
262305.0 113412.0 0
267688.0 111240.0 0
271757.0 110802.0 0
276114.0 111270.0 0
284286.0 109954.0 0
288580.0 112215.0 0
293601.0 109925.0 0
298814.0 112346.0 0
302642.0 111175.0 0
306701.0 110026.0 0
311690.0 111259.0 0
316843.0 110111.0 0
321345.0 112003.0 0
324883.0 110961.0 0
328697.0 109908.0 0
334154.0 111776.0 0
339612.0 111565.0 0
344143.0 110264.0 0
350100.0 110923.0 0
356711.0 112491.0 0
363251.0 112381.0 0
369396.0 110780.0 0
374924.0 111807.0 0
379744.0 112657.0 0
384038.0 112783.0 0
388067.0 110762.0 0
397920.0 110457.0 0
393143.0 111110.0 0
401987.0 111702.0 0
406595.0 111279.0 0
412747.0 111418.0 0
418441.0 109448.0 0
423544.0 110868.0 0
428715.0 109509.0 0
433882.0 111971.0 0
440195.0 112901.0 0
445499.0 111506.0 0
448654.0 114056.0 0
456148.0 110999.0 0
463205.0 110725.0 0
460063.0 111465.0 0
467453.0 111282.0 0
472541.0 111215.0 0
477866.0 111254.0 0
482744.0 111857.0 0
487589.0 110852.0 0
492465.0 111541.0 0
497811.0 111265.0 0
3067.49 115661.0 0
8555.65 114597.0 0
7503.85 119016.0 0
12197.8 117780.0 0
16421.2 115431.0 0
21312.7 116440.0 0
27466.4 116651.0 0
32650.3 115783.0 0
37798.1 118236.0 0
42306.8 116564.0 0
47951.2 117466.0 0
53255.7 116092.0 0
58928.9 117125.0 0
62499.4 115430.0 0
66930.3 115530.0 0
71359.0 117680.0 0
76176.3 116544.0 0
80897.4 119209.0 0
82351.7 114948.0 0
86393.5 115284.0 0
91254.3 116134.0 0
96602.0 114981.0 0
101325.0 116141.0 0
106448.0 115546.0 0
112395.0 116677.0 0
118078.0 117512.0 0
123220.0 116262.0 0
128379.0 115206.0 0
133236.0 116741.0 0
138695.0 116244.0 0
143897.0 115458.0 0
146817.0 117843.0 0
143072.0 119583.0 0
152641.0 115847.0 0
158024.0 116111.0 0
162828.0 115264.0 0
168108.0 115685.0 0
172596.0 116970.0 0
177246.0 116728.0 0
182427.0 117335.0 0
187087.0 116333.0 0
192265.0 116600.0 0
197934.0 116199.0 0
202908.0 116043.0 0
207315.0 117029.0 0
212051.0 115350.0 0
217205.0 116778.0 0
222464.0 115500.0 0
227444.0 116850.0 0
232440.0 115307.0 0
231363.0 119442.0 0
237065.0 115926.0 0
241372.0 116502.0 0
246106.0 115315.0 0
254521.0 116358.0 0
250344.0 116898.0 0
258823.0 116986.0 0
267465.0 116576.0 0
272517.0 114689.0 0
272487.0 119341.0 0
277260.0 116551.0 0
283204.0 115346.0 0
288223.0 116770.0 0
292775.0 115530.0 0
297385.0 116299.0 0
302107.0 116316.0 0
306892.0 114754.0 0
316042.0 115006.0 0
311368.0 116775.0 0
320406.0 116424.0 0
326139.0 115749.0 0
332573.0 117828.0 0
338274.0 116824.0 0
343317.0 115209.0 0
345207.0 119607.0 0
348164.0 116409.0 0
353179.0 116963.0 0
358609.0 118008.0 0
363217.0 117872.0 0
372382.0 115949.0 0
367630.0 116338.0 0
377383.0 117311.0 0
382002.0 115840.0 0
387377.0 115387.0 0
391838.0 115827.0 0
396416.0 115039.0 0
401430.0 116605.0 0
406579.0 116142.0 0
411926.0 117779.0 0
417742.0 115373.0 0
422243.0 118300.0 0
428007.0 115718.0 0
435852.0 117243.0 0
440095.0 117852.0 0
444884.0 116661.0 0
448961.0 117169.0 0
453284.0 115774.0 0
458570.0 114888.0 0
463270.0 114918.0 0
468255.0 116339.0 0
473568.0 116397.0 0
478469.0 116166.0 0
481959.0 116700.0 0
485369.0 115313.0 0
490339.0 115427.0 0
495332.0 115520.0 0
2830.08 121568.0 0
9658.01 122869.0 0
12525.4 121418.0 0
17166.1 120971.0 0
23592.3 121873.0 0
28520.1 121738.0 0
32917.8 119891.0 0
32724.1 124591.0 0
37937.0 123902.0 0
44154.5 121925.0 0
48947.2 123615.0 0
51666.0 120582.0 0
56222.6 120672.0 0
61495.6 121104.0 0
67362.6 121031.0 0
73115.1 122047.0 0
78025.2 123052.0 0
86723.9 120909.0 0
92877.4 122118.0 0
98368.7 120354.0 0
101923.0 124648.0 0
103676.0 120295.0 0
108521.0 120943.0 0
113657.0 122059.0 0
118711.0 122814.0 0
123557.0 121296.0 0
128426.0 120381.0 0
133081.0 121262.0 0
137596.0 121621.0 0
141641.0 124153.0 0
146707.0 121889.0 0
150635.0 119783.0 0
155609.0 119864.0 0
161150.0 120147.0 0
167133.0 121763.0 0
172930.0 121258.0 0
178054.0 122238.0 0
183654.0 122100.0 0
189253.0 121073.0 0
194195.0 121121.0 0
203778.0 120261.0 0
199079.0 121849.0 0
208282.0 122070.0 0
213126.0 120608.0 0
217850.0 122083.0 0
222500.0 121252.0 0
227501.0 121428.0 0
231614.0 123628.0 0
235333.0 119969.0 0
241012.0 120894.0 0
246228.0 121164.0 0
252669.0 121644.0 0
257745.0 120777.0 0
257368.0 124116.0 0
262636.0 119908.0 0
268650.0 121293.0 0
276648.0 121599.0 0
282613.0 121125.0 0
287964.0 121183.0 0
293356.0 121010.0 0
298042.0 120167.0 0
302181.0 122224.0 0
306759.0 119628.0 0
311373.0 121997.0 0
317138.0 120693.0 0
322854.0 120959.0 0
326676.0 120699.0 0
331450.0 122241.0 0
328118.0 124199.0 0
335630.0 122725.0 0
340794.0 121520.0 0
349873.0 121031.0 0
355448.0 123195.0 0
361544.0 122587.0 0
367147.0 121737.0 0
372564.0 120864.0 0
377583.0 123046.0 0
382879.0 120494.0 0
389047.0 120360.0 0
397278.0 120220.0 0
393443.0 122512.0 0
402363.0 122244.0 0
407529.0 120851.0 0
411988.0 123085.0 0
417012.0 121073.0 0
421587.0 122929.0 0
426096.0 121824.0 0
432010.0 121114.0 0
437797.0 122199.0 0
443150.0 121681.0 0
447787.0 120851.0 0
452656.0 121692.0 0
457751.0 119737.0 0
463132.0 120091.0 0
468194.0 121485.0 0
473083.0 121560.0 0
478097.0 121004.0 0
482741.0 121315.0 0
487707.0 120218.0 0
493259.0 120256.0 0
497790.0 119810.0 0
497556.0 124458.0 0
2518.45 126910.0 0
7270.33 126312.0 0
12117.3 126646.0 0
17593.4 127246.0 0
23417.9 127932.0 0
28810.6 126247.0 0
39402.5 128870.0 0
43274.1 127357.0 0
47709.2 127435.0 0
52884.4 126275.0 0
58211.0 125448.0 0
64170.4 126707.0 0
71361.8 125590.0 0
69258.8 127654.0 0
75107.8 127419.0 0
81048.6 127218.0 0
87053.8 127571.0 0
96751.4 126174.0 0
92020.6 126700.0 0
107424.0 127037.0 0
113364.0 127055.0 0
118426.0 128074.0 0
123398.0 126362.0 0
128618.0 125546.0 0
133599.0 125792.0 0
137995.0 127431.0 0
145474.0 126751.0 0
150726.0 125495.0 0
156814.0 125090.0 0
162657.0 126214.0 0
170995.0 126124.0 0
175347.0 127851.0 0
183159.0 126052.0 0
179617.0 126924.0 0
187240.0 126155.0 0
192617.0 125729.0 0
197965.0 127489.0 0
202934.0 125270.0 0
206811.0 127630.0 0
210961.0 126179.0 0
215629.0 126398.0 0
221240.0 126473.0 0
227185.0 126788.0 0
237589.0 125660.0 0
243850.0 126365.0 0
248904.0 126136.0 0
254146.0 127773.0 0
260306.0 126155.0 0
265515.0 125076.0 0
272406.0 125645.0 0
279500.0 126369.0 0
285572.0 125253.0 0
284060.0 129512.0 0
290284.0 125125.0 0
293632.0 128496.0 0
297351.0 125363.0 0
302309.0 127327.0 0
306882.0 125103.0 0
312363.0 128049.0 0
318328.0 126511.0 0
323488.0 125908.0 0
332371.0 126694.0 0
340946.0 126099.0 0
337052.0 127311.0 0
345692.0 124899.0 0
350918.0 127008.0 0
359291.0 127392.0 0
364354.0 127084.0 0
368943.0 126401.0 0
373329.0 125734.0 0
377200.0 128130.0 0
381329.0 126320.0 0
386962.0 126503.0 0
393352.0 127366.0 0
398527.0 125799.0 0
402914.0 127184.0 0
407775.0 126252.0 0
415878.0 126883.0 0
421177.0 128187.0 0
424598.0 125860.0 0
428963.0 126397.0 0
434131.0 126093.0 0
438737.0 127382.0 0
442788.0 126043.0 0
447719.0 126115.0 0
453045.0 126714.0 0
458331.0 125542.0 0
463625.0 124908.0 0
463600.0 129450.0 0
468161.0 126812.0 0
473597.0 125972.0 0
471813.0 129671.0 0
478149.0 126163.0 0
482808.0 125515.0 0
481100.0 129506.0 0
487497.0 125801.0 0
492502.0 125208.0 0
496002.0 129738.0 0
2475.48 131904.0 0
7677.05 131334.0 0
12004.5 130846.0 0
15771.6 132280.0 0
20838.9 132977.0 0
26808.4 132320.0 0
34065.2 129981.0 0
40054.6 133114.0 0
44706.2 131822.0 0
48760.5 131146.0 0
53066.3 131448.0 0
59516.5 130541.0 0
63885.6 131844.0 0
67606.7 131104.0 0
71692.3 131045.0 0
78263.1 130926.0 0
82471.6 132209.0 0
87140.6 133161.0 0
91999.0 131340.0 0
96999.8 131289.0 0
102127.0 130540.0 0
106970.0 132915.0 0
111124.0 131349.0 0
115819.0 132718.0 0
121102.0 132721.0 0
126570.0 131067.0 0
132454.0 130765.0 0
137140.0 131901.0 0
142292.0 131033.0 0
147728.0 130500.0 0
152626.0 131149.0 0
157521.0 130174.0 0
162025.0 131784.0 0
167210.0 130214.0 0
172467.0 131272.0 0
178178.0 132184.0 0
183468.0 129976.0 0
186112.0 134378.0 0
190431.0 130746.0 0
195416.0 132191.0 0
203351.0 130625.0 0
199786.0 132809.0 0
208223.0 131610.0 0
212607.0 130678.0 0
217697.0 131083.0 0
223410.0 131322.0 0
227690.0 131785.0 0
232727.0 131011.0 0
237913.0 131677.0 0
242249.0 130556.0 0
246577.0 130451.0 0
251456.0 132236.0 0
257660.0 132045.0 0
262657.0 130276.0 0
268086.0 130334.0 0
266315.0 134773.0 0
273563.0 132355.0 0
279476.0 132564.0 0
284957.0 134651.0 0
289118.0 130224.0 0
293861.0 132716.0 0
298812.0 131111.0 0
302795.0 130791.0 0
302714.0 133950.0 0
307469.0 130660.0 0
307446.0 134594.0 0
312804.0 133867.0 0
316382.0 131430.0 0
321289.0 131530.0 0
327598.0 130077.0 0
333607.0 131676.0 0
340750.0 130232.0 0
337889.0 133185.0 0
346463.0 131453.0 0
352479.0 131828.0 0
358046.0 132974.0 0
362683.0 130948.0 0
367601.0 131677.0 0
373234.0 130859.0 0
377756.0 132864.0 0
383127.0 131731.0 0
388874.0 132384.0 0
397598.0 130216.0 0
393912.0 132644.0 0
401996.0 131802.0 0
407555.0 132054.0 0
417737.0 131045.0 0
413357.0 132078.0 0
420739.0 132329.0 0
426079.0 131773.0 0
432065.0 130870.0 0
436732.0 131225.0 0
442765.0 131064.0 0
448812.0 133214.0 0
453409.0 130886.0 0
458511.0 132069.0 0
467767.0 132128.0 0
472250.0 134713.0 0
476449.0 131195.0 0
481591.0 134775.0 0
485659.0 130466.0 0
490710.0 131501.0 0
3211.23 137032.0 0
8257.8 136434.0 0
12763.2 136070.0 0
17406.6 137038.0 0
22006.5 137573.0 0
26229.5 137104.0 0
30953.0 135605.0 0
35933.0 135719.0 0
40009.7 138844.0 0
43630.1 135807.0 0
47755.5 135178.0 0
51809.3 135507.0 0
52669.8 139702.0 0
56830.0 135728.0 0
62579.7 135858.0 0
67171.2 136282.0 0
72521.1 136231.0 0
77992.2 135024.0 0
78841.1 139779.0 0
82526.2 136634.0 0
86293.9 137228.0 0
90159.8 136475.0 0
95222.1 136312.0 0
101125.0 136209.0 0
106555.0 137937.0 0
111795.0 136212.0 0
118333.0 137389.0 0
123281.0 137147.0 0
132214.0 136082.0 0
127624.0 136187.0 0
137231.0 136500.0 0
141708.0 137773.0 0
146469.0 135495.0 0
151573.0 137960.0 0
156132.0 135117.0 0
161834.0 138084.0 0
169286.0 136597.0 0
175976.0 137958.0 0
181606.0 136992.0 0
190993.0 136051.0 0
195754.0 136866.0 0
200539.0 137988.0 0
204963.0 135145.0 0
208466.0 137392.0 0
206274.0 139711.0 0
211616.0 135244.0 0
216502.0 136402.0 0
221703.0 135728.0 0
226694.0 136278.0 0
231954.0 135282.0 0
230980.0 139678.0 0
236064.0 136564.0 0
241434.0 135049.0 0
246762.0 135563.0 0
251417.0 136487.0 0
256142.0 137151.0 0
261549.0 135618.0 0
265490.0 140024.0 0
270640.0 137236.0 0
276599.0 137312.0 0
290187.0 135090.0 0
288336.0 139844.0 0
293757.0 137337.0 0
297271.0 135534.0 0
298770.0 139931.0 0
304641.0 138658.0 0
310129.0 137177.0 0
313927.0 138628.0 0
316961.0 135574.0 0
326197.0 135460.0 0
321557.0 137505.0 0
327811.0 139969.0 0
331855.0 136659.0 0
336696.0 137199.0 0
341785.0 136110.0 0
346628.0 137328.0 0
350388.0 135759.0 0
354412.0 137040.0 0
363421.0 136291.0 0
368528.0 136899.0 0
372652.0 135550.0 0
376987.0 138013.0 0
381262.0 136241.0 0
385749.0 136850.0 0
391603.0 137398.0 0
397805.0 136298.0 0
403436.0 136778.0 0
408193.0 137171.0 0
412655.0 137245.0 0
417328.0 135744.0 0
422294.0 136075.0 0
427069.0 138462.0 0
433144.0 136804.0 0
438898.0 135285.0 0
443938.0 136655.0 0
448492.0 139061.0 0
453765.0 135839.0 0
457909.0 137984.0 0
463038.0 136530.0 0
468113.0 136895.0 0
472251.0 139858.0 0
476531.0 136231.0 0
483445.0 139900.0 0
487407.0 135378.0 0
492246.0 137913.0 0
497268.0 135390.0 0
2743.24 142461.0 0
8042.81 141456.0 0
14921.6 141271.0 0
11765.2 143937.0 0
19909.5 141849.0 0
25329.0 141947.0 0
32699.9 142400.0 0
42538.7 143814.0 0
47202.2 140453.0 0
52162.2 145130.0 0
57753.5 141969.0 0
63751.5 141218.0 0
69579.4 141574.0 0
74694.8 142112.0 0
82761.4 141401.0 0
87411.8 141660.0 0
93077.7 141735.0 0
98832.4 141569.0 0
103893.0 142122.0 0
107222.0 141944.0 0
111638.0 142084.0 0
116413.0 144773.0 0
120398.0 142116.0 0
124184.0 141415.0 0
128406.0 140812.0 0
132872.0 140417.0 0
136853.0 141191.0 0
141100.0 141956.0 0
146522.0 141463.0 0
151900.0 143351.0 0
156635.0 141557.0 0
160655.0 143625.0 0
166704.0 142865.0 0
172255.0 141582.0 0
170863.0 145017.0 0
179233.0 141572.0 0
184127.0 142195.0 0
189315.0 140566.0 0
193668.0 141468.0 0
197503.0 141049.0 0
202966.0 141835.0 0
207411.0 144496.0 0
212255.0 141082.0 0
216806.0 140934.0 0
220974.0 140561.0 0
221749.0 144807.0 0
225739.0 141246.0 0
235664.0 141487.0 0
240542.0 140296.0 0
244735.0 144620.0 0
248381.0 140340.0 0
252558.0 140130.0 0
251356.0 145121.0 0
259971.0 140210.0 0
256057.0 142155.0 0
261841.0 144794.0 0
270071.0 144054.0 0
272928.0 140705.0 0
275665.0 141291.0 0
278053.0 144332.0 0
281961.0 140165.0 0
293476.0 142010.0 0
297213.0 144814.0 0
303006.0 145136.0 0
309147.0 140841.0 0
312953.0 143370.0 0
317699.0 140540.0 0
323366.0 142693.0 0
332500.0 141316.0 0
336870.0 141810.0 0
342208.0 141685.0 0
351679.0 140581.0 0
347217.0 141699.0 0
354429.0 144197.0 0
357651.0 140579.0 0
363233.0 142645.0 0
368505.0 141161.0 0
373400.0 142377.0 0
382575.0 140273.0 0
379099.0 142418.0 0
387079.0 142449.0 0
392323.0 143583.0 0
395893.0 141029.0 0
400749.0 141493.0 0
405935.0 141116.0 0
411228.0 142420.0 0
416962.0 141572.0 0
422189.0 140977.0 0
426356.0 144020.0 0
431391.0 142501.0 0
437982.0 140709.0 0
443845.0 142537.0 0
453591.0 141066.0 0
449070.0 143411.0 0
458351.0 142182.0 0
462239.0 141520.0 0
467266.0 141899.0 0
472915.0 145057.0 0
478242.0 140996.0 0
482524.0 144363.0 0
487729.0 140050.0 0
492458.0 142902.0 0
497114.0 140991.0 0
2122.1 147286.0 0
6629.62 146390.0 0
10874.5 147590.0 0
16444.9 146517.0 0
22132.8 146648.0 0
26805.1 146522.0 0
31181.1 150201.0 0
38046.7 147843.0 0
44045.9 148331.0 0
47182.2 145584.0 0
57345.5 148067.0 0
62695.8 146597.0 0
67631.1 146917.0 0
72734.0 146657.0 0
77869.6 146031.0 0
83358.2 146115.0 0
88734.3 146621.0 0
93487.8 146594.0 0
97430.6 146205.0 0
102461.0 147333.0 0
107419.0 145195.0 0
111801.0 148449.0 0
120437.0 147979.0 0
125857.0 145737.0 0
131745.0 145140.0 0
137377.0 146070.0 0
143319.0 146854.0 0
148470.0 146413.0 0
152878.0 147881.0 0
157300.0 146557.0 0
163242.0 145981.0 0
168107.0 148279.0 0
175911.0 145590.0 0
181671.0 147405.0 0
186374.0 150147.0 0
189133.0 145813.0 0
194263.0 146212.0 0
199453.0 145400.0 0
203612.0 147423.0 0
210865.0 148173.0 0
216143.0 146458.0 0
221800.0 149469.0 0
226488.0 146517.0 0
232442.0 145664.0 0
238431.0 145417.0 0
241206.0 149890.0 0
245772.0 149969.0 0
256819.0 146682.0 0
266226.0 148142.0 0
274196.0 146790.0 0
278166.0 150043.0 0
283491.0 146481.0 0
289033.0 145171.0 0
293268.0 147520.0 0
298394.0 150022.0 0
308805.0 146047.0 0
318356.0 145817.0 0
324039.0 148142.0 0
328792.0 145193.0 0
334066.0 146943.0 0
339592.0 146351.0 0
344933.0 146149.0 0
349989.0 145684.0 0
358650.0 147302.0 0
363897.0 148238.0 0
368161.0 145876.0 0
372313.0 147114.0 0
376962.0 146953.0 0
382471.0 145914.0 0
387497.0 146929.0 0
392129.0 147691.0 0
396150.0 146404.0 0
401229.0 146962.0 0
406693.0 146279.0 0
411220.0 147292.0 0
415490.0 146610.0 0
421158.0 146562.0 0
428523.0 147527.0 0
430961.0 146930.0 0
435835.0 146730.0 0
442045.0 148476.0 0
446664.0 146901.0 0
451287.0 148128.0 0
456077.0 145852.0 0
461499.0 146571.0 0
466931.0 147307.0 0
470975.0 150050.0 0
478057.0 146466.0 0
487864.0 145179.0 0
493643.0 146804.0 0
498089.0 145673.0 0
2813.61 152079.0 0
8165.89 151334.0 0
12894.4 150699.0 0
11899.3 154666.0 0
20384.4 151226.0 0
16332.0 151348.0 0
25268.6 152457.0 0
37228.6 153184.0 0
41794.9 152194.0 0
47446.3 152315.0 0
53101.9 151624.0 0
58687.8 153357.0 0
63565.5 151750.0 0
68268.0 151314.0 0
72453.6 151506.0 0
77185.4 151144.0 0
86321.9 150239.0 0
82034.8 151224.0 0
91303.7 151159.0 0
87014.7 155261.0 0
96817.5 150605.0 0
101396.0 153224.0 0
107501.0 153424.0 0
116464.0 151183.0 0
113001.0 153276.0 0
121274.0 152714.0 0
126005.0 151898.0 0
132122.0 151524.0 0
137819.0 151710.0 0
142840.0 152244.0 0
147532.0 150966.0 0
152628.0 152524.0 0
157561.0 151546.0 0
162712.0 150483.0 0
167292.0 153308.0 0
172608.0 150780.0 0
171989.0 155219.0 0
177851.0 150886.0 0
182304.0 152501.0 0
188242.0 155122.0 0
192082.0 150683.0 0
196621.0 151377.0 0
201110.0 150880.0 0
206767.0 150680.0 0
212749.0 151292.0 0
214027.0 154647.0 0
217643.0 152374.0 0
222151.0 154961.0 0
226798.0 151624.0 0
231546.0 151291.0 0
236388.0 150319.0 0
235731.0 155061.0 0
240054.0 153263.0 0
243733.0 154171.0 0
250430.0 151013.0 0
255178.0 150864.0 0
260748.0 150973.0 0
266799.0 153663.0 0
271140.0 150448.0 0
283292.0 153319.0 0
288465.0 150466.0 0
293486.0 152420.0 0
303462.0 150688.0 0
303668.0 154686.0 0
308194.0 151056.0 0
314357.0 151164.0 0
319273.0 150769.0 0
322914.0 153892.0 0
328968.0 150751.0 0
333146.0 151153.0 0
336742.0 151101.0 0
342592.0 151513.0 0
347881.0 150655.0 0
346990.0 154210.0 0
353212.0 150367.0 0
357776.0 152983.0 0
362518.0 153053.0 0
367793.0 151525.0 0
373566.0 151743.0 0
382651.0 151166.0 0
378336.0 151459.0 0
387500.0 151465.0 0
390840.0 151267.0 0
394209.0 150858.0 0
397989.0 150863.0 0
400640.0 155247.0 0
405861.0 152310.0 0
412257.0 151925.0 0
417885.0 151430.0 0
423011.0 151828.0 0
427877.0 151417.0 0
432790.0 151888.0 0
437676.0 152375.0 0
441768.0 153144.0 0
447083.0 151156.0 0
452132.0 153290.0 0
456331.0 150800.0 0
461274.0 152226.0 0
466168.0 151890.0 0
470795.0 155239.0 0
476162.0 151492.0 0
482656.0 150364.0 0
488909.0 150745.0 0
492846.0 153598.0 0
497008.0 150456.0 0
2316.09 156520.0 0
2879.56 160352.0 0
7488.63 156181.0 0
13296.3 159064.0 0
17721.6 155590.0 0
22192.4 156184.0 0
25713.8 156982.0 0
29624.6 158772.0 0
33500.7 155785.0 0
36829.5 158207.0 0
41261.0 157423.0 0
46266.1 157543.0 0
51637.4 156969.0 0
56874.6 157619.0 0
62241.2 157207.0 0
67515.7 156029.0 0
72506.4 156118.0 0
81266.9 156345.0 0
76625.2 157180.0 0
92308.7 156427.0 0
97255.4 156448.0 0
102435.0 158374.0 0
106772.0 158568.0 0
111799.0 157252.0 0
117643.0 156724.0 0
123436.0 156450.0 0
128783.0 156952.0 0
134059.0 156565.0 0
137961.0 156296.0 0
142163.0 156245.0 0
147504.0 156765.0 0
152869.0 157457.0 0
158962.0 155933.0 0
162909.0 155855.0 0
162990.0 160241.0 0
167203.0 157947.0 0
177728.0 156423.0 0
183253.0 157182.0 0
193898.0 155978.0 0
196806.0 160051.0 0
199055.0 155699.0 0
204158.0 156137.0 0
209491.0 155748.0 0
213591.0 158914.0 0
217434.0 156757.0 0
220482.0 159796.0 0
226340.0 155486.0 0
225383.0 159334.0 0
230558.0 156817.0 0
240026.0 157218.0 0
245170.0 160253.0 0
250365.0 156406.0 0
256477.0 156292.0 0
262643.0 156600.0 0
267377.0 159180.0 0
272519.0 156090.0 0
278324.0 155857.0 0
282852.0 158858.0 0
289989.0 155963.0 0
294961.0 156868.0 0
293417.0 160442.0 0
299386.0 155377.0 0
303739.0 159838.0 0
307824.0 156214.0 0
313038.0 157355.0 0
317923.0 155573.0 0
320305.0 159897.0 0
324621.0 158461.0 0
327990.0 155789.0 0
333198.0 155438.0 0
339000.0 156806.0 0
344324.0 156793.0 0
351176.0 156466.0 0
358163.0 157364.0 0
362969.0 157958.0 0
367649.0 156889.0 0
372887.0 157374.0 0
376885.0 159959.0 0
377591.0 156137.0 0
387666.0 155920.0 0
383033.0 156332.0 0
390579.0 156808.0 0
391380.0 160193.0 0
394661.0 155477.0 0
400517.0 159625.0 0
404214.0 158550.0 0
409727.0 157773.0 0
416361.0 157210.0 0
422812.0 157486.0 0
428624.0 156249.0 0
433383.0 156707.0 0
438577.0 157627.0 0
448820.0 156017.0 0
444221.0 156941.0 0
452094.0 157279.0 0
457219.0 157058.0 0
462826.0 156706.0 0
466793.0 157975.0 0
476400.0 157872.0 0
482885.0 157104.0 0
488671.0 156267.0 0
492895.0 157320.0 0
497140.0 156319.0 0
2104.65 164509.0 0
7660.86 160642.0 0
12523.0 164424.0 0
17519.6 160482.0 0
18520.4 165520.0 0
21981.3 160470.0 0
24345.7 165247.0 0
25924.5 160875.0 0
33841.2 161637.0 0
38550.9 161675.0 0
43314.6 162483.0 0
47500.0 161278.0 0
47482.0 165453.0 0
51975.5 162616.0 0
58911.5 162173.0 0
64498.8 162397.0 0
69008.7 161125.0 0
73878.0 160587.0 0
71690.8 165473.0 0
77217.8 161004.0 0
80691.8 161448.0 0
77191.6 164622.0 0
86321.8 161568.0 0
92811.4 161435.0 0
93313.2 165541.0 0
98242.8 161709.0 0
103094.0 162338.0 0
109028.0 161747.0 0
113212.0 161363.0 0
122442.0 161233.0 0
117544.0 162433.0 0
126563.0 161844.0 0
122473.0 165301.0 0
131864.0 161302.0 0
136845.0 160844.0 0
140199.0 163158.0 0
144006.0 161533.0 0
150410.0 161328.0 0
153045.0 165338.0 0
157085.0 161152.0 0
161579.0 165180.0 0
167630.0 162611.0 0
173048.0 160853.0 0
183029.0 161792.0 0
178837.0 162489.0 0
186680.0 160501.0 0
191842.0 160857.0 0
190262.0 165147.0 0
201799.0 161147.0 0
207325.0 160853.0 0
212321.0 164745.0 0
216949.0 161951.0 0
222870.0 164256.0 0
229372.0 161851.0 0
232628.0 165413.0 0
235824.0 160540.0 0
240223.0 162240.0 0
248620.0 165155.0 0
252493.0 161416.0 0
254994.0 165476.0 0
257216.0 161751.0 0
262356.0 161381.0 0
272615.0 162198.0 0
277796.0 160878.0 0
281554.0 164605.0 0
289758.0 160736.0 0
285973.0 162360.0 0
292799.0 165262.0 0
297871.0 161377.0 0
303423.0 165132.0 0
309258.0 161779.0 0
315431.0 162774.0 0
323692.0 163420.0 0
328767.0 161443.0 0
334659.0 160750.0 0
332685.0 165389.0 0
338218.0 163006.0 0
342802.0 161939.0 0
348333.0 161270.0 0
354571.0 161187.0 0
358832.0 161325.0 0
358289.0 165144.0 0
362305.0 162011.0 0
366732.0 161928.0 0
371987.0 162758.0 0
377264.0 164262.0 0
380638.0 160612.0 0
386648.0 161109.0 0
392796.0 164929.0 0
396438.0 161185.0 0
401632.0 164700.0 0
407475.0 163236.0 0
413219.0 163067.0 0
418108.0 162252.0 0
422107.0 162640.0 0
426877.0 161094.0 0
431420.0 160994.0 0
429096.0 165291.0 0
436288.0 162972.0 0
442100.0 162283.0 0
447549.0 161198.0 0
452803.0 161467.0 0
457499.0 163132.0 0
461585.0 160923.0 0
461735.0 165478.0 0
465841.0 162031.0 0
470827.0 161034.0 0
476634.0 163795.0 0
480519.0 161521.0 0
485119.0 162147.0 0
491128.0 162114.0 0
497364.0 161810.0 0
6793.29 166138.0 0
12819.2 169851.0 0
23734.8 170613.0 0
30115.2 165616.0 0
35415.9 167054.0 0
39873.5 165730.0 0
43534.9 167768.0 0
47741.0 170216.0 0
51744.6 167455.0 0
56705.5 167202.0 0
61964.5 167213.0 0
66638.4 166893.0 0
82291.6 166435.0 0
88449.9 167886.0 0
94100.2 169755.0 0
97500.0 166312.0 0
107094.0 165886.0 0
102236.0 166112.0 0
112290.0 165614.0 0
113637.0 170456.0 0
117489.0 167048.0 0
122392.0 169693.0 0
132589.0 166061.0 0
127669.0 166810.0 0
137654.0 165786.0 0
135399.0 169542.0 0
142126.0 166222.0 0
139961.0 170492.0 0
147636.0 166004.0 0
157497.0 167032.0 0
162223.0 170609.0 0
165667.0 166867.0 0
171229.0 166720.0 0
176234.0 166713.0 0
180326.0 167161.0 0
184959.0 165580.0 0
188825.0 169250.0 0
195404.0 165634.0 0
198162.0 170346.0 0
201310.0 166601.0 0
206583.0 166926.0 0
218105.0 166280.0 0
221939.0 169596.0 0
227523.0 166866.0 0
238165.0 166226.0 0
243791.0 166588.0 0
247330.0 170627.0 0
251701.0 168484.0 0
259925.0 165647.0 0
256817.0 170627.0 0
266658.0 166222.0 0
272632.0 167143.0 0
276489.0 165745.0 0
277769.0 170175.0 0
282670.0 170103.0 0
287001.0 166950.0 0
298711.0 167244.0 0
304166.0 170142.0 0
307680.0 166434.0 0
312792.0 168050.0 0
319111.0 167141.0 0
323805.0 167644.0 0
328218.0 167086.0 0
337214.0 166787.0 0
341746.0 167177.0 0
346957.0 166667.0 0
352961.0 166466.0 0
357563.0 170495.0 0
363852.0 166404.0 0
368575.0 166040.0 0
372516.0 166635.0 0
373386.0 170293.0 0
378061.0 169362.0 0
383137.0 165581.0 0
388492.0 166813.0 0
392116.0 169884.0 0
396697.0 166708.0 0
408624.0 167829.0 0
412939.0 168030.0 0
417500.0 166211.0 0
423655.0 166541.0 0
427086.0 170357.0 0
432842.0 166471.0 0
436283.0 170134.0 0
439598.0 166623.0 0
445091.0 166274.0 0
449570.0 165928.0 0
453928.0 166274.0 0
458053.0 167694.0 0
462487.0 169713.0 0
466235.0 166740.0 0
472008.0 167060.0 0
477068.0 168412.0 0
481396.0 166144.0 0
487086.0 167366.0 0
492809.0 168010.0 0
497596.0 166844.0 0
3506.58 171590.0 0
8912.79 171403.0 0
7860.66 175467.0 0
18045.9 171730.0 0
29009.0 171412.0 0
33721.4 171216.0 0
38524.6 171536.0 0
43678.4 172488.0 0
52003.6 172012.0 0
56979.3 172609.0 0
61796.1 171921.0 0
66399.9 171485.0 0
71634.0 171358.0 0
78211.2 171839.0 0
84122.8 171180.0 0
87688.2 172961.0 0
92062.4 175070.0 0
99300.4 171009.0 0
103853.0 172447.0 0
108319.0 170851.0 0
118188.0 171493.0 0
121263.0 174983.0 0
126888.0 171755.0 0
131334.0 170906.0 0
129829.0 175171.0 0
135551.0 175341.0 0
141806.0 175359.0 0
145194.0 171138.0 0
151681.0 171447.0 0
157461.0 172200.0 0
167836.0 171184.0 0
173460.0 172357.0 0
178656.0 171135.0 0
183497.0 171127.0 0
188006.0 175137.0 0
193401.0 171879.0 0
197865.0 175371.0 0
202225.0 171925.0 0
207011.0 172095.0 0
212376.0 171145.0 0
210414.0 175727.0 0
217312.0 170745.0 0
215936.0 175267.0 0
222030.0 175738.0 0
226296.0 171662.0 0
231236.0 170809.0 0
232868.0 175277.0 0
236066.0 171408.0 0
240758.0 171252.0 0
243287.0 175733.0 0
251815.0 172491.0 0
259269.0 175465.0 0
262021.0 170764.0 0
266298.0 173550.0 0
272433.0 171887.0 0
276853.0 174742.0 0
287575.0 172434.0 0
294279.0 171879.0 0
299741.0 172059.0 0
306027.0 175738.0 0
308989.0 171414.0 0
315365.0 172953.0 0
311332.0 174466.0 0
320388.0 172152.0 0
326100.0 172384.0 0
333160.0 171551.0 0
339147.0 172072.0 0
343441.0 171197.0 0
347375.0 171466.0 0
351812.0 172014.0 0
363014.0 171440.0 0
368208.0 170880.0 0
372172.0 174908.0 0
377871.0 175355.0 0
382810.0 171731.0 0
388003.0 172537.0 0
397057.0 171058.0 0
392970.0 175100.0 0
402872.0 171372.0 0
407559.0 171379.0 0
411392.0 172323.0 0
416297.0 171175.0 0
421524.0 170972.0 0
431837.0 172621.0 0
442626.0 171539.0 0
449563.0 171555.0 0
454946.0 170943.0 0
459033.0 171976.0 0
462382.0 174182.0 0
466447.0 171602.0 0
470794.0 172227.0 0
475071.0 171968.0 0
479813.0 172459.0 0
485458.0 173026.0 0
491394.0 172219.0 0
496535.0 172321.0 0
3164.77 178253.0 0
13198.5 175761.0 0
18016.5 177704.0 0
22913.6 176244.0 0
28302.8 176556.0 0
33684.9 176125.0 0
38744.3 176474.0 0
42462.6 176320.0 0
47500.0 176087.0 0
52558.0 176408.0 0
57797.7 177923.0 0
62773.9 176387.0 0
67039.9 176286.0 0
67614.2 180672.0 0
72935.3 177409.0 0
78321.3 177638.0 0
82589.4 176232.0 0
87056.7 176876.0 0
97669.7 176299.0 0
102295.0 176118.0 0
102672.0 180665.0 0
107409.0 176684.0 0
111197.0 180757.0 0
113346.0 175873.0 0
117556.0 177224.0 0
125792.0 177677.0 0
147624.0 177489.0 0
152815.0 176797.0 0
152332.0 180785.0 0
156959.0 176677.0 0
162562.0 176723.0 0
168611.0 176703.0 0
178545.0 176221.0 0
173681.0 177731.0 0
183146.0 177852.0 0
193371.0 176687.0 0
190720.0 180073.0 0
202704.0 176121.0 0
202302.0 179807.0 0
206537.0 176485.0 0
212683.0 179947.0 0
217356.0 179694.0 0
227890.0 176127.0 0
231884.0 180332.0 0
237576.0 175884.0 0
240965.0 179979.0 0
248665.0 176100.0 0
254448.0 176162.0 0
257958.0 179519.0 0
262858.0 177268.0 0
267435.0 179245.0 0
270744.0 176170.0 0
272737.0 180261.0 0
277837.0 179439.0 0
282833.0 176259.0 0
288072.0 177766.0 0
292398.0 177435.0 0
298266.0 176353.0 0
302093.0 180405.0 0
310185.0 177286.0 0
314051.0 177974.0 0
318485.0 176203.0 0
318496.0 180771.0 0
322500.0 176373.0 0
325749.0 180738.0 0
328894.0 177052.0 0
333249.0 177927.0 0
337018.0 175941.0 0
341124.0 175860.0 0
346186.0 175991.0 0
357136.0 175813.0 0
352140.0 178121.0 0
361938.0 176353.0 0
367473.0 177649.0 0
383977.0 177777.0 0
389039.0 177294.0 0
393859.0 180775.0 0
398548.0 176479.0 0
404604.0 176531.0 0
408305.0 176535.0 0
411601.0 176616.0 0
415648.0 175971.0 0
413408.0 180803.0 0
420774.0 176461.0 0
427258.0 176910.0 0
432708.0 176690.0 0
437828.0 176741.0 0
443855.0 177788.0 0
448897.0 177677.0 0
453712.0 175778.0 0
458584.0 176067.0 0
455863.0 180046.0 0
466454.0 176482.0 0
471665.0 176884.0 0
476743.0 176547.0 0
482110.0 177331.0 0
489724.0 176344.0 0
493000.0 178333.0 0
497149.0 178315.0 0
2175.08 183500.0 0
6289.99 182452.0 0
11599.4 181877.0 0
17536.7 182167.0 0
22463.8 181915.0 0
27690.2 181617.0 0
32846.4 181505.0 0
37849.1 181008.0 0
42860.5 181109.0 0
47500.0 181171.0 0
52500.0 181090.0 0
57471.1 182384.0 0
62273.8 181444.0 0
72220.4 183129.0 0
81627.4 181137.0 0
77001.1 181526.0 0
86238.8 180997.0 0
91741.1 181483.0 0
97809.6 181687.0 0
106903.0 182830.0 0
102893.0 185683.0 0
115541.0 181555.0 0
120820.0 180874.0 0
117789.0 185924.0 0
126021.0 182509.0 0
131558.0 181159.0 0
137589.0 181528.0 0
135063.0 185033.0 0
143032.0 181968.0 0
148507.0 183296.0 0
156773.0 181358.0 0
161249.0 182573.0 0
165865.0 181234.0 0
170814.0 181661.0 0
176299.0 182304.0 0
181147.0 181367.0 0
186185.0 183371.0 0
191881.0 184812.0 0
195904.0 181008.0 0
201235.0 184765.0 0
207014.0 181499.0 0
211857.0 185716.0 0
217581.0 184412.0 0
221317.0 181243.0 0
222973.0 185894.0 0
226104.0 180957.0 0
228683.0 185917.0 0
233716.0 185299.0 0
236932.0 182443.0 0
241134.0 185328.0 0
246406.0 182067.0 0
252566.0 181431.0 0
257179.0 183988.0 0
262514.0 182314.0 0
268885.0 185228.0 0
276234.0 183665.0 0
283412.0 183298.0 0
290027.0 182284.0 0
296068.0 181537.0 0
305288.0 184922.0 0
308499.0 181254.0 0
313707.0 183105.0 0
316787.0 185926.0 0
322152.0 183494.0 0
331013.0 182489.0 0
336305.0 181612.0 0
342218.0 181260.0 0
347988.0 182191.0 0
352469.0 183778.0 0
357716.0 181679.0 0
363372.0 181275.0 0
372129.0 181028.0 0
367627.0 183759.0 0
377596.0 181319.0 0
382670.0 184046.0 0
388203.0 182165.0 0
397810.0 184637.0 0
403548.0 182330.0 0
409206.0 183074.0 0
418015.0 181412.0 0
417019.0 185952.0 0
422331.0 181502.0 0
427432.0 183663.0 0
432985.0 180947.0 0
437053.0 181667.0 0
442560.0 183277.0 0
447415.0 181051.0 0
451703.0 181631.0 0
461826.0 181360.0 0
468601.0 182061.0 0
474668.0 181970.0 0
480001.0 181438.0 0
481988.0 185415.0 0
486586.0 181559.0 0
493164.0 182709.0 0
498364.0 182635.0 0
2648.32 187781.0 0
6704.61 186321.0 0
11883.7 188664.0 0
17237.5 186665.0 0
21689.6 186789.0 0
26625.8 186819.0 0
32269.6 186960.0 0
37800.7 186078.0 0
42911.0 186225.0 0
48373.5 186044.0 0
53049.3 186272.0 0
57491.6 186669.0 0
62500.0 186257.0 0
67351.0 186280.0 0
72974.1 187466.0 0
77089.9 186454.0 0
80945.2 186441.0 0
86598.3 186170.0 0
92662.8 188077.0 0
98143.0 186731.0 0
107106.0 188184.0 0
112144.0 186058.0 0
127517.0 186224.0 0
123040.0 187592.0 0
131675.0 187964.0 0
139792.0 187661.0 0
146644.0 188531.0 0
153455.0 186580.0 0
159438.0 187118.0 0
162838.0 190104.0 0
165968.0 186448.0 0
171465.0 186888.0 0
177279.0 188523.0 0
183203.0 188653.0 0
188837.0 188959.0 0
195937.0 188662.0 0
201229.0 190201.0 0
206403.0 188233.0 0
216415.0 190158.0 0
233919.0 190125.0 0
236981.0 186990.0 0
246166.0 188494.0 0
251684.0 186873.0 0
258379.0 188977.0 0
263482.0 187905.0 0
274516.0 187907.0 0
270708.0 190748.0 0
279025.0 186725.0 0
284481.0 189677.0 0
288599.0 187033.0 0
293685.0 187232.0 0
300200.0 186574.0 0
305013.0 188903.0 0
308890.0 187173.0 0
313481.0 188112.0 0
320577.0 187633.0 0
326686.0 187174.0 0
333861.0 187444.0 0
338665.0 185986.0 0
342799.0 186723.0 0
347415.0 187162.0 0
352858.0 188603.0 0
357815.0 187464.0 0
362632.0 186096.0 0
367022.0 188104.0 0
371864.0 186500.0 0
377441.0 187245.0 0
382625.0 188405.0 0
386622.0 187695.0 0
391984.0 186956.0 0
396543.0 188754.0 0
401644.0 189051.0 0
406986.0 187278.0 0
411808.0 186776.0 0
422566.0 187239.0 0
427263.0 189366.0 0
432185.0 187541.0 0
437979.0 186887.0 0
442951.0 188830.0 0
448193.0 186106.0 0
452071.0 189277.0 0
455966.0 185959.0 0
461566.0 187918.0 0
466225.0 186571.0 0
471899.0 188287.0 0
477523.0 186769.0 0
481329.0 189257.0 0
486495.0 188877.0 0
491854.0 187817.0 0
497014.0 187398.0 0
199565.0 195119.0 0
204475.0 192765.0 0
210790.0 191381.0 0
222470.0 191625.0 0
227958.0 191322.0 0
231460.0 194667.0 0
236553.0 193451.0 0
240340.0 191109.0 0
244603.0 194164.0 0
248995.0 193041.0 0
253470.0 191636.0 0
257902.0 194534.0 0
261359.0 192043.0 0
262175.0 195126.0 0
265891.0 192796.0 0
271471.0 195886.0 0
278604.0 192205.0 0
283463.0 194322.0 0
289821.0 191579.0 0
287257.0 195887.0 0
297138.0 191944.0 0
302388.0 192490.0 0
204439.0 196898.0 0
209449.0 196370.0 0
212341.0 200584.0 0
215731.0 196265.0 0
221138.0 197006.0 0
223359.0 200925.0 0
226642.0 197041.0 0
231813.0 199974.0 0
235319.0 196622.0 0
236722.0 200287.0 0
240447.0 197208.0 0
245799.0 199314.0 0
252387.0 196573.0 0
250599.0 200874.0 0
256857.0 200934.0 0
262924.0 199197.0 0
268034.0 200031.0 0
276419.0 197572.0 0
280939.0 197457.0 0
284566.0 198753.0 0
288822.0 201178.0 0
293226.0 196460.0 0
299486.0 197312.0 0
200565.0 201406.0 0
206823.0 201384.0 0
213592.0 205665.0 0
218216.0 201940.0 0
227340.0 203000.0 0
231676.0 205347.0 0
236090.0 204348.0 0
240956.0 202930.0 0
246377.0 205181.0 0
252212.0 205609.0 0
261597.0 204337.0 0
266661.0 205262.0 0
273345.0 202253.0 0
278896.0 201475.0 0
276907.0 206240.0 0
283257.0 202338.0 0
281086.0 205395.0 0
294307.0 202056.0 0
291470.0 206117.0 0
298362.0 202019.0 0
10310.7 211214.0 0
202161.0 207784.0 0
208341.0 206883.0 0
210328.0 210888.0 0
218680.0 207315.0 0
215193.0 211204.0 0
223708.0 206934.0 0
228230.0 207562.0 0
231211.0 209954.0 0
237005.0 209781.0 0
240597.0 207010.0 0
243162.0 209783.0 0
248814.0 210559.0 0
254687.0 210758.0 0
257463.0 206826.0 0
261855.0 209653.0 0
271774.0 207014.0 0
274604.0 210284.0 0
279543.0 209100.0 0
283537.0 211311.0 0
285903.0 206380.0 0
289172.0 210910.0 0
293919.0 210218.0 0
297267.0 206616.0 0
341742.0 208878.0 0
201804.0 214909.0 0
206113.0 212286.0 0
211438.0 215733.0 0
220808.0 211543.0 0
222262.0 216407.0 0
226487.0 212507.0 0
232130.0 215025.0 0
237053.0 215164.0 0
241904.0 215219.0 0
247658.0 216457.0 0
253228.0 215907.0 0
258639.0 214425.0 0
268411.0 211733.0 0
278616.0 213181.0 0
282870.0 215567.0 0
293026.0 215421.0 0
297982.0 212771.0 0
309756.0 212744.0 0
404603.0 216000.0 0
6878.9 221024.0 0
48261.5 218638.0 0
167796.0 220886.0 0
174681.0 217663.0 0
201361.0 219686.0 0
206246.0 217595.0 0
210417.0 221403.0 0
216914.0 216742.0 0
215508.0 221433.0 0
220077.0 220859.0 0
228037.0 217017.0 0
225519.0 220510.0 0
231418.0 221157.0 0
237507.0 220078.0 0
253774.0 221253.0 0
258819.0 219619.0 0
262729.0 216984.0 0
267372.0 218010.0 0
273143.0 216596.0 0
279213.0 218904.0 0
287189.0 217136.0 0
292821.0 220703.0 0
297889.0 219280.0 0
317421.0 220963.0 0
357807.0 220470.0 0
362467.0 218887.0 0
368610.0 218669.0 0
374583.0 221311.0 0
389098.0 217734.0 0
421499.0 217271.0 0
437044.0 220560.0 0
443009.0 216918.0 0
455114.0 217300.0 0
461586.0 221161.0 0
472319.0 218043.0 0
476569.0 221287.0 0
492537.0 219020.0 0
497243.0 216868.0 0
14254.8 225577.0 0
56374.4 222552.0 0
63868.7 222561.0 0
68827.6 223580.0 0
75161.9 225616.0 0
79658.9 224314.0 0
85031.3 225012.0 0
96187.4 222828.0 0
100416.0 222275.0 0
107589.0 224012.0 0
111005.0 225856.0 0
115161.0 224314.0 0
121008.0 224207.0 0
126005.0 221995.0 0
131855.0 226318.0 0
137504.0 225331.0 0
154054.0 224617.0 0
158565.0 224011.0 0
173221.0 226739.0 0
177286.0 221716.0 0
178735.0 225082.0 0
191569.0 222868.0 0
196244.0 223796.0 0
200883.0 224044.0 0
205139.0 222489.0 0
207996.0 225486.0 0
213357.0 226303.0 0
217845.0 225101.0 0
222320.0 225025.0 0
227456.0 225809.0 0
238126.0 226032.0 0
242306.0 223097.0 0
248058.0 222522.0 0
259057.0 224027.0 0
255503.0 225790.0 0
263576.0 222174.0 0
261792.0 226474.0 0
269202.0 223128.0 0
274268.0 221857.0 0
273097.0 226152.0 0
277796.0 225571.0 0
284341.0 222112.0 0
282146.0 225894.0 0
288860.0 221734.0 0
287765.0 225886.0 0
292969.0 225707.0 0
297460.0 224283.0 0
309917.0 224249.0 0
322450.0 222354.0 0
391311.0 224412.0 0
396056.0 225851.0 0
423600.0 225222.0 0
466760.0 226423.0 0
471850.0 225020.0 0
481239.0 222379.0 0
497839.0 226319.0 0
8033.11 231213.0 0
17655.2 228893.0 0
22442.4 226892.0 0
30433.9 226797.0 0
36537.1 227330.0 0
40985.6 231734.0 0
48339.7 229541.0 0
53010.0 229539.0 0
88220.9 231003.0 0
93065.2 228929.0 0
97919.2 231053.0 0
119140.0 231204.0 0
124379.0 229102.0 0
142262.0 227583.0 0
146000.0 231035.0 0
150902.0 228906.0 0
178042.0 228583.0 0
204079.0 227133.0 0
199532.0 231655.0 0
209313.0 229859.0 0
215064.0 231837.0 0
220060.0 229094.0 0
225948.0 230791.0 0
233019.0 226890.0 0
230700.0 231645.0 0
236385.0 231383.0 0
241699.0 227883.0 0
241423.0 231658.0 0
245359.0 227031.0 0
251061.0 227395.0 0
257880.0 229674.0 0
262773.0 230704.0 0
267220.0 228176.0 0
271753.0 230602.0 0
284677.0 228386.0 0
280753.0 230127.0 0
287948.0 230842.0 0
292568.0 230619.0 0
296828.0 228790.0 0
300502.0 231203.0 0
304860.0 231697.0 0
308760.0 230882.0 0
318278.0 231087.0 0
322451.0 227066.0 0
326630.0 227825.0 0
330913.0 228099.0 0
335045.0 230758.0 0
339605.0 227443.0 0
345114.0 229635.0 0
383597.0 231845.0 0
388726.0 228927.0 0
393964.0 230734.0 0
407296.0 230004.0 0
417127.0 226917.0 0
422388.0 230688.0 0
426612.0 228791.0 0
431907.0 229494.0 0
436080.0 231331.0 0
439714.0 227782.0 0
444222.0 230040.0 0
449230.0 226933.0 0
458451.0 229799.0 0
462790.0 227610.0 0
479717.0 227663.0 0
484429.0 227743.0 0
489239.0 230668.0 0
2631.23 234183.0 0
14588.8 232401.0 0
18911.2 234728.0 0
30589.4 232998.0 0
37311.7 235330.0 0
45936.2 233210.0 0
54909.3 236199.0 0
85759.2 236218.0 0
91010.0 236351.0 0
92904.6 233937.0 0
96476.5 235375.0 0
102310.0 233161.0 0
105708.0 236251.0 0
113050.0 233219.0 0
126262.0 233309.0 0
137141.0 234769.0 0
132697.0 236688.0 0
155278.0 232272.0 0
166524.0 236046.0 0
169989.0 231991.0 0
177569.0 232752.0 0
183085.0 234406.0 0
188922.0 233056.0 0
194746.0 234329.0 0
204404.0 232273.0 0
208773.0 235068.0 0
218415.0 236926.0 0
222083.0 233360.0 0
226654.0 235621.0 0
231894.0 236835.0 0
237319.0 236798.0 0
242504.0 236294.0 0
247380.0 232456.0 0
253470.0 231902.0 0
252149.0 236825.0 0
257611.0 235459.0 0
262742.0 235403.0 0
267283.0 233511.0 0
272536.0 236304.0 0
276232.0 232056.0 0
278428.0 236188.0 0
284102.0 235027.0 0
290977.0 235971.0 0
296387.0 233535.0 0
305457.0 235631.0 0
309713.0 235045.0 0
314014.0 233788.0 0
342101.0 233036.0 0
348027.0 233190.0 0
360423.0 235994.0 0
364943.0 232192.0 0
368691.0 234826.0 0
377600.0 233054.0 0
385630.0 236577.0 0
390690.0 232857.0 0
394399.0 235524.0 0
398809.0 232885.0 0
398411.0 236903.0 0
403236.0 233757.0 0
412976.0 232325.0 0
415149.0 236769.0 0
431773.0 235016.0 0
473827.0 234447.0 0
478880.0 232883.0 0
483291.0 236481.0 0
492521.0 234666.0 0
497266.0 234423.0 0
4198.95 239286.0 0
10165.2 237436.0 0
8211.08 241243.0 0
21754.5 240883.0 0
27252.5 237051.0 0
31965.1 239536.0 0
44551.6 238691.0 0
49617.5 239627.0 0
53511.7 241169.0 0
60744.6 237248.0 0
65233.2 240392.0 0
73247.1 239285.0 0
79797.4 239784.0 0
100409.0 237544.0 0
97591.4 240979.0 0
118044.0 238508.0 0
122206.0 240507.0 0
125707.0 241730.0 0
127597.0 238037.0 0
140009.0 238996.0 0
145853.0 239013.0 0
157949.0 241182.0 0
162385.0 241961.0 0
169946.0 239751.0 0
175196.0 238087.0 0
178322.0 241600.0 0
182125.0 239648.0 0
204247.0 237787.0 0
208492.0 240551.0 0
212998.0 238231.0 0
222785.0 237257.0 0
221535.0 241195.0 0
226387.0 240562.0 0
242597.0 241358.0 0
247180.0 238829.0 0
251017.0 241955.0 0
255658.0 240689.0 0
261566.0 240798.0 0
265988.0 239268.0 0
276311.0 242039.0 0
281573.0 239640.0 0
286620.0 240591.0 0
296247.0 239667.0 0
301919.0 238665.0 0
308862.0 239662.0 0
312813.0 239039.0 0
329672.0 241356.0 0
335177.0 238265.0 0
341691.0 237930.0 0
350533.0 240683.0 0
368277.0 240329.0 0
373639.0 237245.0 0
380959.0 237835.0 0
388242.0 239815.0 0
402468.0 238659.0 0
406830.0 241272.0 0
411664.0 239766.0 0
417627.0 241581.0 0
440796.0 240270.0 0
462565.0 237430.0 0
468005.0 239089.0 0
472750.0 240123.0 0
488293.0 237929.0 0
494690.0 239373.0 0
1396.57 242277.0 0
9024.03 246122.0 0
11918.4 242718.0 0
16619.4 242187.0 0
22141.1 246370.0 0
31750.6 244278.0 0
40529.6 243157.0 0
36111.9 243528.0 0
42506.5 246800.0 0
55082.9 245271.0 0
71070.6 245620.0 0
75981.4 244174.0 0
87177.6 247116.0 0
101262.0 242094.0 0
115988.0 245336.0 0
121376.0 246144.0 0
127453.0 245176.0 0
132217.0 242771.0 0
137709.0 244252.0 0
134374.0 247128.0 0
142940.0 246884.0 0
150246.0 242429.0 0
159503.0 246541.0 0
166757.0 244538.0 0
170964.0 246345.0 0
173828.0 242906.0 0
178095.0 245863.0 0
182575.0 244425.0 0
188423.0 246355.0 0
198191.0 246012.0 0
203599.0 243369.0 0
208334.0 245592.0 0
212184.0 243127.0 0
217001.0 243794.0 0
221885.0 246446.0 0
227461.0 246301.0 0
231035.0 242177.0 0
236952.0 242746.0 0
244005.0 246800.0 0
247334.0 243282.0 0
249419.0 246651.0 0
253932.0 246883.0 0
259256.0 245341.0 0
265044.0 244064.0 0
270041.0 243087.0 0
282382.0 244572.0 0
287572.0 246757.0 0
291671.0 243133.0 0
296089.0 245304.0 0
305267.0 242441.0 0
310186.0 246044.0 0
315851.0 242866.0 0
321609.0 242633.0 0
326129.0 245832.0 0
332766.0 245749.0 0
345721.0 243090.0 0
355714.0 242177.0 0
359390.0 245845.0 0
365233.0 244888.0 0
371514.0 244797.0 0
376826.0 242288.0 0
382983.0 245128.0 0
392773.0 244282.0 0
397327.0 242119.0 0
402414.0 243418.0 0
405524.0 246381.0 0
418256.0 246746.0 0
423877.0 246797.0 0
430432.0 244329.0 0
435876.0 242664.0 0
443743.0 244559.0 0
448497.0 242629.0 0
457751.0 246070.0 0
463509.0 246181.0 0
472922.0 244446.0 0
477904.0 244568.0 0
490331.0 242513.0 0
492549.0 246369.0 0
498185.0 242465.0 0
12432.9 251757.0 0
18261.9 251718.0 0
27556.0 247394.0 0
35807.4 250893.0 0
40409.5 251601.0 0
47221.1 247514.0 0
57767.4 249010.0 0
62118.7 250517.0 0
66580.1 248659.0 0
78232.9 249546.0 0
83627.7 251812.0 0
92596.4 249565.0 0
101304.0 247318.0 0
105416.0 247725.0 0
110427.0 249607.0 0
115498.0 251438.0 0
119859.0 249799.0 0
125026.0 248576.0 0
136926.0 247425.0 0
145130.0 250889.0 0
149278.0 249016.0 0
152637.0 252255.0 0
154955.0 247818.0 0
162950.0 248857.0 0
175791.0 250612.0 0
179935.0 249263.0 0
193802.0 249185.0 0
202876.0 248971.0 0
208374.0 251056.0 0
213345.0 247786.0 0
218054.0 250298.0 0
223604.0 251377.0 0
229037.0 251284.0 0
232907.0 247183.0 0
238284.0 248963.0 0
247734.0 251408.0 0
252004.0 250264.0 0
255720.0 252191.0 0
263833.0 248075.0 0
260652.0 251286.0 0
265215.0 252079.0 0
268011.0 247480.0 0
269725.0 251629.0 0
272691.0 247559.0 0
278031.0 248369.0 0
283191.0 249916.0 0
292515.0 248570.0 0
296868.0 249313.0 0
305811.0 249919.0 0
301395.0 250460.0 0
309215.0 251043.0 0
315912.0 248734.0 0
329885.0 247775.0 0
332502.0 250673.0 0
337497.0 250566.0 0
344487.0 251483.0 0
350089.0 251022.0 0
354804.0 249559.0 0
359342.0 251375.0 0
363529.0 249498.0 0
368250.0 249953.0 0
375763.0 248190.0 0
379842.0 250759.0 0
383935.0 250828.0 0
388117.0 248662.0 0
420703.0 250472.0 0
428710.0 250307.0 0
448865.0 247503.0 0
453540.0 248824.0 0
469551.0 247564.0 0
473869.0 248563.0 0
480010.0 250041.0 0
485101.0 248644.0 0
497345.0 247363.0 0
2385.26 256810.0 0
19755.7 256242.0 0
31572.7 253892.0 0
42563.5 255519.0 0
59411.4 256877.0 0
73236.5 255632.0 0
88025.0 252624.0 0
98112.3 253265.0 0
103476.0 256693.0 0
119756.0 253687.0 0
124322.0 252606.0 0
127047.0 256909.0 0
137186.0 254684.0 0
157044.0 252365.0 0
182816.0 257353.0 0
188845.0 257280.0 0
203858.0 254061.0 0
208072.0 256546.0 0
213629.0 253356.0 0
217762.0 257063.0 0
220713.0 253689.0 0
223042.0 256981.0 0
226282.0 254369.0 0
233879.0 252341.0 0
230318.0 256202.0 0
238180.0 253983.0 0
235414.0 257278.0 0
242503.0 252492.0 0
245780.0 256956.0 0
251494.0 255410.0 0
256396.0 257248.0 0
262262.0 256122.0 0
267761.0 256434.0 0
274715.0 253059.0 0
281330.0 254252.0 0
284671.0 257247.0 0
288142.0 252575.0 0
293578.0 253366.0 0
297771.0 252968.0 0
320548.0 252823.0 0
327915.0 255331.0 0
332244.0 254607.0 0
373783.0 255928.0 0
391305.0 256271.0 0
396224.0 252830.0 0
401114.0 254788.0 0
405441.0 256905.0 0
415232.0 257308.0 0
443848.0 252995.0 0
441300.0 257260.0 0
447423.0 256847.0 0
460614.0 254008.0 0
468386.0 255762.0 0
475351.0 253765.0 0
482264.0 256556.0 0
486287.0 254194.0 0
491602.0 255782.0 0
6006.39 260506.0 0
11457.4 257894.0 0
17628.4 261939.0 0
23726.9 257469.0 0
28043.2 258225.0 0
31549.5 261198.0 0
37894.0 257750.0 0
44669.6 260172.0 0
48901.4 258348.0 0
53337.5 260442.0 0
57735.5 260350.0 0
78992.8 257461.0 0
81396.5 261779.0 0
84814.0 257678.0 0
108327.0 258121.0 0
131487.0 261442.0 0
133529.0 257392.0 0
141682.0 257437.0 0
147366.0 259343.0 0
157006.0 261699.0 0
162148.0 261397.0 0
166764.0 260356.0 0
172721.0 260518.0 0
178009.0 257680.0 0
195076.0 259543.0 0
203963.0 259605.0 0
208985.0 261788.0 0
212464.0 258117.0 0
220830.0 261324.0 0
226900.0 260506.0 0
232157.0 261019.0 0
237585.0 262019.0 0
240555.0 257447.0 0
242700.0 261167.0 0
251771.0 259989.0 0
259937.0 260282.0 0
255609.0 262434.0 0
264650.0 260974.0 0
269298.0 261058.0 0
272922.0 258218.0 0
278143.0 257743.0 0
290899.0 257970.0 0
296526.0 257786.0 0
307859.0 262031.0 0
320417.0 258416.0 0
324961.0 258340.0 0
339112.0 260532.0 0
349617.0 257741.0 0
356286.0 258659.0 0
361855.0 261472.0 0
366109.0 258909.0 0
370489.0 259202.0 0
373349.0 262205.0 0
382120.0 262270.0 0
410203.0 258826.0 0
420447.0 257958.0 0
424465.0 260804.0 0
429055.0 260354.0 0
436061.0 258768.0 0
452098.0 258627.0 0
463371.0 258328.0 0
472620.0 258658.0 0
478625.0 258925.0 0
475464.0 261945.0 0
488314.0 258066.0 0
497634.0 259599.0 0
10345.6 263320.0 0
14356.5 264254.0 0
21198.9 264124.0 0
23712.7 267472.0 0
73587.4 266894.0 0
88732.2 263016.0 0
94616.0 263720.0 0
99836.4 266755.0 0
115852.0 264225.0 0
124424.0 265547.0 0
129417.0 265860.0 0
137331.0 267439.0 0
151889.0 263106.0 0
182877.0 266259.0 0
190151.0 266477.0 0
204533.0 265387.0 0
209812.0 266757.0 0
215424.0 262726.0 0
219383.0 266638.0 0
223890.0 264409.0 0
228551.0 266288.0 0
233632.0 265402.0 0
241571.0 265442.0 0
247669.0 262869.0 0
260839.0 266015.0 0
267630.0 265899.0 0
275667.0 262992.0 0
282089.0 262573.0 0
282938.0 267543.0 0
288380.0 263123.0 0
294169.0 263047.0 0
291011.0 267551.0 0
304833.0 266459.0 0
313339.0 263591.0 0
318165.0 262673.0 0
333604.0 264110.0 0
344315.0 262674.0 0
345237.0 267191.0 0
348224.0 264641.0 0
375332.0 265572.0 0
377846.0 262807.0 0
386421.0 262498.0 0
396070.0 267457.0 0
405148.0 267477.0 0
412280.0 265312.0 0
416387.0 266967.0 0
425494.0 264747.0 0
434661.0 263769.0 0
439140.0 265573.0 0
444448.0 263280.0 0
452878.0 267186.0 0
456662.0 263728.0 0
461427.0 265176.0 0
465643.0 267228.0 0
478873.0 264609.0 0
484076.0 263012.0 0
2520.43 269000.0 0
27712.7 268386.0 0
35470.8 271077.0 0
31330.3 271491.0 0
38957.8 269456.0 0
64003.3 269586.0 0
69034.9 269498.0 0
78890.1 268721.0 0
83595.1 271172.0 0
106851.0 269870.0 0
102136.0 271484.0 0
111993.0 269337.0 0
115838.0 269987.0 0
122579.0 271621.0 0
132091.0 269273.0 0
141484.0 269076.0 0
178121.0 267712.0 0
173534.0 269097.0 0
187621.0 271913.0 0
198863.0 267908.0 0
194183.0 269715.0 0
206165.0 269866.0 0
214272.0 268449.0 0
210207.0 271360.0 0
219003.0 271520.0 0
223634.0 268968.0 0
227926.0 271929.0 0
232406.0 269871.0 0
237508.0 267915.0 0
241299.0 271212.0 0
249634.0 267644.0 0
245265.0 268288.0 0
254552.0 267894.0 0
251078.0 271747.0 0
268059.0 271110.0 0
273080.0 268006.0 0
278626.0 267887.0 0
282246.0 272313.0 0
286583.0 267705.0 0
286579.0 271382.0 0
295789.0 268361.0 0
292295.0 272112.0 0
296350.0 271865.0 0
320801.0 269919.0 0
326082.0 268904.0 0
339966.0 269911.0 0
344226.0 271137.0 0
348323.0 268971.0 0
353398.0 270143.0 0
377578.0 271676.0 0
387759.0 269202.0 0
391971.0 270400.0 0
417562.0 271360.0 0
422843.0 269632.0 0
431748.0 267764.0 0
429251.0 272407.0 0
448734.0 270861.0 0
444373.0 272433.0 0
457920.0 268684.0 0
488519.0 270950.0 0
493893.0 269636.0 0
58276.5 274222.0 0
62760.5 274373.0 0
79117.6 273540.0 0
85357.4 275843.0 0
89677.3 277011.0 0
114635.0 277207.0 0
118035.0 273502.0 0
119205.0 277662.0 0
148593.0 276782.0 0
177642.0 277341.0 0
182265.0 275529.0 0
186511.0 275615.0 0
204006.0 277420.0 0
204357.0 272963.0 0
209786.0 276811.0 0
214471.0 273266.0 0
219172.0 276209.0 0
215089.0 277668.0 0
223352.0 273738.0 0
226785.0 276704.0 0
232142.0 277087.0 0
236315.0 272972.0 0
237492.0 277261.0 0
241630.0 276290.0 0
246217.0 273469.0 0
251264.0 276310.0 0
256302.0 273875.0 0
262861.0 272722.0 0
261118.0 277742.0 0
267903.0 276576.0 0
272177.0 273128.0 0
273126.0 277562.0 0
277010.0 272811.0 0
279255.0 277114.0 0
284088.0 277262.0 0
288281.0 274968.0 0
292285.0 277588.0 0
296140.0 275091.0 0
334097.0 274156.0 0
338749.0 273118.0 0
362728.0 277646.0 0
367860.0 276054.0 0
374256.0 276390.0 0
383309.0 273811.0 0
388742.0 276269.0 0
440415.0 273356.0 0
449043.0 275911.0 0
472532.0 276039.0 0
476982.0 275489.0 0
483950.0 273080.0 0
18980.9 282053.0 0
23860.2 278138.0 0
46285.1 282572.0 0
57656.8 280904.0 0
154063.0 277858.0 0
160451.0 278572.0 0
164978.0 282301.0 0
172783.0 279108.0 0
175845.0 280980.0 0
207137.0 281596.0 0
212541.0 281765.0 0
216903.0 281200.0 0
222789.0 278197.0 0
221028.0 282413.0 0
226469.0 281873.0 0
231406.0 282172.0 0
236716.0 282221.0 0
242994.0 281653.0 0
247322.0 278432.0 0
247799.0 282604.0 0
251624.0 280862.0 0
257636.0 278630.0 0
256146.0 282436.0 0
260920.0 282033.0 0
265927.0 281946.0 0
270797.0 281172.0 0
276141.0 281362.0 0
281425.0 281602.0 0
287844.0 279273.0 0
285814.0 282659.0 0
295740.0 280572.0 0
291086.0 282505.0 0
300753.0 282411.0 0
343860.0 278465.0 0
347413.0 280950.0 0
351113.0 281972.0 0
354633.0 278478.0 0
359569.0 281650.0 0
378320.0 280165.0 0
441465.0 279548.0 0
447200.0 279943.0 0
487877.0 278644.0 0
496741.0 281158.0 0
3000.82 287703.0 0
24601.3 283264.0 0
29372.6 284438.0 0
34198.8 286398.0 0
41944.7 284616.0 0
49720.9 286899.0 0
59419.7 284806.0 0
78998.1 287599.0 0
125705.0 285509.0 0
131308.0 284163.0 0
136308.0 284032.0 0
169679.0 283504.0 0
203274.0 283189.0 0
203607.0 286769.0 0
209616.0 287464.0 0
216026.0 284941.0 0
219940.0 287344.0 0
225127.0 287438.0 0
230480.0 286811.0 0
235397.0 287625.0 0
240005.0 286886.0 0
245797.0 287531.0 0
252776.0 287449.0 0
259145.0 286862.0 0
263538.0 285796.0 0
269639.0 286298.0 0
273818.0 284850.0 0
277560.0 286765.0 0
282425.0 286085.0 0
286250.0 286389.0 0
290629.0 287989.0 0
295575.0 285486.0 0
303327.0 287808.0 0
354750.0 285264.0 0
374379.0 286205.0 0
378180.0 284548.0 0
382647.0 287093.0 0
388980.0 285853.0 0
441425.0 285956.0 0
463934.0 287047.0 0
5576.43 292104.0 0
38189.5 289451.0 0
44756.1 288072.0 0
40981.1 292195.0 0
78850.0 291053.0 0
104572.0 292649.0 0
109302.0 288823.0 0
199008.0 289297.0 0
204506.0 291593.0 0
213854.0 291844.0 0
215005.0 288568.0 0
217595.0 291228.0 0
222169.0 292003.0 0
227333.0 292207.0 0
232822.0 292149.0 0
238449.0 291746.0 0
242878.0 291778.0 0
251331.0 292220.0 0
264996.0 289890.0 0
260318.0 292077.0 0
270308.0 292561.0 0
275508.0 291051.0 0
280916.0 291838.0 0
286405.0 290880.0 0
295370.0 291283.0 0
318205.0 288827.0 0
321222.0 291097.0 0
324319.0 290021.0 0
344872.0 288593.0 0
399809.0 290386.0 0
406576.0 292671.0 0
412274.0 292350.0 0
420030.0 292303.0 0
425901.0 290849.0 0
430527.0 288935.0 0
435600.0 288287.0 0
30674.9 295346.0 0
110496.0 293582.0 0
114684.0 295045.0 0
118920.0 297536.0 0
194107.0 296140.0 0
199280.0 295018.0 0
203762.0 296484.0 0
209704.0 294764.0 0
215563.0 296018.0 0
222848.0 295801.0 0
219946.0 296741.0 0
226713.0 297865.0 0
231987.0 297195.0 0
236793.0 296786.0 0
241917.0 295985.0 0
247484.0 293271.0 0
246392.0 298055.0 0
252118.0 296402.0 0
255291.0 293105.0 0
259938.0 297299.0 0
255128.0 297838.0 0
265584.0 296624.0 0
275365.0 295699.0 0
280266.0 297711.0 0
285529.0 295970.0 0
290401.0 293559.0 0
294636.0 297434.0 0
306624.0 294083.0 0
349594.0 295441.0 0
389404.0 296044.0 0
394819.0 293877.0 0
466754.0 293503.0 0
470906.0 294860.0 0
4937.82 303022.0 0
9627.86 303274.0 0
13308.9 298794.0 0
123167.0 299791.0 0
190052.0 299212.0 0
203371.0 302698.0 0
207021.0 300368.0 0
213627.0 301319.0 0
218154.0 301320.0 0
222500.0 301184.0 0
228118.0 303122.0 0
233102.0 301775.0 0
237975.0 301579.0 0
242687.0 300532.0 0
247738.0 302251.0 0
251699.0 300534.0 0
255829.0 302015.0 0
260264.0 302359.0 0
265036.0 302013.0 0
270872.0 298484.0 0
275872.0 301830.0 0
284133.0 301839.0 0
289387.0 299675.0 0
336311.0 299413.0 0
341778.0 302880.0 0
351904.0 300855.0 0
355596.0 298241.0 0
417609.0 298428.0 0
431254.0 299755.0 0
2103.89 305581.0 0
187646.0 305450.0 0
204452.0 306332.0 0
209713.0 304530.0 0
213389.0 307016.0 0
218306.0 305980.0 0
222726.0 306094.0 0
226681.0 307652.0 0
231449.0 306444.0 0
236417.0 306368.0 0
241624.0 305179.0 0
247090.0 307367.0 0
253246.0 306577.0 0
258473.0 306633.0 0
262430.0 305978.0 0
269992.0 303848.0 0
266448.0 307870.0 0
273824.0 307205.0 0
280221.0 304641.0 0
278168.0 308146.0 0
282084.0 307671.0 0
288836.0 305229.0 0
294886.0 304061.0 0
329037.0 305868.0 0
361777.0 304595.0 0
367623.0 304647.0 0
371598.0 308210.0 0
378832.0 303375.0 0
385884.0 307396.0 0
35193.8 313430.0 0
68661.0 312987.0 0
208611.0 308812.0 0
204665.0 311984.0 0
213534.0 312232.0 0
218165.0 310734.0 0
222182.0 310809.0 0
225758.0 312220.0 0
230740.0 311926.0 0
236519.0 311587.0 0
242380.0 311527.0 0
247901.0 312933.0 0
252047.0 311442.0 0
256535.0 311241.0 0
261403.0 310859.0 0
271274.0 311180.0 0
276404.0 313235.0 0
281975.0 312133.0 0
285751.0 309135.0 0
289876.0 309907.0 0
294931.0 310818.0 0
315116.0 311329.0 0
320148.0 309205.0 0
325382.0 309595.0 0
375018.0 310143.0 0
390115.0 309752.0 0
68580.0 317361.0 0
74935.4 314590.0 0
90847.8 316945.0 0
137181.0 318404.0 0
139476.0 313690.0 0
144683.0 314390.0 0
149546.0 317326.0 0
154306.0 315520.0 0
161601.0 316406.0 0
208958.0 314365.0 0
266160.0 313732.0 0
287124.0 314138.0 0
292000.0 315094.0 0
295743.0 316929.0 0
302840.0 315728.0 0
61778.3 318746.0 0
71617.3 318875.0 0
81810.3 321413.0 0
132100.0 321755.0 0
157366.0 319678.0 0
300503.0 319858.0 0
306217.0 319038.0 0
78448.2 324227.0 0
135499.0 325278.0 0
309713.0 324203.0 0
308845.0 328744.0 0
185974.0 331963.0 0
305097.0 329679.0 0
142495.0 337875.0 0
197715.0 335765.0 0
138284.0 340503.0 0
193738.0 344001.0 0
1675.18 375612.0 0
5466.3 375226.0 0
9922.89 375284.0 0
14387.0 375201.0 0
18548.6 375144.0 0
23089.8 375106.0 0
26983.7 375425.0 0
30850.0 375245.0 0
34519.3 375525.0 0
37434.5 375617.0 0
41326.1 375478.0 0
45995.4 375119.0 0
49376.3 375248.0 0
53081.3 375814.0 0
57180.8 375453.0 0
61228.8 375917.0 0
65959.2 375036.0 0
69531.3 375481.0 0
72932.1 375647.0 0
76710.2 375176.0 0
80875.5 375348.0 0
85457.5 375216.0 0
90445.9 375325.0 0
94845.5 375264.0 0
99446.0 375298.0 0
103526.0 375355.0 0
107427.0 375279.0 0
111439.0 375257.0 0
115772.0 375173.0 0
119903.0 375549.0 0
124093.0 375107.0 0
129572.0 375493.0 0
133459.0 375545.0 0
136256.0 375534.0 0
142525.0 375548.0 0
139472.0 375472.0 0
145819.0 375364.0 0
150406.0 375871.0 0
154669.0 375163.0 0
158501.0 375865.0 0
162486.0 375722.0 0
166288.0 375297.0 0
170313.0 375333.0 0
173490.0 375427.0 0
177422.0 375060.0 0
182057.0 375128.0 0
179589.0 376809.0 0
185633.0 375400.0 0
189443.0 375138.0 0
193017.0 375569.0 0
195821.0 375392.0 0
198585.0 375121.0 0
300812.0 376282.0 0
304632.0 375607.0 0
308246.0 376327.0 0
311663.0 375291.0 0
316340.0 375688.0 0
320448.0 375842.0 0
323689.0 375592.0 0
327151.0 375465.0 0
331263.0 375354.0 0
335553.0 375061.0 0
339481.0 375668.0 0
343381.0 375384.0 0
348403.0 375743.0 0
352533.0 375988.0 0
356150.0 375019.0 0
360758.0 375281.0 0
365631.0 375915.0 0
370329.0 375269.0 0
375873.0 375296.0 0
373045.0 377290.0 0
379855.0 375752.0 0
383767.0 375470.0 0
388147.0 376004.0 0
393345.0 375227.0 0
396862.0 375510.0 0
399836.0 375348.0 0
403777.0 375357.0 0
408085.0 375061.0 0
410125.0 377500.0 0
412675.0 375152.0 0
417371.0 375182.0 0
421599.0 375484.0 0
425806.0 375662.0 0
429476.0 375277.0 0
433465.0 375462.0 0
437803.0 375096.0 0
442369.0 375221.0 0
440567.0 377231.0 0
445754.0 375214.0 0
450809.0 375496.0 0
455540.0 375615.0 0
460488.0 375659.0 0
464768.0 375548.0 0
469449.0 375459.0 0
473691.0 375142.0 0
479029.0 375177.0 0
483914.0 375464.0 0
487719.0 375297.0 0
492685.0 375516.0 0
497564.0 375363.0 0
4054.38 378770.0 0
1268.29 378713.0 0
1387.62 381459.0 0
7748.24 378067.0 0
10030.3 380691.0 0
5663.3 382304.0 0
12131.5 378241.0 0
13870.5 382162.0 0
16162.7 379048.0 0
20697.2 378548.0 0
25249.5 378455.0 0
23303.2 382284.0 0
27020.6 381084.0 0
29013.0 378372.0 0
30222.7 381725.0 0
32893.4 378711.0 0
37371.1 378964.0 0
38800.0 382199.0 0
40780.9 379899.0 0
44827.5 377974.0 0
43895.6 381138.0 0
48705.5 377942.0 0
47835.9 381142.0 0
50964.6 382086.0 0
51937.3 379258.0 0
54481.7 382049.0 0
56518.6 379043.0 0
60104.0 380404.0 0
65121.5 379112.0 0
69444.5 378263.0 0
68448.3 382299.0 0
72089.0 380128.0 0
75058.1 378217.0 0
76025.1 382607.0 0
78753.0 378385.0 0
81214.5 381831.0 0
83353.7 378473.0 0
85657.9 381887.0 0
87863.9 378849.0 0
92773.8 379408.0 0
96963.9 378830.0 0
101213.0 378594.0 0
98872.9 381663.0 0
105077.0 378528.0 0
102655.0 382019.0 0
107243.0 382249.0 0
109380.0 378505.0 0
111637.0 382177.0 0
113455.0 378587.0 0
115407.0 381904.0 0
117758.0 378887.0 0
121813.0 379311.0 0
126623.0 379039.0 0
122863.0 382207.0 0
131008.0 379314.0 0
130146.0 381834.0 0
133699.0 378477.0 0
137457.0 378782.0 0
142449.0 379075.0 0
146703.0 378936.0 0
144438.0 382582.0 0
148066.0 381955.0 0
151306.0 380000.0 0
155099.0 378339.0 0
161130.0 378488.0 0
158675.0 379547.0 0
162265.0 380792.0 0
167976.0 377904.0 0
164742.0 378977.0 0
168263.0 381083.0 0
171410.0 378593.0 0
172143.0 382250.0 0
175469.0 378572.0 0
179597.0 379218.0 0
181340.0 381939.0 0
183004.0 378409.0 0
184707.0 381068.0 0
187171.0 378307.0 0
188071.0 382456.0 0
191383.0 378918.0 0
193927.0 381255.0 0
195427.0 378084.0 0
196799.0 381225.0 0
199148.0 377844.0 0
199642.0 381056.0 0
301194.0 380411.0 0
304648.0 379185.0 0
308392.0 380608.0 0
312494.0 378973.0 0
312521.0 382139.0 0
320703.0 379233.0 0
316848.0 380841.0 0
323552.0 378050.0 0
323766.0 381171.0 0
326011.0 378770.0 0
326808.0 381154.0 0
329638.0 379111.0 0
329377.0 382637.0 0
333729.0 378481.0 0
340600.0 378796.0 0
337574.0 377895.0 0
337508.0 380942.0 0
340678.0 382565.0 0
344713.0 379848.0 0
349281.0 380050.0 0
353513.0 380123.0 0
357520.0 377931.0 0
357894.0 381651.0 0
361693.0 379681.0 0
366437.0 380623.0 0
369670.0 379080.0 0
373012.0 380837.0 0
376985.0 379796.0 0
381257.0 379133.0 0
385030.0 378779.0 0
383410.0 382465.0 0
387822.0 381468.0 0
392059.0 379587.0 0
395435.0 381811.0 0
397363.0 378708.0 0
400218.0 381863.0 0
401753.0 378172.0 0
405973.0 377850.0 0
403956.0 380440.0 0
408270.0 381181.0 0
412337.0 380042.0 0
415145.0 377819.0 0
416317.0 382334.0 0
419150.0 378950.0 0
421175.0 382520.0 0
423414.0 379301.0 0
427128.0 379310.0 0
428284.0 382633.0 0
430454.0 378354.0 0
430280.0 380980.0 0
432257.0 381075.0 0
433997.0 378758.0 0
436758.0 378373.0 0
435538.0 382112.0 0
439200.0 380549.0 0
443789.0 379230.0 0
447863.0 378127.0 0
447682.0 382645.0 0
451396.0 379736.0 0
454316.0 379323.0 0
456180.0 382465.0 0
458545.0 379257.0 0
460118.0 382433.0 0
462774.0 379799.0 0
467170.0 378957.0 0
470196.0 381724.0 0
471702.0 378419.0 0
475379.0 378013.0 0
474533.0 381791.0 0
478560.0 379760.0 0
482121.0 378271.0 0
482390.0 382463.0 0
485663.0 378758.0 0
489493.0 378664.0 0
486719.0 382433.0 0
494366.0 379645.0 0
490867.0 382419.0 0
498518.0 378540.0 0
497990.0 382039.0 0
1884.54 384847.0 0
10105.5 384137.0 0
6198.53 387156.0 0
14529.9 386247.0 0
10391.5 387647.0 0
18513.5 383271.0 0
19340.6 387115.0 0
23113.0 386000.0 0
26959.4 384271.0 0
30817.5 385441.0 0
34887.3 382698.0 0
34789.7 387017.0 0
38413.5 385774.0 0
41211.5 386555.0 0
45087.5 383514.0 0
41479.6 383511.0 0
44174.6 386858.0 0
48597.3 384955.0 0
52245.0 384501.0 0
55808.4 385915.0 0
57445.7 382702.0 0
59844.2 384748.0 0
63704.2 383514.0 0
63247.0 387744.0 0
67168.5 385882.0 0
70427.4 387580.0 0
71722.4 384218.0 0
74882.7 387480.0 0
79265.5 385971.0 0
83731.8 385599.0 0
90291.0 382842.0 0
87471.5 385102.0 0
91331.5 387577.0 0
95078.1 383809.0 0
99793.0 385061.0 0
104587.0 385344.0 0
109428.0 385618.0 0
114487.0 385987.0 0
119086.0 383218.0 0
119276.0 387399.0 0
126437.0 383380.0 0
122677.0 385517.0 0
130181.0 385388.0 0
134058.0 382752.0 0
136795.0 386715.0 0
133244.0 387207.0 0
139477.0 382926.0 0
142536.0 386867.0 0
147305.0 385506.0 0
151121.0 384139.0 0
155477.0 382720.0 0
153738.0 386543.0 0
158110.0 387164.0 0
160039.0 382987.0 0
162403.0 385946.0 0
164990.0 383314.0 0
168979.0 385316.0 0
172931.0 385804.0 0
177005.0 383331.0 0
180959.0 386561.0 0
183864.0 383565.0 0
186080.0 386587.0 0
191535.0 382906.0 0
190314.0 386022.0 0
194775.0 385081.0 0
199138.0 384837.0 0
301286.0 384672.0 0
304730.0 382840.0 0
305117.0 386795.0 0
307418.0 384500.0 0
310782.0 384391.0 0
309124.0 387478.0 0
314198.0 384291.0 0
317580.0 386025.0 0
320873.0 383564.0 0
325846.0 385266.0 0
330865.0 386937.0 0
333559.0 382897.0 0
335595.0 387279.0 0
337500.0 384223.0 0
339987.0 386815.0 0
344102.0 384396.0 0
346413.0 386529.0 0
347825.0 383488.0 0
351268.0 383624.0 0
349393.0 386903.0 0
355239.0 384097.0 0
352941.0 386141.0 0
359616.0 384858.0 0
363408.0 383402.0 0
364307.0 386846.0 0
366845.0 384530.0 0
369940.0 383214.0 0
374583.0 385400.0 0
379264.0 383303.0 0
378989.0 387652.0 0
382026.0 385939.0 0
386196.0 386463.0 0
391908.0 385221.0 0
397073.0 385021.0 0
401036.0 385780.0 0
404584.0 384468.0 0
408611.0 385131.0 0
412214.0 383909.0 0
415200.0 386697.0 0
419142.0 385636.0 0
423154.0 387000.0 0
424790.0 383213.0 0
427610.0 386641.0 0
431841.0 384196.0 0
435789.0 386108.0 0
438722.0 384150.0 0
442425.0 383345.0 0
445115.0 386936.0 0
452441.0 383078.0 0
450299.0 386358.0 0
455063.0 386940.0 0
458993.0 385210.0 0
462618.0 383849.0 0
461551.0 386656.0 0
465741.0 382753.0 0
465558.0 386862.0 0
468657.0 384913.0 0
472318.0 385647.0 0
476330.0 385388.0 0
478468.0 383455.0 0
484232.0 386187.0 0
480077.0 387465.0 0
488405.0 386750.0 0
494100.0 385258.0 0
498380.0 385905.0 0
1903.42 388808.0 0
1448.35 392444.0 0
8836.27 390245.0 0
5555.2 391846.0 0
12172.0 390310.0 0
16664.1 390747.0 0
22570.2 390509.0 0
26891.9 388197.0 0
26750.3 392857.0 0
31876.5 390450.0 0
37216.3 389989.0 0
40973.9 389268.0 0
44526.7 391257.0 0
47879.2 388866.0 0
51842.4 387818.0 0
54813.8 389873.0 0
59073.0 388929.0 0
62326.3 391865.0 0
66991.6 390489.0 0
71809.6 390874.0 0
76068.6 391780.0 0
78767.0 389543.0 0
82442.6 389117.0 0
86658.6 388510.0 0
85071.1 391662.0 0
88713.9 391709.0 0
96652.2 388430.0 0
93497.7 392244.0 0
101747.0 388782.0 0
106883.0 388857.0 0
111091.0 388887.0 0
109485.0 392337.0 0
116610.0 389628.0 0
113475.0 390935.0 0
119722.0 390552.0 0
126365.0 387899.0 0
122818.0 389615.0 0
126524.0 391975.0 0
129984.0 389671.0 0
134107.0 391381.0 0
138863.0 390083.0 0
142947.0 392458.0 0
146854.0 389546.0 0
150685.0 387803.0 0
150723.0 391658.0 0
154597.0 389998.0 0
161730.0 389187.0 0
158934.0 392032.0 0
163426.0 391622.0 0
165842.0 388414.0 0
171038.0 389648.0 0
175809.0 387798.0 0
175082.0 391337.0 0
179054.0 390522.0 0
183910.0 390936.0 0
188707.0 390054.0 0
193164.0 389027.0 0
198232.0 389653.0 0
195110.0 392584.0 0
301051.0 388702.0 0
304516.0 390672.0 0
307481.0 390287.0 0
310574.0 391319.0 0
313386.0 388113.0 0
314529.0 392444.0 0
317474.0 390083.0 0
320464.0 392297.0 0
321949.0 388376.0 0
323969.0 392543.0 0
327640.0 390706.0 0
333030.0 390817.0 0
337438.0 390920.0 0
341693.0 390911.0 0
343905.0 387889.0 0
346691.0 390535.0 0
352028.0 390476.0 0
356061.0 387857.0 0
356422.0 391819.0 0
360574.0 389564.0 0
365088.0 390261.0 0
369348.0 388204.0 0
371546.0 392712.0 0
373438.0 389904.0 0
376539.0 390254.0 0
374707.0 392600.0 0
379433.0 391034.0 0
382339.0 389423.0 0
385184.0 391033.0 0
389566.0 390316.0 0
395820.0 388276.0 0
393647.0 389418.0 0
393546.0 392311.0 0
397013.0 391803.0 0
399436.0 388750.0 0
401677.0 392571.0 0
403223.0 388628.0 0
405310.0 391126.0 0
406989.0 388445.0 0
411229.0 388064.0 0
409251.0 392569.0 0
414414.0 391421.0 0
418449.0 389371.0 0
422131.0 391450.0 0
425850.0 390428.0 0
428893.0 390250.0 0
431973.0 388115.0 0
432000.0 392392.0 0
435914.0 390150.0 0
440356.0 387980.0 0
439334.0 392091.0 0
443892.0 391835.0 0
448038.0 389642.0 0
452067.0 390358.0 0
456239.0 391250.0 0
458976.0 388824.0 0
459864.0 392218.0 0
462978.0 389912.0 0
467545.0 391159.0 0
469294.0 387934.0 0
472140.0 389650.0 0
475407.0 387889.0 0
476798.0 391425.0 0
481356.0 391125.0 0
484389.0 389482.0 0
487762.0 390517.0 0
492319.0 389496.0 0
497663.0 389539.0 0
2777.94 396657.0 0
9751.15 393176.0 0
7516.4 395735.0 0
13055.9 393908.0 0
11203.5 397068.0 0
19922.2 393444.0 0
16780.7 397270.0 0
22547.9 395582.0 0
26406.9 397575.0 0
31499.0 395735.0 0
36070.6 393784.0 0
40346.6 392968.0 0
38158.0 395400.0 0
40798.1 397205.0 0
44548.7 394955.0 0
50482.1 393076.0 0
47385.7 396858.0 0
54235.3 396567.0 0
57298.0 393155.0 0
58160.9 397359.0 0
61490.7 395554.0 0
65694.5 394548.0 0
69728.5 394283.0 0
73490.6 393899.0 0
73261.8 397176.0 0
76926.5 395737.0 0
80759.1 393437.0 0
85439.0 395872.0 0
89912.1 395178.0 0
96153.9 394846.0 0
93784.1 397736.0 0
99136.1 392974.0 0
98008.9 397213.0 0
104361.0 393178.0 0
107565.0 396569.0 0
117251.0 392963.0 0
113055.0 395337.0 0
122145.0 393985.0 0
118063.0 396765.0 0
127200.0 396874.0 0
130028.0 393371.0 0
133019.0 396754.0 0
138045.0 394783.0 0
142119.0 397486.0 0
147263.0 393141.0 0
145725.0 395856.0 0
150036.0 396429.0 0
154403.0 394142.0 0
157996.0 397036.0 0
162924.0 395872.0 0
167472.0 393000.0 0
172666.0 395320.0 0
177045.0 393910.0 0
177521.0 397528.0 0
180607.0 394319.0 0
184281.0 395143.0 0
187519.0 394067.0 0
191732.0 393273.0 0
190678.0 397261.0 0
196929.0 394278.0 0
194640.0 396008.0 0
198388.0 397291.0 0
199421.0 393748.0 0
301264.0 393468.0 0
306853.0 395128.0 0
311691.0 394841.0 0
315147.0 396483.0 0
318031.0 394346.0 0
322013.0 395576.0 0
326045.0 395585.0 0
330591.0 394868.0 0
335304.0 394433.0 0
339520.0 394354.0 0
337411.0 397519.0 0
343949.0 394421.0 0
348900.0 394595.0 0
353395.0 394995.0 0
359980.0 393471.0 0
357624.0 394992.0 0
361216.0 396882.0 0
363426.0 393523.0 0
365498.0 396732.0 0
367616.0 392999.0 0
369916.0 396467.0 0
374385.0 396430.0 0
377696.0 393595.0 0
378629.0 397350.0 0
382009.0 393963.0 0
384859.0 397509.0 0
386919.0 394182.0 0
391146.0 394764.0 0
395172.0 395173.0 0
393184.0 397519.0 0
399016.0 395297.0 0
402652.0 397811.0 0
405339.0 394465.0 0
412830.0 396035.0 0
418402.0 394606.0 0
422668.0 395532.0 0
425066.0 393705.0 0
426183.0 397288.0 0
428064.0 393548.0 0
430812.0 396499.0 0
435655.0 394849.0 0
437616.0 397602.0 0
440827.0 395749.0 0
445333.0 396298.0 0
448510.0 393379.0 0
450153.0 397351.0 0
453263.0 394035.0 0
457338.0 394982.0 0
460970.0 395720.0 0
463837.0 397767.0 0
464053.0 393817.0 0
467463.0 395881.0 0
471415.0 393509.0 0
475513.0 396232.0 0
480445.0 394804.0 0
484916.0 393536.0 0
486836.0 397057.0 0
490042.0 393759.0 0
494334.0 396924.0 0
498821.0 392893.0 0
495145.0 392964.0 0
498356.0 396002.0 0
2889.35 402390.0 0
7815.83 399835.0 0
12403.7 401465.0 0
17584.4 402819.0 0
21833.2 399907.0 0
25748.5 401815.0 0
30706.7 400918.0 0
36001.8 398376.0 0
40137.2 402022.0 0
44960.8 400211.0 0
50506.1 399570.0 0
55533.6 400987.0 0
61139.1 400815.0 0
64551.3 398155.0 0
65361.4 402105.0 0
68802.9 398852.0 0
73561.0 401441.0 0
76591.7 398984.0 0
80603.8 398495.0 0
77942.9 402129.0 0
81439.6 402452.0 0
84788.2 400681.0 0
89197.5 399444.0 0
93178.3 402304.0 0
102011.0 398024.0 0
97764.8 401168.0 0
105503.0 400745.0 0
110867.0 400777.0 0
115372.0 399167.0 0
115728.0 402992.0 0
122035.0 398997.0 0
118349.0 400390.0 0
125501.0 402783.0 0
130005.0 400658.0 0
134074.0 401625.0 0
137973.0 399392.0 0
142272.0 401961.0 0
146404.0 399828.0 0
150877.0 401687.0 0
153682.0 398279.0 0
155987.0 401753.0 0
161182.0 401464.0 0
164362.0 399735.0 0
167610.0 398056.0 0
165525.0 402334.0 0
171508.0 399438.0 0
169616.0 402999.0 0
174708.0 401146.0 0
182126.0 398109.0 0
179556.0 401304.0 0
186473.0 398059.0 0
184484.0 401610.0 0
189366.0 401520.0 0
194626.0 400528.0 0
199108.0 400867.0 0
302206.0 398013.0 0
301449.0 402578.0 0
306697.0 401152.0 0
311041.0 398906.0 0
315534.0 400939.0 0
319184.0 398010.0 0
320219.0 402340.0 0
323864.0 399343.0 0
328592.0 398812.0 0
330953.0 401736.0 0
327007.0 402658.0 0
333559.0 399021.0 0
337852.0 401362.0 0
341254.0 398039.0 0
346115.0 398586.0 0
342689.0 402763.0 0
350893.0 399034.0 0
356188.0 399112.0 0
360206.0 400106.0 0
363819.0 400985.0 0
367925.0 399454.0 0
371885.0 400660.0 0
376139.0 400700.0 0
380151.0 401352.0 0
381796.0 398486.0 0
384500.0 401875.0 0
388972.0 398622.0 0
393135.0 400991.0 0
397185.0 398888.0 0
400742.0 401819.0 0
405289.0 402739.0 0
408229.0 398262.0 0
409735.0 402421.0 0
412681.0 400562.0 0
416307.0 398696.0 0
421221.0 399339.0 0
425497.0 401508.0 0
428334.0 402881.0 0
429381.0 400128.0 0
434286.0 400223.0 0
438973.0 399509.0 0
442414.0 399912.0 0
446910.0 400749.0 0
451734.0 401818.0 0
454798.0 398488.0 0
455791.0 402584.0 0
459411.0 399180.0 0
463460.0 401866.0 0
467190.0 399991.0 0
471053.0 398215.0 0
474580.0 400432.0 0
479029.0 399476.0 0
483325.0 398366.0 0
482132.0 402812.0 0
486591.0 401435.0 0
490197.0 398302.0 0
490363.0 401587.0 0
493647.0 400950.0 0
497827.0 399889.0 0
3377.08 407989.0 0
8284.84 404896.0 0
13452.6 406758.0 0
18498.2 406693.0 0
22441.7 404678.0 0
27456.5 405336.0 0
31468.6 405413.0 0
35444.8 403303.0 0
34516.5 407552.0 0
39039.4 407105.0 0
44009.6 405726.0 0
47898.5 403630.0 0
48695.1 408033.0 0
51719.4 404225.0 0
55480.0 405037.0 0
58846.5 404174.0 0
58064.4 407745.0 0
63210.1 406253.0 0
69245.3 404394.0 0
75051.0 405943.0 0
79852.6 405611.0 0
84335.7 405000.0 0
88572.3 403712.0 0
91863.6 405897.0 0
96651.2 405713.0 0
101791.0 403662.0 0
100517.0 407617.0 0
106965.0 404660.0 0
104345.0 407820.0 0
111922.0 405943.0 0
117231.0 407437.0 0
120185.0 403324.0 0
122220.0 406742.0 0
126200.0 408034.0 0
130488.0 405321.0 0
135083.0 405425.0 0
138572.0 403856.0 0
142350.0 406608.0 0
138062.0 408019.0 0
146203.0 404164.0 0
150012.0 405819.0 0
154271.0 405874.0 0
158806.0 405594.0 0
163619.0 405879.0 0
168475.0 407788.0 0
173243.0 405881.0 0
177036.0 404360.0 0
181585.0 405589.0 0
187259.0 405676.0 0
192882.0 405945.0 0
198032.0 404211.0 0
304780.0 405219.0 0
301449.0 407488.0 0
307768.0 405855.0 0
311448.0 404307.0 0
316641.0 405673.0 0
321329.0 406824.0 0
323716.0 403724.0 0
325701.0 407020.0 0
330288.0 405815.0 0
334400.0 403720.0 0
338652.0 406570.0 0
343120.0 406962.0 0
348056.0 403459.0 0
350660.0 407135.0 0
353199.0 403503.0 0
359048.0 404476.0 0
364033.0 406399.0 0
368173.0 403482.0 0
370855.0 406038.0 0
367981.0 408162.0 0
374103.0 404675.0 0
377839.0 404201.0 0
381303.0 405377.0 0
385904.0 406723.0 0
388993.0 403087.0 0
390314.0 406514.0 0
392807.0 404525.0 0
396810.0 403994.0 0
398109.0 406990.0 0
401302.0 405961.0 0
405634.0 405984.0 0
409125.0 406381.0 0
412599.0 403844.0 0
416845.0 403066.0 0
414171.0 407763.0 0
418968.0 406824.0 0
422123.0 404303.0 0
426878.0 405975.0 0
431033.0 403777.0 0
431064.0 407895.0 0
434748.0 405246.0 0
438246.0 407053.0 0
438829.0 403098.0 0
441410.0 407496.0 0
443408.0 404337.0 0
448742.0 405681.0 0
453376.0 405064.0 0
457007.0 406950.0 0
459383.0 403476.0 0
462008.0 406342.0 0
466195.0 405417.0 0
470937.0 403272.0 0
473852.0 406922.0 0
477272.0 403913.0 0
477281.0 408123.0 0
481243.0 407330.0 0
485170.0 405295.0 0
490964.0 406082.0 0
495530.0 403586.0 0
498596.0 403492.0 0
497392.0 407477.0 0
1629.89 411988.0 0
8695.87 409515.0 0
5569.5 412642.0 0
12800.0 412000.0 0
17647.0 410764.0 0
21269.1 408347.0 0
25095.7 408670.0 0
22145.8 411667.0 0
30229.3 409911.0 0
26013.9 412654.0 0
36042.1 411784.0 0
41182.7 411254.0 0
44818.9 410010.0 0
47626.5 411906.0 0
53428.1 408291.0 0
51541.9 412244.0 0
56321.7 411726.0 0
60493.0 410391.0 0
64152.9 411924.0 0
67332.1 408952.0 0
71504.7 408703.0 0
74466.7 410109.0 0
78212.4 409481.0 0
82833.0 409065.0 0
85501.1 412150.0 0
88027.6 408477.0 0
93051.2 409425.0 0
94729.4 413224.0 0
97700.3 410280.0 0
102007.0 411452.0 0
106741.0 411632.0 0
108368.0 408184.0 0
112073.0 410912.0 0
117262.0 412669.0 0
121589.0 410571.0 0
125741.0 412845.0 0
130318.0 410659.0 0
134095.0 408438.0 0
140768.0 411123.0 0
146880.0 408782.0 0
143652.0 409621.0 0
144614.0 412896.0 0
151744.0 409637.0 0
148912.0 413031.0 0
156025.0 409560.0 0
158126.0 412715.0 0
160355.0 409255.0 0
161745.0 413191.0 0
164630.0 410380.0 0
168350.0 412461.0 0
172693.0 410877.0 0
177027.0 408379.0 0
180919.0 410115.0 0
184608.0 409131.0 0
188953.0 410603.0 0
193889.0 411277.0 0
198073.0 408565.0 0
305437.0 408874.0 0
301877.0 411603.0 0
309505.0 408984.0 0
313399.0 408385.0 0
312328.0 412626.0 0
317991.0 411200.0 0
323680.0 410936.0 0
329071.0 410957.0 0
334116.0 408603.0 0
333629.0 412739.0 0
337773.0 411600.0 0
342206.0 410641.0 0
346600.0 408434.0 0
346202.0 413163.0 0
350672.0 411236.0 0
355142.0 408504.0 0
360443.0 410263.0 0
364957.0 410556.0 0
368461.0 411668.0 0
372346.0 409512.0 0
375054.0 413040.0 0
377309.0 408284.0 0
378940.0 412188.0 0
382014.0 409560.0 0
386292.0 411664.0 0
389600.0 409447.0 0
394411.0 408483.0 0
396513.0 412570.0 0
399369.0 409732.0 0
404726.0 409807.0 0
410241.0 411424.0 0
415091.0 413061.0 0
418404.0 410333.0 0
423300.0 409554.0 0
427747.0 410304.0 0
431254.0 413070.0 0
435180.0 409718.0 0
440196.0 411613.0 0
444651.0 408755.0 0
448569.0 410498.0 0
445298.0 413119.0 0
452857.0 409012.0 0
456542.0 412063.0 0
460174.0 409580.0 0
464376.0 409716.0 0
469435.0 409257.0 0
474404.0 410769.0 0
478525.0 411126.0 0
482405.0 412030.0 0
486004.0 409514.0 0
494001.0 410740.0 0
489986.0 411996.0 0
497932.0 412175.0 0
2425.19 416011.0 0
9148.59 413644.0 0
7230.91 417664.0 0
12026.9 416636.0 0
19777.1 414224.0 0
16419.8 415351.0 0
22910.6 415415.0 0
28936.7 413615.0 0
27634.8 417345.0 0
32060.6 414846.0 0
35822.7 416603.0 0
39836.2 415410.0 0
44430.9 414331.0 0
42581.8 418191.0 0
48754.4 415157.0 0
50456.9 418088.0 0
54705.7 416547.0 0
59895.4 414522.0 0
64200.6 416711.0 0
69931.9 414061.0 0
75934.4 413445.0 0
74817.2 417552.0 0
80935.4 413800.0 0
85499.4 415946.0 0
82577.9 417261.0 0
89823.7 413662.0 0
93970.9 418071.0 0
98788.0 414923.0 0
104114.0 416478.0 0
109652.0 415612.0 0
113753.0 415353.0 0
117123.0 417524.0 0
121672.0 415489.0 0
130263.0 416566.0 0
135838.0 413269.0 0
141051.0 416349.0 0
146138.0 416895.0 0
150193.0 416657.0 0
153811.0 413788.0 0
157891.0 416586.0 0
162176.0 417159.0 0
165164.0 414231.0 0
167383.0 417881.0 0
171174.0 415252.0 0
177724.0 413669.0 0
174339.0 416444.0 0
181150.0 417277.0 0
183950.0 413635.0 0
188232.0 415089.0 0
191352.0 414155.0 0
198102.0 413670.0 0
194422.0 415291.0 0
301843.0 415559.0 0
306714.0 413554.0 0
310890.0 416938.0 0
315760.0 416824.0 0
320848.0 415753.0 0
325859.0 415145.0 0
330914.0 416005.0 0
336629.0 416660.0 0
341921.0 415110.0 0
346010.0 417909.0 0
350446.0 415884.0 0
355799.0 413947.0 0
360691.0 414839.0 0
365244.0 414654.0 0
362531.0 418140.0 0
370448.0 415523.0 0
374759.0 417059.0 0
378479.0 416039.0 0
382463.0 414165.0 0
386788.0 416923.0 0
391468.0 413643.0 0
395811.0 416850.0 0
400942.0 414666.0 0
406706.0 415247.0 0
411720.0 416570.0 0
416365.0 417235.0 0
420662.0 414832.0 0
426173.0 414158.0 0
435809.0 413392.0 0
434480.0 416914.0 0
438221.0 415664.0 0
442270.0 416676.0 0
447501.0 417602.0 0
451573.0 414049.0 0
455571.0 416534.0 0
461433.0 413800.0 0
466674.0 413809.0 0
469232.0 418257.0 0
464318.0 418317.0 0
471550.0 414222.0 0
479423.0 414430.0 0
475997.0 414569.0 0
478388.0 417840.0 0
482449.0 416295.0 0
486284.0 414232.0 0
490342.0 416361.0 0
494374.0 414606.0 0
497986.0 416115.0 0
2730.87 420996.0 0
7244.7 422099.0 0
11011.3 420964.0 0
15300.2 419713.0 0
19849.2 418514.0 0
18526.3 422389.0 0
23699.3 418964.0 0
22977.0 422655.0 0
28465.3 422825.0 0
32629.4 419402.0 0
38411.4 420592.0 0
43856.1 422453.0 0
46535.0 418380.0 0
49389.0 422160.0 0
54956.8 422324.0 0
59711.3 419300.0 0
64248.9 421627.0 0
67622.6 419130.0 0
71348.7 419522.0 0
74851.5 422537.0 0
79176.8 419224.0 0
84149.2 420143.0 0
88723.7 419079.0 0
99369.2 420510.0 0
104219.0 421612.0 0
108295.0 420379.0 0
112948.0 419487.0 0
116708.0 421558.0 0
120906.0 420291.0 0
125405.0 418920.0 0
135837.0 419653.0 0
140071.0 420158.0 0
139587.0 423160.0 0
143658.0 421052.0 0
148887.0 420984.0 0
153826.0 418974.0 0
158811.0 421823.0 0
163934.0 421155.0 0
167945.0 423233.0 0
172358.0 420192.0 0
177122.0 418704.0 0
176538.0 422998.0 0
181016.0 421599.0 0
185747.0 418938.0 0
191372.0 418411.0 0
189266.0 422512.0 0
193536.0 423253.0 0
197231.0 418992.0 0
302248.0 419959.0 0
305914.0 422930.0 0
306675.0 418726.0 0
310554.0 421498.0 0
315199.0 421573.0 0
319446.0 420340.0 0
323560.0 418996.0 0
327867.0 419877.0 0
332613.0 420718.0 0
336905.0 422011.0 0
341393.0 420326.0 0
345877.0 422843.0 0
350182.0 420864.0 0
354205.0 418655.0 0
358464.0 418596.0 0
361688.0 423130.0 0
366665.0 419573.0 0
372006.0 421025.0 0
377438.0 420426.0 0
382103.0 418995.0 0
386346.0 422732.0 0
391639.0 419857.0 0
398898.0 419824.0 0
403657.0 419387.0 0
405629.0 423318.0 0
408416.0 419972.0 0
414292.0 421195.0 0
419606.0 420188.0 0
424226.0 418426.0 0
426127.0 422077.0 0
429491.0 418377.0 0
434018.0 420855.0 0
438559.0 420013.0 0
443679.0 421469.0 0
452071.0 418370.0 0
449857.0 421922.0 0
455473.0 422095.0 0
459540.0 418422.0 0
466811.0 422085.0 0
473957.0 418368.0 0
471573.0 423061.0 0
476925.0 422101.0 0
481698.0 420758.0 0
486217.0 418899.0 0
494103.0 418433.0 0
490512.0 421633.0 0
494625.0 422138.0 0
497867.0 420239.0 0
1119.9 424656.0 0
4805.94 425937.0 0
1166.97 427188.0 0
9795.41 425466.0 0
14505.6 424420.0 0
19610.3 427268.0 0
25329.0 427203.0 0
30273.3 427679.0 0
33909.6 424088.0 0
38493.7 425767.0 0
42709.8 427217.0 0
47023.5 426394.0 0
51803.3 426882.0 0
56376.6 427258.0 0
60098.8 424463.0 0
64783.7 426704.0 0
69258.4 423715.0 0
73012.0 427267.0 0
81318.1 423873.0 0
77549.0 426542.0 0
87115.7 424764.0 0
91441.1 428045.0 0
92903.1 423567.0 0
97424.1 425639.0 0
102085.0 425090.0 0
107027.0 425321.0 0
111471.0 423670.0 0
115469.0 425525.0 0
119369.0 424018.0 0
120381.0 428119.0 0
123532.0 424061.0 0
125445.0 428250.0 0
129685.0 423479.0 0
135385.0 424493.0 0
133667.0 428483.0 0
138545.0 427461.0 0
142869.0 425752.0 0
146297.0 424319.0 0
149106.0 425081.0 0
153316.0 424460.0 0
157918.0 427985.0 0
163073.0 425874.0 0
167405.0 428068.0 0
172593.0 426477.0 0
177060.0 426455.0 0
180702.0 426798.0 0
185245.0 424256.0 0
189864.0 427825.0 0
198078.0 424232.0 0
195328.0 427583.0 0
301973.0 424566.0 0
305459.0 427528.0 0
301490.0 428572.0 0
308901.0 425514.0 0
313215.0 425938.0 0
318414.0 425443.0 0
324047.0 423933.0 0
329542.0 424675.0 0
334269.0 425399.0 0
339999.0 426585.0 0
345380.0 426925.0 0
349860.0 425964.0 0
355225.0 423554.0 0
358439.0 428380.0 0
367805.0 425416.0 0
375958.0 426332.0 0
381107.0 423555.0 0
383486.0 427383.0 0
390963.0 424505.0 0
388213.0 427882.0 0
395761.0 423554.0 0
393404.0 428437.0 0
398307.0 427841.0 0
401058.0 423953.0 0
401744.0 427645.0 0
405534.0 427943.0 0
410146.0 424702.0 0
414179.0 427514.0 0
417702.0 424608.0 0
422291.0 424218.0 0
426185.0 425973.0 0
430736.0 424345.0 0
436692.0 425003.0 0
442148.0 426687.0 0
446715.0 425000.0 0
451584.0 427294.0 0
457618.0 427494.0 0
461839.0 423534.0 0
467110.0 426928.0 0
475486.0 427761.0 0
480902.0 425409.0 0
484839.0 427472.0 0
485384.0 423494.0 0
488923.0 426365.0 0
493539.0 425619.0 0
497840.0 424635.0 0
2473.07 430414.0 0
4936.83 433357.0 0
7809.68 430145.0 0
12929.6 429332.0 0
17226.5 433023.0 0
22525.4 431915.0 0
27552.4 432055.0 0
34966.1 429154.0 0
39527.5 430124.0 0
43320.9 431328.0 0
48480.8 431834.0 0
54353.0 431307.0 0
60478.7 429855.0 0
65638.6 431947.0 0
68910.5 428585.0 0
71613.5 431546.0 0
76016.1 430905.0 0
82310.5 429620.0 0
85749.8 433207.0 0
87778.1 430202.0 0
91364.7 432559.0 0
95508.2 430150.0 0
100717.0 429670.0 0
106107.0 430681.0 0
111415.0 428750.0 0
109954.0 433229.0 0
116068.0 429779.0 0
114217.0 433647.0 0
118925.0 432897.0 0
123072.0 431847.0 0
126892.0 432432.0 0
129476.0 429458.0 0
136998.0 433008.0 0
142191.0 430876.0 0
147018.0 428750.0 0
151878.0 429077.0 0
154753.0 432714.0 0
159854.0 433048.0 0
163789.0 430664.0 0
167821.0 432510.0 0
172593.0 432339.0 0
177038.0 430079.0 0
181554.0 431627.0 0
184635.0 428732.0 0
186426.0 432777.0 0
198290.0 430332.0 0
193979.0 432753.0 0
303853.0 432470.0 0
310150.0 431403.0 0
316014.0 430102.0 0
319824.0 433322.0 0
322050.0 428972.0 0
324291.0 432405.0 0
326754.0 428841.0 0
331536.0 429121.0 0
336081.0 431662.0 0
340932.0 433561.0 0
343945.0 430500.0 0
348413.0 431090.0 0
353384.0 429907.0 0
356959.0 433190.0 0
363371.0 428655.0 0
366940.0 430376.0 0
368335.0 433611.0 0
371232.0 430206.0 0
376032.0 431510.0 0
380011.0 430815.0 0
384952.0 432173.0 0
390127.0 432584.0 0
396944.0 432498.0 0
401617.0 431082.0 0
406182.0 433267.0 0
410153.0 429936.0 0
414633.0 432793.0 0
418395.0 429081.0 0
423251.0 429300.0 0
428709.0 429982.0 0
432913.0 433605.0 0
433491.0 428846.0 0
438064.0 430572.0 0
443087.0 432049.0 0
446576.0 429131.0 0
449606.0 432739.0 0
454998.0 431286.0 0
462189.0 428910.0 0
459467.0 433049.0 0
465521.0 431954.0 0
470670.0 431622.0 0
477243.0 433454.0 0
481189.0 430298.0 0
486323.0 432092.0 0
492356.0 430681.0 0
497606.0 428989.0 0
497933.0 433377.0 0
11109.3 435011.0 0
32739.1 433976.0 0
38075.3 434594.0 0
58235.2 434668.0 0
79088.5 434282.0 0
97176.3 434910.0 0
102488.0 434837.0 0
373679.0 433970.0 0
420220.0 433720.0 0
425316.0 433993.0 0
481855.0 434574.0 0
490280.0 435611.0 0
494437.0 435281.0 0
POINT_DATA 5000
SCALARS Radius float 1
LOOKUP_TABLE default
5782.6 5529.52 6324.23 4796.58 3979.26 4298.67 3471.03 5253.55 5820.48 4862.21 5113.21 3929.19 4107.03 4478.15 5379.87 5925.6 4501.51 4792.73 4736.58 4931.38 3485.26 4329.05 4151.94 4049.23 5337.48 6124.89 5708.81 5252.48 4780.03 5495.39 3996.0 3856.1 4665.12 3383.4 4133.88 4834.9 3850.77 6044.04 5415.48 5120.0 5085.53 3863.18 2356.98 4998.37 6182.6 5492.18 5258.36 5061.3 3642.12 3163.97 5812.43 5122.66 5906.14 5484.19 7513.1 5254.28 4436.4 5733.48 4672.91 5580.89 3588.44 5645.7 5176.86 6810.52 5840.26 3672.51 6110.27 5561.06 5073.35 3615.22 5670.04 4380.59 3589.27 6716.79 3607.45 5759.91 7613.27 4951.03 5255.32 6037.08 5096.78 6756.95 4129.43 3843.58 3320.52 4194.5 4270.53 5344.25 5191.63 4593.7 4150.99 4216.92 4742.68 4344.58 5634.83 5495.84 6268.1 4861.06 5374.51 5320.28 6739.08 4797.52 4569.12 5873.69 5960.66 6608.73 5011.84 7034.11 6261.42 4502.5 3771.48 4043.57 4271.69 5681.38 4138.42 3708.04 5513.6 3240.09 4556.36 6082.81 3191.99 4685.34 5601.05 4929.8 3586.91 3103.0 3554.9 4015.92 5542.21 4487.31 3936.02 4044.71 5980.74 4094.62 4927.02 5546.39 5325.36 5484.83 5351.6 4730.36 4715.55 5867.73 3951.75 5013.56 4499.64 4375.68 5542.27 5054.98 6030.06 5170.02 3557.27 4927.31 4688.68 4402.52 4517.56 4182.53 5903.42 3955.56 3761.32 4118.05 4366.19 5553.16 2938.66 4940.78 4231.61 4008.92 3942.53 3379.84 4827.82 3997.1 3260.67 5123.52 3038.33 4392.68 4333.2 7199.21 4523.7 2240.39 5091.39 5293.9 6142.94 3912.37 4727.24 4602.25 4790.08 5082.47 4763.45 5344.0 5445.87 3815.26 4704.72 4177.94 4571.7 5896.46 5022.8 3784.5 3780.23 6481.79 5224.12 7042.12 4819.73 6326.39 4471.58 4962.09 3999.48 4359.62 6946.21 2586.12 5433.8 4011.77 5499.11 3633.87 5922.5 5198.77 5987.17 6013.14 2765.2 4901.41 5110.37 5664.98 4382.74 5927.43 4651.28 3693.63 4384.42 4516.43 5481.78 5637.59 4937.14 5043.05 5816.2 5693.81 5109.54 6483.19 3829.13 5945.65 6759.9 5538.89 7021.47 5416.38 6059.59 4955.55 2720.68 5701.86 3563.63 4238.81 4468.59 5885.03 2837.58 5325.02 5200.76 5017.13 4862.64 5185.34 4432.58 6684.56 3968.64 4688.67 2635.86 5292.64 6166.5 5065.13 5936.02 5305.17 4861.08 4003.05 5390.22 4805.87 4712.33 5227.21 5697.78 4667.36 4091.31 6372.62 4254.17 4295.38 5090.24 5615.42 7565.34 5923.5 4612.68 4281.49 4973.83 6342.25 6691.39 4840.84 5135.69 4020.32 6045.46 4245.72 5908.1 6048.7 4541.21 6133.92 3719.84 4178.4 3095.48 4166.08 4123.6 4850.14 5163.55 3382.7 6817.32 4319.79 6098.14 4472.17 3637.61 4203.26 5188.81 4730.41 6057.22 5062.71 6125.34 4527.08 5347.48 4850.01 3970.25 5147.67 3979.82 5011.31 5138.31 5264.06 4659.59 6327.9 4048.37 6355.42 4362.19 5690.56 4948.92 3115.91 3307.12 4493.48 5924.89 4002.16 4174.52 4138.16 3486.22 4684.5 6230.49 6458.82 5418.62 4601.27 5493.32 5740.68 5926.61 6051.14 5836.15 3261.21 4345.55 6704.06 3653.41 3871.88 3856.01 5246.2 4390.66 5279.39 3673.74 4827.23 5205.43 6116.18 7447.37 4924.6 4385.06 4733.32 7184.19 2899.43 2924.37 4290.3 3867.67 5399.73 4660.72 3888.21 5891.05 6038.78 6902.81 6644.76 5629.19 4786.6 5740.84 6445.94 5530.87 4310.18 7134.64 5978.9 4187.56 3629.62 4997.27 4301.06 4877.67 4290.14 6562.18 4156.38 5316.75 4164.68 5669.65 5934.22 5624.49 5762.59 7092.87 4666.81 3703.1 3954.91 6471.55 2965.01 6643.85 5501.93 6222.42 5654.31 3745.84 4938.74 5690.26 4156.2 4497.59 5965.78 4374.35 4810.12 5643.58 5215.05 4292.06 3821.72 5577.04 5006.58 4602.86 3688.8 4548.16 3369.23 5449.18 5492.26 5244.78 5762.84 3937.74 4749.8 6084.86 5478.92 4778.34 5551.36 6894.71 3091.3 4414.54 5789.98 6138.47 7054.71 3641.64 5489.43 5747.75 4277.89 5054.25 4796.33 4195.44 5539.32 5360.19 6496.85 5600.93 4874.39 5541.59 4124.71 5728.85 6337.56 4911.47 5803.39 5863.59 4381.97 6257.19 3255.82 5242.73 2812.98 4065.69 5603.15 4695.45 6052.7 3921.18 3798.62 5308.1 3666.57 4907.89 4937.02 5655.21 4645.41 4433.59 4320.28 5542.14 4218.06 5480.13 6308.71 4716.19 5514.76 3456.98 3498.2 5105.16 3066.13 4302.5 6006.16 6009.88 7055.53 5013.67 5826.04 5339.78 4970.88 4143.78 4763.66 4636.5 4940.42 5923.4 5085.71 5499.39 5644.82 5463.38 5945.21 5750.71 5696.88 5607.14 3923.03 5975.63 5252.34 6396.74 4138.46 2775.04 4986.77 6318.18 5586.81 4621.75 3948.17 4551.24 5358.59 4220.88 4515.71 6519.71 6640.13 5082.6 5810.84 4230.54 5094.44 3748.24 4655.49 4467.94 4850.81 6038.14 2540.31 6029.66 5527.54 5573.7 5697.4 4727.62 4270.95 4055.8 7325.81 5280.17 6425.26 5143.58 4794.96 6186.19 4839.34 5083.08 6834.49 5525.39 3998.5 5938.34 4024.3 6394.38 5555.28 5169.36 4737.14 4686.65 5834.74 5556.96 5788.23 5581.75 6392.01 3599.45 6730.19 4907.06 4073.93 3735.44 5163.9 6043.3 5952.75 6332.36 6122.55 2739.94 4931.53 6155.31 4223.33 5911.67 3323.28 6695.82 6405.76 5794.24 4678.38 5448.61 5050.65 4827.33 5206.48 5513.57 5729.23 5226.0 3365.82 4538.95 5965.15 4780.2 6090.91 4946.42 5019.93 5081.78 6116.33 6263.44 6343.14 5774.97 5462.21 5470.77 4831.47 4643.85 4004.04 4289.17 5564.02 4274.61 2965.79 4410.55 6898.19 6035.6 5137.34 4481.53 5330.45 4581.13 3610.4 4219.07 6387.01 5367.52 3092.35 4322.15 5210.03 3629.96 5478.47 5351.39 6142.37 6061.47 4933.21 5375.47 4723.12 5120.49 5201.36 5262.61 6302.8 5409.61 6038.2 4005.44 5206.78 5555.88 6732.43 5028.96 3866.16 6362.12 4484.76 4840.01 2980.99 5611.2 7933.0 4455.12 5173.87 4894.16 5380.13 5711.87 5118.27 4941.22 5932.23 5791.61 3369.13 4479.66 3043.85 5367.2 5461.13 4726.76 5839.13 5495.68 5489.34 5708.14 5537.72 3920.42 8332.24 4553.56 5329.64 6049.55 5709.62 5835.78 4127.74 2476.04 5133.97 3942.07 7443.72 3937.08 5260.34 4709.35 6586.45 4373.3 4750.78 4163.5 5724.64 5078.86 5100.1 3561.29 4963.34 3295.83 4459.28 4260.92 6250.23 5960.56 4118.84 4020.95 6313.06 3474.39 6470.3 4200.03 6062.05 5082.74 6915.83 6072.45 7099.43 5526.14 5198.29 5423.0 5077.33 3856.59 4746.52 5413.79 6338.89 6202.55 5025.39 4714.54 5893.5 3320.11 5030.91 6022.17 5119.37 3982.23 6163.38 4566.18 3459.9 4964.09 4809.42 5024.9 4306.53 5659.17 5094.81 5972.06 5713.22 5861.71 4359.04 3183.98 3794.63 4524.28 3778.1 5152.36 4511.82 5826.64 4220.65 6820.42 4816.2 6321.41 4896.52 4751.02 3372.79 5184.56 5282.64 4715.72 4669.66 4808.52 5046.33 5607.24 5053.92 6352.26 3847.38 3818.59 4863.72 5002.48 6623.85 4262.82 5102.36 4342.9 5065.11 5069.84 4051.44 4241.89 5054.74 5941.72 5991.09 5126.91 6600.94 4788.58 5371.02 6155.1 5876.71 6262.72 5029.78 6515.84 4888.6 2990.77 4739.14 4918.77 4371.99 4219.78 4188.3 3885.86 5235.29 4479.94 6413.02 4863.27 5862.86 6049.79 3493.7 5374.98 4719.7 6939.12 4735.33 5411.85 5092.37 6444.77 6314.07 4287.63 5315.4 6449.45 3975.31 3689.45 3824.16 5572.95 3868.18 6723.16 5584.06 7111.16 4547.19 3817.13 5507.24 6851.54 4583.31 4503.89 5806.08 4853.39 4997.27 4093.08 4449.22 5543.27 4717.05 5287.2 6135.57 5998.38 4312.67 5423.8 4270.24 4989.15 5017.78 5015.69 6175.81 4727.24 6677.09 4305.57 6959.81 4829.35 5201.67 4424.7 4089.76 5526.55 3192.41 5215.15 4987.87 3315.57 5804.71 4764.96 5727.3 4242.52 5356.51 4277.88 4087.15 3057.03 4143.08 7500.97 3948.23 5228.18 5787.31 3927.99 5868.82 4978.31 4050.9 4099.77 4537.32 4981.9 4656.78 3600.43 5131.24 5196.67 6496.67 5474.8 6607.87 3664.11 5117.47 4925.63 5882.65 4434.19 5187.7 4623.61 6261.75 5177.64 4255.31 5453.3 4407.9 3492.19 4584.5 5122.63 4703.08 6345.13 5274.19 5516.95 4406.4 4413.85 4844.57 4027.46 4470.98 5776.37 4516.28 3627.82 4044.45 5125.78 5344.43 4373.47 5045.38 5350.88 5372.61 3686.21 6480.17 5023.15 4377.07 3813.22 5101.59 5570.3 4336.42 5243.29 7589.94 3130.65 5628.24 5856.11 3327.49 4109.88 4234.94 4562.29 5013.13 5080.66 3417.33 4926.42 4164.13 4642.34 4520.1 4947.52 5874.89 4293.03 5813.4 4389.21 3791.79 4925.44 4754.05 4951.47 6084.93 4307.28 3697.96 4739.42 5538.93 5020.12 4745.45 2631.9 5281.28 6255.18 4668.71 4758.21 7228.46 6362.14 6719.88 5978.82 5266.5 4523.88 4066.38 4948.98 4414.48 5227.52 4092.24 5163.02 7144.24 4906.82 5687.83 5004.23 6442.69 6320.71 4648.04 3464.83 4721.32 3293.56 3163.78 5274.14 4903.82 5746.28 4082.47 5511.6 4338.08 4378.3 6134.99 4094.73 4989.56 4718.54 4440.57 5548.29 6766.43 2315.64 4390.41 5226.56 5599.49 5313.22 3905.51 3999.94 4864.22 3901.8 5759.46 5083.41 3921.08 4190.31 5678.96 5262.19 4244.9 6070.58 6034.41 5452.83 5130.91 5402.24 4519.22 6445.22 3844.9 3695.36 4564.34 3963.86 3848.93 4306.11 5935.47 3402.32 5903.66 4528.49 5004.67 5365.89 5992.26 3960.8 5070.39 4980.85 5714.58 5110.45 5208.32 5248.77 3296.27 4083.97 4607.02 5153.74 4528.09 3895.51 4165.81 6291.51 4128.98 5174.89 5882.89 6246.22 4188.32 5246.61 4100.38 5344.77 4723.48 4899.11 5097.87 4278.07 7267.18 6256.02 5320.92 5269.18 4305.43 4406.1 5034.59 4942.77 4263.33 4454.63 5080.18 5912.61 3279.1 4403.98 4560.84 4729.43 5776.57 4562.74 5683.26 5598.74 5139.5 7493.3 4814.55 3527.05 5698.77 2477.07 6413.11 4305.16 5092.28 4965.89 5659.95 4152.85 2908.7 4453.64 4517.73 5469.47 5660.16 3838.47 2588.37 6736.03 6235.57 3623.87 5916.16 3087.09 6934.37 6113.95 4050.08 4097.57 5017.5 5563.79 6171.13 5511.88 4512.11 7055.42 5486.68 6048.86 5100.25 4285.32 5490.43 5022.28 5197.52 4959.34 4948.5 4527.02 4531.14 5013.42 3838.56 4871.44 5076.35 6020.48 6375.99 5200.05 5234.29 5313.66 5419.37 4466.03 4511.54 5409.33 5196.0 4923.9 4973.78 3329.99 3947.47 5091.68 4713.25 4204.84 6243.0 6673.96 3556.85 3161.47 5441.96 3435.9 4288.3 5370.52 4652.29 5774.81 3746.31 5498.32 5027.98 5346.27 6475.1 4969.21 2691.29 2845.98 4880.14 5289.52 5314.85 5450.44 6510.17 5742.65 5592.32 5381.16 5565.13 6193.35 6086.96 5233.78 3701.27 5653.9 5046.21 4929.14 5894.61 3979.54 5304.13 5944.09 5833.06 4923.41 4497.31 5384.76 5529.42 5257.12 5243.43 4537.14 5551.9 3757.34 6415.61 4687.64 4419.71 4888.12 5037.06 4541.8 5175.29 5842.56 5887.15 5412.31 3423.15 4890.5 3981.07 5452.42 5328.22 6853.85 2395.5 3497.9 5941.61 5782.48 6248.6 5683.61 3836.45 6894.26 4986.51 5339.38 5178.99 5383.07 4591.87 4790.78 4247.15 6552.22 5651.07 6248.81 5273.35 4091.8 2651.49 4645.58 5512.23 5275.32 5985.29 4898.94 4178.15 4613.31 4733.04 6119.09 5788.66 7531.29 5069.25 5048.89 5935.03 3991.03 6390.78 7435.25 6826.57 4788.87 4249.46 4495.87 3702.37 6022.72 4643.31 5527.33 6917.52 5402.21 4989.09 4982.31 3848.54 4307.48 5941.4 5331.02 4871.96 4863.23 4402.67 4470.61 4631.83 4384.88 6887.27 6008.49 4806.34 4287.53 5612.21 5945.08 4968.03 3306.14 5490.58 4863.79 4702.06 3830.46 6031.67 4689.15 6138.12 4428.78 4655.16 5409.66 4345.67 3867.19 4765.72 4642.66 4039.91 4752.14 5329.59 6119.63 4950.97 5512.16 3197.63 4863.96 5191.08 5203.08 7480.41 5163.77 4488.85 3731.84 4901.07 5186.3 3436.15 4151.76 4020.4 3493.47 4596.75 4933.65 5443.58 4558.46 5805.86 4049.02 4470.4 5311.03 5255.12 6169.11 5615.35 4027.09 6422.84 4502.18 5379.09 4602.85 4962.77 5872.05 4853.02 6259.23 5181.4 5088.44 5670.2 4711.62 4247.23 4114.24 4268.65 4694.83 5509.42 4354.08 4256.43 5936.36 4520.62 3903.75 4755.47 4485.99 5127.16 5475.8 5314.69 4244.99 6050.81 5543.46 6185.89 5965.81 4750.17 5660.85 2330.66 3990.25 4177.19 3691.0 4752.51 3587.05 6229.37 6718.19 5282.91 4425.84 3797.33 7256.35 4800.69 6566.1 3555.86 6386.78 4996.99 4896.39 6081.14 5480.83 4220.46 4607.85 5128.57 6000.7 3169.67 5604.21 3361.92 6710.88 5395.14 3967.48 6213.04 6622.11 3685.13 6790.73 5251.4 5097.69 5857.79 6543.13 5276.7 5036.58 5411.02 4752.9 4287.16 5199.44 4062.5 4435.51 5374.07 4588.7 5683.95 3766.55 4579.69 3554.48 5010.2 6496.52 5005.85 4216.17 6484.17 4721.02 4938.72 4254.37 3374.08 4031.78 6098.1 5708.99 5687.85 5346.68 5296.29 4611.53 4896.11 4285.66 5172.53 4135.62 5801.99 5534.94 5210.48 7644.38 7552.94 6101.92 5323.3 4998.21 4662.56 5166.79 5349.31 2976.22 3405.98 4649.22 5394.55 5094.52 4946.74 2682.24 5996.33 5928.32 5229.48 5475.7 4016.18 5526.75 5435.74 6385.23 5327.45 5560.26 3997.96 6205.93 4439.35 3460.94 5830.72 6184.4 3758.07 4373.45 4236.14 4407.87 5733.62 5169.9 5282.51 4460.92 5945.89 4042.28 4105.55 4340.76 6065.22 4221.28 4456.39 5514.84 3633.79 5421.53 5937.08 6070.3 5233.29 4312.56 4612.06 5204.04 4750.58 5926.11 6667.68 5235.11 5211.38 5089.62 4590.55 4741.26 5920.32 4255.85 4732.09 3988.3 4356.25 5149.72 5776.96 5464.25 5486.48 5301.47 4617.55 3645.12 5424.88 5415.85 8659.64 5469.13 6027.62 5765.42 6123.03 5966.61 5711.11 4575.94 3546.71 5768.57 5564.23 5950.04 4231.83 2435.33 6401.43 4558.47 5020.71 2681.29 5094.48 3872.61 4238.4 4318.48 6132.95 5266.22 4860.33 3685.13 6004.68 4051.34 3361.26 3627.55 6239.84 4635.6 4256.67 3457.48 3931.07 6430.39 5417.15 3688.16 4681.72 3949.6 4945.39 3950.63 5415.19 6631.19 4612.62 3619.07 6648.68 4275.57 4467.04 5626.61 5817.25 2983.99 2614.4 5061.98 6363.92 4923.24 4419.61 7177.44 3828.81 5309.98 4082.57 5255.18 3004.16 4767.78 5235.17 4421.12 4779.5 4435.36 5254.49 6649.96 4303.19 5784.3 3914.2 4256.57 6088.68 4643.56 4135.08 5620.74 4778.82 6124.08 5467.84 5053.95 5266.01 5253.37 5767.9 6515.8 5869.4 3685.65 3701.16 4186.6 5895.77 5750.07 6136.49 4757.74 4216.95 4209.49 5742.74 4244.21 4947.24 3875.05 6200.54 5148.58 4199.45 7234.66 6599.66 4055.54 4233.8 6098.95 4997.83 4893.49 5325.44 5021.88 5956.65 4498.25 4188.87 3735.24 6574.95 4074.48 6333.29 5731.57 5997.88 5839.71 5576.92 6408.83 3930.79 4004.35 5226.97 3312.06 5180.76 6799.4 5278.36 4409.63 5865.39 4427.28 6079.11 3082.32 3658.37 7440.72 5376.71 5703.6 6326.18 5661.62 4867.08 4266.03 4713.74 5407.78 4084.49 6179.96 6632.99 4537.6 5147.36 6260.79 4563.46 6553.94 5726.66 5460.65 5652.0 5463.41 5225.33 4929.75 6045.22 4614.3 5134.39 3532.3 5769.98 5442.32 2221.99 3580.58 4863.01 5356.79 5657.36 3619.79 5029.47 6306.21 2978.76 2040.66 7016.27 5884.9 3876.21 5689.26 4916.22 6022.7 4940.84 4833.46 4809.67 6045.67 3946.28 3821.94 5439.9 5367.73 3540.11 4640.06 4652.01 3456.47 5421.64 4207.54 4886.12 6419.12 4976.12 4817.16 5453.98 3991.42 4388.63 5102.75 4200.09 4597.29 5931.77 5938.17 5151.21 5398.64 6817.57 4477.04 3614.96 3886.68 5703.74 5662.55 5737.92 4360.23 5365.24 5293.51 4763.96 5754.18 5008.63 3418.99 5132.68 4480.95 4993.35 6218.95 5521.25 3661.9 5370.85 5949.46 3178.54 3776.94 4765.02 5629.39 4448.13 5070.29 4807.28 4768.61 2261.36 5075.55 5280.69 4220.03 6923.84 5227.59 5449.46 5703.07 6113.54 4662.43 3963.76 4043.66 5528.53 6799.88 3062.43 5990.52 5426.78 2967.38 4159.35 6477.91 4237.98 3091.67 6439.37 4081.97 5401.99 5580.92 5973.33 5067.46 3583.21 2511.46 4011.37 2775.69 4785.25 5461.55 6519.43 5876.64 5424.46 4857.84 4908.49 4962.21 4858.44 3468.42 4673.35 4771.13 4992.42 5297.19 4351.38 5550.75 5933.7 7248.4 5280.12 4444.97 5984.81 3498.16 4247.69 4409.27 4588.99 5471.74 3548.39 3673.28 4928.27 4858.51 3375.28 5625.65 4301.61 6107.89 4446.84 5660.55 5148.08 4834.87 5760.22 3672.21 4795.43 5097.95 5108.06 3573.73 4693.52 6853.04 4745.43 5831.96 4747.55 3056.7 3755.95 6234.32 4586.19 4446.06 3450.93 5323.91 4270.74 6595.03 4558.15 5222.16 4690.55 5107.23 5136.08 5558.68 4802.32 4010.57 4599.38 2684.03 5246.47 6157.04 4522.21 7422.36 5506.19 6719.94 4950.67 5832.37 6166.29 5453.6 5409.63 5294.77 4709.05 3077.84 4630.82 6109.49 4813.08 5860.67 4540.86 5332.65 3764.1 4835.83 5604.35 6316.56 4332.87 6420.81 4715.58 4450.7 5151.52 5369.08 3101.75 4347.74 4009.62 5291.9 2081.58 4874.18 6505.78 3298.2 4270.15 6865.76 6449.64 6464.8 4684.44 4749.59 5799.69 3809.69 5571.72 3208.96 7051.9 4184.23 4144.57 6834.41 6226.14 5466.33 3000.29 5721.05 4209.31 4514.39 6242.79 4321.21 5950.45 4344.34 5713.03 3583.49 5052.84 4366.74 5297.16 3184.64 4936.96 5206.33 5530.49 5653.03 3718.69 4514.79 6192.0 2216.82 4509.89 4940.28 6752.75 5269.38 3004.34 5607.3 2928.82 4222.4 4000.43 3420.08 4568.41 4912.04 3624.7 4539.07 5464.68 2685.81 5591.76 4585.31 5010.04 6625.18 4570.98 5097.45 6293.89 2761.07 5737.75 4983.39 5366.52 3778.02 5533.72 5533.42 7132.12 3678.08 5518.57 4187.31 5463.48 6191.29 3240.51 4527.99 5161.01 4376.7 4298.15 4628.4 6051.83 4642.93 5941.9 4263.16 3973.12 6642.76 6024.75 4497.78 5567.93 5987.42 4442.22 6451.33 5413.31 4669.06 3012.99 6400.08 4743.59 5208.14 3317.83 4396.25 3763.05 5092.24 5549.49 5423.42 4518.04 4766.06 5012.5 5435.19 7093.13 4953.1 5818.95 4093.99 3940.49 4406.05 4680.94 5089.1 5828.35 5876.72 5236.43 5285.07 4680.14 4608.41 4083.79 4187.94 5980.59 5021.77 3796.15 4801.8 7216.98 5271.02 5718.28 4601.74 5088.57 5849.65 5134.67 4165.21 4215.0 4603.5 4481.76 5452.78 5065.26 4304.41 5885.28 6579.31 5323.55 3022.6 4914.45 4811.76 4698.87 5351.56 4661.03 5160.59 4691.91 5262.35 4475.83 4255.34 4510.8 5064.79 5889.35 4394.56 5896.26 4275.07 5825.38 4185.61 4047.87 5742.47 4917.99 6552.21 4367.78 5417.8 5146.37 4836.16 5300.96 5151.11 5730.33 5545.46 5193.01 4543.1 5190.61 6550.44 8325.01 3764.06 4440.81 4523.39 5278.56 5434.47 5829.22 5631.14 4243.79 5811.18 5433.65 4008.15 4887.76 4811.32 4286.49 6184.88 5829.32 6405.0 5551.95 3918.87 2275.45 4633.05 4901.2 6605.86 4383.56 4990.79 3562.79 4516.53 4122.92 3604.14 4452.54 5810.77 2711.19 5474.15 4028.32 4099.92 4884.59 3858.06 4511.7 4304.63 5263.27 6300.92 4173.54 5599.29 6038.68 5046.12 4807.4 7013.17 3805.67 4590.01 6506.86 5580.34 3852.6 5775.31 4706.5 4647.67 5375.12 4356.36 4892.44 5578.94 7610.49 4286.17 3684.56 6028.09 5375.1 4172.6 5313.12 3984.88 5318.53 4732.09 4320.42 4281.98 7165.9 5344.83 5480.3 7509.24 4146.81 5388.78 6101.13 4573.72 5099.21 6969.28 5636.4 5698.96 4350.12 5227.02 5670.0 4298.45 4232.16 5222.51 6609.84 4344.51 5680.94 3834.43 3781.77 5581.55 4707.06 3474.5 4250.88 3860.83 6348.03 5732.27 4792.39 5146.37 6917.62 4013.38 6137.8 4343.78 5263.3 3352.35 4909.65 6523.86 7693.4 4326.48 4437.07 3449.37 5491.9 4659.16 5789.55 4909.31 6522.59 5711.62 4798.17 5166.79 5425.98 6479.39 2895.63 4997.91 5079.22 5381.54 4714.83 7519.2 6355.68 4478.6 3953.55 4063.9 4469.54 4314.56 3928.53 5606.51 5740.65 3834.47 6349.67 6329.53 6101.86 4227.41 5993.0 4803.57 5966.42 4110.59 3332.49 5354.66 4214.44 5378.23 4787.97 3746.36 4981.43 6789.23 3989.7 4777.03 4246.61 5452.36 3804.5 4609.02 6486.37 4638.18 5498.42 3344.57 5220.76 7046.11 3427.63 4449.98 4863.97 6342.48 5756.75 5599.7 4587.67 4163.74 3665.95 4296.69 4095.75 3319.67 3603.51 5283.8 4076.59 5135.96 6464.15 5658.37 4972.17 6074.94 5491.37 4222.77 3783.54 5268.38 3475.67 5527.23 4805.33 7038.89 3863.67 4814.12 5067.56 6069.3 2735.53 5116.6 3747.03 5388.39 2783.85 5335.47 4356.49 4526.81 3994.07 4219.94 5907.46 4264.91 6740.71 5399.29 5971.22 6602.43 3568.28 6063.64 5996.66 4405.42 2995.67 3598.08 4599.81 5522.21 5698.23 7300.58 3608.06 6633.61 5217.95 4867.7 5484.36 4277.24 4075.28 5291.05 5161.1 4619.2 5166.41 5067.56 2596.96 5701.75 4350.15 4139.3 6541.45 4750.49 5078.31 5391.48 4923.43 5131.15 4847.14 3950.27 5116.66 3566.79 5374.67 4741.28 5069.89 4215.2 4157.29 6813.72 5327.75 4896.65 4946.23 4196.37 6448.66 5211.6 4453.97 6945.98 5138.2 3503.41 5783.48 4701.5 4504.35 4771.65 4840.44 5093.82 5951.81 3924.14 6918.35 4834.3 6238.32 6804.79 6471.42 6372.13 5369.5 4428.14 5404.01 5164.1 6016.19 4124.49 4479.11 5714.25 6685.4 5699.53 4850.06 6332.01 7044.29 4234.18 7085.01 5980.95 6193.08 3862.77 5887.01 5168.35 3185.39 3728.18 5633.61 5048.19 6799.23 4888.27 4592.15 6487.56 4854.11 5533.19 4998.22 5417.21 6104.26 5583.61 4986.71 7382.3 4022.56 3772.3 5522.75 4855.01 6208.9 4923.57 3340.09 6061.63 2279.05 4829.35 8137.11 5484.32 6650.77 4067.96 4824.12 7104.73 6162.3 3272.75 4264.54 3516.27 7043.44 4263.78 4643.9 5228.75 6047.14 5009.83 5210.38 5717.8 3629.44 5003.78 3299.24 6246.56 4061.6 2603.64 5107.0 6212.15 6502.97 4783.07 4852.58 6083.28 3556.79 5806.31 5456.71 7317.04 6412.67 7001.83 5012.97 4036.91 5589.37 5439.49 6639.64 5212.43 5454.12 6348.54 4066.57 5642.35 6357.47 5535.91 3230.13 6176.67 5325.96 5412.24 5016.02 4920.21 4581.37 4049.16 5851.61 3936.95 6153.94 6836.82 3858.17 4631.99 4740.98 5128.77 7122.87 5797.36 4243.26 4153.84 5119.86 5089.26 5084.17 4901.44 3776.8 5096.43 6156.21 2460.79 4653.83 6171.71 3628.89 6589.82 4668.88 5027.43 5867.64 4438.58 6059.93 5602.53 5073.02 6545.43 3472.91 6760.92 4989.2 4711.04 7144.05 4506.18 2970.9 6542.5 4383.47 5971.21 6318.23 4206.98 5156.76 6101.57 4891.38 4793.65 2949.12 5955.86 4532.89 4533.37 4848.46 5742.09 2779.99 2884.65 5887.38 5807.46 6942.34 3658.05 5478.11 4549.69 5526.31 5030.15 4058.87 5174.75 5048.55 5932.07 4984.46 4024.31 5948.71 5844.72 3856.53 3992.97 5460.89 6040.74 5260.85 4054.22 7228.94 5393.65 4961.99 4648.21 4393.16 3311.29 6484.43 6423.81 6192.77 6413.15 6103.11 5416.45 6459.51 4955.16 4904.51 4147.31 5989.05 5751.15 5950.88 4441.22 5853.89 6551.93 4595.12 4140.4 3110.13 4386.8 4625.67 4725.01 3485.54 3104.96 6735.97 5305.59 3636.15 4330.58 6114.89 5754.6 3288.01 4355.83 6870.97 2202.77 5351.86 6056.87 5474.01 4149.55 6201.86 3380.69 5166.89 3639.44 5491.63 5446.4 5725.37 3868.62 5966.75 4729.42 4844.83 5244.78 5652.87 5135.63 5018.69 6384.7 5952.38 3896.27 5807.52 5963.36 5230.02 5307.35 7554.58 4731.21 3124.7 6102.98 5138.33 3477.1 5769.14 5261.19 4811.22 6379.14 5216.26 4749.96 5377.37 5869.67 5483.7 4311.48 4899.73 3152.86 5457.66 6394.19 5973.89 5518.11 5087.14 4342.18 5169.48 6016.08 6776.22 6064.71 4467.13 6060.17 5934.82 5415.45 4385.81 6592.93 6350.71 5096.24 3381.82 7107.63 4831.93 4023.93 5868.89 5494.28 4099.26 4834.39 5493.89 3831.52 4918.76 4208.41 5826.78 2856.55 6214.73 4553.68 3758.22 4268.19 4532.7 3205.68 5561.74 6100.73 4788.08 4908.75 6556.26 4593.7 4349.13 6818.91 3687.65 3634.5 5478.95 3851.85 4019.34 4658.24 3623.19 4906.11 4387.39 4564.1 5825.55 4848.14 5366.22 6193.73 3742.11 4192.21 5712.35 3597.43 5701.52 4743.9 4158.91 5311.55 5321.17 3360.86 3719.11 4869.25 5545.21 3877.8 6418.11 4501.78 5039.12 4824.81 5135.5 5007.21 5545.59 5206.47 4057.17 7066.96 4263.65 6106.43 6761.81 5467.63 5666.95 4127.53 5210.75 5175.89 5361.87 5232.85 6816.66 4473.29 3971.08 6204.65 4482.9 3503.65 4869.48 4392.65 5510.96 6653.07 4745.16 4584.81 5509.51 5071.98 5719.79 3199.4 4371.08 4316.5 5254.24 4914.03 5086.29 5144.56 5139.18 3034.16 5551.43 5049.99 4201.03 4333.87 4458.64 4312.15 3657.69 6015.02 4922.49 3572.94 5001.58 4820.17 6456.58 5244.98 6436.74 5366.11 4384.28 5944.3 7307.21 5640.72 3619.72 4565.93 4504.52 5615.84 4464.73 5788.97 6440.38 3274.85 4580.06 4835.97 6419.64 5262.47 4587.7 5196.92 5644.81 4568.64 4642.2 6555.44 6358.93 2205.51 3894.64 3703.49 4374.74 4757.2 5975.23 4745.79 4211.82 5470.04 6550.4 4891.67 5513.8 4887.52 6631.28 5350.88 6571.31 5429.3 4944.51 5532.72 4697.91 5179.17 5579.39 5270.51 5148.1 7261.51 4968.14 5224.64 5949.73 4312.48 5527.13 6370.33 4278.57 5081.08 6318.25 6864.06 5001.87 3644.78 4883.63 4078.93 3814.65 3886.72 7778.01 4034.05 5127.82 5798.38 3862.91 3419.87 4456.26 3908.98 4027.33 5113.6 6328.42 3563.14 5851.63 4954.81 5610.53 5755.15 3926.11 5464.83 5414.58 4991.35 3512.94 5601.55 4807.35 5334.36 5750.35 4489.99 3683.86 5293.75 5658.14 5473.72 7124.45 5144.44 2617.39 5034.69 4198.94 3217.67 5079.64 6003.78 5684.25 3766.69 5110.11 5188.53 4882.66 4521.75 4027.63 5603.68 4526.34 5610.95 3220.8 5042.75 4598.92 4979.52 5490.75 4407.79 5214.63 3495.68 5783.94 7362.42 4202.77 5836.14 6008.81 5510.9 4505.28 3492.83 5585.14 7039.98 6006.89 5792.98 5910.86 5690.96 5805.1 4456.11 4810.98 5026.76 5091.22 6282.38 5212.92 5556.0 5748.9 3742.31 4608.34 5695.79 2781.96 4431.23 4467.0 4994.65 4258.98 3903.91 3919.62 4929.6 4368.28 4548.45 5730.61 4508.18 5064.67 4062.56 5969.37 4928.35 4509.46 6163.54 5212.37 3538.53 6500.49 5438.92 4244.49 5036.98 4120.07 4813.33 3840.21 5569.2 6746.66 5420.67 5635.32 4827.61 4316.45 5409.08 5481.64 5673.75 5241.22 6647.08 6263.3 3422.29 4501.05 4537.03 6548.29 3990.96 5352.24 5793.12 5469.17 5473.05 4373.2 4583.52 6711.21 6280.13 5244.22 5832.29 4438.76 4960.64 4983.3 5401.4 5053.15 5124.17 6239.68 7320.78 4234.88 5782.43 4708.31 3873.92 4092.07 5347.9 5657.55 5727.79 5188.82 5043.14 5072.5 4749.18 3663.0 6304.49 4420.6 4475.38 3622.8 5917.34 5740.98 6545.99 4728.55 4554.68 4945.0 4658.11 4551.26 5114.07 7142.95 4559.74 6618.21 3717.47 4504.86 6200.63 4583.94 1937.5 3844.54 996.652 2628.22 5965.58 3352.34 5058.51 4050.03 4952.52 3429.57 5410.33 5661.6 6099.28 5285.75 5385.03 4169.15 4778.37 5360.67 5968.54 5592.54 3247.97 5124.34 4114.2 4904.37 4358.81 4326.06 4651.64 5034.46 5757.29 5016.46 5061.75 3769.24 3743.76 5153.18 3425.69 4971.29 2606.51 3864.92 6119.99 4159.81 4446.58 5372.82 4402.17 4775.49 4681.29 5749.6 3845.9 4174.44 4834.44 4213.05 4224.3 4717.73 4928.85 4546.96 4316.0 5424.55 5134.72 5287.25 4770.51 3787.08 5630.9 4140.92 4585.04 6570.35 4383.68 6666.67 6063.44 5046.31 4337.32 5849.53 4680.69 4901.29 4833.55 7224.99 3242.31 4898.29 5372.25 5730.2 3234.26 4830.13 3494.16 5134.17 5370.9 4074.16 4529.77 4904.35 6172.27 5390.33 5078.73 5278.54 5729.0 5729.92 4179.87 4786.66 6224.13 4761.84 3661.67 5510.45 4730.14 3994.39 5499.59 5667.51 6331.74 4198.9 5431.29 5325.91 5235.87 4700.07 5273.37 3904.07 5553.94 6502.99 4392.75 4921.1 4191.01 5577.41 6511.37 4012.92 4462.87 4218.16 4933.49 6139.64 4692.32 4474.83 5236.24 3127.83 4242.63 3269.54 7407.91 4051.18 4651.99 4420.11 5863.0 6127.39 4972.18 5329.76 4124.76 7200.89 4802.98 3908.56 5265.63 5684.88 4431.06 4645.86 5620.88 4941.52 5900.0 4325.13 4262.74 3783.79 4248.14 5317.19 5279.19 4016.6 5192.92 5275.57 5891.25 5370.1 5902.67 5393.76 3684.15 7123.04 5906.57 7541.76 4932.29 4990.23 3784.94 4506.66 4439.71 4833.67 5157.38 4646.51 4546.44 6203.03 4732.37 5713.36 4704.92 4287.25 3987.69 3814.16 4589.06 4216.44 3999.5 4346.07 4013.86 6102.49 5836.26 6015.22 6061.85 6449.06 5241.75 4731.53 4577.73 5640.12 5760.98 4954.76 5764.52 4390.64 6523.78 4608.01 4045.67 6005.95 4308.49 4581.1 6241.77 7360.12 6223.98 5821.49 7050.08 3035.06 5580.44 5998.13 4597.88 4763.4 5454.11 4236.86 6010.59 4128.1 2955.36 4618.73 3220.29 4141.21 4064.58 5426.4 5951.86 5023.41 3791.41 952.938 4184.21 5473.89 6089.45 5265.21 4985.3 4966.07 4400.14 4666.12 6219.34 4920.88 4177.47 2918.64 5345.73 4770.63 5678.58 4385.49 5114.23 5495.0 5512.44 4454.74 4826.52 2904.46 4685.4 3763.9 4288.45 4147.49 5419.57 4081.34 4642.74 5384.86 3770.22 5150.84 4848.98 5184.98 5087.97 5339.82 4519.03 4930.17 5110.27 4085.96 4745.44 5762.82 4612.68 4232.33 5462.6 5617.29 5770.92 4262.19 3093.38 5095.52 4878.93 2002.78 4941.02 5806.61 3682.35 5182.13 3965.3 6110.48 5515.73 4125.9 4564.41 5247.01 5853.12 5702.4 4841.7 5810.17 3450.07 4657.24 5674.63 5340.05 4639.8 4212.15 4263.18 4489.29 4301.93 4924.07 5120.92 3200.6 4918.64 5162.67 4636.53 3646.95 5537.61 3402.44 6084.88 4491.96 4199.44 4397.06 4467.51 4479.5 6261.67 5460.57 3435.13 5065.78 5703.34 4521.42 6668.98 6649.52 3977.98 6043.34 4939.56 4128.93 4747.68 4959.72 4712.17 4845.91 4723.71 4461.67 5784.37 3142.09 3954.77 6793.1 6016.87 6715.73 5209.55 4678.7 3306.84 3484.81 5308.33 4271.07 6710.14 5759.79 4896.43 4462.35 6206.98 6638.25 5078.59 4775.04 2403.72 4721.98 5252.82 3543.98 4053.12 5056.26 5878.55 4014.44 6604.72 6002.77 4431.46 3794.47 4610.55 3207.84 4967.02 4614.49 5400.69 4462.5 5573.31 5004.68 3808.04 4023.88 4405.61 5348.11 6273.6 5003.3 3668.93 4009.24 3756.96 6245.52 5077.29 6740.35 4550.92 6023.07 6506.63 5995.4 4598.54 5218.42 5188.22 4512.07 5984.8 3986.41 3469.18 6240.42 5146.0 4788.7 4607.18 3228.27 3956.24 7558.99 4142.1 5043.14 5333.04 5445.91 4521.99 4812.59 6842.54 7115.67 5675.45 3361.11 6038.56 2807.46 5599.16 4179.8 3488.34 5658.35 5428.24 5684.05 5800.81 5166.05 3125.13 7035.54 5866.91 6075.99 5191.26 4184.47 4841.23 4196.62 2804.54 3372.95 5819.0 6347.72 6334.53 5580.95 3549.92 3393.59 4032.06 5246.81 5089.1 5888.95 5394.78 3463.34 2853.68 5329.84 4998.37 6559.82 3879.83 6565.95 4577.98 5886.81 4708.17 2741.2 3779.45 5167.53 5763.05 5357.39 4252.18 6296.54 5797.21 4208.37 6019.35 3825.48 3460.93 5124.86 4629.02 5469.35 5117.64 4313.38 6598.99 5250.56 2468.16 3633.58 6294.14 4339.97 5203.75 5169.09 5122.38 4691.15 2459.88 5262.85 5470.67 4210.24 5901.71 5342.9 5252.22 5733.12 5043.34 6436.29 5136.87 7145.73 5233.76 6405.69 3669.32 4762.1 3495.3 5890.25 5700.79 4927.73 4705.68 2832.83 5827.3 6036.99 3010.1 3825.98 4589.22 5087.03 4667.84 3906.41 4123.08 4512.6 4260.38 4636.45 4932.27 5225.11 6793.49 6060.19 4962.35 7350.26 5591.77 4556.19 4168.52 4659.88 5685.74 4140.04 5766.05 4474.96 4084.87 4790.63 5259.29 3584.05 4916.75 4818.53 5097.85 5584.64 6189.04 6224.64 4221.03 3799.55 5638.51 5082.66 4550.77 3563.33 4337.93 3550.88 5536.0 6786.37 5790.42 5106.46 6562.92 4068.31 3612.44 4850.5 4658.59 5532.75 4758.76 5367.05 5647.11 4088.72 3945.62 3743.85 6236.46 5342.17 6379.3 5015.67 3795.63 5189.4 4576.71 4894.15 6157.59 5201.3 4345.51 4048.73 6223.33 5024.32 5813.79 4644.88 3671.06 4683.28 3185.09 6949.65 5064.23 5721.14 4608.62 5407.96 5084.5 4987.28 6562.03 4449.73 6538.04 5848.41 4090.28 4246.83 4932.56 4176.32 3587.93 5676.61 6006.16 4071.75 4493.79 4279.44 2945.34 3565.32 5638.7 3487.31 5399.43 3667.93 5710.33 3835.81 4096.86 5695.44 4668.8 5322.11 4697.49 5735.08 4726.2 5034.05 4816.51 4711.15 4474.39 3810.68 6478.35 3990.94 4756.8 5477.8 5463.06 6069.78 5260.52 4241.68 4975.85 4095.83 5323.95 5846.95 5716.42 5268.15 5701.63 4603.04 4620.95 4870.94 5368.93 4488.39 6121.56 5914.5 4602.57 3419.07 3622.48 4796.12 5344.44 6432.8 4626.72 5131.77 5549.71 4815.47 4759.99 3899.7 5134.33 5214.4 2646.13 3629.49 5034.34 3769.2 3422.21 3916.42 5537.34 5884.99 5192.49 4899.19 6643.4 5058.34 4028.22 5575.11 4983.1 5293.13 4507.36 6224.85 6406.8 5403.97 4795.08 5648.78 6875.73 5501.73 6081.3 4697.24 4983.43 5117.52 6311.89 6549.8 2820.07 5129.68 4825.73 5076.84 4165.36 5288.33 4871.77 5811.26 5062.77 4884.93 5069.9 6028.63 3673.6 4494.15 5146.1 6215.87 6485.77 6060.06 5866.42 5544.27 5393.43 6896.55 4685.65 5377.01 6470.23 5939.22 4271.93 4215.05 3626.86 5125.17 4604.1 6371.96 4859.01 5076.11 5524.45 7133.44 4426.02 5600.21 3953.26 4750.81 4282.11 5467.51 5459.92 2347.41 4625.53 5453.77 4096.47 4357.11 5114.67 2809.19 5005.6 4916.7 5486.89 5589.53 7208.19 4549.51 5025.42 5196.08 4517.29 6379.38 5695.25 6257.79 4495.75 4849.5 6171.01 6229.83 5796.26 4468.26 4523.81 5578.18 5106.33 5791.25 5293.37 5198.94 5271.88 4028.35 5933.54 5559.79 7168.2 2980.31 3763.85 3148.79 4571.74 5740.78 5997.91 5001.51 4332.64 4742.82 5385.86 5115.42 3186.07 4082.4 4209.0 4410.82 4369.86 4967.51 4368.12 5173.82 6443.99 4365.58 3889.98 5193.58 3720.7 5490.64 5378.24 5698.53 3604.31 4507.46 4450.49 5036.14 3468.45 6022.78 4087.32 6647.85 5726.42 2569.12 4674.9 7025.09 3392.26 4433.12 3918.94 2549.95 5461.72 4361.24 5487.63 3768.46 3852.82 5138.93 5099.9 6945.69 5118.86 7086.69 5368.66 4304.64 6170.9 5833.78 4436.48 5226.42 5758.98 5615.35 3967.76 5288.64 6213.24 6734.39 4217.36 5679.74 5942.45 4150.76 4851.18 4228.53 6123.46 5005.72 5368.52 6142.88 5155.28 5111.26 5388.73 5205.38 4949.55 4764.83 1969.87 3132.34 4600.71 3957.38 4841.28 5262.79 5927.2 5035.71 6889.5 4710.88 4419.79 5300.17 5407.69 3869.39 5152.78 5960.5 5534.23 4117.9 4753.76 6025.77 4781.9 4638.09 6815.96 4441.91 5330.26 5339.6 5828.25 5917.08 4725.11 5483.37 5418.12 5322.07 5934.05 5770.07 4714.66 5990.75 5101.6 4984.17 4656.01 5781.62 6589.13 4037.86 5602.62 2030.03 3543.37 4542.16 5714.51 5628.97 4104.04 5353.66 2638.82 5030.33 5593.79 5104.39 5234.2 4612.13 4965.24 5846.6 5327.05 5438.55 5353.23 4434.65 6688.53 5977.66 5209.5 5065.74 4873.23 6731.89 5464.05 4733.41 5879.24 5410.6 5453.2 6348.93 5136.51 3901.53 6824.53 6815.51 5232.16 4422.23 6791.86 3989.26 6031.22 4820.68 4930.72 5482.76 5728.58 3745.02 7212.97 6297.99 4211.36 5918.95 3856.73 4538.89 5817.74 5887.71 5517.65 4009.68 5114.51 3303.49 4622.73 4655.37 4161.32 5256.75 5161.74 7336.37 5932.28 6599.28 5560.23 2960.5 5783.38 4975.32 3043.77 4298.7 3902.48 5237.55 4183.4 3909.94 6030.39 4733.79 4905.53 3799.01 4823.06 7392.65 5254.49 5319.1 3757.23 6828.8 6883.86 5987.88 3579.59 6161.94 4065.28 5057.59 4461.14 5285.6 5575.11 4574.54 5615.06 5490.54 5203.54 4047.95 5507.38 6142.94 4416.87 5001.69 6581.56 4052.43 4057.4 3980.46 4896.67 5383.9 3934.11 5158.44 3886.56 4466.22 4496.51 5715.51 6153.71 6561.94 5259.21 5092.93 4256.08 2803.01 5881.93 4444.0 6771.18 6182.19 5327.39 5910.66 7415.84 4981.81 4138.59 4970.55 4938.33 4484.78 4621.33 5527.27 5157.73 5847.91 4934.66 4984.01 4109.44 4903.84 4290.49 4557.1 4605.39 5927.1 6270.59 6175.27 5876.51 4103.76 4907.55 4286.61 4094.63 2932.52 5264.83 4603.66 4757.87 4969.68 6636.43 5431.14 6298.8 5313.86 4457.05 5178.07 5189.91 3618.64 5777.26 4171.02 5485.84 6424.77 4887.73 4335.79 5453.69 5797.32 5432.04 5689.56 6556.86 3921.27 5129.4 4746.15 3720.38 4758.84 5585.25 4731.37 5023.61 3976.0 6351.89 4672.86 6530.78 5059.37 4742.35 5394.79 4139.39 5645.54 6264.03 5088.64 4526.87 6589.8 4151.74 6920.92 4174.22 3729.16 3783.36 3573.84 3038.91 4181.93 3922.28 6570.43 3350.99 3820.19 3445.92 5236.69 4979.5 5524.28 4586.82 3133.28 4745.37 5939.29 6026.04 6200.05 5418.98 5859.17 4034.41 4052.49 5061.74 5522.34 5326.03 6189.67 4420.35 5717.45 4948.96 5256.82 4013.86 4061.87 4645.93 5165.31 5448.64 3798.09 4585.37 4288.5 6417.61 3721.69 4511.05 3456.3 6074.39 5317.83 6738.9 4399.52 4460.89 4554.24 4157.1 3939.96 8052.53 4867.12 6044.01 6520.19 4637.3 5141.03 1458.87 5734.07 4840.44 8123.59 3997.68 4819.83 5765.14 4801.16 4767.54 4541.22 4946.08 3539.68 5121.08 4696.03 6217.33 6177.68 4698.7 2848.44 6229.64 6045.26 4220.43 6500.45 5743.8 5084.76 6666.34 6605.11 4645.91 6834.92 3557.46 6379.33 5971.95 5652.73 3689.24 3979.46 6321.97 5151.19 6412.84 6509.54 5703.84 7012.36 3530.82 5128.59 5028.06 4002.99 4886.99 5159.67 5587.3 3161.1 3572.73 4864.38 3702.45 6275.25 6892.33 4505.3 4491.26 4452.36 4511.34 4068.41 6463.71 5009.21 4574.03 4379.91 5290.37 5850.38 5264.08 3562.8 4227.66 4730.97 4691.01 4594.89 5192.82 5245.95 5821.42 4067.89 4515.02 6294.09 4924.52 4571.57 5131.07 4121.07 2970.24 4197.87 5658.05 5105.54 5731.43 6353.81 3414.67 3518.14 5444.36 4150.44 5044.68 5771.98 2649.69 5899.78 5000.74 5117.83 5772.57 5268.27 4813.81 3882.37 4095.4 5244.95 4634.25 5901.8 6351.48 5395.12 5783.69 3830.7 6210.0 5432.4 3483.61 5350.9 4262.52 7430.48 5992.06 5545.68 6080.69 4970.12 4967.93 6369.66 5973.57 5922.62 6241.48 6033.28 5957.82 6286.27 5071.38 3717.22 6327.54 5616.66 2927.84 5688.77 4802.36 2943.17 5368.28 5466.13 5257.38 6263.87 5075.23 4975.56 7282.36 3826.01 4829.77 5581.01 3928.99 6959.88 4125.75 5749.53 5130.57 5090.48 5402.45 5582.28 3985.93 5945.25 6071.59 2589.19 6119.0 3856.4 3792.06 6079.55 5485.61 4993.49 4937.36 4293.3 5308.4 5310.33 6583.37 3688.83 5631.32 6126.5 6322.0 5793.14 6345.2 4609.65 5488.96 5704.61 4832.21 3720.92 5128.03 5410.73 5087.3 4942.63 6139.74 6637.38 4975.57 7066.26 3057.3 6150.31 3677.85 5214.71 4677.84 4811.11 3463.53 5379.52 6126.03 5314.67 6044.69 5563.47 5651.46 6593.1 4066.36 4000.51 5462.1 6032.45 5011.37 2827.92 4026.03 6908.32 3467.11 4817.75 6153.26 4848.15 5637.53 4439.09 5523.81 5648.59 4718.61 5188.57 3873.79 5717.67 5357.33 4432.32 5515.59 5252.37 3224.81 4499.54 5037.58 6457.89 5640.67 6572.17 3751.73 5555.89 4766.47 4871.1 5678.08 3917.09 6009.93 5872.45 4414.09 5270.1 5125.45 3784.68 4188.16 4947.64 6305.9 6649.21 5507.07 4654.92 5327.71 4880.78 4322.56 5509.09 5625.02 3873.72 5212.05 4592.49 5479.86 6474.5 4444.92 4702.32 4763.04 5971.9 3746.62 5247.73 4876.37 4532.67 5034.02 4769.62 5260.13 4649.5 5181.31 5985.75 4696.06 4137.16 6189.29 5984.55 6581.13 4569.32 4034.88 5108.84 3511.5 6007.1 5067.92 5357.14 3188.21 4850.95 5919.27 4793.06 6271.22 3421.81 6188.33 3920.64 6111.23 6916.18 5786.06 5873.62 3868.69 4137.41 4996.91 3920.44 4450.51 6033.72 4866.8 3768.62 3851.47 4966.74 2329.93 4959.94 1635.31 5639.4 3162.27 6033.93 6185.73 4083.24 5516.37 5092.44 4441.44 5432.2 4232.44 4612.4 5336.61 3312.3 5563.09 6381.58 3282.57 5212.2 4798.13 4611.21 5108.42 6697.45 4630.5 6296.36 3354.94 5237.27 4451.76 7885.41 3775.38 4046.22 5782.25 4104.97 4844.2 4575.72 5114.61 6118.13 3374.62 4926.62 4420.3 6332.64 4202.12 6492.44 4613.32 4083.1 3482.73 5191.29 5130.56 4957.99 4063.26 5345.05 4997.89 4542.62 3470.69 4859.95 5286.55 4132.08 5522.18 5223.1 4699.77 4850.49 4981.55 5144.23 3625.98 6188.62 6153.07 4414.06 5908.57 5944.52 4413.56 5050.2 5316.05 2513.38 4821.41 4908.32 4924.53 3995.08 4499.52 5019.84 3874.12 4810.74 3900.93 5784.38 5475.83 4149.17 4329.8 5728.27 5672.46 5803.3 4582.12 4487.51 4295.25 4520.14 5354.48 7394.47 4729.45 6261.13 5374.09 4167.55 4720.34 5244.47 5378.75 4731.16 5510.89 6186.24 5822.7 3780.07 4159.89 5466.49 5178.55 5447.74 4038.17 5007.41 4907.48 3692.99 6213.74 4488.41 4369.87 6938.87 5412.07 5512.57 4806.99 6520.96 3771.91 5856.43 5217.62 6178.19 4746.19 4616.81 5349.85 5715.25 5172.1 4362.94 4469.82 6545.78 4870.14 4404.87 5105.72 5767.65 4750.76 5003.49 4907.03 5497.27 4081.77 5617.91 4948.21 2181.29 4987.01 4706.31 2694.25 6265.48 4735.99 4203.68 4739.56 5145.39 3818.37 3996.93 3352.46 6351.95 5195.09 5200.1 7679.2 5093.28 4881.51 6131.52 4311.92 2626.41 6009.88 6729.99 5093.41 6842.35 5464.34 3621.63 4777.96 5801.89 6833.5 7296.47 5742.39 4780.16 3834.01 5616.11 4433.23 4813.24 4028.13 5759.19 4457.73 6476.35 3113.64 4304.75 6260.58 4067.24 3053.19 5202.33 3074.49 4246.24 6805.02 4919.13 5640.63 4900.26 5783.88 5002.38 6705.93 4865.11 5449.09 5502.14 6470.87 4495.33 5282.67 4131.08 5747.9 3864.19 4287.93 5146.69 6203.24 6818.23 5081.65 6679.12 5652.19 5806.74 3878.8 6578.62 4813.55 3465.03 4796.04 3839.0 5229.56 6011.4 5799.86 4672.34 6052.22 5376.41 5410.33 5533.52 5003.63 2932.2 4695.7 4380.86 4944.08 4082.01 5269.39 3964.03 4216.33 5832.72 3903.9 4444.95 4721.2 5161.02 3943.77 3124.49 5242.38 6081.35 5003.81 6262.18 5566.5 4701.03 5663.36 6225.05 5434.04 5125.53 3997.52 4444.54 5403.81 5779.9 4909.74 5310.33 6664.54 3922.98 5161.73 5259.48 4008.67 5254.93 4803.4 6608.94 2613.78 3796.73 5417.07 5656.84 5738.37 6789.66 4739.41 5312.2 5847.27 4490.2 4706.59 5734.84 5480.86 6139.9 3982.31 4950.07 6571.26 5402.81 4328.76 4600.81 5561.63 4124.33 5168.97 4358.06 5093.51 5647.93 4280.92 6201.49 4696.92 5154.74 4605.61 4465.56 6898.8 5386.95 6540.57 5332.11 5315.71 6004.72 6158.93 4823.14 5438.5 4489.18 4621.32 5699.4 5237.76 4698.94 4286.84 6284.12 3948.21 5669.15 5296.05 3330.85 5263.86 6988.4 5056.32 4060.17 4747.24 6051.35 5302.53 4909.13 5576.16 4305.35 5648.02 3308.75 5210.22 2451.27 5677.42 2701.42 4929.35 5606.22 6673.92 5151.68 4884.94 5459.52 4609.98 4738.72 4752.31 5240.97 4276.59 5579.04 5405.6 5994.21 4884.93 5082.25 4759.38 6964.78 4374.05 5299.03 5036.84 4565.36 5813.68 4025.08 5040.9 3618.53 5596.68 4770.21 4868.66 8013.28 3846.55 5159.9 5283.65 4644.68 3082.16 2892.36 5981.54 5911.29 5416.41 4694.27 6760.64 2515.5 5177.88 5551.79 6981.47 4720.22 4582.24 4333.23 5145.13 3860.8 3747.96 5611.29 5940.5 6568.45 5004.22 4601.54 7263.57 3832.09 5705.96 6437.99 5739.69 6632.04 7360.62 4893.72 4985.45 4072.4 4983.56 5373.78 5699.51 4714.52 5345.65 2489.44 5499.37 5863.36 4632.75 4752.94 4994.98 3950.53 6423.96 6058.13 5894.69 4384.91 6550.61 4987.01 6635.51 6094.34 6779.82 5543.67 3999.81 4287.61 4867.13 4604.34 4439.17 4502.12 3255.93 5442.79 5051.39 6327.61 4633.59 5733.59 5362.15 4455.61 3695.72 6874.6 5106.9 5569.85 5523.96 3929.35 4223.53 4733.37 6960.97 3037.72 4287.15 4523.9 5282.51 5504.65 5669.41 5732.11 3760.4 3919.47 4951.02 4602.7 3783.35 4037.16 4004.39 6395.63 4987.48 5943.61 4248.58 5479.17 5020.37 4542.25 4414.23 5233.88 4849.21 4785.55 3793.83 5245.4 3916.15 6189.81 5438.6 7370.52 4726.5 5467.05 4521.88 3724.23 5103.3 4963.88 5888.94 4727.98 4122.2 5175.88 5267.65 4516.26 4790.16 3509.34 3647.26 5360.88 3166.37 4977.64 5369.42 5207.08 5205.53 4587.19 5543.05 4883.13 6028.89 4836.76 5551.09 5755.98 5392.85 4501.1 5581.47 5077.2 4274.05 5275.27 4277.54 4713.56 5529.09 4531.46 5925.82 5448.68 4739.5 6210.48 6377.45 4863.27 4182.05 6853.07 5575.8 5268.93 5306.31 4535.94 5126.08 5604.0 3731.58 5333.16 4888.17 4072.95 4491.62 3865.5 
SCALARS Velocity float 1
LOOKUP_TABLE default
1.19178 1.19179 1.19179 1.19178 1.19178 1.19179 1.19178 1.19178 1.19178 1.19178 1.19178 1.19178 1.19178 1.19178 1.19178 1.19178 1.19178 1.19178 1.19178 1.19178 1.19178 1.19178 1.19178 1.19178 1.19178 1.19178 1.19178 1.19178 1.19178 1.19178 1.19178 1.19178 1.19178 1.19178 1.19178 1.19178 1.19178 1.19178 1.19178 1.19178 1.19178 1.19178 1.19178 1.19178 1.19178 1.19178 1.19178 1.19178 1.19178 1.19178 1.19178 1.19178 1.19178 1.19178 1.19178 1.19178 1.19178 1.19178 1.19178 1.19178 1.19178 1.19178 1.19178 1.19178 1.19178 1.19178 1.19178 1.19179 1.19178 1.19178 1.19178 1.19178 1.19178 1.19178 1.19177 1.19179 1.19178 1.19179 1.19179 1.19178 1.19178 1.19178 1.19179 1.19179 1.19178 1.19178 1.19178 1.19179 1.19179 1.19178 1.19178 1.19178 1.19178 1.19179 1.19179 1.19178 1.19178 1.19178 1.19178 1.19178 1.19178 1.19178 1.19179 1.19179 1.19178 1.19178 1.19179 1.19179 1.19178 1.19178 1.19178 1.19178 1.19178 1.19178 1.19178 1.19178 1.19178 1.19178 1.19178 1.19178 1.19178 1.19178 1.19178 1.19178 1.19178 1.19178 1.19178 1.19178 1.19178 1.19178 1.19178 1.19178 1.19178 1.19178 1.19178 1.19178 1.19178 1.19178 1.19178 1.19178 1.19178 1.19178 1.19178 1.19178 1.19178 1.19178 1.19178 1.19178 1.19178 1.19178 1.19178 1.19178 1.19178 1.19178 1.19178 1.19179 1.19179 1.19178 1.19178 1.19178 1.19178 1.19178 1.19178 1.19178 1.19179 1.19178 1.19178 1.19178 1.19178 1.19178 1.19179 1.19178 1.19178 1.19179 1.19179 1.19179 1.19179 1.19179 1.19178 1.19178 1.19179 1.19178 1.19179 1.19178 1.19177 1.19178 1.19179 1.19178 1.19179 1.19178 1.19178 1.19178 1.19178 1.19179 1.19177 1.19178 1.19178 1.19178 1.19178 1.19178 1.19178 1.19178 1.19178 1.19179 1.19178 1.19179 1.19179 1.19179 1.19178 1.19178 1.19178 1.19178 1.19178 1.19179 1.19178 1.19178 1.19178 1.19178 1.19178 1.19178 1.19178 1.19178 1.19178 1.19178 1.19178 1.19178 1.19178 1.19178 1.19178 1.19178 1.19178 1.19178 1.19178 1.19178 1.19178 1.19178 1.19178 1.19178 1.19178 1.19178 1.19178 1.19178 1.19178 1.19178 1.19178 1.19178 1.19178 1.19178 1.19178 1.19178 1.19178 1.19178 1.19178 1.19178 1.19178 1.19179 1.19178 1.19178 1.19178 1.19179 1.19178 1.19178 1.19178 1.19178 1.19179 1.19178 1.19178 1.19178 1.19179 1.19178 1.19179 1.19178 1.19178 1.19178 1.19178 1.1918 1.19179 1.19179 1.19179 1.19179 1.19178 1.19179 1.19178 1.19179 1.19179 1.19179 1.19178 1.19178 1.19179 1.19181 1.19178 1.19177 1.19178 1.19178 1.19177 1.19178 1.1918 1.19178 1.19179 1.19178 1.19177 1.19178 1.19178 1.19178 1.19179 1.19178 1.19178 1.19178 1.19179 1.19179 1.19179 1.19178 1.19178 1.19178 1.19178 1.19178 1.19179 1.19178 1.19178 1.19178 1.19178 1.19178 1.19177 1.19178 1.19178 1.19178 1.19178 1.19178 1.19178 1.19178 1.19178 1.19178 1.19178 1.19178 1.19179 1.19178 1.19178 1.19178 1.19178 1.19178 1.19178 1.19178 1.19178 1.19178 1.19178 1.19178 1.19178 1.19177 1.19178 1.19178 1.19178 1.19178 1.19178 1.19178 1.19178 1.19178 1.19179 1.19178 1.19179 1.1918 1.19178 1.19178 1.19178 1.19178 1.19178 1.19178 1.19178 1.19179 1.19178 1.1918 1.19178 1.19179 1.19178 1.19178 1.19179 1.19178 1.19178 1.19179 1.19178 1.19178 1.19179 1.19179 1.19177 1.19179 1.19179 1.19178 1.19179 1.19178 1.19181 1.19178 1.19179 1.19181 1.19178 1.1918 1.19178 1.19179 1.1918 1.19178 1.19179 1.19178 1.19178 1.19178 1.19178 1.19179 1.19178 1.19178 1.19178 1.19179 1.19179 1.19179 1.19178 1.19178 1.19179 1.19178 1.19177 1.19178 1.19179 1.19178 1.19178 1.19178 1.19178 1.19178 1.19178 1.19178 1.19178 1.19178 1.19178 1.19178 1.19178 1.19178 1.19179 1.19178 1.19178 1.19178 1.19178 1.19178 1.19178 1.19178 1.19178 1.19178 1.19178 1.19178 1.19178 1.19178 1.19178 1.19178 1.19178 1.19178 1.19178 1.19177 1.19178 1.19179 1.19178 1.19177 1.19178 1.19178 1.19178 1.19178 1.19179 1.19179 1.19178 1.19178 1.19178 1.19178 1.19178 1.19178 1.19178 1.19177 1.19179 1.1918 1.19179 1.19178 1.19177 1.19179 1.19178 1.19178 1.19178 1.19178 1.19178 1.1918 1.1918 1.19179 1.19177 1.19179 1.19179 1.19179 1.19179 1.19178 1.19181 1.1918 1.19179 1.1918 1.19178 1.19179 1.19177 1.19178 1.19179 1.19178 1.19179 1.19177 1.1918 1.19178 1.19178 1.19178 1.19179 1.19178 1.19178 1.19179 1.19179 1.19178 1.19178 1.19179 1.19178 1.19176 1.19178 1.19178 1.19179 1.19179 1.19178 1.19178 1.19178 1.19178 1.19178 1.19178 1.19178 1.19178 1.19177 1.19179 1.19178 1.19178 1.19178 1.19178 1.19178 1.19178 1.19178 1.19178 1.19178 1.19178 1.19178 1.19178 1.19178 1.19178 1.19178 1.19177 1.19178 1.19178 1.19178 1.19178 1.19178 1.19178 1.19178 1.19178 1.19178 1.19178 1.19179 1.19179 1.19178 1.19178 1.19178 1.19178 1.19177 1.19178 1.19178 1.19177 1.19179 1.19179 1.19178 1.1918 1.19178 1.19177 1.19179 1.19179 1.19178 1.19179 1.19179 1.19177 1.19179 1.1918 1.1918 1.1918 1.1918 1.19178 1.19179 1.19178 1.19179 1.19179 1.1918 1.19181 1.1918 1.19177 1.1918 1.19178 1.19179 1.19177 1.19179 1.19178 1.19178 1.19178 1.19178 1.1918 1.19178 1.19177 1.19178 1.19179 1.19178 1.19178 1.19178 1.19179 1.19178 1.19178 1.19179 1.19178 1.19177 1.19178 1.19178 1.19177 1.19178 1.19178 1.19178 1.19178 1.19178 1.19178 1.19178 1.19178 1.19177 1.19178 1.19178 1.19178 1.19178 1.19178 1.19178 1.19178 1.19178 1.19178 1.19178 1.19177 1.19178 1.19178 1.19178 1.19178 1.19178 1.19178 1.19178 1.19178 1.19177 1.19178 1.19178 1.19178 1.19178 1.19178 1.19177 1.19179 1.19179 1.1918 1.19178 1.19179 1.19179 1.19179 1.19178 1.19178 1.19178 1.19178 1.19177 1.19177 1.19177 1.19178 1.19178 1.19184 1.19179 1.19177 1.19178 1.19177 1.19179 1.19179 1.19178 1.19177 1.19179 1.19178 1.1918 1.19179 1.19179 1.19179 1.19179 1.19182 1.1918 1.19181 1.1918 1.19179 1.19177 1.19179 1.19178 1.19179 1.19177 1.19179 1.19179 1.19178 1.19178 1.19179 1.19178 1.19178 1.19177 1.19178 1.19178 1.19178 1.19177 1.19178 1.19178 1.19177 1.19178 1.19179 1.19177 1.19178 1.19179 1.19178 1.19178 1.19177 1.19178 1.19177 1.19178 1.19179 1.19178 1.19178 1.19178 1.19178 1.19178 1.19178 1.19178 1.19178 1.19177 1.19178 1.19178 1.19178 1.19177 1.19178 1.19178 1.19178 1.19178 1.19178 1.19178 1.19178 1.19178 1.19178 1.19177 1.19179 1.19177 1.19178 1.19178 1.19177 1.19177 1.19178 1.19179 1.19177 1.19178 1.19179 1.19179 1.19179 1.19178 1.19179 1.19179 1.19181 1.19177 1.1918 1.19178 1.19177 1.19178 1.19179 1.19179 1.19178 1.19176 1.19178 1.19179 1.19179 1.19177 1.19178 1.19177 1.19179 1.19178 1.19178 1.19179 1.19178 1.19179 1.19178 1.19178 1.19179 1.1918 1.19179 1.19178 1.19177 1.19179 1.19178 1.19178 1.19178 1.19179 1.19178 1.19179 1.19176 1.19179 1.19178 1.1918 1.19179 1.19178 1.19178 1.19178 1.19177 1.19178 1.19178 1.19177 1.19178 1.19177 1.19178 1.19178 1.19178 1.19178 1.19178 1.19177 1.19177 1.19178 1.19178 1.19177 1.19179 1.19178 1.19178 1.19178 1.19177 1.19177 1.19178 1.19178 1.19178 1.19178 1.19178 1.19177 1.19178 1.19177 1.19178 1.19178 1.19178 1.19178 1.19178 1.19178 1.19178 1.19178 1.19178 1.19178 1.19179 1.19178 1.19178 1.19178 1.19178 1.19177 1.19178 1.19179 1.19178 1.19178 1.19179 1.19179 1.19179 1.19178 1.19179 1.19179 1.1918 1.19179 1.1918 1.19179 1.19177 1.19176 1.19179 1.19179 1.19178 1.19176 1.19179 1.19178 1.19179 1.19178 1.19178 1.19177 1.19179 1.19178 1.19178 1.19178 1.19179 1.19178 1.19178 1.19178 1.19179 1.1918 1.19179 1.19178 1.1918 1.19179 1.19178 1.19178 1.19179 1.19179 1.19176 1.19178 1.19179 1.19177 1.1918 1.19178 1.19178 1.19177 1.19177 1.19177 1.19177 1.19178 1.19176 1.19178 1.19179 1.19178 1.19177 1.19178 1.19178 1.19178 1.19177 1.19178 1.19178 1.19177 1.19178 1.19178 1.19178 1.19178 1.19177 1.19177 1.19178 1.19178 1.19178 1.19178 1.19178 1.19177 1.19177 1.19177 1.19178 1.19178 1.19178 1.19178 1.19177 1.19178 1.19178 1.19178 1.19178 1.19178 1.19178 1.19178 1.19178 1.19178 1.19179 1.19176 1.19179 1.19179 1.19178 1.19178 1.19178 1.19179 1.1918 1.19179 1.19179 1.19179 1.1918 1.19179 1.19178 1.19179 1.19177 1.19176 1.19177 1.19179 1.19179 1.19178 1.19175 1.19179 1.19179 1.19177 1.19178 1.19178 1.19179 1.19178 1.19174 1.19179 1.19178 1.19178 1.19178 1.19178 1.19178 1.19179 1.19176 1.19178 1.19179 1.19179 1.19179 1.19177 1.1918 1.19179 1.19176 1.19176 1.19178 1.19179 1.19177 1.19178 1.1918 1.19178 1.19177 1.19177 1.19177 1.19177 1.19177 1.19177 1.19178 1.19179 1.19178 1.19178 1.19177 1.19178 1.19177 1.19178 1.19178 1.19177 1.19178 1.19178 1.19178 1.19178 1.19177 1.19178 1.19178 1.19178 1.19177 1.19177 1.19178 1.19178 1.19178 1.19178 1.19178 1.19177 1.19177 1.19178 1.19177 1.19178 1.19178 1.19178 1.19177 1.19177 1.19178 1.19178 1.19178 1.19178 1.19178 1.19178 1.19178 1.19178 1.19177 1.19179 1.1918 1.19176 1.19179 1.19179 1.19178 1.19178 1.1918 1.19178 1.1918 1.1918 1.19179 1.19179 1.19179 1.19179 1.19178 1.19175 1.19179 1.19176 1.19175 1.19176 1.19178 1.19178 1.19177 1.19179 1.19179 1.19177 1.19177 1.19178 1.19178 1.19178 1.1918 1.19178 1.19176 1.19178 1.19176 1.19179 1.19178 1.19178 1.19178 1.19178 1.19178 1.19178 1.19178 1.19178 1.19177 1.19178 1.1918 1.19176 1.19178 1.19176 1.19178 1.19179 1.19171 1.1918 1.19181 1.19179 1.19177 1.19178 1.19177 1.19177 1.19177 1.19179 1.19179 1.19178 1.19177 1.19177 1.19177 1.19177 1.19177 1.19178 1.19178 1.19178 1.19178 1.19178 1.19178 1.19178 1.19178 1.19178 1.19178 1.19177 1.19177 1.19178 1.19178 1.19178 1.19178 1.19178 1.19178 1.19178 1.19178 1.19178 1.19178 1.19178 1.19177 1.19178 1.19178 1.19178 1.19177 1.19177 1.19178 1.19178 1.19178 1.19178 1.19177 1.1918 1.19177 1.19178 1.19178 1.19178 1.19178 1.19178 1.1918 1.19179 1.19179 1.19179 1.19179 1.19179 1.19178 1.19178 1.19179 1.19175 1.19178 1.19177 1.19178 1.19178 1.19178 1.19178 1.19178 1.19176 1.19178 1.19178 1.19178 1.19178 1.19178 1.19177 1.19177 1.19177 1.19178 1.19177 1.19178 1.19178 1.19178 1.19175 1.19178 1.19174 1.19177 1.19177 1.19176 1.19175 1.19177 1.19178 1.19173 1.19174 1.19179 1.19178 1.19181 1.19177 1.19179 1.19179 1.19177 1.19178 1.19178 1.19177 1.19177 1.19178 1.19177 1.19177 1.19177 1.19178 1.19177 1.19178 1.19179 1.19177 1.19179 1.19177 1.19177 1.19178 1.19177 1.19177 1.19177 1.19177 1.19178 1.19178 1.19178 1.19177 1.19178 1.19178 1.19178 1.19178 1.19178 1.19178 1.19178 1.19177 1.19177 1.19178 1.19178 1.19178 1.19176 1.19177 1.19178 1.19179 1.19177 1.19179 1.19179 1.19178 1.19178 1.19178 1.1918 1.1918 1.19178 1.1918 1.1918 1.19177 1.19179 1.19178 1.1918 1.19179 1.19175 1.19178 1.19176 1.19179 1.19178 1.19177 1.19179 1.1918 1.19178 1.19177 1.19177 1.19178 1.19178 1.19176 1.19177 1.19178 1.19177 1.19177 1.19177 1.19178 1.19176 1.19178 1.19177 1.19174 1.19178 1.19177 1.19176 1.19175 1.19177 1.19179 1.19179 1.19173 1.19174 1.19173 1.19179 1.19178 1.19177 1.1918 1.19177 1.19178 1.19177 1.19178 1.19178 1.19177 1.19178 1.19176 1.19177 1.19177 1.19178 1.19177 1.19178 1.19177 1.19178 1.19177 1.19177 1.19178 1.19177 1.19177 1.19177 1.19178 1.19178 1.19178 1.19177 1.19177 1.19177 1.19178 1.19178 1.19177 1.19177 1.19178 1.19178 1.19178 1.19178 1.19178 1.19178 1.19177 1.19178 1.19177 1.19178 1.19177 1.19178 1.19177 1.19177 1.19178 1.19179 1.19179 1.19176 1.19179 1.19178 1.19179 1.19179 1.19179 1.19179 1.19179 1.1918 1.19179 1.19178 1.19178 1.19179 1.19177 1.19179 1.19179 1.19182 1.19182 1.19179 1.19179 1.19175 1.19176 1.19179 1.19177 1.19179 1.19178 1.19176 1.19179 1.19181 1.19178 1.19177 1.19176 1.19177 1.19177 1.19177 1.19177 1.19177 1.19178 1.19177 1.19177 1.19177 1.19178 1.19176 1.19175 1.19178 1.19177 1.19177 1.19176 1.19175 1.19179 1.19173 1.19177 1.19179 1.19177 1.19179 1.19179 1.19177 1.19178 1.19178 1.19178 1.19178 1.19176 1.19176 1.19177 1.19177 1.19178 1.19178 1.19178 1.19178 1.19178 1.19177 1.19177 1.19177 1.19178 1.19178 1.19177 1.19177 1.19178 1.19178 1.19178 1.19178 1.19177 1.19177 1.19177 1.19178 1.19178 1.19177 1.19178 1.19178 1.19177 1.19178 1.19178 1.19178 1.19178 1.19178 1.19177 1.19177 1.19178 1.19178 1.19175 1.19177 1.19179 1.1918 1.19178 1.19176 1.19178 1.19177 1.19178 1.1918 1.19179 1.19179 1.1918 1.19179 1.19178 1.19178 1.19177 1.19177 1.19178 1.19177 1.19179 1.19179 1.1918 1.19176 1.1918 1.19179 1.19177 1.19179 1.19178 1.19178 1.19174 1.19177 1.19177 1.19181 1.19178 1.19176 1.19176 1.19177 1.19177 1.19178 1.19177 1.19177 1.19177 1.19177 1.19177 1.19177 1.19176 1.19177 1.19177 1.19178 1.19177 1.19177 1.19176 1.19178 1.19177 1.19178 1.19176 1.19178 1.19177 1.19177 1.19179 1.19177 1.19178 1.19177 1.19178 1.19178 1.19178 1.19178 1.19176 1.19176 1.19176 1.19178 1.19178 1.19178 1.19177 1.19178 1.19177 1.19178 1.19178 1.19177 1.19178 1.19177 1.19178 1.19177 1.19178 1.19177 1.19178 1.19178 1.19178 1.19177 1.19178 1.19178 1.19177 1.19177 1.19178 1.19178 1.19178 1.19178 1.19178 1.19178 1.19178 1.19177 1.19179 1.19177 1.19178 1.19178 1.1918 1.19178 1.19179 1.19178 1.19177 1.19179 1.1918 1.19179 1.19179 1.19179 1.19179 1.19179 1.19179 1.19177 1.19177 1.19177 1.19176 1.19178 1.19177 1.19179 1.1918 1.19176 1.19179 1.19179 1.19179 1.19178 1.19174 1.19177 1.19178 1.19177 1.19178 1.19179 1.19176 1.19176 1.19176 1.19176 1.19177 1.19177 1.19177 1.19177 1.19176 1.19177 1.19176 1.19178 1.19177 1.19176 1.19178 1.19177 1.19176 1.19178 1.19176 1.19177 1.19178 1.19176 1.19178 1.19176 1.19176 1.19179 1.19177 1.19178 1.19177 1.19178 1.19178 1.19177 1.19178 1.19176 1.19176 1.19177 1.19176 1.19178 1.19177 1.19177 1.19178 1.19177 1.19178 1.19178 1.19178 1.19177 1.19178 1.19177 1.19178 1.19177 1.19177 1.19178 1.19178 1.19177 1.19178 1.19177 1.19177 1.19177 1.19178 1.19178 1.19178 1.19178 1.19178 1.19178 1.19178 1.19179 1.19178 1.19177 1.19179 1.19179 1.19178 1.19177 1.19178 1.19176 1.1918 1.19179 1.19178 1.19177 1.19179 1.19179 1.19178 1.19177 1.19179 1.19178 1.19179 1.19179 1.19177 1.19177 1.19176 1.19177 1.19177 1.19178 1.19176 1.19177 1.19173 1.19177 1.19177 1.19178 1.19177 1.19177 1.19176 1.19177 1.19176 1.19178 1.19177 1.19178 1.19178 1.19177 1.19176 1.19176 1.19175 1.19176 1.19178 1.19176 1.19177 1.19176 1.19179 1.19176 1.19177 1.19177 1.19178 1.19177 1.19177 1.19178 1.19178 1.19177 1.19177 1.19176 1.19176 1.19176 1.19178 1.19177 1.19178 1.19177 1.19178 1.19178 1.19178 1.19177 1.19178 1.19178 1.19177 1.19177 1.19177 1.19177 1.19177 1.19178 1.19178 1.19177 1.19177 1.19177 1.19177 1.19177 1.19178 1.19178 1.19178 1.19177 1.19177 1.19178 1.19178 1.19178 1.19174 1.19179 1.19181 1.19178 1.19179 1.19179 1.19179 1.19178 1.19178 1.19181 1.19181 1.19176 1.19178 1.19179 1.19179 1.19178 1.19178 1.19178 1.19178 1.19178 1.19177 1.1918 1.1918 1.19178 1.19177 1.19178 1.19179 1.19179 1.19177 1.19178 1.19177 1.19179 1.1918 1.19177 1.19178 1.19176 1.19177 1.19175 1.19177 1.19178 1.19178 1.19178 1.19178 1.19177 1.19177 1.19177 1.19176 1.19177 1.19176 1.19178 1.19177 1.19177 1.19176 1.19176 1.19176 1.19177 1.19178 1.19176 1.19177 1.19176 1.19176 1.19179 1.19177 1.19177 1.19177 1.19177 1.19178 1.19178 1.19178 1.19178 1.19177 1.19177 1.19176 1.19176 1.19176 1.19176 1.19176 1.19177 1.19177 1.19178 1.19177 1.19178 1.19177 1.19177 1.19177 1.19177 1.19177 1.19177 1.19177 1.19177 1.19178 1.19178 1.19178 1.19177 1.19177 1.19177 1.19177 1.19179 1.19179 1.19178 1.19177 1.19178 1.19178 1.19178 1.19178 1.19177 1.19181 1.19179 1.19179 1.19179 1.19178 1.19178 1.19177 1.19179 1.19177 1.19178 1.19177 1.19178 1.19177 1.19178 1.19179 1.19178 1.19177 1.19177 1.19177 1.19179 1.19179 1.19178 1.19177 1.19177 1.19177 1.19179 1.19179 1.19177 1.19176 1.19177 1.19178 1.19178 1.19175 1.19177 1.19175 1.19178 1.19178 1.19179 1.19177 1.19178 1.19178 1.19178 1.19177 1.19177 1.19176 1.19178 1.19176 1.19178 1.19177 1.19177 1.19177 1.19177 1.19176 1.19178 1.19177 1.19177 1.19176 1.19178 1.19176 1.19177 1.19177 1.19177 1.19178 1.19178 1.19178 1.19177 1.19178 1.19177 1.19178 1.19178 1.19176 1.19176 1.19178 1.19177 1.19176 1.19177 1.19178 1.19178 1.19177 1.19178 1.19178 1.19178 1.19178 1.19178 1.19177 1.19177 1.19177 1.19177 1.19177 1.19177 1.19178 1.19177 1.19178 1.19178 1.19178 1.19178 1.19177 1.19177 1.19177 1.19178 1.19178 1.19178 1.19178 1.19177 1.19178 1.19177 1.19178 1.19178 1.19178 1.19178 1.1918 1.19179 1.19177 1.19179 1.19178 1.19179 1.1918 1.19179 1.19179 1.19179 1.19178 1.19177 1.19178 1.19178 1.19179 1.19178 1.19177 1.19178 1.19177 1.19176 1.19179 1.19178 1.19177 1.19176 1.19176 1.19176 1.19176 1.19176 1.19178 1.19177 1.19178 1.19178 1.19178 1.19176 1.19177 1.19175 1.19177 1.19177 1.19178 1.19178 1.19178 1.19177 1.19176 1.19176 1.19179 1.19176 1.19176 1.19177 1.19176 1.19177 1.19177 1.19176 1.19175 1.19176 1.19177 1.19179 1.19177 1.19177 1.19176 1.19177 1.19178 1.19176 1.19177 1.19177 1.19178 1.19177 1.19178 1.19178 1.19176 1.19177 1.19177 1.19176 1.19177 1.19178 1.19177 1.19178 1.19177 1.19178 1.19178 1.19178 1.19178 1.19178 1.19178 1.19177 1.19178 1.19178 1.19178 1.19178 1.19178 1.19177 1.19178 1.19178 1.19178 1.19178 1.19177 1.19177 1.19177 1.19177 1.19178 1.19178 1.19178 1.19178 1.19178 1.19177 1.19178 1.19179 1.19181 1.19177 1.19177 1.19175 1.19177 1.19178 1.19178 1.19177 1.19177 1.19178 1.19178 1.19178 1.19178 1.19176 1.19179 1.19178 1.19177 1.19176 1.19176 1.19176 1.19176 1.19178 1.19179 1.19178 1.19178 1.19176 1.19177 1.19176 1.19178 1.19177 1.19177 1.19177 1.19178 1.19177 1.19176 1.19176 1.19178 1.19177 1.19176 1.19178 1.19179 1.19178 1.19177 1.19178 1.19178 1.19176 1.19177 1.19177 1.19177 1.19178 1.19177 1.19176 1.19176 1.19177 1.19177 1.19178 1.19178 1.19177 1.19178 1.19178 1.19178 1.19178 1.19176 1.19177 1.19178 1.19177 1.19178 1.19178 1.19177 1.19177 1.19178 1.19178 1.19177 1.19178 1.19177 1.19178 1.19178 1.19177 1.19178 1.19178 1.19178 1.19178 1.19178 1.19177 1.19177 1.19177 1.19176 1.19178 1.19178 1.19178 1.19178 1.19177 1.19177 1.19178 1.19178 1.19178 1.19178 1.19178 1.19179 1.19179 1.19179 1.19178 1.19177 1.19177 1.19177 1.19182 1.19181 1.19176 1.19177 1.19178 1.19179 1.19177 1.19176 1.19178 1.19179 1.19176 1.19178 1.19176 1.19176 1.19176 1.19178 1.19178 1.19179 1.19177 1.19176 1.19176 1.19178 1.19178 1.19177 1.19176 1.19177 1.19178 1.19177 1.19176 1.19177 1.19177 1.19177 1.19177 1.19178 1.19178 1.19178 1.19177 1.19178 1.19177 1.19177 1.19178 1.19178 1.19176 1.19176 1.19177 1.19177 1.19178 1.19178 1.19178 1.19178 1.19178 1.19178 1.19178 1.19178 1.19176 1.19177 1.19178 1.19178 1.19178 1.19178 1.19178 1.19178 1.19177 1.19178 1.19177 1.19178 1.19178 1.19178 1.19178 1.19178 1.19177 1.19177 1.19178 1.19177 1.19177 1.19178 1.19177 1.19176 1.19177 1.19177 1.19178 1.19177 1.19177 1.19177 1.19177 1.19177 1.19177 1.19178 1.19178 1.19177 1.19178 1.19175 1.19176 1.19177 1.19175 1.19177 1.19177 1.19176 1.19178 1.19178 1.19176 1.19176 1.19176 1.19176 1.19178 1.19176 1.19177 1.19177 1.19178 1.19176 1.19175 1.19177 1.19176 1.19177 1.19179 1.19178 1.19177 1.19176 1.19178 1.19177 1.19178 1.19178 1.19178 1.19177 1.19178 1.19177 1.19177 1.19177 1.19177 1.19176 1.19177 1.19177 1.19178 1.19177 1.19178 1.19177 1.19178 1.19177 1.19177 1.19177 1.19177 1.19177 1.19177 1.19177 1.19177 1.19177 1.19178 1.19178 1.19178 1.19178 1.19178 1.19178 1.19178 1.19178 1.19178 1.19177 1.19178 1.19178 1.19178 1.19178 1.19177 1.19178 1.19178 1.19178 1.19178 1.19177 1.19178 1.19178 1.19177 1.19178 1.19178 1.19178 1.19177 1.19177 1.19177 1.19176 1.19177 1.19177 1.19177 1.19177 1.19176 1.19177 1.19178 1.19177 1.19177 1.19177 1.19177 1.19177 1.19178 1.19179 1.19179 1.19178 1.19178 1.19176 1.19176 1.19176 1.19177 1.19174 1.19176 1.19177 1.19177 1.19176 1.19175 1.19174 1.19177 1.19176 1.19179 1.19176 1.19177 1.19177 1.19177 1.19177 1.19177 1.19177 1.19176 1.19178 1.19177 1.19178 1.19178 1.19178 1.19177 1.19177 1.19178 1.19178 1.19178 1.19177 1.19176 1.19177 1.19177 1.19177 1.19178 1.19178 1.19177 1.19177 1.19177 1.19176 1.19176 1.19177 1.19177 1.19177 1.19177 1.19178 1.19178 1.19178 1.19178 1.19178 1.19178 1.19178 1.19178 1.19178 1.19178 1.19177 1.19178 1.19178 1.19178 1.19178 1.19178 1.19177 1.19178 1.19178 1.19178 1.19178 1.19177 1.19178 1.19177 1.19177 1.19177 1.19178 1.19176 1.19177 1.19177 1.19177 1.19177 1.19175 1.19176 1.19176 1.19176 1.19176 1.19177 1.19178 1.19176 1.19175 1.19176 1.19177 1.19174 1.19177 1.19177 1.19176 1.19177 1.19176 1.19175 1.19175 1.19176 1.19174 1.19175 1.19175 1.19176 1.19177 1.19178 1.19178 1.19177 1.19177 1.19177 1.19177 1.19177 1.19176 1.19177 1.19178 1.19177 1.19178 1.19177 1.19177 1.19177 1.19178 1.19177 1.19178 1.19177 1.19177 1.19177 1.19177 1.19177 1.19177 1.19177 1.19177 1.19177 1.19178 1.19176 1.19176 1.19177 1.19177 1.19178 1.19176 1.19177 1.19178 1.19179 1.19177 1.19178 1.19176 1.19177 1.19177 1.19177 1.19176 1.19178 1.19177 1.19175 1.19176 1.19176 1.19177 1.19176 1.19175 1.19176 1.19178 1.19176 1.19177 1.19177 1.19177 1.19178 1.19178 1.19177 1.19177 1.19178 1.19178 1.19178 1.19177 1.19177 1.19178 1.19176 1.19177 1.19177 1.19176 1.19177 1.19175 1.19175 1.19176 1.19177 1.19178 1.19177 1.19177 1.19177 1.19176 1.19177 1.19178 1.19178 1.19177 1.19177 1.19176 1.19176 1.19177 1.19176 1.19177 1.19178 1.19175 1.19177 1.19175 1.19177 1.19178 1.19178 1.19177 1.19176 1.19177 1.19177 1.19176 1.19177 1.19177 1.19178 1.19178 1.19178 1.19176 1.19177 1.19178 1.19176 1.19178 1.19177 1.19176 1.19175 1.19175 1.19175 1.19176 1.19177 1.19178 1.19178 1.19177 1.19176 1.19176 1.19176 1.19177 1.19177 1.19178 1.19178 1.19176 1.19178 1.19177 1.19176 1.19176 1.19175 1.19178 1.19178 1.19178 1.19178 1.19178 1.19178 1.19178 1.19178 1.19177 1.19177 1.19176 1.19177 1.19178 1.19177 1.19177 1.19176 1.19176 1.19178 1.19178 1.19177 1.19177 1.19176 1.19179 1.19176 1.19178 1.19178 1.19178 1.19178 1.19178 1.19178 1.19178 1.19178 1.19178 1.19178 1.19178 1.19178 1.19178 1.19178 1.19178 1.19178 1.19178 1.19178 1.19178 1.19178 1.19178 1.19178 1.19178 1.19178 1.19178 1.19178 1.19178 1.19178 1.19178 1.19178 1.19178 1.19178 1.19178 1.19178 1.19178 1.19178 1.19178 1.19178 1.19178 1.19178 1.19178 1.19177 1.19177 1.19176 1.19177 1.19178 1.19177 1.19176 1.19179 1.19179 1.19175 1.19177 1.19178 1.19178 1.19177 1.19176 1.19178 1.19177 1.19178 1.19178 1.19178 1.19177 1.19177 1.19178 1.19178 1.19178 1.19178 1.19178 1.19178 1.19178 1.19178 1.19178 1.19178 1.19178 1.19178 1.19178 1.19178 1.19178 1.19178 1.19178 1.19178 1.19178 1.19178 1.19178 1.19178 1.19178 1.19178 1.19178 1.19178 1.19178 1.19178 1.19177 1.19179 1.19177 1.19176 1.19178 1.19176 1.19176 1.19176 1.19177 1.19177 1.19177 1.19176 1.19176 1.19177 1.19176 1.19176 1.19177 1.19178 1.19178 1.19177 1.19178 1.19177 1.19178 1.19178 1.19178 1.19178 1.19178 1.19178 1.19178 1.19178 1.19178 1.19178 1.19178 1.19178 1.19178 1.19178 1.19178 1.19178 1.19178 1.19178 1.19178 1.19178 1.19178 1.19178 1.19178 1.19178 1.19178 1.19178 1.19178 1.19178 1.19178 1.19178 1.19178 1.19178 1.19178 1.19178 1.19178 1.19178 1.19178 1.19178 1.19178 1.19178 1.19178 1.19178 1.19178 1.19178 1.19178 1.19178 1.19178 1.19178 1.19178 1.19178 1.19177 1.19177 1.19178 1.19176 1.19177 1.19176 1.19176 1.19177 1.19177 1.19177 1.19175 1.19175 1.19174 1.19176 1.19176 1.19177 1.19177 1.19178 1.19178 1.19177 1.19178 1.19177 1.19178 1.19178 1.19178 1.19178 1.19178 1.19178 1.19178 1.19178 1.19178 1.19178 1.19178 1.19178 1.19178 1.19178 1.19178 1.19178 1.19178 1.19178 1.19178 1.19178 1.19178 1.19178 1.19178 1.19178 1.19178 1.19178 1.19178 1.19178 1.19178 1.19178 1.19178 1.19178 1.19178 1.19178 1.19178 1.19178 1.19178 1.19178 1.19178 1.19178 1.19178 1.19178 1.19178 1.19178 1.19178 1.19178 1.19178 1.19178 1.19178 1.19177 1.19176 1.19177 1.19178 1.19177 1.19178 1.19176 1.19177 1.19176 1.19174 1.19178 1.19176 1.19177 1.19176 1.19178 1.19177 1.19178 1.19178 1.19178 1.19178 1.19178 1.19178 1.19178 1.19178 1.19178 1.19178 1.19178 1.19178 1.19178 1.19178 1.19178 1.19178 1.19178 1.19178 1.19178 1.19178 1.19178 1.19178 1.19178 1.19178 1.19178 1.19178 1.19178 1.19178 1.19178 1.19178 1.19178 1.19178 1.19178 1.19178 1.19178 1.19178 1.19178 1.19178 1.19178 1.19178 1.19178 1.19178 1.19178 1.19178 1.19178 1.19178 1.19178 1.19178 1.19178 1.19178 1.19178 1.19177 1.19178 1.19177 1.19177 1.19177 1.19177 1.19176 1.19177 1.19176 1.19176 1.19177 1.19178 1.19175 1.19177 1.19177 1.19176 1.19177 1.19178 1.19177 1.19177 1.19178 1.19178 1.19178 1.19178 1.19178 1.19178 1.19178 1.19178 1.19178 1.19178 1.19178 1.19178 1.19178 1.19178 1.19178 1.19178 1.19178 1.19178 1.19178 1.19178 1.19178 1.19178 1.19178 1.19178 1.19178 1.19178 1.19178 1.19178 1.19178 1.19178 1.19178 1.19178 1.19178 1.19178 1.19178 1.19178 1.19178 1.19178 1.19178 1.19178 1.19178 1.19178 1.19178 1.19178 1.19178 1.19178 1.19178 1.19178 1.19178 1.19178 1.19178 1.19178 1.19178 1.19178 1.19178 1.19177 1.19177 1.19178 1.19177 1.19176 1.19178 1.19177 1.19178 1.19177 1.19177 1.19178 1.19177 1.19177 1.19178 1.19176 1.19177 1.19176 1.19178 1.19177 1.19176 1.19177 1.19177 1.19178 1.19178 1.19177 1.19178 1.19178 1.19178 1.19178 1.19178 1.19178 1.19178 1.19178 1.19178 1.19178 1.19178 1.19178 1.19178 1.19178 1.19178 1.19178 1.19178 1.19178 1.19178 1.19178 1.19178 1.19178 1.19178 1.19178 1.19178 1.19178 1.19178 1.19178 1.19178 1.19178 1.19178 1.19178 1.19178 1.19178 1.19178 1.19178 1.19178 1.19178 1.19178 1.19178 1.19178 1.19177 1.19178 1.19177 1.19177 1.19178 1.19177 1.19177 1.19177 1.19177 1.19178 1.19177 1.19177 1.19177 1.19178 1.19177 1.19177 1.19178 1.19178 1.19177 1.19177 1.19177 1.19178 1.19178 1.19178 1.19178 1.19178 1.19178 1.19178 1.19178 1.19178 1.19178 1.19178 1.19178 1.19178 1.19178 1.19178 1.19178 1.19178 1.19178 1.19178 1.19178 1.19178 1.19178 1.19178 1.19178 1.19178 1.19178 1.19178 1.19178 1.19178 1.19178 1.19178 1.19178 1.19178 1.19178 1.19178 1.19178 1.19178 1.19178 1.19178 1.19178 1.19178 1.19178 1.19178 1.19178 1.19177 1.19177 1.19178 1.19176 1.19178 1.19178 1.19177 1.19177 1.19177 1.19177 1.19178 1.19177 1.19178 1.19177 1.19178 1.19177 1.19178 1.19178 1.19178 1.19178 1.19178 1.19178 1.19178 1.19178 1.19178 1.19178 1.19178 1.19178 1.19178 1.19178 1.19178 1.19178 1.19178 1.19178 1.19178 1.19178 1.19178 1.19178 1.19178 1.19178 1.19178 1.19178 1.19178 1.19178 1.19178 1.19178 1.19178 1.19178 1.19178 1.19178 1.19178 1.19178 1.19178 1.19178 1.19178 1.19177 1.19177 1.19177 1.19177 1.19178 1.19178 1.19178 1.19177 1.19177 1.19177 1.19178 1.19177 1.19178 1.19178 1.19177 1.19178 1.19178 1.19178 1.19178 1.19178 1.19178 1.19178 1.19178 1.19178 1.19178 1.19178 1.19178 1.19178 1.19178 1.19178 1.19178 1.19178 1.19178 1.19178 1.19178 1.19178 1.19178 1.19178 1.19178 1.19178 1.19178 1.19178 1.19178 1.19178 1.19178 1.19178 1.19178 1.19178 1.19178 1.19178 1.19178 1.19178 1.19178 1.19178 1.19178 1.19178 1.19178 1.19178 1.19178 1.19178 1.19178 1.19178 1.19178 1.19178 1.19177 1.19178 1.19178 1.19177 1.19178 1.19177 1.19177 1.19177 1.19177 1.19177 1.19177 1.19178 1.19177 1.19176 1.19178 1.19177 1.19177 1.19178 1.19178 1.19178 1.19178 1.19178 1.19178 1.19178 1.19178 1.19178 1.19178 1.19178 1.19178 1.19178 1.19178 1.19178 1.19178 1.19178 1.19178 1.19178 1.19178 1.19178 1.19178 1.19178 1.19178 1.19178 1.19178 1.19178 1.19178 1.19178 1.19178 1.19178 1.19178 1.19178 1.19178 1.19178 1.19177 1.19178 1.19177 1.19177 1.19178 1.19178 1.19177 1.19177 1.19177 1.19177 1.19178 1.19177 1.19178 1.19177 1.19177 1.19177 1.19177 1.19177 1.19177 1.19177 1.19178 1.19177 1.19177 1.19178 1.19178 1.19178 1.19178 1.19178 1.19178 1.19178 1.19178 1.19178 1.19178 1.19178 1.19178 1.19178 1.19178 1.19178 1.19178 1.19178 1.19178 1.19178 1.19178 1.19178 1.19178 1.19178 1.19177 1.19177 1.19177 1.19177 1.19178 1.19177 1.19177 1.19177 1.19178 1.19177 1.19177 1.19178 1.19177 1.19177 1.19177 1.19177 1.19177 1.19178 1.19177 1.19178 1.19177 1.19178 1.19178 1.19178 1.19178 1.19178 1.19178 1.19178 1.19178 1.19178 1.19178 1.19178 1.19178 1.19178 1.19178 1.19178 1.19178 1.19178 1.19178 1.19178 1.19178 1.19178 1.19178 1.19178 1.19178 1.19178 1.19178 1.19177 1.19177 1.19177 1.19178 1.19177 1.19177 1.19177 1.19177 1.19177 1.19177 1.19178 1.19177 1.19177 1.19178 1.19178 1.19178 1.19178 1.19177 1.19177 1.19178 1.19178 1.19178 1.19178 1.19178 1.19178 1.19178 1.19178 1.19178 1.19178 1.19178 1.19178 1.19178 1.19178 1.19178 1.19178 1.19177 1.19177 1.19177 1.19178 1.19178 1.19177 1.19177 1.19177 1.19177 1.19178 1.19178 1.19177 1.19178 1.19177 1.19178 1.19178 1.19178 1.19178 1.19178 1.19178 1.19178 1.19178 1.19178 1.19178 1.19178 1.19178 1.19178 1.19178 1.19178 1.19178 1.19178 1.19178 1.19178 1.19178 1.19178 1.19178 1.19178 1.19178 1.19178 1.19177 1.19178 1.19177 1.19177 1.19177 1.19178 1.19178 1.19178 1.19178 1.19177 1.19177 1.19177 1.19178 1.19178 1.19178 1.19178 1.19178 1.19178 1.19178 1.19178 1.19178 1.19178 1.19178 1.19178 1.19178 1.19178 1.19178 1.19177 1.19178 1.19178 1.19178 1.19178 1.19177 1.19178 1.19178 1.19177 1.19177 1.19178 1.19178 1.19177 1.19178 1.19178 1.19177 1.19178 1.19178 1.19178 1.19178 1.19178 1.19178 1.19178 1.19178 1.19178 1.19178 1.19178 1.19178 1.19178 1.19178 1.19178 1.19178 1.19178 1.19178 1.19177 1.19178 1.19178 1.19178 1.19178 1.19178 1.19178 1.19178 1.19178 1.19178 1.19177 1.19178 1.19178 1.19178 1.19178 1.19178 1.19178 1.19178 1.19178 1.19178 1.19178 1.19178 1.19178 1.19178 1.19178 1.19178 1.19177 1.19178 1.19178 1.19178 1.19178 1.19178 1.19178 1.19178 1.19178 1.19178 1.19178 1.19177 1.19178 1.19178 1.19178 1.19178 1.19178 1.19178 1.19178 1.19178 1.19178 1.19178 1.19178 1.19178 1.19178 1.19178 1.19178 1.19178 1.19178 1.19178 1.19178 1.19178 1.19178 1.19178 1.19178 1.19178 1.19178 1.19178 1.19178 1.19178 1.19178 1.19178 1.19178 1.19178 1.19178 1.19178 1.19178 1.19178 1.19178 1.19178 2.1256e-05 4.46019e-05 1.0538e-05 1.71314e-05 1.68438e-05 4.79631e-05 7.02937e-05 8.52488e-05 7.09049e-05 4.55823e-05 4.12978e-05 2.66198e-05 3.60224e-05 4.00298e-05 3.10836e-05 2.51081e-05 3.79628e-05 5.99926e-05 2.75428e-05 3.21149e-05 4.0181e-05 4.19547e-05 4.48869e-05 5.12909e-05 5.59203e-05 7.77767e-05 0.000100989 9.36165e-05 8.83709e-05 0.000107612 9.48636e-05 6.83543e-05 6.50471e-05 9.59661e-05 0.000159599 0.000144038 0.000168204 7.80441e-05 0.000105558 5.73197e-05 6.11631e-05 5.0776e-05 0.000133685 7.82392e-05 0.000136735 1.30173e-05 0.000144423 1.1957e-05 6.12792e-05 0.00011131 8.42695e-05 0.000125447 0.000240522 0.000324588 0.000324792 0.000373714 0.000442568 0.000670968 0.000700754 0.000622304 0.000659998 0.000744384 0.000792227 0.000862544 0.000908745 0.00102356 0.00110184 0.0010883 0.00113203 0.00120015 0.0013297 0.00114719 0.00140067 0.00133276 0.00123849 0.00142858 0.00135783 0.0012616 0.00126444 0.00150111 0.00130913 0.00161135 0.00189485 0.00195801 0.00174217 0.00194678 0.00168952 0.00127086 0.000898413 0.00122198 0.000789912 0.000826357 0.000932783 0.00107221 0.00116201 0.00129992 0.0011288 0.000987632 0.000407583 9.85128e-05 0.000334922 2.57452e-05 2.0171e-05 1.96877e-05 3.7511e-05 6.38859e-05 8.3305e-05 4.40674e-05 2.85151e-05 6.75534e-05 5.00137e-05 5.39808e-05 7.62129e-05 8.67553e-05 9.57234e-05 9.09745e-05 7.86927e-05 9.50187e-05 9.45609e-05 8.99578e-05 0.000117111 2.92623e-05 0.000114134 2.30497e-05 7.19354e-05 8.65033e-05 4.1475e-05 5.62526e-05 3.2761e-05 3.07753e-05 1.59417e-05 3.89736e-05 2.22194e-05 2.54867e-05 4.93413e-05 1.39609e-05 3.88219e-05 1.4903e-05 2.95144e-05 3.01605e-05 3.81097e-05 5.86276e-05 5.08981e-05 6.16781e-05 4.61119e-05 6.91852e-05 6.99442e-05 4.37355e-05 9.47911e-05 6.96101e-05 9.69755e-05 7.93324e-05 0.000101897 0.000110276 0.000119348 9.20706e-05 0.000171138 0.000115507 0.000166867 0.000149894 7.01899e-05 8.36759e-05 9.04812e-05 0.000113945 5.50065e-05 3.64969e-05 0.000121074 1.86306e-05 0.000112967 1.72808e-05 2.92702e-05 2.60068e-05 5.4573e-05 4.424e-05 1.99177e-05 8.71343e-05 7.00481e-05 8.51044e-05 7.70371e-05 7.28592e-05 7.23663e-05 5.0004e-05 9.73582e-05 0.000251648 0.000155612 0.00013412 0.000180143 0.000167795 0.000183542 0.000283197 0.000345359 0.000292035 0.000388405 0.000376783 0.000494964 0.000469451 0.000588999 0.000607561 0.000662714 0.000649786 0.000687673 0.000821017 0.00079689 0.00071817 0.000813486 0.000892331 0.000944329 0.000911247 0.00102244 0.00089218 0.00103502 0.00113749 0.00120425 0.00128087 0.00126158 0.00127785 0.00130343 0.00112493 0.00114457 0.000993524 0.00094984 0.00111196 0.00115039 0.00134691 0.00136415 0.00126379 0.00114526 0.0013873 0.00186067 0.00121564 0.00158824 0.000751756 0.00177428 0.00131986 0.000453375 0.00113045 0.000688332 0.000684398 0.000949448 0.00115324 0.000868571 0.00113269 0.00135971 0.00151834 0.000966425 0.00170355 0.0014569 0.000282356 0.00103154 0.000597672 0.00103473 0.000260308 0.000441184 0.000556216 0.000690042 0.000764017 1.32114e-05 0.00143231 0.00033261 0.000963085 0.00077403 4.31709e-05 0.000340477 0.000255889 0.000372205 0.000127294 2.92619e-05 4.32671e-05 3.14819e-05 4.36683e-05 1.83766e-05 6.41355e-05 5.00598e-05 2.81884e-05 5.18063e-05 6.59566e-05 7.52777e-05 7.54329e-05 9.20896e-05 9.1455e-05 0.00010458 9.93631e-05 0.000105073 7.06295e-05 9.4958e-05 7.17047e-05 5.4099e-05 5.65188e-05 2.61628e-05 5.27983e-05 1.72751e-05 1.19682e-05 2.09731e-05 2.69291e-05 2.40916e-05 3.2616e-05 6.17364e-05 5.89025e-05 4.01392e-05 3.37068e-05 5.36844e-05 7.64166e-06 3.53745e-05 7.07186e-05 6.62579e-05 6.33206e-05 8.89454e-05 7.55121e-05 5.2337e-05 4.26315e-05 5.90295e-05 3.59005e-05 4.74587e-05 5.68184e-05 5.80922e-05 3.42828e-05 5.58056e-06 2.4064e-05 6.64241e-05 2.76224e-05 7.7904e-05 6.821e-05 9.69416e-05 3.40502e-05 7.7303e-05 4.90466e-05 0.000113822 6.86129e-05 9.45668e-05 7.51614e-05 4.20427e-05 3.9206e-05 0.00020759 0.000173842 0.000182548 0.000209337 0.000282796 0.000228184 0.000303183 0.000378435 0.000458085 0.000558298 0.000697029 0.000730468 0.000778437 0.00084421 0.000817811 0.000821614 0.000884469 0.000854495 0.000906642 0.000852742 0.000907232 0.000884993 0.00105385 0.00113591 0.00115975 0.00118742 0.00121184 0.00116041 0.00104602 0.00107201 0.00105292 0.00118337 0.00122521 0.00131994 0.00124488 0.00121668 0.00124102 0.00118191 0.00109737 0.00107677 0.00110513 0.000708939 0.000825913 0.000529349 0.000628486 0.000830606 0.000907637 0.000765077 0.000638761 0.00075431 0.000655373 0.00060145 0.000890455 0.000562916 0.00130889 0.000551839 0.00134293 0.000914206 0.000920455 0.000143274 0.000321401 0.000741638 4.80173e-05 9.2529e-05 0.000244057 3.55559e-05 3.91108e-05 3.72638e-05 3.91768e-05 3.54656e-05 6.38779e-05 6.49643e-05 5.22914e-05 8.27597e-05 8.06078e-05 0.000100239 8.56255e-05 9.37906e-05 8.67549e-05 6.99427e-05 6.8585e-05 7.31272e-05 5.83271e-05 3.42865e-05 2.23045e-05 1.87173e-05 4.03804e-05 4.6821e-05 5.33869e-05 5.73552e-05 5.40025e-05 4.7676e-05 4.21704e-05 1.22813e-05 3.49279e-05 4.43402e-05 3.33828e-05 6.1546e-05 5.89259e-05 2.26007e-05 4.72635e-05 6.14182e-05 3.30006e-05 1.30831e-05 2.65176e-05 8.80549e-05 5.09598e-05 6.08249e-05 5.01945e-05 5.27775e-05 6.5881e-05 0.000107576 9.46471e-05 0.000124301 0.000103376 4.71169e-05 4.41099e-05 2.97383e-05 4.93069e-05 6.28722e-05 2.15907e-05 3.90007e-05 3.37005e-05 0.000109637 0.000198224 0.000193554 0.000237732 0.00026834 0.000323075 0.000382927 0.000442185 0.000499621 0.000490662 0.000551475 0.000617035 0.000718293 0.000786081 0.000820919 0.000830728 0.000828437 0.00091276 0.000995757 0.00101122 0.0010901 0.00109626 0.00114106 0.00118966 0.00116795 0.00106217 0.00127432 0.00119984 0.0012062 0.00134611 0.00140389 0.00137664 0.00147874 0.00139754 0.00120786 0.00112469 0.00112903 0.0010232 0.00125598 0.00124281 0.00117715 0.00123569 0.00117352 0.00124129 0.00119613 0.000839169 0.000819649 0.000630838 0.000761809 0.000698032 0.000928846 0.000970436 0.00110568 0.000834133 0.000711987 0.000729929 0.000630824 0.000265001 0.000401736 0.000620178 0.00106632 0.000871539 0.000813534 0.000853814 0.000636893 0.000804701 0.000735694 0.000454044 0.000123364 3.6584e-05 5.24496e-05 4.80312e-05 5.98727e-05 5.91996e-05 7.27813e-05 7.66234e-05 7.0711e-05 6.76664e-05 8.6593e-05 0.000117088 0.000101825 0.000129878 0.000116228 9.51998e-05 8.13316e-05 6.80269e-05 9.02969e-05 7.02601e-05 9.01328e-05 7.3721e-05 5.54695e-05 3.31608e-05 3.33257e-05 4.94554e-05 2.74694e-05 3.75763e-05 5.66656e-05 4.30942e-05 6.37571e-05 7.31115e-05 2.68969e-05 7.30261e-05 1.5991e-05 5.77547e-05 6.5477e-05 7.47813e-05 6.10338e-05 7.63339e-05 3.17547e-05 3.38841e-05 5.02921e-05 7.34874e-05 5.02057e-05 1.32833e-05 1.7274e-05 6.10447e-05 8.06925e-05 5.4263e-05 0.000100724 4.51291e-05 3.9355e-05 8.7813e-05 8.43676e-05 0.000113223 0.000164386 0.000138046 9.30867e-05 6.75124e-05 0.000148057 5.54172e-05 9.67927e-05 0.000176601 0.000209666 0.000248705 0.000343611 0.000405091 0.000460193 0.000524577 0.000556765 0.000648591 0.000733693 0.000753778 0.000756008 0.000788026 0.000836236 0.000913385 0.00104128 0.000954547 0.000916789 0.00107234 0.00109031 0.00115747 0.00124364 0.00124842 0.00127837 0.00141114 0.00136809 0.00152282 0.00149872 0.0014499 0.0012277 0.00131923 0.00117491 0.00118208 0.00128135 0.000968652 0.00085525 0.000622256 0.00096342 0.00070978 0.000803314 0.000537925 0.000869643 0.000712898 0.000744518 0.000819509 0.00103663 0.00056753 0.000846651 0.000746256 0.000633396 0.000551713 0.000491684 0.00041858 0.00051957 0.000626382 0.000623694 0.000435455 0.000451854 0.000397117 0.000236695 0.00033269 0.000237683 0.000464023 3.25415e-05 3.74509e-05 5.43397e-05 7.96861e-05 7.23715e-05 6.59544e-05 7.95314e-05 0.000105718 0.000105889 0.000114788 8.4893e-05 8.79295e-05 7.84835e-05 8.0471e-05 6.3798e-05 7.05258e-05 8.43521e-05 5.20715e-05 5.1296e-05 8.22731e-05 7.78486e-05 7.76958e-05 6.48854e-05 6.17562e-05 5.86562e-05 5.69484e-05 5.61182e-05 6.42946e-05 6.61499e-05 7.3785e-05 3.04232e-05 6.98545e-05 6.42428e-05 7.86993e-05 9.97527e-05 7.22755e-05 8.49831e-05 3.84808e-05 6.97397e-05 9.17351e-05 5.2271e-05 6.82181e-05 0.000167122 5.51203e-05 0.000132675 5.36735e-05 7.54257e-05 7.51831e-05 0.000115927 0.000107914 0.00011329 8.8881e-05 0.000127735 0.000129754 8.3566e-05 0.000229944 0.000239597 0.000273095 0.000321838 0.000382413 0.00047838 0.000447664 0.000521246 0.000597248 0.000637769 0.000563606 0.000709101 0.000741405 0.000752185 0.000806828 0.00081068 0.000824529 0.000802566 0.000699825 0.000817156 0.00105273 0.00113248 0.00141333 0.00154574 0.00148223 0.00143954 0.00143409 0.00132383 0.00127142 0.0010239 0.000880728 0.00101389 0.000635687 0.000765812 0.00073601 0.000444145 0.000314732 0.00051144 0.000523478 0.000459503 0.000563586 0.000712938 0.000397041 0.000407748 0.000443783 0.000397969 0.00049477 0.000411172 0.000138829 0.000454845 0.000359582 0.000233059 0.000384443 0.000321451 0.000465543 0.000166943 0.00031161 0.00026863 0.000385158 5.36117e-05 5.02648e-05 6.82992e-05 8.93443e-05 8.10897e-05 7.82488e-05 8.3781e-05 9.55606e-05 8.93421e-05 9.52771e-05 0.000111974 0.000105505 0.000116391 0.000101391 0.000104197 0.000103271 9.92255e-05 9.63553e-05 7.17071e-05 8.64682e-05 9.09834e-05 8.83761e-05 7.52703e-05 6.60228e-05 6.06859e-05 5.65603e-05 5.96477e-05 6.18369e-05 6.58671e-05 7.63767e-05 7.09411e-05 6.05766e-05 7.54299e-05 8.22055e-05 0.000111307 0.000126785 0.000123988 0.000113139 0.000130447 8.88308e-05 0.000105364 4.3943e-05 2.83603e-05 7.89672e-05 6.03032e-05 6.82252e-05 6.62278e-05 7.15824e-05 6.21849e-05 0.000100221 8.40585e-05 0.000281412 0.000269106 0.000334171 0.000356128 0.000427141 0.000504112 0.000518144 0.00055088 0.000604753 0.000682119 0.000751428 0.000753611 0.000825452 0.000838553 0.000843753 0.00087287 0.000965346 0.000655504 0.00180544 0.00146583 0.00189255 0.00175327 0.00151648 0.00142588 0.00136882 0.0012181 0.00111404 0.00109166 0.00105508 0.0010015 0.000664371 0.000581905 0.000479796 0.000522989 0.000520131 0.000436128 0.000539684 0.0004214 0.000592126 0.00062415 0.000610558 0.000406541 0.000590304 0.000251174 0.000316815 0.000373085 0.000466319 0.000247601 0.000362475 0.000149123 0.000322296 0.000315458 0.000472505 0.000381807 0.000386692 0.000282055 0.000584299 0.000218591 0.00051143 0.000225704 0.000419897 1.31655e-05 6.04518e-05 4.25703e-05 6.98754e-05 8.98387e-05 8.45254e-05 8.85494e-05 9.18973e-05 0.00010041 0.000105894 0.000108613 0.000123074 0.000147864 0.000134534 9.9259e-05 0.000128214 0.000100235 9.79799e-05 0.000115822 0.000103876 0.000102337 0.000119094 0.000123378 0.000112832 0.000113317 9.51946e-05 8.3757e-05 9.66584e-05 6.28296e-05 7.38992e-05 7.91643e-05 7.73576e-05 6.67824e-05 0.000106016 0.000118675 0.000108468 0.000105996 0.000115636 0.000106665 7.68403e-05 9.07889e-05 5.42812e-05 3.29415e-05 3.2781e-05 2.92475e-05 2.06567e-05 5.67596e-05 7.0458e-05 6.07919e-05 2.61263e-05 3.72669e-05 4.19441e-05 7.35069e-05 0.000100715 0.000119371 0.00011886 8.53005e-05 0.000308581 0.000287763 0.000350688 0.00040356 0.000393495 0.000471553 0.000533385 0.000615978 0.000655058 0.0006722 0.000671374 0.00072705 0.000769146 0.000802225 0.000828717 0.000916731 0.0010803 0.00131187 0.00129361 0.00145715 0.00127735 0.00152618 0.00134961 0.00145723 0.00130131 0.00131128 0.00116649 0.00104355 0.00113227 0.000843388 0.000680128 0.000430475 0.000440058 0.000340438 0.000291202 0.000324619 0.000378338 0.000383175 0.000250611 0.00059777 0.000393724 0.000489625 5.64566e-05 0.000172678 0.000100698 0.000453124 0.000371648 0.000293576 0.000341005 0.000264824 0.000210769 0.000362042 0.000403708 1.8487e-05 6.26532e-05 6.54706e-05 7.31887e-05 0.000103202 7.95545e-05 8.95502e-05 0.000119238 0.000111685 0.000123579 0.000134125 0.000120221 0.000125003 0.000144024 0.000123974 0.00013689 0.00015099 0.000123823 0.000134863 0.000126423 0.000115808 0.000144427 0.000112914 0.000126185 0.000120519 0.000107551 0.0001286 0.000105752 0.000113453 0.000108559 0.000112521 0.000122853 0.000119285 0.000103752 0.000103618 4.13484e-05 2.9909e-05 1.60802e-05 1.65243e-05 2.74945e-05 4.9518e-05 3.05019e-05 3.51116e-05 5.55513e-05 3.76022e-05 7.48199e-05 0.000113139 0.00010315 0.000120472 0.000146866 0.000122989 0.00014003 0.000294336 0.000336651 0.000358588 0.00045997 0.000520112 0.000575088 0.000639468 0.000702714 0.000770549 0.000810308 0.000897029 0.00093235 0.000926896 0.00102729 0.00104104 0.00111034 0.00127128 0.00129104 0.00130752 0.000957243 0.0010114 0.000859291 0.0008789 0.000707713 0.000694518 0.000615292 0.000336609 0.000109261 0.000407389 0.000406055 0.000361944 0.000172763 0.000181041 0.000279071 0.000375605 7.68531e-05 4.82921e-05 0.000405369 7.70733e-05 0.000603651 0.00018448 0.000289051 0.000249929 0.000208243 0.000300067 3.90809e-05 0.000294527 0.000515271 2.53632e-05 6.99384e-05 8.50575e-05 9.22799e-05 8.09723e-05 9.20809e-05 8.43763e-05 0.000109222 0.000139926 0.000130937 0.000171551 0.00018221 0.000149223 0.000188271 0.000188774 0.000166693 0.000168626 0.000137347 0.000136426 0.000105327 0.000139133 0.000147632 0.00014254 0.000135626 0.000135641 0.000117014 0.000128543 0.000141544 0.000148104 0.000131454 7.35728e-05 2.46534e-05 5.75332e-05 6.35197e-05 1.85926e-05 2.55515e-05 1.99023e-05 4.57157e-05 5.77274e-05 5.03821e-05 0.000103343 8.82657e-05 8.55528e-05 9.6093e-05 0.000144827 8.20461e-05 0.000103424 0.000106489 0.000289291 0.000306884 0.000332433 0.000304492 0.000422736 0.000453582 0.00052244 0.000553306 0.000616759 0.000616305 0.000693837 0.000935949 0.000930585 0.000937616 0.000969586 0.000987327 0.00102458 0.00114405 0.0011793 0.00108215 0.00078414 0.000725522 0.000818336 0.000768439 0.000602491 0.000702443 0.000494295 0.000306109 8.46783e-05 0.000257322 0.000243386 0.000618443 0.000335046 0.000176451 0.000477464 0.000260471 0.000269505 0.000198913 0.000133157 0.000512337 0.000341072 0.000285628 0.000266612 0.000178186 0.000165558 0.000219029 0.000594616 0.000495013 0.000101031 4.53647e-05 0.000173245 8.00377e-05 0.000112751 0.000117227 0.000131879 0.00014734 0.000152448 0.000149658 0.000160272 0.000187106 0.000202375 0.000203506 0.000179255 0.000188824 0.000183814 0.000173783 0.00018046 0.000171451 0.000170364 0.000215231 0.000149666 0.000125208 0.000136073 0.000119791 0.00010836 0.000126654 0.000145393 0.00011833 0.000139077 9.81927e-05 9.42865e-05 0.000137618 0.000133191 8.35737e-05 8.64431e-05 6.21364e-05 3.21162e-05 1.3721e-05 3.75345e-05 3.74691e-05 6.98231e-05 9.3963e-05 0.000114985 6.16929e-05 5.51485e-05 3.12428e-05 9.65237e-05 0.000110282 0.000284878 0.000330798 0.000263854 0.000280954 0.000444506 0.000430553 0.000500973 0.000535145 0.000487549 0.000471297 0.000799038 0.000695971 0.000854321 0.00117392 0.00111832 0.00115157 0.000999043 0.000617944 0.000692984 0.000656478 0.000582895 0.000510244 0.00029499 0.0005939 0.000326043 0.000367669 0.000598341 0.000459062 0.00018557 0.000502717 0.000258675 0.000148479 0.000354157 0.000125696 0.00019975 0.000122415 0.000223637 0.000141805 0.000131715 0.000306854 0.000235524 0.000176123 0.000174123 0.000360652 0.000698949 0.000584609 0.000367918 0.000318704 5.61837e-05 9.98859e-05 0.000118189 0.000137805 0.000158601 0.000159905 0.000179106 0.000197425 0.000209689 0.00021893 0.000225069 0.00022656 0.000175172 0.000205624 0.000214366 0.000174139 0.000234297 0.000201909 0.000178532 0.000200476 0.000177124 0.000158698 0.000135591 0.000173388 0.000125015 0.000167621 0.000173252 9.42713e-05 8.85231e-05 8.32727e-05 7.55589e-05 8.71447e-06 1.29062e-05 3.17932e-05 5.41912e-05 3.55092e-05 8.50732e-05 0.000105331 0.000126359 0.000126895 4.57035e-05 2.76635e-05 6.80147e-05 0.000117291 7.74584e-05 0.000349739 0.00044877 0.000408683 0.000570016 0.000533875 0.000472166 0.000489738 0.000422653 0.000270955 0.00123918 0.00118909 0.00110099 0.00119507 0.000663725 0.00122835 0.00127181 0.00142611 0.0012672 0.000791702 0.000638189 0.000781331 0.000656521 0.00011058 0.000299528 0.000555949 0.000551821 0.000404529 0.000246072 0.00035041 0.000333753 0.000477842 0.000277315 0.000272408 9.15365e-05 0.000236497 0.000275809 0.000428549 0.000111864 0.000556855 0.000156405 0.000140415 0.000277549 9.75918e-05 0.000514091 0.000512826 0.000617404 0.000475879 0.000122794 0.000166733 0.000162252 0.000257712 0.000203508 0.000133009 0.000102052 0.000971513 0.000253555 0.000471666 0.000389283 0.000423703 0.000403952 
SCALARS Stress float 1
LOOKUP_TABLE default
-12554000000.0 -12558000000.0 -12558100000.0 -12551100000.0 -12551000000.0 -12563100000.0 -12550600000.0 -12552000000.0 -12549700000.0 -12552800000.0 -12552800000.0 -12550100000.0 -12550600000.0 -12549700000.0 -12550200000.0 -12549700000.0 -12549700000.0 -12550400000.0 -12549700000.0 -12549700000.0 -12549800000.0 -12549700000.0 -12549800000.0 -12550000000.0 -12551100000.0 -12551800000.0 -12550900000.0 -12550500000.0 -12550200000.0 -12550000000.0 -12549700000.0 -12549700000.0 -12549700000.0 -12549700000.0 -12550000000.0 -12550400000.0 -12550500000.0 -12551800000.0 -12551100000.0 -12550500000.0 -12552600000.0 -12549900000.0 -12549700000.0 -12550400000.0 -12550400000.0 -12549700000.0 -12550800000.0 -12549700000.0 -12549700000.0 -12550500000.0 -12552900000.0 -12552400000.0 -12551800000.0 -12552500000.0 -12550100000.0 -12550600000.0 -12550200000.0 -12553100000.0 -12553600000.0 -12549800000.0 -12549800000.0 -12549900000.0 -12550500000.0 -12550500000.0 -12553100000.0 -12550900000.0 -12550500000.0 -12555100000.0 -12552000000.0 -12550700000.0 -12550600000.0 -12550400000.0 -12550300000.0 -12552500000.0 -12551900000.0 -12555200000.0 -12552600000.0 -12565300000.0 -12560200000.0 -12562600000.0 -12561200000.0 -12560200000.0 -12560200000.0 -12551300000.0 -12550600000.0 -12549700000.0 -12550700000.0 -12553000000.0 -12553500000.0 -12551500000.0 -12550500000.0 -12550300000.0 -12552100000.0 -12553100000.0 -12562800000.0 -12560900000.0 -12560800000.0 -12554000000.0 -12556800000.0 -12549800000.0 -12552800000.0 -12550300000.0 -12570100000.0 -12590800000.0 -12567800000.0 -12571800000.0 -12581800000.0 -12586400000.0 -12578300000.0 -12554700000.0 -12552900000.0 -12552900000.0 -12549700000.0 -12551500000.0 -12549800000.0 -12549700000.0 -12552300000.0 -12549700000.0 -12549700000.0 -12550200000.0 -12549700000.0 -12550900000.0 -12549700000.0 -12555000000.0 -12549700000.0 -12549700000.0 -12549700000.0 -12549900000.0 -12549700000.0 -12549700000.0 -12549700000.0 -12550100000.0 -12551200000.0 -12551700000.0 -12554300000.0 -12554100000.0 -12558000000.0 -12557200000.0 -12551700000.0 -12550500000.0 -12552100000.0 -12553500000.0 -12552600000.0 -12552500000.0 -12550400000.0 -12551800000.0 -12557100000.0 -12550500000.0 -12552700000.0 -12554300000.0 -12553600000.0 -12552200000.0 -12551600000.0 -12550200000.0 -12554400000.0 -12553100000.0 -12563600000.0 -12549700000.0 -12549700000.0 -12551600000.0 -12551600000.0 -12558800000.0 -12552100000.0 -12549700000.0 -12560300000.0 -12552600000.0 -12549700000.0 -12549700000.0 -12551100000.0 -12553300000.0 -12551200000.0 -12549900000.0 -12560600000.0 -12564400000.0 -12568000000.0 -12567900000.0 -12576800000.0 -12551100000.0 -12551800000.0 -12551300000.0 -12586000000.0 -12549900000.0 -12558200000.0 -12557500000.0 -12553700000.0 -12554000000.0 -12563000000.0 -12570600000.0 -12565100000.0 -12549700000.0 -12552700000.0 -12550000000.0 -12557300000.0 -12587300000.0 -12563500000.0 -12561400000.0 -12561100000.0 -12571600000.0 -12575400000.0 -12570200000.0 -12571800000.0 -12556400000.0 -12549700000.0 -12579500000.0 -12579700000.0 -12580900000.0 -12567600000.0 -12550600000.0 -12579000000.0 -12559700000.0 -12564600000.0 -12558900000.0 -12559300000.0 -12557300000.0 -12550700000.0 -12555200000.0 -12549700000.0 -12549700000.0 -12550900000.0 -12549700000.0 -12553500000.0 -12549700000.0 -12556600000.0 -12549800000.0 -12550600000.0 -12549700000.0 -12551000000.0 -12551000000.0 -12551200000.0 -12551900000.0 -12553000000.0 -12555700000.0 -12555400000.0 -12561700000.0 -12559700000.0 -12565200000.0 -12552600000.0 -12562400000.0 -12560100000.0 -12557100000.0 -12560800000.0 -12549700000.0 -12550100000.0 -12557300000.0 -12549700000.0 -12553000000.0 -12560400000.0 -12550900000.0 -12550200000.0 -12549900000.0 -12563000000.0 -12557500000.0 -12550800000.0 -12551600000.0 -12558500000.0 -12581500000.0 -12561500000.0 -12559100000.0 -12556700000.0 -12564900000.0 -12566700000.0 -12592300000.0 -12581400000.0 -12582900000.0 -12581700000.0 -12560100000.0 -12565500000.0 -12570300000.0 -12570900000.0 -12565300000.0 -12569900000.0 -12563600000.0 -12565400000.0 -12556700000.0 -12576800000.0 -12574700000.0 -12627900000.0 -12620000000.0 -12653600000.0 -12559400000.0 -12556900000.0 -12561400000.0 -12555300000.0 -12634600000.0 -12600200000.0 -12593100000.0 -12570000000.0 -12568700000.0 -12597400000.0 -12575100000.0 -12569600000.0 -12560700000.0 -12558700000.0 -12589400000.0 -12550700000.0 -12556000000.0 -12552300000.0 -12564200000.0 -12553900000.0 -12576900000.0 -12573800000.0 -12573300000.0 -12573400000.0 -12549700000.0 -12600300000.0 -12552200000.0 -12555500000.0 -12565200000.0 -12597100000.0 -12563400000.0 -12576000000.0 -12586100000.0 -12553800000.0 -12563600000.0 -12549700000.0 -12552400000.0 -12560200000.0 -12555400000.0 -12556000000.0 -12557800000.0 -12553700000.0 -12555200000.0 -12553500000.0 -12561300000.0 -12555900000.0 -12562200000.0 -12553600000.0 -12552200000.0 -12551400000.0 -12549700000.0 -12549800000.0 -12550300000.0 -12550800000.0 -12550000000.0 -12553000000.0 -12558400000.0 -12561100000.0 -12555700000.0 -12577300000.0 -12573800000.0 -12566400000.0 -12578700000.0 -12575200000.0 -12576100000.0 -12585100000.0 -12585100000.0 -12570700000.0 -12565300000.0 -12561700000.0 -12577300000.0 -12553600000.0 -12550600000.0 -12554700000.0 -12565400000.0 -12550400000.0 -12561300000.0 -12555800000.0 -12577200000.0 -12572100000.0 -12611500000.0 -12561800000.0 -12557200000.0 -12563200000.0 -12555100000.0 -12588300000.0 -12549700000.0 -12549700000.0 -12569500000.0 -12549700000.0 -12587600000.0 -12588300000.0 -12578300000.0 -12576000000.0 -12568100000.0 -12612600000.0 -12609200000.0 -12605500000.0 -12610900000.0 -12561900000.0 -12602700000.0 -12672000000.0 -12664900000.0 -12655200000.0 -12677600000.0 -12551800000.0 -12550900000.0 -12589700000.0 -12593600000.0 -12608200000.0 -12584400000.0 -12606500000.0 -12574600000.0 -12565700000.0 -12599700000.0 -12567200000.0 -12589000000.0 -12608200000.0 -12612800000.0 -12637800000.0 -12567900000.0 -12552700000.0 -12551800000.0 -12566400000.0 -12551300000.0 -12634300000.0 -12607900000.0 -12582100000.0 -12627800000.0 -12563100000.0 -12570100000.0 -12558500000.0 -12583200000.0 -12568100000.0 -12572000000.0 -12552700000.0 -12552000000.0 -12570200000.0 -12563800000.0 -12554000000.0 -12570100000.0 -12560200000.0 -12552500000.0 -12553200000.0 -12550000000.0 -12558600000.0 -12549800000.0 -12558800000.0 -12564700000.0 -12556400000.0 -12553300000.0 -12554100000.0 -12552200000.0 -12550000000.0 -12555100000.0 -12552300000.0 -12571200000.0 -12564400000.0 -12557300000.0 -12552500000.0 -12581900000.0 -12604600000.0 -12591400000.0 -12553200000.0 -12568900000.0 -12555400000.0 -12554400000.0 -12555600000.0 -12575600000.0 -12553500000.0 -12562200000.0 -12578800000.0 -12608400000.0 -12561500000.0 -12555700000.0 -12572000000.0 -12553200000.0 -12569900000.0 -12608800000.0 -12557000000.0 -12629500000.0 -12577500000.0 -12559000000.0 -12577400000.0 -12555600000.0 -12606900000.0 -12549700000.0 -12550400000.0 -12552700000.0 -12580000000.0 -12636900000.0 -12554500000.0 -12551100000.0 -12595200000.0 -12591200000.0 -12552700000.0 -12560600000.0 -12625300000.0 -12591800000.0 -12623100000.0 -12631300000.0 -12558000000.0 -12596400000.0 -12595000000.0 -12591100000.0 -12666900000.0 -12625200000.0 -12551700000.0 -12549900000.0 -12601700000.0 -12551900000.0 -12669300000.0 -12676600000.0 -12688200000.0 -12663300000.0 -12619200000.0 -12628300000.0 -12612100000.0 -12554600000.0 -12565400000.0 -12550900000.0 -12633100000.0 -12597400000.0 -12583600000.0 -12589600000.0 -12618300000.0 -12551500000.0 -12554200000.0 -12636900000.0 -12639000000.0 -12597200000.0 -12597900000.0 -12592700000.0 -12584800000.0 -12568800000.0 -12576800000.0 -12552900000.0 -12552100000.0 -12593700000.0 -12593700000.0 -12591000000.0 -12589900000.0 -12587700000.0 -12582800000.0 -12602300000.0 -12592900000.0 -12591300000.0 -12598000000.0 -12604000000.0 -12581900000.0 -12582900000.0 -12572500000.0 -12579000000.0 -12549700000.0 -12552400000.0 -12557900000.0 -12550200000.0 -12620400000.0 -12556000000.0 -12552600000.0 -12560800000.0 -12572700000.0 -12568800000.0 -12549900000.0 -12552600000.0 -12550000000.0 -12581000000.0 -12574900000.0 -12554400000.0 -12563700000.0 -12597500000.0 -12603100000.0 -12601800000.0 -12606300000.0 -12640800000.0 -12595000000.0 -12652500000.0 -12586000000.0 -12599600000.0 -12630200000.0 -12599600000.0 -12556400000.0 -12583800000.0 -12600700000.0 -12615800000.0 -12629400000.0 -12724300000.0 -12629600000.0 -12637700000.0 -12615300000.0 -12581300000.0 -12581600000.0 -12606400000.0 -12572500000.0 -12722500000.0 -12615200000.0 -12620200000.0 -12579000000.0 -12649800000.0 -12565400000.0 -12606200000.0 -12762300000.0 -12602700000.0 -12586500000.0 -12565000000.0 -12638600000.0 -12625500000.0 -12606900000.0 -12749300000.0 -12692700000.0 -12577000000.0 -12576600000.0 -12640600000.0 -12592300000.0 -12586000000.0 -12592500000.0 -12549700000.0 -12581600000.0 -12567300000.0 -12561700000.0 -12662600000.0 -12609400000.0 -12601600000.0 -12606600000.0 -12685700000.0 -12774800000.0 -12616200000.0 -12596900000.0 -12703900000.0 -12598900000.0 -12588800000.0 -12598600000.0 -12564800000.0 -12557500000.0 -12570700000.0 -12556000000.0 -12555100000.0 -12619700000.0 -12600400000.0 -12564100000.0 -12549700000.0 -12550300000.0 -12567500000.0 -12565400000.0 -12574700000.0 -12559800000.0 -12554000000.0 -12563100000.0 -12549900000.0 -12551000000.0 -12574200000.0 -12576200000.0 -12583100000.0 -12580900000.0 -12601900000.0 -12594200000.0 -12570100000.0 -12575600000.0 -12588900000.0 -12563600000.0 -12556100000.0 -12557600000.0 -12563700000.0 -12551100000.0 -12573500000.0 -12561400000.0 -12562200000.0 -12591400000.0 -12590200000.0 -12572500000.0 -12578300000.0 -12576000000.0 -12553700000.0 -12578700000.0 -12553400000.0 -12589300000.0 -12593000000.0 -12582000000.0 -12648000000.0 -12584400000.0 -12560100000.0 -12615800000.0 -12582900000.0 -12586400000.0 -12588900000.0 -12577800000.0 -12549700000.0 -12550800000.0 -12564500000.0 -12684000000.0 -12582000000.0 -12579700000.0 -12676000000.0 -12688400000.0 -12688000000.0 -12685200000.0 -12669400000.0 -12664200000.0 -12712000000.0 -12736200000.0 -12773200000.0 -12789000000.0 -12732400000.0 -12810700000.0 -12681200000.0 -12662700000.0 -12657100000.0 -12772700000.0 -12581000000.0 -12584200000.0 -12601100000.0 -12614400000.0 -12597200000.0 -12594900000.0 -12614000000.0 -12561200000.0 -12600400000.0 -12549700000.0 -12658000000.0 -12554600000.0 -12554300000.0 -12551000000.0 -12590000000.0 -12549700000.0 -12549700000.0 -12759800000.0 -12761900000.0 -12752500000.0 -12666900000.0 -12661300000.0 -12641400000.0 -12659100000.0 -12630000000.0 -12648300000.0 -12663000000.0 -12613900000.0 -12612700000.0 -12600600000.0 -12597200000.0 -12587100000.0 -12572500000.0 -12556900000.0 -12556500000.0 -12582800000.0 -12556700000.0 -12566700000.0 -12570500000.0 -12568900000.0 -12573000000.0 -12549800000.0 -12560400000.0 -12552500000.0 -12565700000.0 -12556100000.0 -12587200000.0 -12578800000.0 -12605100000.0 -12561900000.0 -12557900000.0 -12561500000.0 -12572700000.0 -12561300000.0 -12568900000.0 -12555700000.0 -12577500000.0 -12558800000.0 -12565400000.0 -12562400000.0 -12561600000.0 -12550600000.0 -12562400000.0 -12572300000.0 -12578600000.0 -12654800000.0 -12671400000.0 -12658300000.0 -12714800000.0 -12673200000.0 -12595200000.0 -12578500000.0 -12557200000.0 -12573700000.0 -12556900000.0 -12549700000.0 -12568400000.0 -12562700000.0 -12728500000.0 -12571400000.0 -12583300000.0 -12600200000.0 -12549700000.0 -12607900000.0 -12585600000.0 -12551200000.0 -12626000000.0 -12591100000.0 -12612800000.0 -12664600000.0 -12615400000.0 -12720400000.0 -12634500000.0 -12590800000.0 -12672900000.0 -12608800000.0 -12685000000.0 -12602800000.0 -12865600000.0 -12550100000.0 -12553100000.0 -12599100000.0 -12676100000.0 -12595500000.0 -12587700000.0 -12651300000.0 -12609900000.0 -12591300000.0 -12624500000.0 -12678900000.0 -12549800000.0 -12556800000.0 -12570500000.0 -12550200000.0 -12603000000.0 -12549700000.0 -12712400000.0 -12717100000.0 -12598200000.0 -12576500000.0 -12558600000.0 -12557000000.0 -12563800000.0 -12653600000.0 -12549700000.0 -12595000000.0 -12591800000.0 -12591800000.0 -12586100000.0 -12552300000.0 -12554100000.0 -12562100000.0 -12557000000.0 -12569800000.0 -12571100000.0 -12582500000.0 -12551300000.0 -12575800000.0 -12569900000.0 -12553400000.0 -12561500000.0 -12561900000.0 -12582400000.0 -12580900000.0 -12577900000.0 -12578600000.0 -12590100000.0 -12612700000.0 -12584000000.0 -12598000000.0 -12611400000.0 -12584500000.0 -12589500000.0 -12620800000.0 -12636700000.0 -12630200000.0 -12618400000.0 -12607100000.0 -12620700000.0 -12619900000.0 -12633100000.0 -12636700000.0 -12617800000.0 -12636200000.0 -12686900000.0 -12549700000.0 -12606200000.0 -12609900000.0 -12669200000.0 -12558100000.0 -12663600000.0 -12649400000.0 -12552600000.0 -12657500000.0 -12633000000.0 -12617800000.0 -12621900000.0 -12648900000.0 -12644900000.0 -12552000000.0 -12564000000.0 -12574600000.0 -12587800000.0 -12550400000.0 -12622900000.0 -12607000000.0 -12659400000.0 -12567900000.0 -12647300000.0 -12570600000.0 -12549700000.0 -12631200000.0 -12671800000.0 -12645600000.0 -12581000000.0 -12616300000.0 -12663400000.0 -12625100000.0 -12895800000.0 -12549700000.0 -12655100000.0 -12676800000.0 -12615600000.0 -12550300000.0 -12555700000.0 -12677100000.0 -12597500000.0 -12551000000.0 -12658600000.0 -12597200000.0 -12619700000.0 -12560200000.0 -12606600000.0 -12675100000.0 -12581200000.0 -12551100000.0 -12685700000.0 -12629700000.0 -12555800000.0 -12553200000.0 -12568200000.0 -12654700000.0 -12584200000.0 -12575600000.0 -12550600000.0 -12550100000.0 -12559800000.0 -12569800000.0 -12554200000.0 -12551300000.0 -12549700000.0 -12571400000.0 -12576500000.0 -12579700000.0 -12570200000.0 -12550800000.0 -12568500000.0 -12558400000.0 -12574600000.0 -12571700000.0 -12549800000.0 -12553000000.0 -12557400000.0 -12556500000.0 -12549700000.0 -12584100000.0 -12593400000.0 -12549700000.0 -12593900000.0 -12553000000.0 -12593500000.0 -12549700000.0 -12549700000.0 -12577400000.0 -12550100000.0 -12593400000.0 -12549700000.0 -12549700000.0 -12552900000.0 -12588100000.0 -12589100000.0 -12605900000.0 -12663300000.0 -12549700000.0 -12605700000.0 -12610300000.0 -12553200000.0 -12660400000.0 -12615000000.0 -12603900000.0 -12688900000.0 -12573000000.0 -12556200000.0 -12578900000.0 -12557500000.0 -12596700000.0 -12554200000.0 -12653400000.0 -12568900000.0 -12611400000.0 -12578800000.0 -12616800000.0 -12667600000.0 -12646100000.0 -12790800000.0 -12729000000.0 -12723700000.0 -12715000000.0 -12705000000.0 -12756200000.0 -12746300000.0 -12761900000.0 -12783600000.0 -12804700000.0 -12896900000.0 -12648700000.0 -12617700000.0 -12960200000.0 -13017000000.0 -12815800000.0 -12746200000.0 -12707100000.0 -12618100000.0 -12673600000.0 -12593700000.0 -12588500000.0 -12579700000.0 -12655500000.0 -12549900000.0 -12615900000.0 -12630700000.0 -12564800000.0 -12562300000.0 -12577400000.0 -12588300000.0 -12562500000.0 -12558600000.0 -12705900000.0 -12641800000.0 -12550800000.0 -12570000000.0 -12575100000.0 -12645600000.0 -12549700000.0 -12578500000.0 -12556100000.0 -12558400000.0 -12553300000.0 -12550500000.0 -12578300000.0 -12575700000.0 -12562000000.0 -12561600000.0 -12574200000.0 -12557400000.0 -12598800000.0 -12566100000.0 -12556500000.0 -12573200000.0 -12565100000.0 -12558100000.0 -12567100000.0 -12550000000.0 -12558900000.0 -12558700000.0 -12550400000.0 -12552300000.0 -12549800000.0 -12603400000.0 -12550100000.0 -12578300000.0 -12574500000.0 -12591900000.0 -12608500000.0 -12550000000.0 -12550600000.0 -12577200000.0 -12575400000.0 -12613100000.0 -12553500000.0 -12554700000.0 -12566400000.0 -12564200000.0 -12579700000.0 -12590400000.0 -12570200000.0 -12684800000.0 -12571500000.0 -12648900000.0 -12649500000.0 -12561400000.0 -12728300000.0 -12798800000.0 -12726000000.0 -12734300000.0 -12711900000.0 -12642100000.0 -12601200000.0 -12610400000.0 -12608500000.0 -12606700000.0 -12603100000.0 -12718500000.0 -12678300000.0 -12573300000.0 -12602000000.0 -12704600000.0 -12615400000.0 -12564700000.0 -12549700000.0 -12706700000.0 -12622100000.0 -12594700000.0 -12602900000.0 -12559400000.0 -12661700000.0 -12649600000.0 -12568000000.0 -12681000000.0 -12572600000.0 -12554300000.0 -12777600000.0 -12753400000.0 -12767900000.0 -12724700000.0 -12549700000.0 -12701400000.0 -12549700000.0 -12752200000.0 -12563300000.0 -12647400000.0 -12554100000.0 -12551500000.0 -12649700000.0 -12564600000.0 -12598400000.0 -12565000000.0 -12651700000.0 -12555700000.0 -12595300000.0 -12580900000.0 -12593000000.0 -12678100000.0 -12634300000.0 -12627600000.0 -12550500000.0 -12648400000.0 -12665900000.0 -12591200000.0 -12601600000.0 -12599200000.0 -12614400000.0 -12598300000.0 -12594800000.0 -12599300000.0 -12563600000.0 -12567800000.0 -12585300000.0 -12603600000.0 -12551700000.0 -12613100000.0 -12574800000.0 -12577000000.0 -12591800000.0 -12580800000.0 -12583800000.0 -12582500000.0 -12583500000.0 -12549700000.0 -12560300000.0 -12558700000.0 -12552800000.0 -12611100000.0 -12552200000.0 -12563600000.0 -12565000000.0 -12601800000.0 -12605600000.0 -12575800000.0 -12589100000.0 -12564800000.0 -12551700000.0 -12608800000.0 -12549700000.0 -12550000000.0 -12602600000.0 -12567100000.0 -12601800000.0 -12581200000.0 -12664400000.0 -12549700000.0 -12549700000.0 -12658600000.0 -12673800000.0 -12653800000.0 -12566900000.0 -12664800000.0 -12645900000.0 -12624100000.0 -12630500000.0 -12561500000.0 -12582000000.0 -12578600000.0 -12566800000.0 -12631300000.0 -12549700000.0 -12674500000.0 -12725800000.0 -12688000000.0 -12694300000.0 -12780100000.0 -12839700000.0 -12623800000.0 -12637300000.0 -12658100000.0 -12557000000.0 -12781400000.0 -12585500000.0 -12604100000.0 -12666400000.0 -12591300000.0 -12601800000.0 -12587400000.0 -12562200000.0 -12833500000.0 -12602800000.0 -12837300000.0 -12709900000.0 -12790600000.0 -12835600000.0 -12974300000.0 -13005100000.0 -12951500000.0 -12923800000.0 -12972000000.0 -12957900000.0 -12985900000.0 -12963900000.0 -12805600000.0 -12635100000.0 -12658400000.0 -12751500000.0 -12738100000.0 -12762200000.0 -12838500000.0 -12669100000.0 -12579800000.0 -12597800000.0 -12573400000.0 -12568100000.0 -12565900000.0 -12570600000.0 -12554500000.0 -12554500000.0 -12556700000.0 -12596700000.0 -12582500000.0 -12578000000.0 -12579900000.0 -12645100000.0 -12556700000.0 -12566700000.0 -12572500000.0 -12549700000.0 -12562200000.0 -12553900000.0 -12605300000.0 -12605400000.0 -12605100000.0 -12620400000.0 -12589900000.0 -12595200000.0 -12591700000.0 -12601000000.0 -12623200000.0 -12584800000.0 -12556700000.0 -12570400000.0 -12569400000.0 -12574000000.0 -12591900000.0 -12617000000.0 -12604000000.0 -12663700000.0 -12581600000.0 -12599300000.0 -12667700000.0 -12549700000.0 -12791800000.0 -12791300000.0 -12707600000.0 -12643200000.0 -12770800000.0 -12677700000.0 -12570300000.0 -12566000000.0 -12575500000.0 -12646200000.0 -12678500000.0 -12635900000.0 -12629300000.0 -12766000000.0 -12577700000.0 -12551400000.0 -12572900000.0 -12669500000.0 -12591000000.0 -12675800000.0 -12550200000.0 -12549700000.0 -12651700000.0 -12704800000.0 -12903000000.0 -12698700000.0 -12586100000.0 -12627800000.0 -12570400000.0 -12604100000.0 -12581000000.0 -12579100000.0 -12868100000.0 -12687100000.0 -12762200000.0 -12574700000.0 -12563600000.0 -12641200000.0 -12553900000.0 -12587500000.0 -12620200000.0 -12600300000.0 -12570900000.0 -12556300000.0 -12617600000.0 -12695000000.0 -12695500000.0 -12646200000.0 -12668900000.0 -12665300000.0 -12570400000.0 -12550400000.0 -12550500000.0 -12553700000.0 -12549700000.0 -12727100000.0 -12703800000.0 -12552700000.0 -12574300000.0 -12577600000.0 -12577700000.0 -12556600000.0 -12565700000.0 -12552900000.0 -12551100000.0 -12571900000.0 -12557100000.0 -12558300000.0 -12556900000.0 -12563500000.0 -12569100000.0 -12549700000.0 -12616800000.0 -12600900000.0 -12589300000.0 -12606700000.0 -12597500000.0 -12594100000.0 -12601600000.0 -12565600000.0 -12570100000.0 -12553000000.0 -12564700000.0 -12608000000.0 -12579800000.0 -12562600000.0 -12551700000.0 -12550300000.0 -12632600000.0 -12557300000.0 -12550600000.0 -12551400000.0 -12561400000.0 -12552600000.0 -12634600000.0 -12556100000.0 -12584900000.0 -12585300000.0 -12670600000.0 -12565100000.0 -12564900000.0 -12562700000.0 -12684900000.0 -12724700000.0 -12815600000.0 -12795900000.0 -12552100000.0 -12553300000.0 -12830000000.0 -12709500000.0 -12607600000.0 -12604800000.0 -12552800000.0 -12588400000.0 -12556700000.0 -12562000000.0 -12587300000.0 -12557300000.0 -12566300000.0 -12583000000.0 -12743400000.0 -12583600000.0 -12636000000.0 -12723900000.0 -12639400000.0 -12673900000.0 -12564100000.0 -12773100000.0 -12718100000.0 -12640000000.0 -12665000000.0 -12685200000.0 -12661700000.0 -12642200000.0 -12716000000.0 -12610600000.0 -12552100000.0 -12616100000.0 -12560300000.0 -12675300000.0 -12697900000.0 -12622500000.0 -12776000000.0 -12769900000.0 -12709800000.0 -12692400000.0 -12611600000.0 -12774400000.0 -12701300000.0 -12671800000.0 -12608600000.0 -12573200000.0 -12568800000.0 -12552600000.0 -12550600000.0 -12553200000.0 -12550600000.0 -12580400000.0 -12736000000.0 -12670000000.0 -12668700000.0 -12589400000.0 -12581300000.0 -12567900000.0 -12565700000.0 -12604400000.0 -12585100000.0 -12562500000.0 -12560500000.0 -12574300000.0 -12583900000.0 -12551600000.0 -12554000000.0 -12550000000.0 -12557200000.0 -12563400000.0 -12555200000.0 -12599000000.0 -12554800000.0 -12552300000.0 -12550400000.0 -12559600000.0 -12560700000.0 -12549900000.0 -12578300000.0 -12566100000.0 -12578200000.0 -12616800000.0 -12658800000.0 -12575000000.0 -12550800000.0 -12628700000.0 -12575600000.0 -12580800000.0 -12566800000.0 -12555800000.0 -12551600000.0 -12561400000.0 -12643800000.0 -12560000000.0 -12571600000.0 -12550600000.0 -12641100000.0 -12640800000.0 -12750100000.0 -12713600000.0 -12713800000.0 -12746300000.0 -12740300000.0 -12838800000.0 -12556600000.0 -12550500000.0 -12679900000.0 -12801900000.0 -12556400000.0 -12552500000.0 -12560500000.0 -12638700000.0 -12564900000.0 -12558500000.0 -12574400000.0 -12571000000.0 -12601000000.0 -12779500000.0 -12777800000.0 -12658700000.0 -12794200000.0 -12623400000.0 -12606200000.0 -12600900000.0 -12731600000.0 -12565100000.0 -12560200000.0 -12597700000.0 -12550300000.0 -12686300000.0 -12552300000.0 -12632300000.0 -12715500000.0 -12595000000.0 -12601500000.0 -12638600000.0 -12701000000.0 -12649800000.0 -12757100000.0 -12695300000.0 -12615800000.0 -12714000000.0 -12591800000.0 -12649800000.0 -12735100000.0 -12748000000.0 -12549700000.0 -12653700000.0 -12592100000.0 -12666600000.0 -12648300000.0 -12667100000.0 -12565100000.0 -12553500000.0 -12556200000.0 -12556400000.0 -12557400000.0 -12574700000.0 -12682400000.0 -12654600000.0 -12574500000.0 -12549700000.0 -12595800000.0 -12582100000.0 -12569400000.0 -12576200000.0 -12576900000.0 -12578400000.0 -12580600000.0 -12580300000.0 -12566400000.0 -12564200000.0 -12607100000.0 -12568300000.0 -12552300000.0 -12549900000.0 -12561400000.0 -12550800000.0 -12558500000.0 -12549700000.0 -12569600000.0 -12574400000.0 -12569100000.0 -12559900000.0 -12593900000.0 -12594800000.0 -12568500000.0 -12576000000.0 -12589200000.0 -12627100000.0 -12556100000.0 -12559600000.0 -12567600000.0 -12565100000.0 -12554000000.0 -12669400000.0 -12585800000.0 -12552700000.0 -12603000000.0 -12550800000.0 -12629900000.0 -12604300000.0 -12562300000.0 -12580400000.0 -12619700000.0 -12865800000.0 -12582000000.0 -13086500000.0 -12661600000.0 -12550100000.0 -12549800000.0 -12673500000.0 -12722500000.0 -12553800000.0 -12569200000.0 -12670100000.0 -12590100000.0 -12629900000.0 -12553600000.0 -12811500000.0 -12549700000.0 -12557000000.0 -12645300000.0 -12550300000.0 -12586800000.0 -12592000000.0 -12613500000.0 -12723800000.0 -12560200000.0 -12559300000.0 -12600900000.0 -12619500000.0 -12689600000.0 -12652600000.0 -12598000000.0 -12575000000.0 -12695500000.0 -12635000000.0 -12616800000.0 -12706400000.0 -12595600000.0 -12613500000.0 -12730500000.0 -12663900000.0 -12690100000.0 -12551800000.0 -12550900000.0 -12578100000.0 -12636400000.0 -12549700000.0 -12601100000.0 -12609000000.0 -12624100000.0 -12567500000.0 -12633600000.0 -12561800000.0 -12553000000.0 -12557500000.0 -12550600000.0 -12551700000.0 -12565000000.0 -12614300000.0 -12602300000.0 -12634400000.0 -12549900000.0 -12592500000.0 -12566000000.0 -12557800000.0 -12565000000.0 -12552900000.0 -12561400000.0 -12554300000.0 -12555400000.0 -12558000000.0 -12551300000.0 -12549700000.0 -12585500000.0 -12581800000.0 -12580400000.0 -12582800000.0 -12589700000.0 -12593000000.0 -12561700000.0 -12556800000.0 -12556500000.0 -12563200000.0 -12587300000.0 -12610100000.0 -12580500000.0 -12579200000.0 -12607300000.0 -12551900000.0 -12571900000.0 -12549700000.0 -12613300000.0 -12713200000.0 -12629900000.0 -12619200000.0 -12639900000.0 -12647400000.0 -12632100000.0 -12645100000.0 -12604000000.0 -12669900000.0 -12726800000.0 -12653100000.0 -12663300000.0 -12796900000.0 -12606600000.0 -12804500000.0 -12595300000.0 -12829600000.0 -12665800000.0 -12618400000.0 -12600800000.0 -12612800000.0 -12647300000.0 -12613700000.0 -12592400000.0 -12683800000.0 -12590300000.0 -12582700000.0 -12676700000.0 -12643000000.0 -12549700000.0 -12550300000.0 -12621600000.0 -12594500000.0 -12680000000.0 -12634800000.0 -12604800000.0 -12685600000.0 -12553900000.0 -12550000000.0 -12704400000.0 -12602800000.0 -12637600000.0 -12646800000.0 -12713100000.0 -12704300000.0 -12723300000.0 -12700900000.0 -12569200000.0 -12635400000.0 -12559600000.0 -12621400000.0 -12558600000.0 -12553100000.0 -12556100000.0 -12554900000.0 -12556500000.0 -12554600000.0 -12560200000.0 -12551300000.0 -12602000000.0 -12619400000.0 -12572600000.0 -12573200000.0 -12560700000.0 -12558000000.0 -12564000000.0 -12556900000.0 -12565600000.0 -12559700000.0 -12571300000.0 -12564500000.0 -12566500000.0 -12566100000.0 -12570600000.0 -12570800000.0 -12555000000.0 -12552800000.0 -12549700000.0 -12550500000.0 -12554800000.0 -12554000000.0 -12589400000.0 -12582200000.0 -12575000000.0 -12582900000.0 -12614000000.0 -12549700000.0 -12575000000.0 -12594400000.0 -12598700000.0 -12597000000.0 -12604700000.0 -12585500000.0 -12632400000.0 -12643200000.0 -12549700000.0 -12558200000.0 -12687600000.0 -12597800000.0 -12551700000.0 -12580400000.0 -12573100000.0 -12575100000.0 -12550000000.0 -12650300000.0 -12672300000.0 -12622500000.0 -13179200000.0 -12551600000.0 -12723400000.0 -12780400000.0 -12958900000.0 -12822500000.0 -12721900000.0 -12661300000.0 -12724800000.0 -12845200000.0 -12550800000.0 -12675800000.0 -12557000000.0 -12559200000.0 -12549700000.0 -12685900000.0 -12589400000.0 -12556300000.0 -12621000000.0 -12586000000.0 -12604600000.0 -12632200000.0 -12649900000.0 -12581200000.0 -12554100000.0 -12549700000.0 -12550200000.0 -12551200000.0 -12586400000.0 -12615600000.0 -12628700000.0 -12608300000.0 -12582100000.0 -12661400000.0 -12599600000.0 -12653600000.0 -12570800000.0 -12566900000.0 -12554300000.0 -12594300000.0 -12579600000.0 -12589800000.0 -12552400000.0 -12608800000.0 -12723600000.0 -12714500000.0 -12733800000.0 -12787500000.0 -12654600000.0 -12554200000.0 -12553000000.0 -12549700000.0 -12554900000.0 -12550900000.0 -12550600000.0 -12551900000.0 -12558200000.0 -12583700000.0 -12571700000.0 -12593500000.0 -12552500000.0 -12593900000.0 -12575600000.0 -12552000000.0 -12552000000.0 -12556500000.0 -12556300000.0 -12551400000.0 -12553100000.0 -12551100000.0 -12552700000.0 -12552500000.0 -12555000000.0 -12558600000.0 -12550600000.0 -12549900000.0 -12550000000.0 -12549700000.0 -12549900000.0 -12570000000.0 -12568900000.0 -12550200000.0 -12551600000.0 -12581500000.0 -12592000000.0 -12615100000.0 -12620800000.0 -12554700000.0 -12642000000.0 -12587300000.0 -12561900000.0 -12643000000.0 -12685000000.0 -12685300000.0 -12672500000.0 -12549800000.0 -12600400000.0 -12571500000.0 -12579300000.0 -12782500000.0 -12720000000.0 -12767200000.0 -12957600000.0 -12818300000.0 -12847500000.0 -12891500000.0 -12565000000.0 -12647500000.0 -12731800000.0 -12745600000.0 -12653300000.0 -12635700000.0 -12727300000.0 -12818400000.0 -12650400000.0 -12680900000.0 -12713100000.0 -12577200000.0 -12565800000.0 -12674400000.0 -12558900000.0 -12568400000.0 -12565300000.0 -12581000000.0 -12589900000.0 -12592500000.0 -12549800000.0 -12549700000.0 -12560900000.0 -12582900000.0 -12562400000.0 -12558800000.0 -12563100000.0 -12589800000.0 -12554300000.0 -12639200000.0 -12564700000.0 -12628000000.0 -12549700000.0 -12627200000.0 -12602600000.0 -12579500000.0 -12596800000.0 -12577300000.0 -12563400000.0 -12596000000.0 -12595800000.0 -12676400000.0 -12615200000.0 -12619000000.0 -12645500000.0 -12623200000.0 -12555400000.0 -12549700000.0 -12565300000.0 -12551000000.0 -12564100000.0 -12550600000.0 -12564100000.0 -12555100000.0 -12550500000.0 -12559800000.0 -12586400000.0 -12549700000.0 -12576800000.0 -12563600000.0 -12568300000.0 -12555300000.0 -12550700000.0 -12553000000.0 -12564100000.0 -12549800000.0 -12556200000.0 -12561200000.0 -12565300000.0 -12551200000.0 -12549800000.0 -12550700000.0 -12549800000.0 -12550500000.0 -12552300000.0 -12549700000.0 -12553600000.0 -12549900000.0 -12550500000.0 -12549800000.0 -12550300000.0 -12550400000.0 -12558400000.0 -12557800000.0 -12576200000.0 -12582200000.0 -12550600000.0 -12621800000.0 -12562800000.0 -12558500000.0 -12564500000.0 -12686200000.0 -12643900000.0 -12575500000.0 -12635100000.0 -12653300000.0 -12790600000.0 -12550000000.0 -12731200000.0 -12612100000.0 -12735400000.0 -12639300000.0 -12597600000.0 -12556600000.0 -12554200000.0 -12608000000.0 -12667400000.0 -12856200000.0 -12794500000.0 -12817900000.0 -12844800000.0 -12714000000.0 -12689000000.0 -12783100000.0 -12604300000.0 -12602900000.0 -12549700000.0 -12844800000.0 -12555800000.0 -12694600000.0 -12669300000.0 -12675000000.0 -12555400000.0 -12557600000.0 -12553900000.0 -12569900000.0 -12575500000.0 -12565600000.0 -12582400000.0 -12589300000.0 -12585500000.0 -12578400000.0 -12576900000.0 -12550400000.0 -12566900000.0 -12558500000.0 -12598000000.0 -12580600000.0 -12580000000.0 -12564500000.0 -12590400000.0 -12574800000.0 -12617400000.0 -12605900000.0 -12573200000.0 -12563300000.0 -12570900000.0 -12579600000.0 -12577900000.0 -12577800000.0 -12554300000.0 -12587100000.0 -12578600000.0 -12613600000.0 -12550000000.0 -12549700000.0 -12689200000.0 -12586300000.0 -12564300000.0 -12549700000.0 -12552000000.0 -12560700000.0 -12561200000.0 -12561100000.0 -12551800000.0 -12552100000.0 -12580300000.0 -12576300000.0 -12563000000.0 -12564200000.0 -12557300000.0 -12559300000.0 -12554100000.0 -12549700000.0 -12550500000.0 -12549800000.0 -12552100000.0 -12558400000.0 -12550700000.0 -12556500000.0 -12552300000.0 -12550400000.0 -12549800000.0 -12560000000.0 -12553800000.0 -12564300000.0 -12551500000.0 -12549900000.0 -12589500000.0 -12572300000.0 -12629300000.0 -12609600000.0 -12625800000.0 -12672300000.0 -12667400000.0 -12553300000.0 -12583900000.0 -12587000000.0 -12579100000.0 -12655300000.0 -12558600000.0 -12727900000.0 -12631100000.0 -12736300000.0 -12628400000.0 -12599600000.0 -12905600000.0 -12928000000.0 -13167600000.0 -12580800000.0 -12575100000.0 -12550500000.0 -12820500000.0 -12598400000.0 -12561700000.0 -12669900000.0 -12549700000.0 -12759000000.0 -12613400000.0 -12574500000.0 -12608500000.0 -12587800000.0 -12589200000.0 -12583900000.0 -12583600000.0 -12614800000.0 -12591900000.0 -12563500000.0 -12550200000.0 -12575300000.0 -12583100000.0 -12556100000.0 -12553400000.0 -12568700000.0 -12555400000.0 -12561900000.0 -12564600000.0 -12549700000.0 -12582900000.0 -12634800000.0 -12549700000.0 -12561400000.0 -12568200000.0 -12551100000.0 -12550200000.0 -12549800000.0 -12561000000.0 -12576400000.0 -12599900000.0 -12606100000.0 -12561700000.0 -12590700000.0 -12658200000.0 -12584400000.0 -12574400000.0 -12555300000.0 -12549700000.0 -12550300000.0 -12553100000.0 -12551000000.0 -12552700000.0 -12552000000.0 -12551000000.0 -12559200000.0 -12557600000.0 -12551800000.0 -12552900000.0 -12553200000.0 -12554100000.0 -12557100000.0 -12559300000.0 -12557300000.0 -12553700000.0 -12554900000.0 -12555800000.0 -12557700000.0 -12555500000.0 -12557900000.0 -12555000000.0 -12561100000.0 -12568000000.0 -12575000000.0 -12569300000.0 -12603300000.0 -12588800000.0 -12615600000.0 -12557100000.0 -12578400000.0 -12551700000.0 -12635900000.0 -12632300000.0 -12649600000.0 -12555400000.0 -12565900000.0 -12717400000.0 -12649700000.0 -12603400000.0 -12670200000.0 -12552500000.0 -12563100000.0 -12798500000.0 -12825000000.0 -12549700000.0 -12691100000.0 -12600200000.0 -12550000000.0 -12574100000.0 -12567700000.0 -12986000000.0 -12556800000.0 -12554200000.0 -12555000000.0 -12799300000.0 -12654100000.0 -12670000000.0 -12748200000.0 -12679600000.0 -12629100000.0 -12674000000.0 -12693400000.0 -12675700000.0 -12593400000.0 -12581000000.0 -12584300000.0 -12583300000.0 -12621100000.0 -12585100000.0 -12553900000.0 -12551900000.0 -12577000000.0 -12565000000.0 -12564300000.0 -12550500000.0 -12594200000.0 -12562200000.0 -12560900000.0 -12573100000.0 -12578600000.0 -12564500000.0 -12598500000.0 -12586000000.0 -12577100000.0 -12577800000.0 -12549800000.0 -12557800000.0 -12568200000.0 -12550200000.0 -12561400000.0 -12623700000.0 -12563700000.0 -12571100000.0 -12553100000.0 -12552000000.0 -12549700000.0 -12549700000.0 -12549800000.0 -12551500000.0 -12550500000.0 -12549800000.0 -12549700000.0 -12552000000.0 -12553400000.0 -12549800000.0 -12549700000.0 -12549700000.0 -12549700000.0 -12549700000.0 -12549700000.0 -12552400000.0 -12556800000.0 -12556200000.0 -12549700000.0 -12555800000.0 -12552000000.0 -12554500000.0 -12553800000.0 -12556900000.0 -12597800000.0 -12556600000.0 -12571200000.0 -12566000000.0 -12561500000.0 -12605400000.0 -12579600000.0 -12573800000.0 -12589200000.0 -12550200000.0 -12642200000.0 -12607600000.0 -12550100000.0 -12615800000.0 -12717400000.0 -12757600000.0 -12568700000.0 -12993400000.0 -12719700000.0 -12774600000.0 -12642800000.0 -12934800000.0 -12552200000.0 -12605100000.0 -13009200000.0 -12550600000.0 -12770900000.0 -12851100000.0 -12976800000.0 -12765000000.0 -12805700000.0 -12582900000.0 -12688200000.0 -12621600000.0 -12584200000.0 -12552300000.0 -12558300000.0 -12549700000.0 -12563000000.0 -12590700000.0 -12595600000.0 -12610500000.0 -12611500000.0 -12618200000.0 -12590600000.0 -12630000000.0 -12602600000.0 -12562300000.0 -12555200000.0 -12549700000.0 -12555800000.0 -12549700000.0 -12576400000.0 -12556800000.0 -12559200000.0 -12559400000.0 -12551200000.0 -12563200000.0 -12605200000.0 -12561200000.0 -12561100000.0 -12563200000.0 -12556000000.0 -12561600000.0 -12574400000.0 -12552600000.0 -12552400000.0 -12564100000.0 -12550300000.0 -12593400000.0 -12583600000.0 -12571300000.0 -12568200000.0 -12550600000.0 -12550200000.0 -12551000000.0 -12549700000.0 -12549700000.0 -12549900000.0 -12551000000.0 -12550200000.0 -12549700000.0 -12549700000.0 -12549700000.0 -12551500000.0 -12549700000.0 -12549700000.0 -12550000000.0 -12549800000.0 -12552200000.0 -12550500000.0 -12550500000.0 -12550700000.0 -12550600000.0 -12551700000.0 -12554800000.0 -12550200000.0 -12556700000.0 -12556400000.0 -12555300000.0 -12551400000.0 -12565400000.0 -12557300000.0 -12573200000.0 -12579300000.0 -12587700000.0 -12591800000.0 -12597200000.0 -12596700000.0 -12611600000.0 -12565100000.0 -12676700000.0 -12719100000.0 -12662400000.0 -12661800000.0 -12718300000.0 -12808700000.0 -12554100000.0 -12838800000.0 -12597100000.0 -12730900000.0 -12828500000.0 -12889100000.0 -12973700000.0 -13094900000.0 -12889800000.0 -12809300000.0 -12781500000.0 -12681900000.0 -12594500000.0 -12642200000.0 -12813200000.0 -12666000000.0 -12641900000.0 -12582000000.0 -12577800000.0 -12558600000.0 -12577600000.0 -12552600000.0 -12556200000.0 -12554900000.0 -12558700000.0 -12577800000.0 -12588900000.0 -12561300000.0 -12575100000.0 -12559200000.0 -12564100000.0 -12558000000.0 -12554400000.0 -12569300000.0 -12549700000.0 -12550100000.0 -12556400000.0 -12551200000.0 -12582100000.0 -12551500000.0 -12550400000.0 -12561500000.0 -12549700000.0 -12552100000.0 -12582500000.0 -12576200000.0 -12589600000.0 -12596000000.0 -12575400000.0 -12556000000.0 -12561100000.0 -12550600000.0 -12549900000.0 -12549700000.0 -12550100000.0 -12549700000.0 -12549700000.0 -12549700000.0 -12550100000.0 -12549800000.0 -12549700000.0 -12549700000.0 -12549700000.0 -12550300000.0 -12549700000.0 -12549700000.0 -12549700000.0 -12549700000.0 -12549800000.0 -12551300000.0 -12550800000.0 -12550800000.0 -12549900000.0 -12550100000.0 -12551800000.0 -12550400000.0 -12551100000.0 -12554300000.0 -12552600000.0 -12551300000.0 -12556200000.0 -12551000000.0 -12553500000.0 -12557100000.0 -12562400000.0 -12564500000.0 -12554500000.0 -12564800000.0 -12593600000.0 -12635200000.0 -12696000000.0 -12728100000.0 -12589200000.0 -12619900000.0 -12672600000.0 -12782800000.0 -12657800000.0 -12700600000.0 -12832400000.0 -12569800000.0 -12620000000.0 -12621000000.0 -12601500000.0 -12813100000.0 -12555800000.0 -12578900000.0 -12566200000.0 -12575900000.0 -12575900000.0 -12552300000.0 -12550400000.0 -12550100000.0 -12550700000.0 -12552500000.0 -12552700000.0 -12552400000.0 -12550500000.0 -12564100000.0 -12560400000.0 -12549700000.0 -12552600000.0 -12552000000.0 -12552100000.0 -12555500000.0 -12555200000.0 -12554700000.0 -12559400000.0 -12549700000.0 -12561800000.0 -12559200000.0 -12550700000.0 -12553400000.0 -12551000000.0 -12554600000.0 -12551800000.0 -12551000000.0 -12555000000.0 -12551300000.0 -12550600000.0 -12568900000.0 -12567900000.0 -12558900000.0 -12585500000.0 -12588300000.0 -12579000000.0 -12601300000.0 -12619700000.0 -12718000000.0 -12685000000.0 -12740000000.0 -12675000000.0 -12634200000.0 -12673400000.0 -12892300000.0 -12549900000.0 -12658100000.0 -12660700000.0 -12790800000.0 -12650000000.0 -12598600000.0 -12620100000.0 -12607600000.0 -12746700000.0 -12551700000.0 -12584500000.0 -12563600000.0 -12625600000.0 -12664700000.0 -12577500000.0 -12589300000.0 -12557300000.0 -12851400000.0 -12669500000.0 -12681300000.0 -12549700000.0 -12636400000.0 -12591000000.0 -12568000000.0 -13037100000.0 -12731100000.0 -12808100000.0 -12726300000.0 -12623400000.0 -12604100000.0 -12771500000.0 -12731300000.0 -12567000000.0 -12591400000.0 -12605000000.0 -12604200000.0 -12603300000.0 -12725100000.0 -12660600000.0 -12565300000.0 -12712200000.0 -12801000000.0 -12972500000.0 -12641700000.0 -12722800000.0 -12641100000.0 -12598600000.0 -12613700000.0 -12549700000.0 -12610100000.0 -12556100000.0 -12556700000.0 -12561100000.0 -12549700000.0 -12590600000.0 -12577000000.0 -12611900000.0 -12600000000.0 -12719200000.0 -12691100000.0 -12550500000.0 -12657300000.0 -12562300000.0 -12563600000.0 -12566900000.0 -12934000000.0 -12609700000.0 -12549700000.0 -12571200000.0 -12549700000.0 -12575900000.0 -12603900000.0 -12650800000.0 -12716100000.0 -12567100000.0 -12557000000.0 -12557800000.0 -12549700000.0 -12559200000.0 -12617200000.0 -12599100000.0 -12698800000.0 -12633100000.0 -12578400000.0 -12677900000.0 -12621100000.0 -12623400000.0 -12934500000.0 -12567500000.0 -12598800000.0 -12715100000.0 -12587400000.0 -12651700000.0 -12571600000.0 -12556000000.0 -12549700000.0 -12549700000.0 -12549700000.0 -12549700000.0 -12549700000.0 -12549700000.0 -12556300000.0 -12598100000.0 -12572300000.0 -12586900000.0 -12567300000.0 -12600800000.0 -12582500000.0 -12630700000.0 -12638100000.0 -12580300000.0 -12580700000.0 -12573600000.0 -12589000000.0 -12663400000.0 -12589300000.0 -12692500000.0 -12601400000.0 -12559200000.0 -12554000000.0 -12549700000.0 -12549700000.0 -12549700000.0 -12549700000.0 -12549700000.0 -12549700000.0 -12549700000.0 -12549700000.0 -12549700000.0 -12549700000.0 -12549700000.0 -12549700000.0 -12549700000.0 -12549700000.0 -12549700000.0 -12549700000.0 -12549700000.0 -12549700000.0 -12549700000.0 -12549700000.0 -12549700000.0 -12549700000.0 -12549700000.0 -12549700000.0 -12549700000.0 -12549700000.0 -12549700000.0 -12549700000.0 -12549700000.0 -12549700000.0 -12549700000.0 -12549700000.0 -12549700000.0 -12549700000.0 -12549700000.0 -12549700000.0 -12549700000.0 -12549700000.0 -12553000000.0 -12590100000.0 -12564200000.0 -12551000000.0 -12562800000.0 -12611500000.0 -12708100000.0 -12647200000.0 -12633500000.0 -12940100000.0 -12558500000.0 -12577800000.0 -12555000000.0 -12554200000.0 -12681900000.0 -12698700000.0 -12622200000.0 -12553000000.0 -12584900000.0 -12550300000.0 -12578000000.0 -12602300000.0 -12557500000.0 -12550600000.0 -12549700000.0 -12549700000.0 -12549700000.0 -12549700000.0 -12549700000.0 -12549700000.0 -12549700000.0 -12549700000.0 -12549700000.0 -12549700000.0 -12549700000.0 -12549700000.0 -12549700000.0 -12549700000.0 -12549700000.0 -12549700000.0 -12549700000.0 -12549700000.0 -12549700000.0 -12549700000.0 -12549700000.0 -12549700000.0 -12549700000.0 -12549700000.0 -12549700000.0 -12549700000.0 -12582700000.0 -12559100000.0 -12563900000.0 -12568600000.0 -12597500000.0 -12634100000.0 -12687200000.0 -12600300000.0 -12568600000.0 -12606700000.0 -12586100000.0 -12640300000.0 -12793300000.0 -12587700000.0 -12599900000.0 -12648500000.0 -12640800000.0 -12550000000.0 -12558600000.0 -12602400000.0 -12550900000.0 -12552600000.0 -12555100000.0 -12552400000.0 -12550600000.0 -12549700000.0 -12549700000.0 -12549700000.0 -12549700000.0 -12549700000.0 -12549700000.0 -12549700000.0 -12549700000.0 -12549700000.0 -12549700000.0 -12549700000.0 -12549700000.0 -12549700000.0 -12549700000.0 -12549700000.0 -12549700000.0 -12549700000.0 -12549700000.0 -12549700000.0 -12549700000.0 -12549700000.0 -12549700000.0 -12549700000.0 -12549700000.0 -12549700000.0 -12549700000.0 -12549700000.0 -12549700000.0 -12549700000.0 -12549700000.0 -12549700000.0 -12549700000.0 -12549700000.0 -12549700000.0 -12549700000.0 -12549700000.0 -12549700000.0 -12549700000.0 -12549700000.0 -12549700000.0 -12549700000.0 -12549700000.0 -12549700000.0 -12549700000.0 -12550200000.0 -12552500000.0 -12554000000.0 -12556400000.0 -12592200000.0 -12570900000.0 -12596600000.0 -12621800000.0 -12583200000.0 -12617900000.0 -12600000000.0 -12619000000.0 -12611400000.0 -12804200000.0 -12658200000.0 -12744800000.0 -12716000000.0 -12682900000.0 -12668500000.0 -12557800000.0 -12554500000.0 -12584800000.0 -12588100000.0 -12557800000.0 -12549900000.0 -12550100000.0 -12549800000.0 -12549700000.0 -12549700000.0 -12549700000.0 -12549700000.0 -12549700000.0 -12549700000.0 -12549700000.0 -12549700000.0 -12549700000.0 -12549700000.0 -12549700000.0 -12549700000.0 -12549700000.0 -12549700000.0 -12549700000.0 -12549700000.0 -12549700000.0 -12549700000.0 -12549700000.0 -12549700000.0 -12549700000.0 -12549700000.0 -12549700000.0 -12549700000.0 -12549700000.0 -12549700000.0 -12549700000.0 -12549700000.0 -12549700000.0 -12549700000.0 -12549700000.0 -12549700000.0 -12549700000.0 -12549700000.0 -12549700000.0 -12549700000.0 -12549700000.0 -12549700000.0 -12549700000.0 -12549700000.0 -12549700000.0 -12549700000.0 -12549700000.0 -12549700000.0 -12549700000.0 -12549800000.0 -12550700000.0 -12569500000.0 -12555900000.0 -12590600000.0 -12585000000.0 -12597000000.0 -12549800000.0 -12575200000.0 -12686200000.0 -12596100000.0 -12704400000.0 -12549700000.0 -12620300000.0 -12732600000.0 -12586300000.0 -12573800000.0 -12566100000.0 -12555900000.0 -12550400000.0 -12549900000.0 -12549700000.0 -12549700000.0 -12549700000.0 -12549700000.0 -12549700000.0 -12549700000.0 -12549700000.0 -12549700000.0 -12549700000.0 -12549700000.0 -12549700000.0 -12549700000.0 -12549700000.0 -12549700000.0 -12549700000.0 -12549700000.0 -12549700000.0 -12549700000.0 -12549700000.0 -12549700000.0 -12549700000.0 -12549700000.0 -12549700000.0 -12549700000.0 -12549700000.0 -12549700000.0 -12549700000.0 -12549700000.0 -12549700000.0 -12549700000.0 -12549700000.0 -12549700000.0 -12549700000.0 -12549700000.0 -12549700000.0 -12549700000.0 -12549700000.0 -12549700000.0 -12549700000.0 -12549700000.0 -12549700000.0 -12549700000.0 -12549700000.0 -12549700000.0 -12549800000.0 -12550700000.0 -12551100000.0 -12555600000.0 -12561500000.0 -12558600000.0 -12563600000.0 -12554600000.0 -12623800000.0 -12611000000.0 -12589000000.0 -12578700000.0 -12636700000.0 -12639200000.0 -12578500000.0 -12574300000.0 -12668200000.0 -12551400000.0 -12646000000.0 -12639600000.0 -12595000000.0 -12564600000.0 -12550300000.0 -12551400000.0 -12549700000.0 -12549800000.0 -12549700000.0 -12549700000.0 -12549700000.0 -12549700000.0 -12549700000.0 -12549700000.0 -12549700000.0 -12549700000.0 -12549700000.0 -12549700000.0 -12549700000.0 -12549700000.0 -12549700000.0 -12549700000.0 -12549700000.0 -12549700000.0 -12549700000.0 -12549700000.0 -12549700000.0 -12549700000.0 -12549700000.0 -12549700000.0 -12549700000.0 -12549700000.0 -12549700000.0 -12549700000.0 -12549700000.0 -12549700000.0 -12549700000.0 -12549700000.0 -12549700000.0 -12549700000.0 -12549700000.0 -12549700000.0 -12549700000.0 -12549700000.0 -12549700000.0 -12549700000.0 -12549700000.0 -12549700000.0 -12549700000.0 -12549700000.0 -12549700000.0 -12549700000.0 -12549700000.0 -12549700000.0 -12549700000.0 -12549700000.0 -12549700000.0 -12549700000.0 -12549700000.0 -12549700000.0 -12549700000.0 -12552100000.0 -12564900000.0 -12574900000.0 -12551700000.0 -12601700000.0 -12549700000.0 -12563000000.0 -12588300000.0 -12628400000.0 -12601400000.0 -12561700000.0 -12558300000.0 -12643400000.0 -12557000000.0 -12602700000.0 -12621300000.0 -12594500000.0 -12553700000.0 -12635300000.0 -12592400000.0 -12559400000.0 -12551600000.0 -12551300000.0 -12553700000.0 -12550000000.0 -12549700000.0 -12549700000.0 -12549700000.0 -12549700000.0 -12549700000.0 -12549700000.0 -12549700000.0 -12549700000.0 -12549700000.0 -12549700000.0 -12549700000.0 -12549700000.0 -12549700000.0 -12549700000.0 -12549700000.0 -12549700000.0 -12549700000.0 -12549700000.0 -12549700000.0 -12549700000.0 -12549700000.0 -12549700000.0 -12549700000.0 -12549700000.0 -12549700000.0 -12549700000.0 -12549700000.0 -12549700000.0 -12549700000.0 -12549700000.0 -12549700000.0 -12549700000.0 -12549700000.0 -12549700000.0 -12549700000.0 -12549700000.0 -12549700000.0 -12549700000.0 -12549700000.0 -12549700000.0 -12551100000.0 -12600500000.0 -12553200000.0 -12552700000.0 -12557100000.0 -12556900000.0 -12581500000.0 -12567700000.0 -12561100000.0 -12551000000.0 -12550200000.0 -12589000000.0 -12557000000.0 -12555100000.0 -12549700000.0 -12648300000.0 -12614100000.0 -12549700000.0 -12551500000.0 -12595500000.0 -12560900000.0 -12555700000.0 -12549700000.0 -12549700000.0 -12549700000.0 -12549700000.0 -12549700000.0 -12549700000.0 -12549700000.0 -12549700000.0 -12549700000.0 -12549700000.0 -12549700000.0 -12549700000.0 -12549700000.0 -12549700000.0 -12549700000.0 -12549700000.0 -12549700000.0 -12549700000.0 -12549700000.0 -12549700000.0 -12549700000.0 -12549700000.0 -12549700000.0 -12549700000.0 -12549700000.0 -12549700000.0 -12549700000.0 -12549700000.0 -12549700000.0 -12549700000.0 -12549700000.0 -12549700000.0 -12549700000.0 -12549700000.0 -12549700000.0 -12549700000.0 -12549700000.0 -12549700000.0 -12549700000.0 -12549700000.0 -12549700000.0 -12549700000.0 -12549700000.0 -12551900000.0 -12568700000.0 -12583400000.0 -12553600000.0 -12555500000.0 -12555400000.0 -12549800000.0 -12558000000.0 -12568800000.0 -12551100000.0 -12552500000.0 -12550300000.0 -12616300000.0 -12550500000.0 -12630600000.0 -12549700000.0 -12575800000.0 -12553700000.0 -12549700000.0 -12549700000.0 -12549700000.0 -12549700000.0 -12549700000.0 -12549700000.0 -12549700000.0 -12549700000.0 -12549700000.0 -12549700000.0 -12549700000.0 -12549700000.0 -12549700000.0 -12549700000.0 -12549700000.0 -12549700000.0 -12549700000.0 -12549700000.0 -12549700000.0 -12549700000.0 -12549700000.0 -12549700000.0 -12549700000.0 -12549700000.0 -12549700000.0 -12549700000.0 -12549700000.0 -12549700000.0 -12549700000.0 -12549700000.0 -12549700000.0 -12549700000.0 -12549700000.0 -12549700000.0 -12549700000.0 -12549700000.0 -12549700000.0 -12549700000.0 -12553300000.0 -12557400000.0 -12572000000.0 -12556900000.0 -12554500000.0 -12556800000.0 -12559300000.0 -12570700000.0 -12568300000.0 -12632600000.0 -12556500000.0 -12622700000.0 -12573300000.0 -12561400000.0 -12575200000.0 -12552700000.0 -12554400000.0 -12549700000.0 -12549700000.0 -12549700000.0 -12549700000.0 -12549700000.0 -12549700000.0 -12549700000.0 -12549700000.0 -12549700000.0 -12549700000.0 -12549700000.0 -12549700000.0 -12549700000.0 -12549700000.0 -12549700000.0 -12549700000.0 -12549700000.0 -12549700000.0 -12549700000.0 -12549700000.0 -12549700000.0 -12549700000.0 -12549700000.0 -12549700000.0 -12549700000.0 -12549700000.0 -12549700000.0 -12549700000.0 -12549700000.0 -12549700000.0 -12549700000.0 -12549700000.0 -12549700000.0 -12549700000.0 -12549700000.0 -12549700000.0 -12549700000.0 -12549700000.0 -12549700000.0 -12549700000.0 -12549700000.0 -12549700000.0 -12549700000.0 -12549700000.0 -12549700000.0 -12549900000.0 -12561800000.0 -12556500000.0 -12551100000.0 -12554900000.0 -12554400000.0 -12557600000.0 -12567600000.0 -12565300000.0 -12586500000.0 -12574000000.0 -12601000000.0 -12574400000.0 -12549700000.0 -12578400000.0 -12578700000.0 -12553500000.0 -12567500000.0 -12559500000.0 -12551700000.0 -12549800000.0 -12550300000.0 -12549700000.0 -12549700000.0 -12549700000.0 -12549700000.0 -12549700000.0 -12549700000.0 -12549700000.0 -12549700000.0 -12549700000.0 -12549700000.0 -12549700000.0 -12549700000.0 -12549700000.0 -12549700000.0 -12549700000.0 -12549700000.0 -12549700000.0 -12549700000.0 -12549700000.0 -12549700000.0 -12549700000.0 -12549700000.0 -12549700000.0 -12549700000.0 -12549700000.0 -12549700000.0 -12549700000.0 -12549700000.0 -12549700000.0 -12549700000.0 -12550300000.0 -12549700000.0 -12555600000.0 -12559600000.0 -12550600000.0 -12558800000.0 -12549900000.0 -12554400000.0 -12559900000.0 -12577200000.0 -12563600000.0 -12560700000.0 -12557800000.0 -12564300000.0 -12550900000.0 -12581600000.0 -12557900000.0 -12584200000.0 -12584700000.0 -12555900000.0 -12572600000.0 -12565600000.0 -12559000000.0 -12560700000.0 -12557100000.0 -12550500000.0 -12549700000.0 -12549700000.0 -12549700000.0 -12549700000.0 -12549700000.0 -12549700000.0 -12549700000.0 -12549700000.0 -12549700000.0 -12549700000.0 -12549700000.0 -12549700000.0 -12549700000.0 -12549700000.0 -12549700000.0 -12549700000.0 -12549700000.0 -12549700000.0 -12549700000.0 -12549700000.0 -12549700000.0 -12549700000.0 -12558900000.0 -12560100000.0 -12551000000.0 -12560600000.0 -12561700000.0 -12565500000.0 -12575100000.0 -12564800000.0 -12549900000.0 -12568100000.0 -12572600000.0 -12551500000.0 -12575000000.0 -12575600000.0 -12585000000.0 -12551300000.0 -12562800000.0 -12549900000.0 -12554600000.0 -12549700000.0 -12555100000.0 -12553900000.0 -12552700000.0 -12549700000.0 -12549700000.0 -12549700000.0 -12549700000.0 -12549700000.0 -12549700000.0 -12549700000.0 -12549700000.0 -12549700000.0 -12549700000.0 -12549700000.0 -12549700000.0 -12549700000.0 -12549700000.0 -12549700000.0 -12549700000.0 -12549700000.0 -12549700000.0 -12549700000.0 -12549700000.0 -12549700000.0 -12549700000.0 -12549700000.0 -12549700000.0 -12554900000.0 -12552300000.0 -12552500000.0 -12551400000.0 -12553300000.0 -12560600000.0 -12559500000.0 -12567400000.0 -12562000000.0 -12551100000.0 -12549700000.0 -12574800000.0 -12560000000.0 -12558800000.0 -12549700000.0 -12549700000.0 -12552500000.0 -12551200000.0 -12550600000.0 -12549700000.0 -12549700000.0 -12549700000.0 -12549700000.0 -12549700000.0 -12549700000.0 -12549700000.0 -12549700000.0 -12549700000.0 -12549700000.0 -12549700000.0 -12549700000.0 -12549700000.0 -12549700000.0 -12550400000.0 -12552800000.0 -12553300000.0 -12551600000.0 -12552600000.0 -12552500000.0 -12553100000.0 -12558500000.0 -12551500000.0 -12552900000.0 -12551000000.0 -12550100000.0 -12550900000.0 -12567500000.0 -12549700000.0 -12558500000.0 -12553400000.0 -12550200000.0 -12549700000.0 -12549700000.0 -12549700000.0 -12549700000.0 -12549700000.0 -12549700000.0 -12549700000.0 -12549700000.0 -12549700000.0 -12549700000.0 -12549700000.0 -12549700000.0 -12549700000.0 -12549700000.0 -12549700000.0 -12549800000.0 -12550000000.0 -12550600000.0 -12553100000.0 -12549800000.0 -12550200000.0 -12549900000.0 -12550700000.0 -12554100000.0 -12550100000.0 -12551600000.0 -12554000000.0 -12553000000.0 -12549700000.0 -12554600000.0 -12553200000.0 -12554500000.0 -12557200000.0 -12557500000.0 -12559000000.0 -12549700000.0 -12550800000.0 -12550100000.0 -12549700000.0 -12549700000.0 -12549700000.0 -12549700000.0 -12549700000.0 -12549700000.0 -12549700000.0 -12549700000.0 -12549700000.0 -12549700000.0 -12549700000.0 -12549700000.0 -12551600000.0 -12549700000.0 -12549700000.0 -12549700000.0 -12549800000.0 -12552400000.0 -12550300000.0 -12549700000.0 -12553200000.0 -12551700000.0 -12551600000.0 -12550700000.0 -12551900000.0 -12549700000.0 -12550000000.0 -12555500000.0 -12549700000.0 -12549700000.0 -12549700000.0 -12549700000.0 -12549700000.0 -12549700000.0 -12549700000.0 -12549700000.0 -12549700000.0 -12549700000.0 -12550400000.0 -12550200000.0 -12549900000.0 -12549800000.0 -12549700000.0 -12551200000.0 -12549700000.0 -12549900000.0 -12552700000.0 -12551300000.0 -12549700000.0 -12549700000.0 -12550800000.0 -12549700000.0 -12550100000.0 -12549700000.0 -12549900000.0 -12549800000.0 -12553500000.0 -12550700000.0 -12549700000.0 -12549700000.0 -12549700000.0 -12549700000.0 -12549700000.0 -12549700000.0 -12549700000.0 -12549700000.0 -12549800000.0 -12549700000.0 -12549900000.0 -12549900000.0 -12549900000.0 -12550000000.0 -12550900000.0 -12550600000.0 -12551200000.0 -12549700000.0 -12549800000.0 -12549900000.0 -12549800000.0 -12549800000.0 -12549700000.0 -12549700000.0 -12549700000.0 -12550300000.0 -12549800000.0 -12549700000.0 -12549700000.0 -12549700000.0 -12549700000.0 -12549700000.0 -12549700000.0 -12549700000.0 -12549700000.0 -12549700000.0 -12549700000.0 -12549700000.0 -12549700000.0 -12549700000.0 -12549700000.0 -12549700000.0 -12549800000.0 -12549700000.0 -12549700000.0 -12549700000.0 -12549700000.0 -12549700000.0 -12549700000.0 -12549700000.0 -12549700000.0 -12549700000.0 -12549700000.0 -12549700000.0 -12549700000.0 -12549700000.0 -12549700000.0 -12549700000.0 -12549700000.0 -12549700000.0 -12549700000.0 -12549700000.0 -12549700000.0 -12549700000.0 -2.66721e+12 -4.12051e+12 -3.67634e+12 -4.85575e+12 -4.04119e+12 -4.10352e+12 -3.92389e+12 -3.7782e+12 -3.53891e+12 -3.18892e+12 -5.79449e+12 -3.00196e+12 -3.50294e+12 -5.10605e+12 -4.78284e+12 -6.33741e+12 -4.40339e+12 -3.20081e+12 -3.93442e+12 -3.0261e+12 -4.30225e+12 -5.18913e+12 -5.40585e+12 -4.94631e+12 -4.91307e+12 -3.71531e+12 -3.64015e+12 -3.92395e+12 -4.41e+12 -4.04216e+12 -5.43843e+12 -5.24278e+12 -3.42735e+12 -2.6267e+12 -2.98972e+12 -3.79297e+12 -4.64518e+12 -6.27175e+12 -3.59862e+12 -4.53424e+12 -4.62748e+12 -3.83536e+12 -3.6149e+12 -3.1562e+12 -3.80265e+12 -3.62818e+12 -2.34775e+12 -2.69974e+12 -3.72705e+12 -2.78322e+12 -2.11693e+12 -1.79805e+12 -3.47281e+12 -4.82888e+12 -5.39804e+12 -4.03298e+12 -6.67521e+12 -4.48175e+12 -3.01471e+12 -4.72672e+12 -4.50237e+12 -4.23917e+12 -3.93532e+12 -5.93436e+12 -6.56586e+12 -5.34006e+12 -3.74883e+12 -5.32883e+12 -7.39227e+12 -4.57354e+12 -5.02726e+12 -5.73954e+12 -4.64579e+12 -4.45679e+12 -6.68457e+12 -6.00779e+12 -2.58188e+12 -4.09656e+12 -3.84935e+12 -3.78917e+12 -4.67136e+12 -4.06121e+12 -3.9415e+12 -5.22609e+12 -4.63995e+12 -3.89649e+12 -4.43909e+12 -4.57187e+12 -2.70772e+12 -5.22872e+12 -4.18528e+12 -5.78393e+12 -6.51007e+12 -6.15695e+12 -5.7716e+12 -5.17029e+12 -4.7033e+12 -6.5074e+12 -4.149e+12 -4.71028e+12 -6.27178e+12 -4.00651e+12 -4.8951e+12 -2.84834e+12 -2.59764e+12 -6.62087e+12 -5.44356e+12 -8.60547e+12 -6.1485e+12 -6.10456e+12 -7.73163e+12 -1.11409e+13 -5.47963e+12 -7.25865e+12 -4.07473e+12 -5.71664e+12 -4.73093e+12 -7.20257e+12 -7.03511e+12 -1.86863e+12 -5.19979e+12 -6.89297e+12 -4.2802e+12 -4.76656e+12 -6.09227e+12 -2.51547e+12 -5.82603e+12 -5.47127e+12 -6.83243e+12 -7.16523e+12 -1.11858e+13 -5.34717e+12 -6.2221e+12 -6.34001e+12 -5.45101e+12 -9.0736e+12 -7.69314e+12 -8.75471e+12 -5.61407e+12 -5.77327e+12 -8.90901e+12 -9.28682e+12 -8.0374e+12 -5.47167e+12 -5.22538e+12 -7.45324e+12 -6.32113e+12 -7.70166e+12 -7.09159e+12 -6.62898e+12 -6.98887e+12 -4.73446e+12 -8.27081e+12 -7.48458e+12 -1.08707e+13 -2.77261e+12 -3.95916e+12 -3.16673e+12 -5.00843e+12 -7.74367e+12 -8.23358e+12 -6.03852e+12 -4.82708e+12 -5.29813e+12 -6.86135e+12 -6.5625e+12 -2.89313e+12 -4.34274e+12 -4.12662e+12 -4.94421e+12 -4.69648e+12 -5.84794e+12 -5.0663e+12 -6.46315e+12 -9.19035e+12 -5.00189e+12 -4.08581e+12 -6.07539e+12 -3.85312e+12 -7.12036e+12 -6.39716e+12 -7.21199e+12 -3.71838e+12 -4.7752e+12 -4.94532e+12 -3.70914e+12 -2.42904e+12 -5.42151e+12 -4.31054e+12 -8.69398e+12 -8.11844e+12 -2.28645e+12 -5.25252e+12 -1.01825e+13 -3.26856e+12 -4.9901e+12 -3.96829e+12 -2.36832e+12 -7.16628e+12 -5.20117e+12 -7.55635e+12 -4.30368e+12 -4.24361e+12 -6.287e+12 -6.16522e+12 -1.06672e+13 -6.56644e+12 -1.03288e+13 -7.26191e+12 -5.23918e+12 -9.01103e+12 -7.82064e+12 -5.34336e+12 -6.57115e+12 -7.66384e+12 -7.36391e+12 -4.62611e+12 -6.7452e+12 -8.82773e+12 -1.03475e+13 -5.12745e+12 -7.6664e+12 -7.81451e+12 -4.62253e+12 -5.6705e+12 -4.94331e+12 -8.3607e+12 -6.42984e+12 -6.83359e+12 -8.40336e+12 -6.82333e+12 -6.27829e+12 -7.10091e+12 -6.2235e+12 -5.61961e+12 -5.49175e+12 -1.4862e+12 -2.92785e+12 -4.97997e+12 -4.30672e+12 -5.56975e+12 -6.44048e+12 -8.51884e+12 -6.92102e+12 -1.02184e+13 -5.62682e+12 -4.92545e+12 -6.38009e+12 -7.26721e+12 -3.8325e+12 -6.44204e+12 -8.29556e+12 -7.11624e+12 -4.96193e+12 -6.02427e+12 -8.03053e+12 -6.43948e+12 -5.91816e+12 -9.8585e+12 -5.40759e+12 -7.21917e+12 -6.97061e+12 -8.22117e+12 -8.12717e+12 -4.10905e+12 -5.4827e+12 -4.70639e+12 -6.52448e+12 -7.27581e+12 -6.95841e+12 -5.09085e+12 -7.79984e+12 -6.07468e+12 -5.41473e+12 -5.11461e+12 -7.43904e+12 -9.08913e+12 -4.724e+12 -6.3902e+12 -1.74903e+12 -3.557e+12 -4.62907e+12 -6.71594e+12 -6.8719e+12 -4.23115e+12 -5.92604e+12 -2.25268e+12 -5.59413e+12 -7.26932e+12 -5.65319e+12 -5.96144e+12 -4.9684e+12 -5.73103e+12 -6.96315e+12 -6.60707e+12 -6.69936e+12 -6.89041e+12 -5.00346e+12 -8.63661e+12 -7.61897e+12 -6.15754e+12 -5.74931e+12 -5.40801e+12 -8.39951e+12 -6.5238e+12 -4.95756e+12 -7.61633e+12 -6.52931e+12 -6.47746e+12 -8.38084e+12 -5.83065e+12 -3.93429e+12 -9.97793e+12 -9.07398e+12 -6.04092e+12 -4.79481e+12 -9.58927e+12 -4.16243e+12 -7.48509e+12 -5.4078e+12 -5.39548e+12 -6.24995e+12 -7.165e+12 -3.91623e+12 -1.06628e+13 -8.06309e+12 -4.50977e+12 -7.39433e+12 -3.9899e+12 -4.93348e+12 -7.10419e+12 -4.99426e+12 -4.77237e+12 -4.07218e+12 -5.12903e+12 -3.11145e+12 -4.79897e+12 -4.54891e+12 -4.42496e+12 -6.18169e+12 -6.56234e+12 -1.09611e+13 -8.10457e+12 -9.41168e+12 -6.79604e+12 -2.96934e+12 -6.74225e+12 -5.7944e+12 -2.65801e+12 -4.45903e+12 -3.84464e+12 -5.89991e+12 -4.26859e+12 -3.83504e+12 -7.53796e+12 -5.64325e+12 -5.48908e+12 -4.05955e+12 -5.78202e+12 -1.03783e+13 -6.62663e+12 -6.10848e+12 -3.86361e+12 -9.34984e+12 -9.62555e+12 -7.63375e+12 -3.75006e+12 -7.96655e+12 -4.60614e+12 -6.12258e+12 -4.86345e+12 -6.40833e+12 -6.14396e+12 -5.10923e+12 -6.51889e+12 -6.52473e+12 -6.09953e+12 -4.45587e+12 -7.29311e+12 -8.10543e+12 -4.96536e+12 -5.83641e+12 -8.3411e+12 -3.92198e+12 -3.7858e+12 -3.68245e+12 -5.73863e+12 -5.94986e+12 -4.04271e+12 -5.90803e+12 -3.87825e+12 -5.2746e+12 -5.0185e+12 -6.04083e+12 -7.57542e+12 -9.01941e+12 -4.62185e+12 -4.13159e+12 -3.07049e+12 -2.14297e+12 -6.59959e+12 -4.42167e+12 -8.96191e+12 -7.35432e+12 -6.20635e+12 -6.90229e+12 -1.01521e+13 -5.10706e+12 -3.77682e+12 -4.60158e+12 -5.91637e+12 -4.81825e+12 -4.98476e+12 -6.3041e+12 -4.8386e+12 -6.14539e+12 -4.95197e+12 -4.98697e+12 -4.16211e+12 -5.21162e+12 -4.13831e+12 -4.67431e+12 -4.1703e+12 -7.32663e+12 -7.36275e+12 -8.21767e+12 -7.21432e+12 -4.05546e+12 -4.85317e+12 -4.32636e+12 -3.5558e+12 -2.31673e+12 -6.1592e+12 -4.4753e+12 -4.45727e+12 -5.19335e+12 -8.07335e+12 -6.64873e+12 -7.40884e+12 -6.04882e+12 -4.24325e+12 -5.42703e+12 -5.4442e+12 -3.28144e+12 -5.95234e+12 -3.87116e+12 -5.66598e+12 -7.63246e+12 -5.33493e+12 -4.59306e+12 -6.09604e+12 -6.24145e+12 -6.16058e+12 -6.84183e+12 -5.58299e+12 -3.63455e+12 -4.06447e+12 -5.1663e+12 -3.21724e+12 -4.56646e+12 -5.91537e+12 -4.43146e+12 -5.27954e+12 -3.83637e+12 -7.94315e+12 -4.78892e+12 -7.82443e+12 -5.31931e+12 -4.45053e+12 -5.88599e+12 -4.33184e+12 -5.98199e+12 -7.34487e+12 -5.74074e+12 -4.24148e+12 -8.2782e+12 -4.34437e+12 -8.62653e+12 -3.44557e+12 -3.52927e+12 -3.0106e+12 -2.93402e+12 -2.30532e+12 -3.76421e+12 -3.78465e+12 -8.54031e+12 -2.91843e+12 -3.62416e+12 -3.02626e+12 -5.13089e+12 -5.44821e+12 -5.53986e+12 -4.68024e+12 -2.56797e+12 -5.01179e+12 -7.54461e+12 -6.80039e+12 -7.68113e+12 -6.34189e+12 -6.79668e+12 -3.56756e+12 -4.02947e+12 -5.74243e+12 -6.27005e+12 -6.02791e+12 -7.57132e+12 -4.39867e+12 -5.87831e+12 -5.52262e+12 -5.77285e+12 -3.29626e+12 -3.58673e+12 -4.26598e+12 -5.5128e+12 -5.30635e+12 -3.53376e+12 -4.41609e+12 -4.32722e+12 -7.3535e+12 -3.17908e+12 -4.0506e+12 -2.80279e+12 -7.11928e+12 -4.35867e+12 -5.71849e+12 -3.77914e+12 -4.22479e+12 -4.94525e+12 -2.97455e+12 -4.44152e+12 -1.00821e+13 -4.38084e+12 -6.67426e+12 -7.97688e+12 -4.16118e+12 -4.49795e+12 -648733000000.0 -5.97135e+12 -4.12587e+12 -9.69429e+12 -4.2162e+12 -5.00768e+12 -5.29616e+12 -4.94201e+12 -4.18673e+12 -3.77937e+12 -4.59908e+12 -2.95317e+12 -4.88368e+12 -4.2062e+12 -7.00571e+12 -6.11462e+12 -4.69268e+12 -2.74215e+12 -6.76286e+12 -6.66159e+12 -4.10707e+12 -8.11561e+12 -6.05271e+12 -5.17737e+12 -7.5294e+12 -7.50738e+12 -4.17679e+12 -7.21456e+12 -2.81102e+12 -6.05033e+12 -6.76702e+12 -5.83183e+12 -3.4255e+12 -3.76815e+12 -6.7729e+12 -5.17626e+12 -7.6118e+12 -7.27461e+12 -6.03645e+12 -7.58849e+12 -3.12349e+12 -4.41394e+12 -4.94912e+12 -3.52009e+12 -4.67845e+12 -5.41932e+12 -5.60888e+12 -2.19722e+12 -2.3076e+12 -2.87562e+12 -2.03266e+12 -5.04127e+12 -7.25664e+12 -4.44264e+12 -3.72672e+12 -3.67865e+12 -3.76317e+12 -2.80681e+12 -7.37003e+12 -4.66034e+12 -4.07628e+12 -3.91915e+12 -5.26668e+12 -6.42583e+12 -5.43212e+12 -3.05269e+12 -3.97396e+12 -3.68586e+12 -4.4496e+12 -3.74456e+12 -5.34132e+12 -4.94384e+12 -5.39166e+12 -3.19761e+12 -3.42139e+12 -6.28051e+12 -4.99952e+12 -4.25863e+12 -5.1422e+12 -3.36545e+12 -1.98486e+12 -3.65745e+12 -4.60105e+12 -5.65928e+12 -5.91722e+12 -7.27491e+12 -2.59671e+12 -2.90454e+12 -4.46316e+12 -3.43648e+12 -4.40891e+12 -5.87987e+12 -2.22165e+12 -6.08449e+12 -4.4951e+12 -4.97798e+12 -6.166e+12 -5.2786e+12 -4.46311e+12 -3.26208e+12 -2.75396e+12 -5.24667e+12 -3.61602e+12 -6.36764e+12 -7.63748e+12 -5.66674e+12 -5.67987e+12 -3.25006e+12 -6.8317e+12 -5.47761e+12 -2.00976e+12 -5.80307e+12 -2.45773e+12 -6.2808e+12 -6.16087e+12 -4.36643e+12 -5.75824e+12 -3.91702e+12 -4.66961e+12 -6.11958e+12 -5.43956e+12 -5.82821e+12 -6.00595e+12 -5.8129e+12 -5.68941e+12 -6.17041e+12 -5.20025e+12 -2.50942e+12 -6.3281e+12 -5.29432e+12 -1.67937e+12 -4.73949e+12 -3.58115e+12 -1.44138e+12 -4.80281e+12 -5.26065e+12 -4.24858e+12 -5.65615e+12 -3.67578e+12 -4.80374e+12 -8.56861e+12 -3.34702e+12 -3.77409e+12 -5.4843e+12 -3.18658e+12 -6.64163e+12 -3.21467e+12 -5.5158e+12 -4.19374e+12 -3.89168e+12 -4.9872e+12 -3.93744e+12 -3.51245e+12 -5.96704e+12 -5.43681e+12 -1.98846e+12 -6.50963e+12 -2.48203e+12 -3.87895e+12 -5.51663e+12 -3.79608e+12 -4.3859e+12 -3.89605e+12 -3.03297e+12 -4.38169e+12 -4.31562e+12 -6.29262e+12 -1.83547e+12 -4.73442e+12 -4.26785e+12 -5.59088e+12 -5.98436e+12 -6.84055e+12 -3.63968e+12 -4.90205e+12 -4.5782e+12 -3.83687e+12 -2.60643e+12 -4.40362e+12 -3.99185e+12 -3.95967e+12 -4.29574e+12 -6.81097e+12 -6.88765e+12 -4.04845e+12 -8.42614e+12 -2.7403e+12 -5.93612e+12 -2.87594e+12 -4.11056e+12 -3.40972e+12 -3.67416e+12 -2.48955e+12 -3.61185e+12 -6.01956e+12 -4.87724e+12 -5.83274e+12 -5.79694e+12 -3.69794e+12 -6.51698e+12 -3.1096e+12 -2.32177e+12 -5.96823e+12 -5.28321e+12 -4.31098e+12 -1.9838e+12 -2.78875e+12 -6.71625e+12 -2.77896e+12 -4.02264e+12 -6.61234e+12 -3.9924e+12 -5.69606e+12 -2.94043e+12 -4.51623e+12 -5.13946e+12 -3.66448e+12 -4.97732e+12 -3.05409e+12 -5.88376e+12 -4.94645e+12 -2.53303e+12 -4.43647e+12 -5.35458e+12 -2.93224e+12 -3.70645e+12 -2.80262e+12 -3.86434e+12 -4.02061e+12 -4.58501e+12 -2.4049e+12 -3.82642e+12 -3.03148e+12 -4.60445e+12 -5.32576e+12 -2.66432e+12 -4.99628e+12 -4.30691e+12 -3.4901e+12 -2.71852e+12 -4.2877e+12 -3.05959e+12 -3.51493e+12 -3.72495e+12 -3.50012e+12 -5.57004e+12 -3.25317e+12 -2.88447e+12 -4.13911e+12 -3.44409e+12 -3.03788e+12 -2.78183e+12 -2.97654e+12 -2.20484e+12 -3.87522e+12 -2.46778e+12 -4.23605e+12 -4.64972e+12 -2.7505e+12 -3.4036e+12 -2.87363e+12 -4.55951e+12 -2.65413e+12 -4.24839e+12 -2.14901e+12 -2.61246e+12 -3.41956e+12 -4.0544e+12 -3.76609e+12 -2.77975e+12 -2.73986e+12 -4.16238e+12 -2.53635e+12 -3.06596e+12 -5.14174e+12 -5.26072e+12 -4.38567e+12 -2.33967e+12 -3.29589e+12 -2.75691e+12 -1.93926e+12 -4.41846e+12 -3.56201e+12 -4.10402e+12 -1.73298e+12 -3.12639e+12 -5.57565e+12 -3.08289e+12 -4.76288e+12 -2.35907e+12 -5.67773e+12 -2.73985e+12 -6.20031e+12 -6.98336e+12 -5.00836e+12 -5.4457e+12 -3.10314e+12 -2.35435e+12 -3.04968e+12 -2.7536e+12 -2.21737e+12 -4.51653e+12 -3.91015e+12 -2.66717e+12 -2.88953e+12 -3.22682e+12 -1.09006e+12 -3.16019e+12 -769837000000.0 -3.88265e+12 -1.4651e+12 -4.61956e+12 -4.50374e+12 -2.89622e+12 -4.32576e+12 -3.03145e+12 -3.08408e+12 -3.97777e+12 -2.27605e+12 -3.47254e+12 -4.08051e+12 -2.23293e+12 -4.58975e+12 -5.43453e+12 -1.59235e+12 -3.05557e+12 -4.33105e+12 -3.05196e+12 -3.67628e+12 -5.76277e+12 -4.09883e+12 -5.27976e+12 -1.94249e+12 -2.6046e+12 -3.20929e+12 -6.88092e+12 -2.74966e+12 -2.21838e+12 -3.09038e+12 -2.06475e+12 -2.01024e+12 -2.20652e+12 -2.8557e+12 -4.61396e+12 -1.98409e+12 -3.0507e+12 -2.69565e+12 -3.80358e+12 -2.03882e+12 -4.57936e+12 -2.52062e+12 -2.14736e+12 -1.62538e+12 -4.00018e+12 -2.72922e+12 -3.07783e+12 -2.45804e+12 -3.20478e+12 -4.35769e+12 -3.43429e+12 -1.82303e+12 -2.91461e+12 -3.67213e+12 -2.35779e+12 -2.63739e+12 -3.15395e+12 -3.52646e+12 -2.78246e+12 -2.70721e+12 -2.85111e+12 -1.93177e+12 -3.83364e+12 -5.16154e+12 -2.0688e+12 -4.16773e+12 -4.85102e+12 -3.50767e+12 -3.36445e+12 -3.08817e+12 -1.46914e+12 -2.96665e+12 -2.97165e+12 -2.66324e+12 -1.39182e+12 -2.83539e+12 -3.00357e+12 -1.77911e+12 -2.80295e+12 -1.16717e+12 -3.27603e+12 -4.29531e+12 -2.95733e+12 -3.33091e+12 -3.06189e+12 -4.33302e+12 -2.90095e+12 -2.88445e+12 -1.70642e+12 -1.74755e+12 -3.2835e+12 -2.97359e+12 -5.78654e+12 -2.06089e+12 -3.76125e+12 -3.72947e+12 -2.15633e+12 -2.21832e+12 -2.93855e+12 -3.25037e+12 -1.59605e+12 -3.62737e+12 -5.34369e+12 -3.20358e+12 -1.67593e+12 -2.25443e+12 -3.03857e+12 -2.66717e+12 -2.54734e+12 -2.48595e+12 -3.02635e+12 -2.50605e+12 -1.98433e+12 -4.24754e+12 -3.23506e+12 -2.18269e+12 -5.12296e+12 -2.85994e+12 -3.62541e+12 -4.10258e+12 -4.91266e+12 -1.77398e+12 -2.81767e+12 -3.55803e+12 -3.2779e+12 -3.04712e+12 -3.43003e+12 -3.70203e+12 -4.70225e+12 -2.39261e+12 -2.91502e+12 -1.89338e+12 -5.01234e+12 -3.41839e+12 -2.48334e+12 -3.45793e+12 -4.61084e+12 -3.55047e+12 -3.25801e+12 -2.15015e+12 -2.65265e+12 -2.30213e+12 -2.06315e+12 -2.34072e+12 -202677000000.0 -2.45747e+12 -2.4661e+12 -1.68798e+12 -3.53494e+12 -2.58062e+12 -2.20738e+12 -1.91206e+12 -2.13125e+12 -1.4227e+12 -1.64762e+12 -1.02395e+12 -2.90732e+12 -2.80193e+12 -2.1279e+12 -4.25409e+12 -3.10218e+12 -2.83353e+12 -3.4712e+12 -1.74935e+12 -1.40723e+12 -2.85379e+12 -4.3287e+12 -2.32315e+12 -4.18473e+12 -3.17857e+12 -1.58329e+12 -2.50788e+12 -3.90642e+12 -4.38373e+12 -5.64678e+12 -2.01785e+12 -1.77715e+12 -1.65457e+12 -2.68874e+12 -1.8187e+12 -1.48439e+12 -2.05781e+12 -2.50436e+12 -1.7796e+12 -3.75072e+12 -1.24855e+12 -2.19724e+12 -3.82694e+12 -2.20491e+12 -1.22588e+12 -2.0086e+12 -916220000000.0 -1.195e+12 -4.08026e+12 -2.795e+12 -1.91472e+12 -2.21299e+12 -3.34639e+12 -1.73506e+12 -3.33244e+12 -1.76097e+12 -2.59425e+12 -3.10993e+12 -3.66835e+12 -2.30112e+12 -2.08653e+12 -2.02837e+12 -2.19413e+12 -1.73928e+12 -1.52517e+12 -3.11391e+12 -4.14269e+12 -5.00433e+12 -2.98014e+12 -4.36647e+12 -3.06004e+12 -3.35865e+12 -1.4626e+12 -3.99713e+12 -1.16094e+12 -1.40756e+12 -2.08474e+12 -2.0184e+12 -2.73125e+12 -3.16262e+12 -3.09081e+12 -1.95735e+12 -3.61809e+12 -2.90424e+12 -2.83205e+12 -3.10998e+12 -2.55901e+12 -1.14691e+12 -2.67863e+12 -1.6711e+12 -2.90026e+12 -1.08649e+12 -2.6491e+12 -1.29517e+12 -1.3905e+12 -1.94561e+12 -1.33576e+12 -824837000000.0 -1.79949e+12 -2.12662e+12 -1.45902e+12 -1.37676e+12 -1.24918e+12 -2.27007e+12 -1.6728e+12 -1.80968e+12 -1.36027e+12 -2.07127e+12 -2.09582e+12 -2.40431e+12 -1.99971e+12 -1.7089e+12 -1.78316e+12 -2.68481e+12 -1.13564e+12 -2.36627e+12 -2.45011e+12 -2.26572e+12 -3.61752e+12 -1.43693e+12 -2.22379e+12 -2.2139e+12 -1.53419e+12 -2.73758e+12 -1.48854e+12 -2.49208e+12 -1.03051e+12 -405533000000.0 -1.67629e+12 -2.09979e+12 -3.30695e+12 -2.94905e+12 -2.71946e+12 -1.76584e+12 -1.62895e+12 -1.67382e+12 -1.93587e+12 -3.06446e+12 -1.3118e+12 -2.99276e+12 -1.26641e+12 -1.09638e+12 -2.17661e+12 -1.38097e+12 -777806000000.0 -1.93977e+12 -2.34389e+12 -686717000000.0 -1.90106e+12 -2.53861e+12 -1.91824e+12 -2.86217e+12 -1.76437e+12 -3.28999e+12 -1.1219e+12 -1.74937e+12 -2.42989e+12 -940286000000.0 -1.79486e+12 -1.44551e+12 -3.62597e+12 -2.58632e+12 -2.49134e+12 -880406000000.0 -2.6596e+12 -2.18344e+12 -2.86002e+12 -2.14971e+12 -1.45751e+12 -2.01047e+12 -1.46565e+12 -1.52101e+12 -1.51374e+12 -2.40206e+12 -1.17859e+12 -2.2866e+12 -1.26697e+12 -588622000000.0 -2.55245e+12 -3.14767e+12 -2.91109e+12 -1.27689e+12 -1.55293e+12 -1.96386e+12 -1.80953e+12 -1.93621e+12 -3.0725e+12 -1.68443e+12 -1.93456e+12 -1.16209e+12 -2.15708e+12 -328706000000.0 -2.21558e+12 -461231000000.0 -1.2803e+12 -2.09082e+12 -2.10189e+12 -890022000000.0 -987354000000.0 -1.50729e+12 -943194000000.0 -1.31151e+12 -1.43964e+12 -1.11342e+12 -932191000000.0 -2.23314e+12 -1.57703e+12 -1.83736e+12 -972676000000.0 -1.62358e+12 -1.3259e+12 -2.26302e+12 -844159000000.0 -1.30036e+12 -1.2731e+12 -1.28468e+12 -1.95266e+12 -600379000000.0 -1.14176e+12 -1.17331e+12 -1.07138e+12 -1.14476e+12 -839554000000.0 -2.17194e+12 -1.07082e+12 -1.2985e+12 -1.33069e+12 -1.08453e+12 -427724000000.0 -632871000000.0 -1.9389e+12 -608003000000.0 -1.20055e+12 -1.1077e+12 -2.08457e+12 -516769000000.0 -1.02846e+12 -2.47275e+12 -1.88331e+12 -1.00953e+12 -1.13094e+12 -612766000000.0 -1.57792e+12 -575617000000.0 -1.25779e+12 -2.2589e+12 -2.12275e+12 -2.4732e+12 -943404000000.0 -693182000000.0 -1.63796e+12 -701066000000.0 -1.49755e+12 -1.77451e+12 -1.46108e+12 -1.74472e+12 -2.03115e+12 -1.94588e+12 -1.14008e+12 -1.09415e+12 -666608000000.0 -881957000000.0 -1.25246e+12 -1.01077e+12 -1.55837e+12 -557879000000.0 -1.11552e+12 -1.92147e+12 -929993000000.0 -1.4602e+12 -1.25845e+12 -1.34575e+12 -2.34109e+12 -2.02107e+12 -1.15826e+12 -1.32963e+12 -1.42582e+12 -396654000000.0 -2.03644e+12 -1.03116e+12 -1.64126e+12 -2.01634e+12 -1.01307e+12 -517837000000.0 -787553000000.0 -1.00585e+12 -908985000000.0 -196700000000.0 -82323700000.0 -1.15494e+12 -353734000000.0 -802241000000.0 -515093000000.0 -707192000000.0 -1.16926e+12 -942717000000.0 -288218000000.0 -667755000000.0 -504014000000.0 -684029000000.0 -244371000000.0 -461570000000.0 -158193000000.0 -359680000000.0 -1.09552e+12 -72059500000.0 -615806000000.0 -254696000000.0 -1.14906e+12 -871079000000.0 -916473000000.0 -738706000000.0 -235187000000.0 -619945000000.0 -247070000000.0 -175467000000.0 -168600000000.0 -153987000000.0 -658275000000.0 -450385000000.0 -538189000000.0 -983671000000.0 -875759000000.0 -447402000000.0 -447002000000.0 -605746000000.0 -210468000000.0 -324257000000.0 -409779000000.0 -226811000000.0 -566411000000.0 -244918000000.0 -345295000000.0 -456296000000.0 -255115000000.0 -709063000000.0 -509618000000.0 -306025000000.0 -657616000000.0 -152412000000.0 -880288000000.0 -903720000000.0 -675126000000.0 -268596000000.0 -605820000000.0 -455382000000.0 -746014000000.0 -167378000000.0 -988499000000.0 -429840000000.0 -86788300000.0 -791198000000.0 -181213000000.0 -405048000000.0 -399932000000.0 -371143000000.0 -234716000000.0 -158022000000.0 -255225000000.0 -681348000000.0 -452376000000.0 -1.29495e+12 -1.32456e+12 -883163000000.0 -217296000000.0 -1.22539e+12 -575253000000.0 -323867000000.0 -557840000000.0 -247426000000.0 -358135000000.0 -926557000000.0 -326694000000.0 -267752000000.0 -540870000000.0 -301874000000.0 -485322000000.0 -619803000000.0 -1.03197e+12 -596043000000.0 -178054000000.0 -649247000000.0 -446962000000.0 -258653000000.0 -261281000000.0 -195355000000.0 -271968000000.0 -369423000000.0 -102374000000.0 -270244000000.0 -218719000000.0 -141188000000.0 -196970000000.0 -143952000000.0 