# vtk DataFile Version 2.0
Time step 31
ASCII
DATASET UNSTRUCTURED_GRID
POINTS 5000 float
2398.27 143270.0 0
8529.51 142645.0 0
12438.8 142479.0 0
16747.5 141797.0 0
22243.6 143442.0 0
27670.2 140181.0 0
33201.4 142868.0 0
38182.8 143451.0 0
42701.5 143602.0 0
47473.2 143510.0 0
52137.1 143608.0 0
57005.2 142448.0 0
62763.5 143523.0 0
67994.7 143657.0 0
72702.2 142790.0 0
77500.0 143536.0 0
82500.0 143525.0 0
87407.8 142824.0 0
92500.0 143563.0 0
97193.2 143585.0 0
101293.0 143502.0 0
105947.0 142893.0 0
111936.0 143372.0 0
117850.0 143556.0 0
123330.0 143633.0 0
128345.0 143753.0 0
133427.0 143002.0 0
138124.0 143686.0 0
142500.0 143607.0 0
147500.0 143540.0 0
152501.0 143510.0 0
157589.0 143138.0 0
162561.0 143294.0 0
167011.0 142836.0 0
171830.0 141719.0 0
177734.0 141758.0 0
182939.0 140943.0 0
187394.0 142797.0 0
192499.0 143958.0 0
196080.0 143122.0 0
201748.0 142482.0 0
207651.0 143245.0 0
212985.0 142583.0 0
218128.0 143667.0 0
222480.0 143679.0 0
225795.0 142912.0 0
230434.0 142783.0 0
235810.0 143779.0 0
241170.0 142484.0 0
246501.0 144485.0 0
252679.0 142468.0 0
259052.0 142944.0 0
263773.0 144031.0 0
268740.0 142943.0 0
273935.0 143238.0 0
278881.0 141887.0 0
286326.0 143527.0 0
291718.0 143984.0 0
297319.0 141852.0 0
303664.0 142639.0 0
312126.0 143061.0 0
317928.0 143683.0 0
323244.0 143585.0 0
327580.0 143854.0 0
332206.0 143453.0 0
337222.0 143162.0 0
341019.0 144373.0 0
345896.0 142709.0 0
355261.0 143618.0 0
361816.0 142255.0 0
372012.0 140276.0 0
367954.0 143592.0 0
377030.0 142248.0 0
382609.0 143121.0 0
388131.0 142419.0 0
394019.0 141736.0 0
399199.0 143407.0 0
403649.0 140665.0 0
408586.0 141876.0 0
412475.0 143526.0 0
417500.0 143569.0 0
422737.0 141682.0 0
427272.0 143392.0 0
432480.0 141196.0 0
437537.0 143546.0 0
442090.0 142488.0 0
446252.0 142068.0 0
450666.0 142837.0 0
455209.0 142779.0 0
460242.0 142625.0 0
465794.0 143010.0 0
471629.0 142267.0 0
477063.0 141070.0 0
481305.0 143933.0 0
485844.0 141001.0 0
491674.0 142540.0 0
497601.0 141033.0 0
2284.26 148291.0 0
6060.11 145967.0 0
11085.4 146996.0 0
17330.5 147699.0 0
23003.0 148956.0 0
28516.9 146533.0 0
34966.9 148142.0 0
40339.3 148461.0 0
44462.1 148803.0 0
48277.2 147506.0 0
52500.0 148568.0 0
57994.7 147889.0 0
62849.5 148623.0 0
67505.2 148294.0 0
72117.3 147910.0 0
77500.0 148694.0 0
82116.1 148340.0 0
87907.7 147582.0 0
92500.0 148703.0 0
97183.8 148334.0 0
102467.0 148237.0 0
108243.0 147484.0 0
112500.0 148639.0 0
117500.0 148721.0 0
122500.0 148644.0 0
127727.0 148187.0 0
132494.0 148537.0 0
137520.0 148552.0 0
142774.0 148030.0 0
146928.0 148378.0 0
151939.0 148255.0 0
156862.0 147188.0 0
161298.0 148009.0 0
166511.0 147508.0 0
172971.0 147289.0 0
178375.0 147170.0 0
183532.0 146011.0 0
188603.0 147243.0 0
193570.0 148103.0 0
198250.0 147467.0 0
203920.0 148102.0 0
213693.0 147133.0 0
209356.0 148317.0 0
217602.0 148737.0 0
222033.0 148506.0 0
226803.0 147147.0 0
232207.0 148206.0 0
237688.0 149030.0 0
243285.0 148858.0 0
248460.0 148560.0 0
252676.0 149029.0 0
257261.0 147582.0 0
262325.0 148208.0 0
267065.0 147787.0 0
271614.0 147094.0 0
277070.0 147497.0 0
282030.0 145219.0 0
282828.0 148906.0 0
287500.0 148617.0 0
292910.0 148476.0 0
298248.0 147363.0 0
303117.0 148309.0 0
307731.0 145209.0 0
307443.0 148502.0 0
312501.0 148812.0 0
317481.0 148559.0 0
322434.0 148053.0 0
327500.0 148598.0 0
332500.0 148670.0 0
337712.0 148005.0 0
343307.0 147398.0 0
350687.0 144630.0 0
347750.0 147799.0 0
352668.0 148520.0 0
361443.0 147568.0 0
357757.0 148038.0 0
365116.0 147266.0 0
372930.0 147077.0 0
378820.0 146799.0 0
382005.0 147937.0 0
388373.0 147508.0 0
393553.0 147882.0 0
402997.0 146865.0 0
398135.0 148316.0 0
408386.0 146157.0 0
412862.0 147468.0 0
417518.0 148084.0 0
422127.0 146318.0 0
428324.0 148335.0 0
433427.0 146429.0 0
437509.0 148614.0 0
443214.0 146771.0 0
447601.0 146078.0 0
451944.0 147315.0 0
457175.0 147507.0 0
462428.0 148992.0 0
466599.0 147580.0 0
470193.0 148760.0 0
475182.0 147560.0 0
480798.0 149208.0 0
486590.0 147191.0 0
492077.0 149441.0 0
496837.0 146543.0 0
2238.62 154207.0 0
6740.15 151012.0 0
11844.1 152829.0 0
16323.9 152907.0 0
20503.3 152919.0 0
27041.1 153366.0 0
32614.6 153200.0 0
38260.8 152973.0 0
42967.9 153358.0 0
47586.7 152227.0 0
51799.1 153990.0 0
56552.9 153509.0 0
62113.5 153483.0 0
67695.7 153138.0 0
73696.2 153453.0 0
78211.3 153891.0 0
81954.7 153066.0 0
86960.5 153098.0 0
92531.5 153454.0 0
97548.3 152854.0 0
102630.0 153999.0 0
107924.0 152264.0 0
116732.0 153324.0 0
112494.0 153538.0 0
120857.0 153174.0 0
125865.0 152555.0 0
131159.0 154253.0 0
136446.0 154205.0 0
140993.0 152151.0 0
146307.0 153269.0 0
156245.0 151749.0 0
161704.0 153699.0 0
169997.0 152075.0 0
176294.0 152928.0 0
182187.0 151151.0 0
188049.0 153405.0 0
194262.0 153129.0 0
199972.0 152572.0 0
208111.0 153224.0 0
204288.0 153568.0 0
213300.0 151944.0 0
217709.0 153671.0 0
222564.0 152781.0 0
226872.0 152152.0 0
232445.0 153671.0 0
237423.0 153455.0 0
241793.0 154109.0 0
246843.0 152629.0 0
251786.0 153921.0 0
257736.0 152334.0 0
262717.0 152985.0 0
267486.0 152242.0 0
273044.0 152336.0 0
279879.0 151556.0 0
283556.0 153839.0 0
287218.0 153909.0 0
291019.0 152785.0 0
296736.0 152407.0 0
302236.0 153545.0 0
307702.0 152931.0 0
313208.0 154056.0 0
318191.0 153049.0 0
322510.0 152058.0 0
326813.0 153941.0 0
336511.0 152670.0 0
331856.0 153661.0 0
341413.0 151604.0 0
346844.0 152185.0 0
351893.0 153356.0 0
356026.0 151910.0 0
361259.0 152270.0 0
366513.0 151347.0 0
371102.0 153218.0 0
377674.0 152733.0 0
384355.0 151274.0 0
392423.0 152705.0 0
388338.0 154463.0 0
397216.0 152664.0 0
402857.0 153105.0 0
409242.0 151801.0 0
414410.0 154356.0 0
419141.0 152774.0 0
424118.0 151136.0 0
427682.0 154172.0 0
432247.0 152052.0 0
437339.0 152795.0 0
442354.0 152007.0 0
448270.0 151150.0 0
454173.0 152720.0 0
458987.0 153766.0 0
463181.0 153530.0 0
467517.0 153644.0 0
472372.0 152082.0 0
477748.0 153035.0 0
482621.0 153904.0 0
491507.0 153503.0 0
496592.0 153112.0 0
2182.12 158621.0 0
8050.27 156853.0 0
13471.4 157455.0 0
17751.8 156752.0 0
22416.4 157293.0 0
26986.2 159291.0 0
32069.4 157487.0 0
37586.2 158178.0 0
43202.4 158421.0 0
49063.3 157017.0 0
53807.2 158689.0 0
59222.0 158188.0 0
63616.3 157815.0 0
68064.9 158811.0 0
72603.0 158328.0 0
77068.9 157813.0 0
82136.2 158087.0 0
87334.1 158271.0 0
92269.3 158784.0 0
97732.5 158206.0 0
102768.0 159457.0 0
107686.0 157762.0 0
113112.0 157868.0 0
118138.0 157801.0 0
123419.0 157162.0 0
127500.0 158718.0 0
137738.0 158120.0 0
132690.0 159082.0 0
142523.0 158270.0 0
151835.0 154867.0 0
148001.0 157878.0 0
156827.0 157146.0 0
153417.0 159522.0 0
160406.0 158512.0 0
166528.0 155518.0 0
164429.0 159221.0 0
170842.0 158104.0 0
177032.0 159496.0 0
182233.0 156629.0 0
186625.0 159039.0 0
191646.0 158528.0 0
197223.0 157857.0 0
203055.0 157712.0 0
208747.0 159570.0 0
214360.0 157615.0 0
218718.0 158917.0 0
222025.0 157039.0 0
227510.0 157701.0 0
234328.0 158052.0 0
237869.0 156780.0 0
241752.0 158712.0 0
246214.0 157815.0 0
251519.0 159180.0 0
255874.0 157051.0 0
260338.0 156722.0 0
266353.0 156925.0 0
271759.0 158605.0 0
278362.0 157058.0 0
284358.0 158579.0 0
288759.0 157063.0 0
292983.0 158779.0 0
298941.0 158708.0 0
303985.0 158938.0 0
307500.0 158762.0 0
316252.0 157764.0 0
312166.0 158580.0 0
321074.0 157292.0 0
325849.0 158874.0 0
329892.0 157486.0 0
334357.0 159479.0 0
339780.0 156995.0 0
346088.0 158440.0 0
352843.0 158932.0 0
357350.0 155868.0 0
361675.0 158258.0 0
366553.0 156040.0 0
371934.0 158851.0 0
382814.0 156790.0 0
387369.0 158648.0 0
393045.0 159374.0 0
399509.0 158276.0 0
408060.0 157151.0 0
404319.0 158300.0 0
412349.0 158823.0 0
416950.0 158157.0 0
421364.0 159413.0 0
425654.0 157799.0 0
431062.0 158244.0 0
437117.0 156990.0 0
441815.0 157593.0 0
446527.0 156149.0 0
450851.0 156654.0 0
455412.0 158490.0 0
461206.0 158185.0 0
466981.0 157971.0 0
472598.0 157041.0 0
478850.0 158534.0 0
487506.0 155003.0 0
484707.0 159044.0 0
489147.0 159769.0 0
492123.0 157359.0 0
496754.0 159755.0 0
1482.5 163302.0 0
7151.46 163160.0 0
11901.0 161193.0 0
17159.3 161930.0 0
23050.4 162677.0 0
30222.4 162027.0 0
34873.3 162820.0 0
39762.3 162241.0 0
43679.2 164079.0 0
48577.3 162241.0 0
53132.0 164687.0 0
57212.0 162580.0 0
63067.2 162590.0 0
68313.6 163987.0 0
73398.7 162387.0 0
78299.6 162962.0 0
83591.0 163028.0 0
88395.3 163089.0 0
92506.2 163627.0 0
97237.3 163621.0 0
101195.0 163684.0 0
105586.0 163278.0 0
111305.0 162452.0 0
116639.0 163059.0 0
122097.0 162352.0 0
126930.0 162765.0 0
131217.0 163463.0 0
136576.0 162670.0 0
142212.0 163964.0 0
147011.0 162155.0 0
151800.0 164089.0 0
157940.0 163080.0 0
167048.0 162094.0 0
163659.0 163707.0 0
171004.0 164112.0 0
182933.0 163548.0 0
193693.0 162613.0 0
189204.0 163446.0 0
198249.0 163745.0 0
203175.0 162813.0 0
207322.0 164950.0 0
212116.0 163821.0 0
216321.0 162231.0 0
221177.0 162566.0 0
226331.0 164338.0 0
231984.0 162554.0 0
237943.0 161516.0 0
242844.0 163364.0 0
248031.0 162893.0 0
252899.0 163207.0 0
257729.0 162233.0 0
262638.0 160296.0 0
267591.0 162875.0 0
272699.0 164490.0 0
278480.0 163713.0 0
283574.0 163165.0 0
288835.0 162384.0 0
293487.0 163375.0 0
297507.0 164753.0 0
302639.0 163243.0 0
307118.0 163603.0 0
311944.0 163321.0 0
316970.0 162199.0 0
322300.0 162885.0 0
330942.0 163001.0 0
327154.0 163742.0 0
341517.0 162487.0 0
337119.0 163378.0 0
346667.0 164403.0 0
351586.0 164584.0 0
357892.0 162444.0 0
367106.0 160947.0 0
362981.0 163232.0 0
370170.0 164391.0 0
374547.0 164410.0 0
377880.0 160183.0 0
383270.0 162805.0 0
388206.0 162829.0 0
397894.0 164212.0 0
403056.0 162277.0 0
408164.0 162001.0 0
414681.0 162469.0 0
417927.0 163717.0 0
422495.0 164274.0 0
427476.0 162253.0 0
431254.0 163672.0 0
436120.0 161973.0 0
441989.0 163254.0 0
448325.0 161663.0 0
454023.0 163648.0 0
459441.0 163794.0 0
464977.0 163073.0 0
473883.0 162259.0 0
469641.0 163924.0 0
481987.0 163488.0 0
486774.0 163380.0 0
492177.0 163937.0 0
2749.29 167341.0 0
7839.1 169677.0 0
12668.2 165698.0 0
18087.3 167700.0 0
23744.0 168435.0 0
28647.0 166074.0 0
33629.5 168376.0 0
39130.9 167081.0 0
43740.2 168289.0 0
48688.7 168211.0 0
54177.3 169390.0 0
59717.2 167592.0 0
64868.8 168691.0 0
68287.7 168181.0 0
72214.3 166267.0 0
76320.7 167859.0 0
81941.9 168449.0 0
87887.0 168159.0 0
96906.8 168194.0 0
92637.5 168556.0 0
101491.0 168322.0 0
106437.0 168615.0 0
111043.0 167301.0 0
115385.0 167776.0 0
120870.0 168375.0 0
127440.0 168030.0 0
133300.0 167916.0 0
138725.0 168403.0 0
143742.0 168571.0 0
148388.0 168174.0 0
152799.0 168676.0 0
157000.0 168778.0 0
161441.0 167554.0 0
166774.0 167447.0 0
172236.0 169896.0 0
176728.0 165787.0 0
186881.0 168446.0 0
192410.0 167954.0 0
197842.0 169453.0 0
202628.0 167387.0 0
206632.0 169562.0 0
210632.0 168350.0 0
216383.0 168125.0 0
222685.0 168213.0 0
228326.0 169883.0 0
236020.0 166500.0 0
240942.0 168934.0 0
246426.0 169485.0 0
250908.0 167358.0 0
256767.0 168440.0 0
262833.0 165875.0 0
268274.0 168235.0 0
272895.0 169386.0 0
277852.0 169721.0 0
282085.0 167096.0 0
287110.0 168469.0 0
293046.0 167794.0 0
301872.0 167170.0 0
306178.0 169083.0 0
311438.0 169047.0 0
316867.0 167324.0 0
322342.0 168805.0 0
328009.0 168354.0 0
333889.0 167233.0 0
342211.0 168466.0 0
347987.0 169159.0 0
355557.0 166711.0 0
352298.0 168862.0 0
360522.0 167977.0 0
366519.0 168082.0 0
372529.0 169350.0 0
378550.0 167762.0 0
383425.0 166943.0 0
387244.0 167302.0 0
392171.0 165620.0 0
396045.0 170035.0 0
400403.0 168509.0 0
405314.0 167517.0 0
411970.0 166588.0 0
417774.0 168462.0 0
422966.0 169143.0 0
427288.0 166507.0 0
432237.0 168258.0 0
437082.0 167303.0 0
441851.0 168860.0 0
447111.0 167829.0 0
452641.0 168838.0 0
458109.0 169157.0 0
462539.0 168750.0 0
466553.0 167754.0 0
471812.0 168489.0 0
477661.0 165328.0 0
476953.0 170049.0 0
482254.0 168845.0 0
487738.0 168229.0 0
492471.0 169787.0 0
497457.0 165490.0 0
3056.78 173140.0 0
13607.9 171545.0 0
23878.4 174136.0 0
28780.2 171417.0 0
33718.0 174080.0 0
38539.0 172267.0 0
43268.2 172546.0 0
49669.4 173103.0 0
53685.4 174135.0 0
58565.5 173460.0 0
63415.7 172639.0 0
67006.5 173099.0 0
71706.1 171603.0 0
77976.3 173185.0 0
83400.4 174531.0 0
88019.6 173191.0 0
93069.9 173175.0 0
97999.2 172664.0 0
105784.0 173051.0 0
102078.0 174313.0 0
110767.0 172653.0 0
116643.0 172554.0 0
126501.0 173287.0 0
122656.0 173848.0 0
131196.0 172612.0 0
135221.0 174437.0 0
139750.0 173953.0 0
145106.0 173163.0 0
150853.0 173223.0 0
156886.0 174135.0 0
162037.0 172217.0 0
167181.0 172544.0 0
177078.0 170112.0 0
176186.0 173837.0 0
181362.0 170160.0 0
185796.0 173731.0 0
191578.0 173834.0 0
197330.0 174983.0 0
202643.0 172826.0 0
207608.0 173584.0 0
212134.0 172731.0 0
217212.0 174513.0 0
223347.0 174183.0 0
233994.0 171038.0 0
238459.0 174696.0 0
243835.0 173980.0 0
248985.0 173593.0 0
252372.0 171640.0 0
255541.0 174541.0 0
262542.0 173041.0 0
268734.0 173204.0 0
273493.0 173932.0 0
278387.0 175111.0 0
282796.0 172475.0 0
287973.0 174461.0 0
293221.0 173128.0 0
297884.0 170107.0 0
302611.0 173016.0 0
308390.0 173997.0 0
313173.0 173592.0 0
317437.0 173075.0 0
325883.0 172356.0 0
322196.0 174380.0 0
329974.0 173514.0 0
335039.0 174061.0 0
337531.0 170652.0 0
340306.0 174469.0 0
351089.0 173331.0 0
356015.0 171307.0 0
360818.0 173852.0 0
366440.0 173827.0 0
371146.0 174286.0 0
377229.0 175012.0 0
383501.0 171390.0 0
390741.0 170256.0 0
387810.0 174567.0 0
392751.0 174589.0 0
403886.0 173553.0 0
409493.0 172185.0 0
414467.0 172443.0 0
417765.0 172596.0 0
420953.0 172953.0 0
427629.0 173014.0 0
433306.0 172623.0 0
437892.0 172282.0 0
442654.0 173752.0 0
448518.0 173713.0 0
453997.0 173704.0 0
458539.0 174126.0 0
462991.0 173906.0 0
467794.0 172733.0 0
472983.0 174234.0 0
479977.0 173956.0 0
484305.0 173806.0 0
488543.0 173355.0 0
492631.0 173941.0 0
497459.0 170574.0 0
2142.5 179038.0 0
8751.21 175562.0 0
13671.1 179186.0 0
18377.8 175281.0 0
18601.9 180222.0 0
22341.8 178621.0 0
27489.0 179061.0 0
32327.0 178331.0 0
37268.1 178881.0 0
42437.3 180198.0 0
46372.8 176906.0 0
51406.5 179295.0 0
57397.8 179590.0 0
63642.3 177808.0 0
68685.7 176382.0 0
73554.6 179450.0 0
79818.0 178665.0 0
85121.6 179453.0 0
90125.0 177674.0 0
95035.1 179532.0 0
98599.5 176840.0 0
101291.0 180195.0 0
105635.0 177561.0 0
111335.0 178991.0 0
118206.0 178124.0 0
123814.0 178376.0 0
128388.0 176704.0 0
133269.0 178780.0 0
137791.0 177893.0 0
141902.0 178747.0 0
147422.0 178474.0 0
152992.0 178431.0 0
157247.0 180046.0 0
161788.0 177785.0 0
167146.0 177514.0 0
171462.0 175220.0 0
170763.0 179251.0 0
176883.0 178831.0 0
180974.0 175762.0 0
186889.0 178757.0 0
191539.0 179138.0 0
201631.0 178299.0 0
207158.0 178552.0 0
212993.0 178247.0 0
219802.0 179600.0 0
228978.0 175878.0 0
224912.0 179503.0 0
228654.0 179971.0 0
233409.0 175504.0 0
232787.0 179284.0 0
236991.0 179938.0 0
242097.0 178227.0 0
246554.0 177958.0 0
251472.0 177552.0 0
257766.0 179809.0 0
262741.0 179114.0 0
268253.0 178821.0 0
274070.0 178893.0 0
284553.0 178516.0 0
289713.0 179395.0 0
293307.0 177501.0 0
297717.0 175383.0 0
302311.0 178712.0 0
307427.0 179264.0 0
312021.0 177763.0 0
316759.0 177670.0 0
321329.0 179513.0 0
326425.0 177963.0 0
331731.0 178469.0 0
337285.0 179763.0 0
345925.0 175199.0 0
342892.0 179801.0 0
346835.0 179766.0 0
351168.0 178506.0 0
356394.0 176870.0 0
361682.0 179957.0 0
366978.0 178697.0 0
371660.0 178768.0 0
382204.0 178937.0 0
386897.0 179291.0 0
391453.0 179096.0 0
395530.0 179850.0 0
398357.0 175551.0 0
405866.0 179326.0 0
411608.0 177707.0 0
416996.0 176323.0 0
422633.0 177949.0 0
428259.0 179098.0 0
432998.0 177267.0 0
438723.0 177928.0 0
444697.0 178635.0 0
455667.0 178099.0 0
461370.0 178997.0 0
468719.0 177959.0 0
473165.0 179803.0 0
477806.0 178470.0 0
482449.0 178634.0 0
486597.0 177514.0 0
490652.0 177959.0 0
497771.0 175334.0 0
495006.0 179315.0 0
2239.97 183610.0 0
7229.67 181639.0 0
12438.7 185249.0 0
18047.2 184678.0 0
23273.3 183474.0 0
29077.4 185035.0 0
32589.8 181805.0 0
35955.3 184692.0 0
40995.1 184418.0 0
47003.0 183386.0 0
52812.1 184034.0 0
62193.6 183202.0 0
67961.4 183268.0 0
78090.2 183261.0 0
82804.7 184171.0 0
88772.8 183990.0 0
93970.8 184376.0 0
97843.4 182897.0 0
101250.0 184480.0 0
105727.0 183053.0 0
110243.0 184427.0 0
115522.0 184003.0 0
121623.0 183207.0 0
128114.0 182743.0 0
137501.0 181836.0 0
133715.0 183614.0 0
142031.0 184014.0 0
148122.0 185055.0 0
153547.0 183250.0 0
157985.0 184224.0 0
163104.0 183623.0 0
173357.0 182498.0 0
168440.0 182785.0 0
177762.0 183273.0 0
182323.0 180582.0 0
181597.0 185154.0 0
186463.0 184024.0 0
191579.0 183650.0 0
196352.0 180430.0 0
201126.0 183892.0 0
207149.0 184615.0 0
212100.0 183180.0 0
216815.0 184387.0 0
221592.0 185209.0 0
226069.0 184031.0 0
231021.0 183320.0 0
235877.0 184576.0 0
241284.0 183138.0 0
246730.0 182895.0 0
252429.0 183064.0 0
257588.0 185053.0 0
263725.0 184616.0 0
269618.0 184483.0 0
274596.0 183873.0 0
279359.0 180633.0 0
284007.0 182975.0 0
288596.0 184410.0 0
292655.0 182820.0 0
296538.0 180307.0 0
298735.0 185019.0 0
303653.0 183669.0 0
307804.0 183589.0 0
312324.0 182991.0 0
317600.0 182699.0 0
323362.0 184500.0 0
328008.0 182627.0 0
332711.0 183581.0 0
337426.0 185076.0 0
345485.0 183481.0 0
341922.0 183729.0 0
349525.0 182699.0 0
355335.0 183073.0 0
360671.0 185145.0 0
366493.0 183418.0 0
373425.0 183918.0 0
378340.0 181618.0 0
383175.0 184580.0 0
392586.0 183466.0 0
388077.0 183695.0 0
397118.0 183706.0 0
400532.0 180659.0 0
408062.0 184083.0 0
403357.0 184806.0 0
412517.0 182952.0 0
417172.0 181450.0 0
421025.0 183498.0 0
425375.0 183133.0 0
431956.0 182914.0 0
437686.0 184168.0 0
443671.0 184217.0 0
450507.0 180390.0 0
454496.0 183346.0 0
458793.0 184288.0 0
463932.0 184111.0 0
465831.0 180638.0 0
469294.0 183438.0 0
474373.0 184342.0 0
479087.0 183357.0 0
483697.0 185035.0 0
486596.0 181718.0 0
491394.0 183787.0 0
497411.0 183933.0 0
2126.67 187977.0 0
6958.35 187519.0 0
16007.4 188683.0 0
20036.1 188961.0 0
24883.6 188725.0 0
32219.2 189398.0 0
37670.3 190296.0 0
43315.5 188843.0 0
48684.0 189383.0 0
53576.8 188561.0 0
57601.2 185750.0 0
62542.2 188436.0 0
67219.2 188521.0 0
73649.4 186156.0 0
79094.2 188782.0 0
84538.0 188771.0 0
88602.1 189025.0 0
92508.1 188478.0 0
97467.0 187289.0 0
102446.0 188905.0 0
107193.0 187805.0 0
111837.0 188590.0 0
117995.0 189510.0 0
123248.0 188438.0 0
127767.0 188130.0 0
132820.0 188684.0 0
138523.0 187941.0 0
143145.0 188843.0 0
151877.0 188841.0 0
156564.0 189057.0 0
161568.0 188557.0 0
166876.0 187660.0 0
173249.0 188719.0 0
178607.0 188867.0 0
183536.0 189804.0 0
189459.0 188873.0 0
195894.0 186181.0 0
193909.0 190003.0 0
199741.0 188905.0 0
203874.0 189487.0 0
208362.0 189754.0 0
212779.0 187833.0 0
219057.0 189137.0 0
223358.0 188704.0 0
227641.0 188733.0 0
232480.0 188036.0 0
237739.0 189031.0 0
242299.0 189465.0 0
246704.0 187732.0 0
251878.0 189315.0 0
257453.0 189350.0 0
267694.0 188671.0 0
271762.0 188241.0 0
279911.0 185978.0 0
276113.0 188703.0 0
284278.0 187388.0 0
288572.0 189649.0 0
293594.0 187362.0 0
298811.0 189780.0 0
302637.0 188602.0 0
306698.0 187462.0 0
311690.0 188683.0 0
316842.0 187532.0 0
321343.0 189426.0 0
324884.0 188392.0 0
328697.0 187338.0 0
334155.0 189204.0 0
339612.0 188979.0 0
344148.0 187696.0 0
350105.0 188355.0 0
356717.0 189917.0 0
363257.0 189810.0 0
369400.0 188208.0 0
374926.0 189237.0 0
378300.0 186114.0 0
379746.0 190085.0 0
384039.0 190195.0 0
388076.0 188194.0 0
393152.0 188538.0 0
397927.0 187885.0 0
401992.0 189132.0 0
406599.0 188707.0 0
412749.0 188847.0 0
418443.0 186878.0 0
423549.0 188290.0 0
428720.0 186937.0 0
433884.0 189402.0 0
440196.0 190332.0 0
445499.0 188936.0 0
450714.0 186822.0 0
456145.0 188433.0 0
463205.0 188155.0 0
460061.0 188887.0 0
467453.0 188704.0 0
472542.0 188641.0 0
477866.0 188686.0 0
482744.0 189283.0 0
487590.0 188279.0 0
492465.0 188977.0 0
497811.0 188694.0 0
3067.41 193087.0 0
8549.09 192020.0 0
12575.8 190657.0 0
12198.6 195205.0 0
16416.4 192853.0 0
21307.3 193864.0 0
27460.7 194081.0 0
32651.2 193217.0 0
42295.9 193994.0 0
47948.9 194891.0 0
53255.7 193518.0 0
57455.0 190660.0 0
58927.5 194551.0 0
62499.2 192858.0 0
71131.7 190924.0 0
66930.1 192957.0 0
71362.2 195104.0 0
76178.2 193971.0 0
82347.8 192377.0 0
86389.6 192711.0 0
91250.9 193558.0 0
96599.5 192409.0 0
101326.0 193567.0 0
106449.0 192973.0 0
112396.0 194102.0 0
118079.0 194936.0 0
123222.0 193690.0 0
128381.0 192633.0 0
133236.0 194168.0 0
138696.0 193672.0 0
143898.0 192884.0 0
146819.0 195268.0 0
147994.0 191030.0 0
152639.0 193276.0 0
158016.0 193537.0 0
162828.0 192690.0 0
168108.0 193112.0 0
172596.0 194398.0 0
177248.0 194152.0 0
182428.0 194760.0 0
187089.0 193759.0 0
192267.0 194027.0 0
197935.0 193626.0 0
202910.0 193469.0 0
207316.0 194455.0 0
212053.0 192777.0 0
217206.0 194207.0 0
222465.0 192928.0 0
227446.0 194275.0 0
232445.0 192743.0 0
237072.0 193343.0 0
241377.0 193934.0 0
246111.0 192747.0 0
254528.0 193789.0 0
250351.0 194326.0 0
258828.0 194422.0 0
262303.0 190842.0 0
267462.0 194006.0 0
272512.0 192130.0 0
277247.0 193986.0 0
283189.0 192779.0 0
288207.0 194204.0 0
292758.0 192965.0 0
297368.0 193728.0 0
302090.0 193731.0 0
306882.0 192189.0 0
316042.0 192427.0 0
311366.0 194190.0 0
320407.0 193842.0 0
326141.0 193178.0 0
332574.0 195256.0 0
338274.0 194249.0 0
343319.0 192641.0 0
348151.0 193834.0 0
353183.0 194386.0 0
358609.0 195435.0 0
363216.0 195300.0 0
372381.0 193378.0 0
367630.0 193773.0 0
377383.0 194737.0 0
382014.0 193259.0 0
387365.0 192815.0 0
391827.0 193248.0 0
396406.0 192472.0 0
401422.0 194033.0 0
406571.0 193570.0 0
411924.0 195208.0 0
417744.0 192801.0 0
428006.0 193144.0 0
435858.0 194672.0 0
440095.0 195279.0 0
448658.0 191480.0 0
444889.0 194084.0 0
448961.0 194596.0 0
453284.0 193209.0 0
458567.0 192309.0 0
463266.0 192347.0 0
468255.0 193761.0 0
473568.0 193823.0 0
478469.0 193598.0 0
481963.0 194105.0 0
485384.0 192746.0 0
490344.0 192864.0 0
495336.0 192951.0 0
2829.99 198990.0 0
7504.52 196441.0 0
9652.54 200296.0 0
12518.6 198844.0 0
17158.7 198393.0 0
23582.2 199299.0 0
28510.0 199169.0 0
32909.0 197325.0 0
37786.3 195662.0 0
44153.3 199351.0 0
51663.8 198007.0 0
56220.0 198096.0 0
61492.5 198530.0 0
67359.2 198458.0 0
73111.2 199474.0 0
80897.6 196639.0 0
78021.2 200479.0 0
86725.1 198335.0 0
92878.5 199544.0 0
98370.0 197781.0 0
103678.0 197725.0 0
108523.0 198368.0 0
113660.0 199484.0 0
118713.0 200238.0 0
123560.0 198723.0 0
128429.0 197808.0 0
133084.0 198689.0 0
137598.0 199049.0 0
143074.0 197009.0 0
146707.0 199315.0 0
150635.0 197213.0 0
155608.0 197294.0 0
161150.0 197573.0 0
167133.0 199189.0 0
172930.0 198686.0 0
178055.0 199662.0 0
183648.0 199527.0 0
189254.0 198499.0 0
194196.0 198548.0 0
203778.0 197685.0 0
199080.0 199275.0 0
208281.0 199497.0 0
213126.0 198036.0 0
217849.0 199511.0 0
222500.0 198678.0 0
227501.0 198853.0 0
231387.0 196882.0 0
235359.0 197394.0 0
241015.0 198325.0 0
246232.0 198595.0 0
252672.0 199073.0 0
257745.0 198203.0 0
262639.0 197346.0 0
268638.0 198725.0 0
272479.0 196781.0 0
276640.0 199034.0 0
282620.0 198561.0 0
287946.0 198615.0 0
293355.0 198443.0 0
298038.0 197593.0 0
302175.0 199654.0 0
306757.0 197063.0 0
311382.0 199412.0 0
317149.0 198119.0 0
322865.0 198383.0 0
326686.0 198127.0 0
331450.0 199668.0 0
335627.0 200155.0 0
340789.0 198948.0 0
345204.0 197041.0 0
349873.0 198451.0 0
355444.0 200623.0 0
361538.0 200013.0 0
367141.0 199164.0 0
372558.0 198292.0 0
377577.0 200472.0 0
382873.0 197917.0 0
389041.0 197785.0 0
397268.0 197645.0 0
393435.0 199940.0 0
402359.0 199670.0 0
407525.0 198278.0 0
411984.0 200514.0 0
417007.0 198501.0 0
422243.0 195729.0 0
421586.0 200346.0 0
426097.0 199251.0 0
432023.0 198529.0 0
437809.0 199624.0 0
443162.0 199107.0 0
447796.0 198272.0 0
452664.0 199110.0 0
457760.0 197160.0 0
463139.0 197519.0 0
468203.0 198897.0 0
473091.0 198974.0 0
478104.0 198436.0 0
482747.0 198746.0 0
487713.0 197656.0 0
493262.0 197681.0 0
497793.0 197242.0 0
2516.63 204334.0 0
7267.32 203741.0 0
12112.9 204072.0 0
17587.8 204668.0 0
23410.4 205357.0 0
28803.9 203677.0 0
32716.7 202018.0 0
37935.9 201326.0 0
43271.5 204782.0 0
48945.8 201041.0 0
47706.5 204860.0 0
52880.6 203704.0 0
58206.4 202873.0 0
64165.4 204134.0 0
71365.8 203022.0 0
69254.5 205077.0 0
75112.0 204850.0 0
81048.2 204641.0 0
87053.0 204996.0 0
96750.3 203601.0 0
92019.6 204125.0 0
101922.0 202077.0 0
107424.0 204462.0 0
113364.0 204479.0 0
118426.0 205498.0 0
123399.0 203790.0 0
128618.0 202972.0 0
133599.0 203219.0 0
141644.0 201579.0 0
137996.0 204854.0 0
145476.0 204177.0 0
150728.0 202924.0 0
156816.0 202520.0 0
162659.0 203641.0 0
170993.0 203551.0 0
175346.0 205277.0 0
183157.0 203479.0 0
179614.0 204350.0 0
187237.0 203579.0 0
192614.0 203155.0 0
197962.0 204914.0 0
202933.0 202698.0 0
206815.0 205048.0 0
210966.0 203601.0 0
215633.0 203829.0 0
221232.0 203907.0 0
227177.0 204212.0 0
231617.0 201069.0 0
237595.0 203093.0 0
243855.0 203801.0 0
248909.0 203566.0 0
254151.0 205201.0 0
257368.0 201542.0 0
260306.0 203581.0 0
265514.0 202515.0 0
272404.0 203085.0 0
279498.0 203800.0 0
285573.0 202695.0 0
290275.0 202551.0 0
297346.0 202794.0 0
302302.0 204765.0 0
306873.0 202537.0 0
312363.0 205464.0 0
318330.0 203939.0 0
323489.0 203330.0 0
328121.0 201630.0 0
332372.0 204127.0 0
340955.0 203526.0 0
337060.0 204736.0 0
345701.0 202330.0 0
350924.0 204447.0 0
359288.0 204819.0 0
364350.0 204508.0 0
368943.0 203826.0 0
373329.0 203160.0 0
377201.0 205556.0 0
381327.0 203741.0 0
386959.0 203928.0 0
393347.0 204794.0 0
398521.0 203222.0 0
402907.0 204610.0 0
407768.0 203677.0 0
415875.0 204311.0 0
421175.0 205607.0 0
424600.0 203287.0 0
428966.0 203821.0 0
434133.0 203508.0 0
438735.0 204808.0 0
442785.0 203467.0 0
447716.0 203535.0 0
453043.0 204132.0 0
458329.0 202966.0 0
463619.0 202338.0 0
468163.0 204223.0 0
473601.0 203386.0 0
478152.0 203594.0 0
482810.0 202945.0 0
487498.0 203236.0 0
492502.0 202632.0 0
497556.0 201889.0 0
2475.46 209327.0 0
7678.19 208761.0 0
12005.7 208273.0 0
15773.8 209704.0 0
20838.9 210403.0 0
26807.5 209737.0 0
34062.6 207404.0 0
39400.0 206294.0 0
40049.9 210538.0 0
44700.7 209248.0 0
48754.8 208571.0 0
53060.3 208877.0 0
59509.9 207966.0 0
63884.3 209271.0 0
67604.7 208528.0 0
71690.4 208470.0 0
78269.7 208355.0 0
82473.9 209631.0 0
87142.4 210586.0 0
92000.9 208765.0 0
97001.6 208716.0 0
102129.0 207968.0 0
106970.0 210341.0 0
111123.0 208774.0 0
115819.0 210142.0 0
121101.0 210142.0 0
126570.0 208495.0 0
132454.0 208192.0 0
137140.0 209325.0 0
142292.0 208457.0 0
147729.0 207927.0 0
152626.0 208580.0 0
157520.0 207602.0 0
162024.0 209211.0 0
167210.0 207643.0 0
172467.0 208700.0 0
178177.0 209609.0 0
183465.0 207401.0 0
190426.0 208171.0 0
195412.0 209615.0 0
203349.0 208053.0 0
199782.0 210233.0 0
208209.0 209034.0 0
212594.0 208106.0 0
217691.0 208518.0 0
223418.0 208751.0 0
227715.0 209205.0 0
232754.0 208442.0 0
237940.0 209108.0 0
242259.0 207993.0 0
246587.0 207884.0 0
251471.0 209669.0 0
257654.0 209480.0 0
262650.0 207710.0 0
268085.0 207772.0 0
273560.0 209784.0 0
279482.0 209992.0 0
284052.0 206949.0 0
289111.0 207650.0 0
293628.0 205927.0 0
293851.0 210148.0 0
298804.0 208547.0 0
302788.0 208243.0 0
307480.0 208097.0 0
316381.0 208847.0 0
321288.0 208963.0 0
327595.0 207503.0 0
333600.0 209109.0 0
340751.0 207658.0 0
337885.0 210606.0 0
346462.0 208884.0 0
352478.0 209269.0 0
358047.0 210401.0 0
362683.0 208373.0 0
367602.0 209096.0 0
373234.0 208283.0 0
377756.0 210288.0 0
383126.0 209157.0 0
388876.0 209807.0 0
397596.0 207640.0 0
393913.0 210072.0 0
401992.0 209227.0 0
407551.0 209479.0 0
417741.0 208469.0 0
413353.0 209506.0 0
420745.0 209750.0 0
426075.0 209192.0 0
432061.0 208296.0 0
436728.0 208650.0 0
442764.0 208489.0 0
448811.0 210634.0 0
453407.0 208303.0 0
458505.0 209499.0 0
463594.0 206880.0 0
467772.0 209539.0 0
471814.0 207083.0 0
476446.0 208624.0 0
481096.0 206933.0 0
485653.0 207898.0 0
490705.0 208933.0 0
495996.0 207167.0 0
3208.94 214456.0 0
8255.89 213861.0 0
12761.2 213496.0 0
17404.7 214464.0 0
22004.7 214999.0 0
26226.7 214521.0 0
30947.9 213026.0 0
35927.4 213142.0 0
43627.1 213233.0 0
47752.2 212604.0 0
51805.6 212936.0 0
56826.1 213154.0 0
62575.6 213284.0 0
67167.1 213707.0 0
72516.9 213657.0 0
77988.4 212452.0 0
82529.4 214056.0 0
86296.6 214653.0 0
90160.5 213901.0 0
95222.8 213738.0 0
101125.0 213637.0 0
106556.0 215363.0 0
111796.0 213636.0 0
118330.0 214813.0 0
123278.0 214569.0 0
127623.0 213615.0 0
132213.0 213509.0 0
137230.0 213924.0 0
141706.0 215199.0 0
146466.0 212922.0 0
151572.0 215384.0 0
156133.0 212546.0 0
161835.0 215511.0 0
169287.0 214025.0 0
175977.0 215385.0 0
181608.0 214422.0 0
186110.0 211803.0 0
190989.0 213475.0 0
195750.0 214290.0 0
200533.0 215419.0 0
204955.0 212575.0 0
208469.0 214805.0 0
211634.0 212679.0 0
216519.0 213842.0 0
221719.0 213159.0 0
226711.0 213695.0 0
231968.0 212711.0 0
236079.0 213990.0 0
241451.0 212488.0 0
246778.0 212995.0 0
251432.0 213919.0 0
256154.0 214591.0 0
261545.0 213051.0 0
266310.0 212207.0 0
270633.0 214663.0 0
276600.0 214738.0 0
284960.0 212085.0 0
290174.0 212516.0 0
293746.0 214761.0 0
297267.0 212971.0 0
302694.0 211402.0 0
307437.0 212030.0 0
310140.0 214593.0 0
312812.0 211282.0 0
316962.0 213007.0 0
326194.0 212886.0 0
321557.0 214939.0 0
331844.0 214090.0 0
336687.0 214610.0 0
341777.0 213534.0 0
346620.0 214752.0 0
350386.0 213199.0 0
354413.0 214468.0 0
363424.0 213712.0 0
368532.0 214318.0 0
372657.0 212975.0 0
376992.0 215437.0 0
381265.0 213668.0 0
385752.0 214274.0 0
391601.0 214823.0 0
397807.0 213723.0 0
403439.0 214201.0 0
408195.0 214595.0 0
412657.0 214667.0 0
417329.0 213165.0 0
422295.0 213499.0 0
427069.0 215887.0 0
433143.0 214229.0 0
438896.0 212708.0 0
443936.0 214079.0 0
453762.0 213264.0 0
457905.0 215409.0 0
463034.0 213957.0 0
468108.0 214316.0 0
472246.0 212139.0 0
476527.0 213656.0 0
481587.0 212201.0 0
487402.0 212809.0 0
492245.0 215337.0 0
497268.0 212816.0 0
2743.22 219885.0 0
8043.41 218883.0 0
14924.2 218700.0 0
19912.2 219276.0 0
25331.7 219365.0 0
32697.8 219820.0 0
40003.7 216266.0 0
47200.1 217879.0 0
52667.9 217130.0 0
57752.8 219395.0 0
63750.4 218643.0 0
69578.1 219001.0 0
74693.6 219535.0 0
78841.3 217206.0 0
82761.3 218828.0 0
87411.5 219086.0 0
93077.2 219160.0 0
98831.8 218996.0 0
103893.0 219547.0 0
107221.0 219370.0 0
111637.0 219508.0 0
120394.0 219540.0 0
124181.0 218841.0 0
128407.0 218239.0 0
132873.0 217843.0 0
136855.0 218614.0 0
141100.0 219382.0 0
146521.0 218889.0 0
151900.0 220775.0 0
156635.0 218982.0 0
160664.0 221054.0 0
166705.0 220293.0 0
172254.0 219011.0 0
179233.0 219000.0 0
184126.0 219627.0 0
189311.0 217990.0 0
193666.0 218888.0 0
197501.0 218486.0 0
202960.0 219266.0 0
206287.0 217134.0 0
212272.0 218508.0 0
216822.0 218372.0 0
220989.0 217993.0 0
225754.0 218672.0 0
230994.0 217100.0 0
235667.0 218912.0 0
240555.0 217733.0 0
248385.0 217777.0 0
252570.0 217563.0 0
259983.0 217647.0 0
256068.0 219590.0 0
265486.0 217456.0 0
272926.0 218129.0 0
275663.0 218716.0 0
281964.0 217597.0 0
288341.0 217276.0 0
293481.0 219435.0 0
298770.0 217367.0 0
304642.0 216101.0 0
309160.0 218258.0 0
313930.0 216064.0 0
312952.0 220805.0 0
317702.0 217976.0 0
323362.0 220128.0 0
327800.0 217397.0 0
332500.0 218743.0 0
336869.0 219221.0 0
342205.0 219107.0 0
351675.0 218008.0 0
347212.0 219123.0 0
357649.0 218010.0 0
363234.0 220066.0 0
368505.0 218580.0 0
373400.0 219798.0 0
382578.0 217696.0 0
379103.0 219843.0 0
387081.0 219873.0 0
392325.0 221008.0 0
395893.0 218453.0 0
400749.0 218914.0 0
405935.0 218539.0 0
411228.0 219841.0 0
416962.0 219001.0 0
422188.0 218399.0 0
431392.0 219926.0 0
437982.0 218133.0 0
443846.0 219957.0 0
448492.0 216481.0 0
453588.0 218492.0 0
449069.0 220830.0 0
458355.0 219606.0 0
462244.0 218949.0 0
467271.0 219321.0 0
472251.0 217284.0 0
478245.0 218418.0 0
483448.0 217323.0 0
487731.0 217481.0 0
492455.0 220325.0 0
497111.0 218417.0 0
2122.04 224710.0 0
6630.36 223818.0 0
11766.1 221363.0 0
10875.5 225016.0 0
16445.9 223942.0 0
22136.3 224075.0 0
26808.3 223940.0 0
38041.9 225265.0 0
42533.4 221235.0 0
44041.3 225751.0 0
47182.2 223009.0 0
52162.2 222556.0 0
57345.9 225492.0 0
62695.9 224022.0 0
67631.1 224343.0 0
72733.7 224081.0 0
77869.6 223458.0 0
83358.2 223542.0 0
88732.5 224047.0 0
93487.1 224019.0 0
97430.1 223631.0 0
102461.0 224757.0 0
107419.0 222621.0 0
111802.0 225873.0 0
116410.0 222200.0 0
120438.0 225401.0 0
125860.0 223165.0 0
131748.0 222567.0 0
137380.0 223493.0 0
143320.0 224281.0 0
148471.0 223839.0 0
152883.0 225304.0 0
157305.0 223981.0 0
163247.0 223413.0 0
168105.0 225707.0 0
170863.0 222446.0 0
175911.0 223018.0 0
181670.0 224835.0 0
189131.0 223237.0 0
194261.0 223638.0 0
199453.0 222836.0 0
203612.0 224849.0 0
207408.0 221923.0 0
210864.0 225597.0 0
216145.0 223894.0 0
221748.0 222241.0 0
226486.0 223946.0 0
232439.0 223089.0 0
238428.0 222846.0 0
244744.0 222061.0 0
251366.0 222553.0 0
256827.0 224117.0 0
261846.0 222230.0 0
270072.0 221478.0 0
266234.0 225573.0 0
274194.0 224217.0 0
278045.0 221752.0 0
283476.0 223916.0 0
289023.0 222602.0 0
293260.0 224946.0 0
297210.0 222249.0 0
302999.0 222576.0 0
308800.0 223475.0 0
318355.0 223254.0 0
324038.0 225576.0 0
328786.0 222620.0 0
334061.0 224365.0 0
339587.0 223772.0 0
344927.0 223573.0 0
349983.0 223109.0 0
354424.0 221626.0 0
358646.0 224730.0 0
363894.0 225658.0 0
368160.0 223299.0 0
372316.0 224522.0 0
376965.0 224377.0 0
382474.0 223339.0 0
387497.0 224355.0 0
392129.0 225115.0 0
396150.0 223828.0 0
401230.0 224382.0 0
406694.0 223701.0 0
411220.0 224713.0 0
415492.0 224040.0 0
421159.0 223985.0 0
426356.0 221442.0 0
428514.0 224954.0 0
430952.0 224358.0 0
435837.0 224154.0 0
442048.0 225897.0 0
446666.0 224321.0 0
451289.0 225545.0 0
456080.0 223273.0 0
461500.0 223999.0 0
466933.0 224728.0 0
472915.0 222483.0 0
478057.0 223887.0 0
482526.0 221786.0 0
487864.0 222610.0 0
493648.0 224225.0 0
498089.0 223098.0 0
2813.99 229502.0 0
8166.66 228761.0 0
12897.1 228124.0 0
16334.5 228774.0 0
20386.9 228653.0 0
25271.7 229881.0 0
31182.5 227621.0 0
37229.8 230607.0 0
41791.2 229614.0 0
47442.5 229733.0 0
53098.2 229045.0 0
58687.1 230783.0 0
63564.6 229176.0 0
68267.1 228740.0 0
72452.7 228930.0 0
77184.7 228571.0 0
86321.2 227666.0 0
82034.1 228650.0 0
91303.2 228584.0 0
96817.0 228032.0 0
101397.0 230649.0 0
107502.0 230847.0 0
116465.0 228605.0 0
113003.0 230700.0 0
121275.0 230136.0 0
126005.0 229324.0 0
132125.0 228951.0 0
137822.0 229134.0 0
142843.0 229669.0 0
147535.0 228392.0 0
152632.0 229947.0 0
157564.0 228969.0 0
162716.0 227915.0 0
167298.0 230737.0 0
172608.0 228206.0 0
177861.0 228310.0 0
182312.0 229930.0 0
186381.0 227576.0 0
192092.0 228115.0 0
196633.0 228796.0 0
201123.0 228312.0 0
206780.0 228125.0 0
212749.0 228719.0 0
217646.0 229808.0 0
221803.0 226904.0 0
226809.0 229050.0 0
231556.0 228718.0 0
236402.0 227763.0 0
241217.0 227310.0 0
240060.0 230681.0 0
245782.0 227409.0 0
250441.0 228445.0 0
255188.0 228295.0 0
260758.0 228406.0 0
266791.0 231093.0 0
271147.0 227881.0 0
278154.0 227481.0 0
283282.0 230746.0 0
288454.0 227895.0 0
293474.0 229846.0 0
298384.0 227458.0 0
303451.0 228128.0 0
308183.0 228483.0 0
314345.0 228590.0 0
319260.0 228196.0 0
328965.0 228189.0 0
333144.0 228576.0 0
336742.0 228528.0 0
342586.0 228935.0 0
347876.0 228091.0 0
353206.0 227791.0 0
357766.0 230413.0 0
362508.0 230470.0 0
367788.0 228948.0 0
373560.0 229160.0 0
382646.0 228590.0 0
378331.0 228886.0 0
387500.0 228891.0 0
390844.0 228693.0 0
394213.0 228285.0 0
397993.0 228286.0 0
405860.0 229732.0 0
412258.0 229346.0 0
417887.0 228853.0 0
423013.0 229250.0 0
427879.0 228846.0 0
432792.0 229311.0 0
437678.0 229798.0 0
441770.0 230565.0 0
447090.0 228579.0 0
452126.0 230707.0 0
456327.0 228221.0 0
461268.0 229654.0 0
466169.0 229311.0 0
470975.0 227473.0 0
476161.0 228913.0 0
482655.0 227787.0 0
488906.0 228175.0 0
492847.0 231022.0 0
497008.0 227880.0 0
2320.79 233944.0 0
7488.63 233607.0 0
11901.1 232091.0 0
17722.5 233016.0 0
22193.3 233610.0 0
25715.2 234406.0 0
29626.8 236194.0 0
33500.8 233205.0 0
36830.7 235625.0 0
41262.5 234843.0 0
46268.9 234964.0 0
51631.9 234389.0 0
56868.5 235043.0 0
62241.6 234631.0 0
67516.5 233456.0 0
72507.3 233541.0 0
81267.7 233772.0 0
76625.7 234605.0 0
87015.5 232687.0 0
92309.7 233852.0 0
97256.3 233874.0 0
102435.0 235799.0 0
106772.0 235991.0 0
111799.0 234675.0 0
117641.0 234147.0 0
123434.0 233874.0 0
128783.0 234379.0 0
134059.0 233992.0 0
137961.0 233722.0 0
142163.0 233670.0 0
147509.0 234191.0 0
152875.0 234880.0 0
158961.0 233357.0 0
162909.0 233290.0 0
167203.0 235375.0 0
171997.0 232641.0 0
177735.0 233846.0 0
183259.0 234610.0 0
188249.0 232551.0 0
193905.0 233408.0 0
199062.0 233127.0 0
204165.0 233560.0 0
214032.0 232082.0 0
209499.0 233195.0 0
213607.0 236351.0 0
217446.0 234189.0 0
222153.0 232396.0 0
226339.0 232915.0 0
230557.0 234242.0 0
235737.0 232504.0 0
243725.0 231601.0 0
240024.0 234655.0 0
250371.0 233838.0 0
256482.0 233719.0 0
262638.0 234034.0 0
272519.0 233523.0 0
278323.0 233294.0 0
282856.0 236286.0 0
289979.0 233390.0 0
294946.0 234292.0 0
299374.0 232813.0 0
303655.0 232126.0 0
307815.0 233640.0 0
313027.0 234781.0 0
317912.0 232998.0 0
322904.0 231323.0 0
324605.0 235893.0 0
327975.0 233224.0 0
333182.0 232861.0 0
338985.0 234222.0 0
344310.0 234218.0 0
346986.0 231646.0 0
351178.0 233893.0 0
358167.0 234794.0 0
362962.0 235376.0 0
367644.0 234312.0 0
372882.0 234791.0 0
377591.0 233564.0 0
387666.0 233353.0 0
383032.0 233755.0 0
390580.0 234236.0 0
394662.0 232904.0 0
400641.0 232672.0 0
404215.0 235973.0 0
409728.0 235193.0 0
416363.0 234637.0 0
422814.0 234907.0 0
428624.0 233675.0 0
433383.0 234130.0 0
438576.0 235051.0 0
448819.0 233441.0 0
444220.0 234363.0 0
452095.0 234697.0 0
457221.0 234485.0 0
462828.0 234130.0 0
466794.0 235399.0 0
470795.0 232662.0 0
476401.0 235292.0 0
482886.0 234529.0 0
488671.0 233689.0 0
492896.0 234743.0 0
497140.0 233742.0 0
2876.44 237777.0 0
7660.86 238068.0 0
13294.2 236490.0 0
17517.6 237909.0 0
21986.4 237896.0 0
25929.5 238302.0 0
33841.1 239064.0 0
38550.8 239093.0 0
43314.1 239904.0 0
47500.0 238704.0 0
51973.3 240036.0 0
58906.0 239596.0 0
64493.1 239824.0 0
69003.1 238553.0 0
73874.1 238012.0 0
77214.8 238431.0 0
80690.3 238874.0 0
86320.3 238995.0 0
92812.0 238860.0 0
98243.4 239135.0 0
103093.0 239763.0 0
109025.0 239172.0 0
113207.0 238788.0 0
122442.0 238659.0 0
117544.0 239857.0 0
126563.0 239271.0 0
131864.0 238728.0 0
136845.0 238270.0 0
140202.0 240580.0 0
144010.0 238958.0 0
150418.0 238752.0 0
157088.0 238578.0 0
162994.0 237676.0 0
167638.0 240038.0 0
173053.0 238274.0 0
183035.0 239223.0 0
178842.0 239912.0 0
186684.0 237929.0 0
191846.0 238285.0 0
196807.0 237476.0 0
201799.0 238574.0 0
207325.0 238297.0 0
216950.0 239377.0 0
220489.0 237232.0 0
225390.0 236764.0 0
229380.0 239278.0 0
235827.0 237983.0 0
240229.0 239672.0 0
245174.0 237679.0 0
252504.0 238851.0 0
257225.0 239177.0 0
262349.0 238811.0 0
267374.0 236605.0 0
272616.0 239630.0 0
277797.0 238313.0 0
289754.0 238163.0 0
285973.0 239791.0 0
293412.0 237868.0 0
297867.0 238794.0 0
303741.0 237276.0 0
309258.0 239205.0 0
315415.0 240200.0 0
320289.0 237324.0 0
323683.0 240841.0 0
328759.0 238863.0 0
334650.0 238171.0 0
338212.0 240422.0 0
342799.0 239367.0 0
348330.0 238693.0 0
354572.0 238614.0 0
358832.0 238755.0 0
362308.0 239430.0 0
366735.0 239353.0 0
371991.0 240176.0 0
376885.0 237385.0 0
380639.0 238037.0 0
386650.0 238535.0 0
391382.0 237620.0 0
396440.0 238612.0 0
400518.0 237049.0 0
407477.0 240656.0 0
413219.0 240488.0 0
418109.0 239682.0 0
422109.0 240062.0 0
426880.0 238514.0 0
431422.0 238418.0 0
436290.0 240397.0 0
442101.0 239705.0 0
447551.0 238619.0 0
452805.0 238884.0 0
457500.0 240552.0 0
461588.0 238348.0 0
465844.0 239455.0 0
470829.0 238457.0 0
476633.0 241216.0 0
480520.0 238947.0 0
485119.0 239573.0 0
491128.0 239535.0 0
497365.0 239233.0 0
2104.57 241934.0 0
6793.1 243564.0 0
12523.0 241851.0 0
18520.5 242945.0 0
24345.7 242672.0 0
30115.0 243043.0 0
35415.9 244480.0 0
39871.4 243149.0 0
43530.5 245191.0 0
47478.5 242877.0 0
51743.3 244874.0 0
56704.2 244627.0 0
61963.1 244639.0 0
66636.8 244317.0 0
71689.6 242899.0 0
77190.2 242048.0 0
82290.1 243862.0 0
88450.7 245311.0 0
93312.9 242966.0 0
97500.0 243738.0 0
102236.0 243539.0 0
107094.0 243313.0 0
112293.0 243041.0 0
117490.0 244471.0 0
122473.0 242731.0 0
132592.0 243491.0 0
127671.0 244236.0 0
137655.0 243212.0 0
142127.0 243645.0 0
147640.0 243431.0 0
153048.0 242764.0 0
157498.0 244458.0 0
161581.0 242607.0 0
165671.0 244291.0 0
171238.0 244144.0 0
176242.0 244138.0 0
180334.0 244582.0 0
184969.0 243009.0 0
190264.0 242575.0 0
195408.0 243063.0 0
201314.0 244028.0 0
206586.0 244352.0 0
212327.0 242178.0 0
218110.0 243714.0 0
222875.0 241692.0 0
227521.0 244310.0 0
232623.0 242850.0 0
238161.0 243652.0 0
243787.0 244011.0 0
248620.0 242593.0 0
255012.0 242907.0 0
251714.0 245909.0 0
259924.0 243077.0 0
266657.0 243646.0 0
272631.0 244566.0 0
276490.0 243175.0 0
281555.0 242036.0 0
287001.0 244382.0 0
292796.0 242687.0 0
298712.0 244660.0 0
303433.0 242570.0 0
307680.0 243860.0 0
312777.0 245474.0 0
319103.0 244560.0 0
323796.0 245065.0 0
328209.0 244505.0 0
332676.0 242809.0 0
337206.0 244202.0 0
341737.0 244604.0 0
346948.0 244098.0 0
352951.0 243890.0 0
358288.0 242573.0 0
363849.0 243824.0 0
368583.0 243462.0 0
377265.0 241687.0 0
372514.0 244054.0 0
383137.0 243006.0 0
392797.0 242356.0 0
388492.0 244237.0 0
396700.0 244131.0 0
401635.0 242123.0 0
408627.0 245249.0 0
412942.0 245451.0 0
417500.0 243637.0 0
423652.0 243964.0 0
429096.0 242713.0 0
432842.0 243897.0 0
439595.0 244053.0 0
445090.0 243699.0 0
449569.0 243354.0 0
453927.0 243700.0 0
458047.0 245115.0 0
461735.0 242909.0 0
466237.0 244164.0 0
472010.0 244483.0 0
477068.0 245840.0 0
481394.0 243568.0 0
487084.0 244786.0 0
492809.0 245432.0 0
497596.0 244267.0 0
3506.56 249015.0 0
8912.79 248830.0 0
12819.1 247277.0 0
18046.0 249156.0 0
23734.9 248038.0 0
29008.9 248839.0 0
33721.3 248642.0 0
38524.5 248962.0 0
43678.3 249914.0 0
47740.3 247640.0 0
52005.1 249431.0 0
56980.2 250034.0 0
61797.1 249347.0 0
66400.8 248910.0 0
71634.9 248785.0 0
78212.0 249265.0 0
84123.6 248605.0 0
87688.9 250386.0 0
94100.7 247181.0 0
99300.7 248436.0 0
103854.0 249871.0 0
108321.0 248277.0 0
113638.0 247883.0 0
122396.0 247123.0 0
118190.0 248918.0 0
126893.0 249182.0 0
131339.0 248331.0 0
135405.0 246970.0 0
139967.0 247918.0 0
145200.0 248566.0 0
151687.0 248874.0 0
157466.0 249622.0 0
162230.0 248036.0 0
167844.0 248607.0 0
173467.0 249781.0 0
178662.0 248555.0 0
183502.0 248556.0 0
188832.0 246680.0 0
193407.0 249308.0 0
198168.0 247774.0 0
202232.0 249348.0 0
207018.0 249520.0 0
212384.0 248577.0 0
217318.0 248178.0 0
221944.0 247028.0 0
226300.0 249097.0 0
231240.0 248246.0 0
236066.0 248834.0 0
240757.0 248676.0 0
247337.0 248038.0 0
251815.0 249916.0 0
256827.0 248060.0 0
262030.0 248214.0 0
266326.0 250970.0 0
272437.0 249311.0 0
277767.0 247606.0 0
282669.0 247532.0 0
287559.0 249866.0 0
294269.0 249303.0 0
299731.0 249475.0 0
304165.0 247581.0 0
308987.0 248850.0 0
315360.0 250371.0 0
320382.0 249570.0 0
326093.0 249804.0 0
333151.0 248971.0 0
339138.0 249497.0 0
343431.0 248623.0 0
347364.0 248897.0 0
351802.0 249435.0 0
357554.0 247923.0 0
363006.0 248860.0 0
368200.0 248301.0 0
373379.0 247719.0 0
378054.0 246789.0 0
382803.0 249156.0 0
392116.0 247311.0 0
387997.0 249953.0 0
397058.0 248481.0 0
402873.0 248795.0 0
407560.0 248798.0 0
411391.0 249748.0 0
416297.0 248600.0 0
421523.0 248396.0 0
427085.0 247778.0 0
431835.0 250044.0 0
436284.0 247564.0 0
442628.0 248965.0 0
449565.0 248981.0 0
454948.0 248370.0 0
459036.0 249400.0 0
462490.0 247138.0 0
462382.0 251608.0 0
466450.0 249026.0 0
470797.0 249650.0 0
475073.0 249395.0 0
479816.0 249885.0 0
485461.0 250447.0 0
491395.0 249640.0 0
496535.0 249743.0 0
3164.76 255678.0 0
7861.25 252894.0 0
13199.1 253187.0 0
18016.5 255130.0 0
22913.6 253670.0 0
28302.8 253982.0 0
33684.6 253551.0 0
38744.2 253900.0 0
42462.5 253745.0 0
47500.0 253514.0 0
52556.3 253828.0 0
57796.4 255348.0 0
62773.9 253813.0 0
67039.8 253712.0 0
72935.3 254835.0 0
78321.3 255064.0 0
82589.4 253658.0 0
87056.8 254301.0 0
92062.6 252496.0 0
97669.8 253724.0 0
102295.0 253542.0 0
107409.0 254110.0 0
113346.0 253300.0 0
121263.0 252410.0 0
117556.0 254650.0 0
125795.0 255099.0 0
129834.0 252597.0 0
135555.0 252768.0 0
141810.0 252785.0 0
147628.0 254914.0 0
152819.0 254224.0 0
156963.0 254099.0 0
162566.0 254150.0 0
168615.0 254125.0 0
178548.0 253640.0 0
173684.0 255152.0 0
183148.0 255273.0 0
188012.0 252566.0 0
193377.0 254112.0 0
197872.0 252798.0 0
202711.0 253544.0 0
206542.0 253910.0 0
210420.0 253156.0 0
215941.0 252699.0 0
222036.0 253164.0 0
227895.0 253561.0 0
232874.0 252711.0 0
237581.0 253310.0 0
243282.0 253158.0 0
248661.0 253513.0 0
254443.0 253584.0 0
259267.0 252914.0 0
262876.0 254679.0 0
267423.0 256670.0 0
270747.0 253593.0 0
276853.0 252173.0 0
282813.0 253686.0 0
288053.0 255181.0 0
292377.0 254853.0 0
298263.0 253771.0 0
306023.0 253171.0 0
310182.0 254715.0 0
311333.0 251899.0 0
314049.0 255392.0 0
318474.0 253627.0 0
322500.0 253799.0 0
328895.0 254467.0 0
333247.0 255353.0 0
337011.0 253358.0 0
341117.0 253284.0 0
346178.0 253423.0 0
357134.0 253241.0 0
352136.0 255542.0 0
361936.0 253773.0 0
372171.0 252335.0 0
367471.0 255075.0 0
377869.0 252782.0 0
383976.0 255200.0 0
389039.0 254721.0 0
392971.0 252527.0 0
398548.0 253905.0 0
404604.0 253955.0 0
408304.0 253962.0 0
411600.0 254041.0 0
415648.0 253395.0 0
420774.0 253885.0 0
427258.0 254331.0 0
432708.0 254113.0 0
437828.0 254165.0 0
443857.0 255214.0 0
448899.0 255102.0 0
453714.0 253204.0 0
458587.0 253491.0 0
466456.0 253906.0 0
471667.0 254307.0 0
476745.0 253973.0 0
482118.0 254755.0 0
489726.0 253766.0 0
493000.0 255757.0 0
497149.0 255737.0 0
2175.07 260925.0 0
6289.9 259877.0 0
11599.4 259303.0 0
17536.7 259594.0 0
22463.9 259341.0 0
27690.3 259043.0 0
32846.5 258931.0 0
37849.2 258434.0 0
42860.5 258535.0 0
47500.0 258597.0 0
52500.0 258516.0 0
57471.7 259809.0 0
62273.8 258870.0 0
67614.2 258098.0 0
72220.4 260556.0 0
77001.7 258952.0 0
81628.0 258563.0 0
86239.4 258422.0 0
91741.2 258909.0 0
97809.7 259113.0 0
102672.0 258092.0 0
106904.0 260256.0 0
111197.0 258183.0 0
115541.0 258980.0 0
120820.0 258300.0 0
126022.0 259931.0 0
131560.0 258584.0 0
137591.0 258955.0 0
143034.0 259391.0 0
152339.0 258208.0 0
148515.0 260721.0 0
156779.0 258779.0 0
161255.0 259992.0 0
165873.0 258659.0 0
170821.0 259082.0 0
176306.0 259723.0 0
181155.0 258791.0 0
186195.0 260785.0 0
190736.0 257495.0 0
195917.0 258437.0 0
202303.0 257229.0 0
207032.0 258923.0 0
212699.0 257369.0 0
217371.0 257121.0 0
217601.0 261838.0 0
221331.0 258665.0 0
226116.0 258394.0 0
231893.0 257763.0 0
236937.0 259875.0 0
240966.0 257407.0 0
246410.0 259483.0 0
252566.0 258851.0 0
257944.0 256950.0 0
257169.0 261420.0 0
262493.0 259722.0 0
272724.0 257678.0 0
277825.0 256872.0 0
276210.0 261092.0 0
283403.0 260723.0 0
290003.0 259700.0 0
296051.0 258948.0 0
302078.0 257826.0 0
308490.0 258680.0 0
313701.0 260523.0 0
318491.0 258195.0 0
325756.0 258159.0 0
322154.0 260908.0 0
331010.0 259914.0 0
336305.0 259036.0 0
342218.0 258682.0 0
347987.0 259616.0 0
352469.0 261199.0 0
357711.0 259100.0 0
363367.0 258696.0 0
372125.0 258454.0 0
367620.0 261181.0 0
377593.0 258746.0 0
382667.0 261473.0 0
388200.0 259592.0 0
393855.0 258203.0 0
403548.0 259753.0 0
409206.0 260501.0 0
413407.0 258227.0 0
418014.0 258839.0 0
422330.0 258926.0 0
427432.0 261083.0 0
432985.0 258370.0 0
437053.0 259091.0 0
442559.0 260702.0 0
447415.0 258477.0 0
451703.0 259057.0 0
455864.0 257473.0 0
461828.0 258784.0 0
468602.0 259486.0 0
474669.0 259393.0 0
480001.0 258858.0 0
486590.0 258983.0 0
493166.0 260133.0 0
498364.0 260057.0 0
2648.15 265207.0 0
6704.61 263747.0 0
11883.6 266090.0 0
17237.5 264091.0 0
21689.6 264216.0 0
26625.8 264245.0 0
32269.7 264386.0 0
37800.7 263504.0 0
42911.0 263651.0 0
48373.5 263470.0 0
53049.3 263699.0 0
57491.6 264094.0 0
62500.0 263683.0 0
67351.0 263707.0 0
72974.1 264892.0 0
77090.4 263880.0 0
80945.7 263867.0 0
86598.7 263595.0 0
92663.0 265503.0 0
98143.0 264157.0 0
102893.0 263109.0 0
107106.0 265610.0 0
112144.0 263484.0 0
117790.0 263351.0 0
127517.0 263647.0 0
123040.0 265018.0 0
131674.0 265389.0 0
135064.0 262460.0 0
139795.0 265084.0 0
146647.0 265954.0 0
153458.0 264006.0 0
159442.0 264535.0 0
165970.0 263873.0 0
171467.0 264309.0 0
177281.0 265943.0 0
183206.0 266063.0 0
191890.0 262236.0 0
188840.0 266378.0 0
195951.0 266078.0 0
201252.0 262186.0 0
206421.0 265651.0 0
211876.0 263138.0 0
222978.0 263323.0 0
228689.0 263355.0 0
233721.0 262730.0 0
236992.0 264409.0 0
241144.0 262749.0 0
246178.0 265909.0 0
251698.0 264294.0 0
258371.0 266405.0 0
263468.0 265311.0 0
268878.0 262649.0 0
274494.0 265333.0 0
279011.0 264143.0 0
288581.0 264449.0 0
293675.0 264645.0 0
300174.0 263991.0 0
305257.0 262326.0 0
304987.0 266321.0 0
308858.0 264578.0 0
313447.0 265523.0 0
316767.0 263359.0 0
320568.0 265043.0 0
326677.0 264594.0 0
333860.0 264868.0 0
338665.0 263413.0 0
342798.0 264150.0 0
347414.0 264587.0 0
352857.0 266024.0 0
357815.0 264885.0 0
362634.0 263519.0 0
367023.0 265527.0 0
371859.0 263920.0 0
377436.0 264669.0 0
382625.0 265832.0 0
386621.0 265119.0 0
391984.0 264383.0 0
397810.0 262061.0 0
396544.0 266178.0 0
401644.0 266475.0 0
406987.0 264701.0 0
411809.0 264202.0 0
417020.0 263379.0 0
422568.0 264662.0 0
427263.0 266792.0 0
432184.0 264963.0 0
437978.0 264312.0 0
442949.0 266256.0 0
448192.0 263532.0 0
452072.0 266700.0 0
455968.0 263384.0 0
461567.0 265342.0 0
466227.0 263997.0 0
471901.0 265711.0 0
477525.0 264195.0 0
481988.0 262835.0 0
481331.0 266677.0 0
486495.0 266297.0 0
491854.0 265240.0 0
497015.0 264823.0 0
162837.0 267527.0 0
201237.0 267621.0 0
204487.0 270179.0 0
210806.0 268802.0 0
216432.0 267582.0 0
222484.0 269055.0 0
227972.0 268761.0 0
233939.0 267553.0 0
231483.0 272094.0 0
236568.0 270881.0 0
240345.0 268527.0 0
244597.0 271595.0 0
248987.0 270468.0 0
253462.0 269064.0 0
257894.0 271959.0 0
261353.0 269471.0 0
265865.0 270207.0 0
270686.0 268171.0 0
278590.0 269622.0 0
284469.0 267102.0 0
283446.0 271745.0 0
289812.0 268992.0 0
297123.0 269364.0 0
302372.0 269915.0 0
199595.0 272547.0 0
204474.0 274312.0 0
209480.0 273794.0 0
215743.0 273686.0 0
221150.0 274434.0 0
226662.0 274463.0 0
235339.0 274052.0 0
240451.0 274635.0 0
245803.0 276741.0 0
252377.0 274001.0 0
262164.0 272558.0 0
262919.0 276627.0 0
271456.0 273305.0 0
276403.0 274988.0 0
280921.0 274880.0 0
284552.0 276162.0 0
287244.0 273298.0 0
293212.0 273877.0 0
299469.0 274733.0 0
200589.0 278834.0 0
206847.0 278804.0 0
212365.0 278013.0 0
218224.0 279363.0 0
223367.0 278355.0 0
227355.0 280417.0 0
231830.0 277399.0 0
236737.0 277718.0 0
236102.0 281779.0 0
240967.0 280362.0 0
250601.0 278306.0 0
256852.0 278357.0 0
261596.0 281751.0 0
268027.0 277454.0 0
273337.0 279674.0 0
278875.0 278892.0 0
283257.0 279764.0 0
288805.0 278589.0 0
294288.0 279480.0 0
298344.0 279439.0 0
202186.0 285211.0 0
208351.0 284306.0 0
213606.0 283095.0 0
218695.0 284736.0 0
223722.0 284348.0 0
228242.0 284990.0 0
231686.0 282770.0 0
231228.0 287376.0 0
237013.0 287212.0 0
240606.0 284441.0 0
243171.0 287214.0 0
246388.0 282607.0 0
252222.0 283038.0 0
257462.0 284253.0 0
261847.0 287066.0 0
266657.0 282684.0 0
271774.0 284440.0 0
276893.0 283664.0 0
279536.0 286517.0 0
281070.0 282809.0 0
285887.0 283789.0 0
291453.0 283528.0 0
297261.0 284039.0 0
341742.0 286304.0 0
10310.7 288640.0 0
201834.0 292336.0 0
206141.0 289709.0 0
210352.0 288304.0 0
215215.0 288630.0 0
220830.0 288960.0 0
226507.0 289934.0 0
232149.0 292445.0 0
248823.0 287983.0 0
254692.0 288187.0 0
258648.0 291849.0 0
268401.0 289155.0 0
274595.0 287710.0 0
278613.0 290599.0 0
283533.0 288722.0 0
289159.0 288316.0 0
293907.0 287635.0 0
297949.0 290206.0 0
309756.0 290170.0 0
48261.5 296064.0 0
174681.0 295089.0 0
201379.0 297112.0 0
206263.0 295018.0 0
211453.0 293154.0 0
216928.0 294170.0 0
222278.0 293825.0 0
228059.0 294442.0 0
237070.0 292595.0 0
237522.0 297509.0 0
241921.0 292652.0 0
247676.0 293877.0 0
253246.0 293340.0 0
258820.0 297043.0 0
262733.0 294414.0 0
267378.0 295432.0 0
273122.0 294028.0 0
279204.0 296321.0 0
282847.0 292973.0 0
287155.0 294568.0 0
292990.0 292850.0 0
297864.0 296710.0 0
362467.0 296313.0 0
368610.0 296096.0 0
389098.0 295160.0 0
404603.0 293426.0 0
421499.0 294697.0 0
443009.0 294345.0 0
455114.0 294726.0 0
472319.0 295470.0 0
492537.0 296446.0 0
497243.0 294294.0 0
6878.9 298450.0 0
56374.4 299978.0 0
63868.7 299987.0 0
68827.6 301007.0 0
79658.9 301741.0 0
85031.3 302439.0 0
96187.4 300254.0 0
100416.0 299701.0 0
107589.0 301438.0 0
115161.0 301740.0 0
121008.0 301633.0 0
126005.0 299422.0 0
154054.0 302043.0 0
158565.0 301437.0 0
167796.0 298312.0 0
177286.0 299142.0 0
178735.0 302508.0 0
191569.0 300294.0 0
196244.0 301223.0 0
200895.0 301470.0 0
205158.0 299912.0 0
210441.0 298825.0 0
215531.0 298863.0 0
217859.0 302537.0 0
220099.0 298279.0 0
222333.0 302449.0 0
225532.0 297928.0 0
231431.0 298575.0 0
242313.0 300539.0 0
248060.0 299937.0 0
253780.0 298686.0 0
259043.0 301451.0 0
263577.0 299597.0 0
269203.0 300550.0 0
274268.0 299284.0 0
284317.0 299551.0 0
288835.0 299161.0 0
292796.0 298132.0 0
297444.0 301712.0 0
309917.0 301675.0 0
317421.0 298389.0 0
322450.0 299780.0 0
357807.0 297896.0 0
374583.0 298737.0 0
391311.0 301838.0 0
423600.0 302649.0 0
437044.0 297987.0 0
461586.0 298587.0 0
471850.0 302446.0 0
476569.0 298713.0 0
481239.0 299806.0 0
14254.8 303003.0 0
17655.2 306320.0 0
22442.4 304318.0 0
30433.9 304223.0 0
36537.1 304756.0 0
48339.7 306968.0 0
53010.0 306965.0 0
75161.9 303042.0 0
93065.2 306355.0 0
111005.0 303283.0 0
124379.0 306528.0 0
131855.0 303744.0 0
137504.0 302757.0 0
142262.0 305010.0 0
150902.0 306333.0 0
173221.0 304165.0 0
178042.0 306009.0 0
208018.0 302906.0 0
204094.0 304555.0 0
213367.0 303728.0 0
209332.0 307280.0 0
220085.0 306523.0 0
227469.0 303225.0 0
233030.0 304308.0 0
238139.0 303479.0 0
241717.0 305316.0 0
245373.0 304451.0 0
251048.0 304815.0 0
255495.0 303227.0 0
257879.0 307105.0 0
261783.0 303892.0 0
267219.0 305594.0 0
273095.0 303576.0 0
277795.0 303004.0 0
282141.0 303327.0 0
284672.0 305814.0 0
280751.0 307561.0 0
287749.0 303315.0 0
292953.0 303136.0 0
296817.0 306212.0 0
322451.0 304492.0 0
326630.0 305251.0 0
330913.0 305525.0 0
339605.0 304869.0 0
345114.0 307062.0 0
388726.0 306353.0 0
396056.0 303277.0 0
407296.0 307430.0 0
417127.0 304343.0 0
426612.0 306217.0 0
431907.0 306920.0 0
439714.0 305209.0 0
444222.0 307466.0 0
449230.0 304359.0 0
458451.0 307225.0 0
462790.0 305036.0 0
466760.0 303849.0 0
479717.0 305089.0 0
484429.0 305169.0 0
497839.0 303745.0 0
2631.23 311610.0 0
8033.11 308639.0 0
14588.8 309827.0 0
18911.2 312154.0 0
30589.4 310425.0 0
37311.7 312756.0 0
40985.6 309161.0 0
45936.2 310636.0 0
88220.9 308429.0 0
92904.6 311364.0 0
96476.5 312802.0 0
97919.2 308480.0 0
102310.0 310587.0 0
113050.0 310645.0 0
119140.0 308630.0 0
126262.0 310735.0 0
137141.0 312195.0 0
146000.0 308461.0 0
155278.0 309698.0 0
169989.0 309417.0 0
177573.0 310179.0 0
183090.0 311833.0 0
188927.0 310485.0 0
194753.0 311749.0 0
199549.0 309096.0 0
204423.0 309694.0 0
208785.0 312500.0 0
215084.0 309254.0 0
222107.0 310788.0 0
225962.0 308205.0 0
230713.0 309063.0 0
236397.0 308800.0 0
241434.0 309089.0 0
247374.0 309881.0 0
253462.0 309316.0 0
257607.0 312862.0 0
262773.0 308120.0 0
262735.0 312818.0 0
267276.0 310928.0 0
271749.0 308025.0 0
276227.0 309482.0 0
284088.0 312468.0 0
287918.0 308270.0 0
292538.0 308046.0 0
300477.0 308647.0 0
296355.0 310966.0 0
304837.0 309123.0 0
308738.0 308313.0 0
309713.0 312471.0 0
314014.0 311214.0 0
318277.0 308513.0 0
335045.0 308185.0 0
342101.0 310462.0 0
348027.0 310616.0 0
364943.0 309619.0 0
368691.0 312252.0 0
377600.0 310481.0 0
383597.0 309272.0 0
390690.0 310283.0 0
393964.0 308160.0 0
394399.0 312950.0 0
398809.0 310312.0 0
403236.0 311183.0 0
412976.0 309752.0 0
422388.0 308115.0 0
431773.0 312443.0 0
436080.0 308758.0 0
473827.0 311874.0 0
478880.0 310309.0 0
489239.0 308094.0 0
492521.0 312092.0 0
497266.0 311849.0 0
4198.95 316713.0 0
10165.2 314862.0 0
27252.5 314477.0 0
31965.1 316962.0 0
44551.6 316118.0 0
49617.5 317053.0 0
54909.3 313626.0 0
60744.6 314674.0 0
65233.2 317818.0 0
73247.1 316712.0 0
79797.4 317210.0 0
85759.2 313645.0 0
91010.0 313777.0 0
100409.0 314970.0 0
105708.0 313678.0 0
118044.0 315934.0 0
122206.0 317933.0 0
127597.0 315463.0 0
132697.0 314114.0 0
140009.0 316422.0 0
145853.0 316439.0 0
166524.0 313473.0 0
169946.0 317177.0 0
175197.0 315513.0 0
182126.0 317074.0 0
204257.0 315207.0 0
208505.0 317964.0 0
213016.0 315654.0 0
218431.0 314344.0 0
222798.0 314685.0 0
226659.0 313036.0 0
226393.0 317989.0 0
231898.0 314254.0 0
237321.0 314220.0 0
242506.0 313725.0 0
247185.0 316253.0 0
252147.0 314238.0 0
265982.0 316681.0 0
272524.0 313725.0 0
278405.0 313624.0 0
281536.0 317066.0 0
286599.0 318028.0 0
290945.0 313399.0 0
296218.0 317089.0 0
305456.0 313053.0 0
301892.0 316099.0 0
308860.0 317088.0 0
312811.0 316466.0 0
335177.0 315691.0 0
341691.0 315356.0 0
360423.0 313421.0 0
368277.0 317756.0 0
373639.0 314671.0 0
380959.0 315261.0 0
385630.0 314003.0 0
388242.0 317241.0 0
398411.0 314330.0 0
402468.0 316085.0 0
411664.0 317192.0 0
415149.0 314195.0 0
440796.0 317696.0 0
462565.0 314857.0 0
468005.0 316515.0 0
472750.0 317549.0 0
483291.0 313907.0 0
488293.0 315355.0 0
494690.0 316799.0 0
1396.57 319703.0 0
8211.08 318669.0 0
11918.4 320144.0 0
16619.4 319613.0 0
21754.5 318309.0 0
31750.6 321705.0 0
36111.9 320954.0 0
40529.6 320583.0 0
53511.7 318595.0 0
55082.9 322697.0 0
71070.6 323046.0 0
75981.4 321600.0 0
97591.4 318405.0 0
101262.0 319521.0 0
115988.0 322763.0 0
125707.0 319156.0 0
127453.0 322603.0 0
132217.0 320197.0 0
137709.0 321678.0 0
150246.0 319855.0 0
157949.0 318608.0 0
162385.0 319388.0 0
166757.0 321964.0 0
178322.0 319026.0 0
173828.0 320333.0 0
182579.0 321851.0 0
203614.0 320790.0 0
208345.0 323023.0 0
212188.0 320547.0 0
217005.0 321213.0 0
221542.0 318619.0 0
231044.0 319595.0 0
236959.0 320168.0 0
242605.0 318787.0 0
247346.0 320705.0 0
251027.0 319373.0 0
255663.0 318093.0 0
259250.0 322751.0 0
261566.0 318224.0 0
265048.0 321478.0 0
270010.0 320522.0 0
276278.0 319470.0 0
282351.0 321996.0 0
291651.0 320567.0 0
296075.0 322727.0 0
305259.0 319859.0 0
315851.0 320292.0 0
321608.0 320059.0 0
329672.0 318782.0 0
345721.0 320516.0 0
350533.0 318109.0 0
355714.0 319603.0 0
365233.0 322315.0 0
371514.0 322224.0 0
376826.0 319714.0 0
382983.0 322554.0 0
392773.0 321708.0 0
397327.0 319545.0 0
402414.0 320845.0 0
406830.0 318698.0 0
417627.0 319007.0 0
430432.0 321756.0 0
435876.0 320090.0 0
443743.0 321986.0 0
448497.0 320055.0 0
472922.0 321873.0 0
477904.0 321994.0 0
490331.0 319939.0 0
498185.0 319892.0 0
9024.03 323548.0 0
22141.1 323796.0 0
27556.0 324820.0 0
42506.5 324226.0 0
47221.1 324940.0 0
57767.4 326437.0 0
62118.7 327943.0 0
66580.1 326086.0 0
78232.9 326973.0 0
87177.6 324542.0 0
92596.4 326991.0 0
101304.0 324744.0 0
105416.0 325151.0 0
110427.0 327033.0 0
121376.0 323570.0 0
119859.0 327225.0 0
125026.0 326003.0 0
134374.0 324555.0 0
136926.0 324851.0 0
142940.0 324311.0 0
149278.0 326442.0 0
154955.0 325244.0 0
159503.0 323968.0 0
162950.0 326283.0 0
170964.0 323772.0 0
178099.0 323288.0 0
175791.0 328038.0 0
179935.0 326690.0 0
188426.0 323783.0 0
193812.0 326601.0 0
198226.0 323464.0 0
202927.0 326396.0 0
213343.0 325208.0 0
218066.0 327694.0 0
221916.0 323865.0 0
227489.0 323734.0 0
232932.0 324620.0 0
238309.0 326398.0 0
244022.0 324224.0 0
249420.0 324080.0 0
253932.0 324312.0 0
252009.0 327695.0 0
263810.0 325507.0 0
267987.0 324915.0 0
272667.0 324985.0 0
278006.0 325795.0 0
283165.0 327339.0 0
287541.0 324177.0 0
292479.0 326003.0 0
296833.0 326736.0 0
305795.0 327348.0 0
301381.0 327895.0 0
310186.0 323470.0 0
315912.0 326160.0 0
326129.0 323258.0 0
329885.0 325202.0 0
332766.0 323175.0 0
332502.0 328099.0 0
337497.0 327993.0 0
354804.0 326985.0 0
359390.0 323272.0 0
363529.0 326924.0 0
368250.0 327379.0 0
375763.0 325617.0 0
379842.0 328186.0 0
383935.0 328255.0 0
388117.0 326088.0 0
405524.0 323808.0 0
418256.0 324172.0 0
420703.0 327898.0 0
423877.0 324224.0 0
428710.0 327733.0 0
448865.0 324930.0 0
453540.0 326251.0 0
457751.0 323496.0 0
463509.0 323607.0 0
469551.0 324990.0 0
473869.0 325989.0 0
480010.0 327468.0 0
485101.0 326071.0 0
492549.0 323795.0 0
497345.0 324789.0 0
12432.9 329183.0 0
18261.9 329144.0 0
31572.7 331319.0 0
35807.4 328319.0 0
40409.5 329027.0 0
42563.5 332946.0 0
73236.5 333059.0 0
83627.7 329239.0 0
88025.0 330051.0 0
98112.3 330692.0 0
115498.0 328864.0 0
119756.0 331113.0 0
124322.0 330032.0 0
137186.0 332110.0 0
145130.0 328315.0 0
152637.0 329681.0 0
157044.0 329791.0 0
203858.0 331487.0 0
208422.0 328486.0 0
213672.0 330790.0 0
223570.0 328817.0 0
220675.0 331123.0 0
229063.0 328717.0 0
226302.0 331795.0 0
233904.0 329776.0 0
238204.0 331417.0 0
242536.0 329940.0 0
247740.0 328838.0 0
251490.0 332846.0 0
255723.0 329625.0 0
260656.0 328730.0 0
265223.0 329499.0 0
269726.0 329052.0 0
274711.0 330493.0 0
281330.0 331678.0 0
288116.0 329994.0 0
293549.0 330798.0 0
297740.0 330379.0 0
309201.0 328467.0 0
320548.0 330250.0 0
327915.0 332757.0 0
332244.0 332034.0 0
344487.0 328909.0 0
350089.0 328448.0 0
359342.0 328801.0 0
373783.0 333355.0 0
396224.0 330257.0 0
401114.0 332214.0 0
443848.0 330422.0 0
460614.0 331434.0 0
468386.0 333188.0 0
475351.0 331191.0 0
486287.0 331620.0 0
491602.0 333208.0 0
2385.26 334237.0 0
6006.39 337932.0 0
11457.4 335320.0 0
19755.7 333668.0 0
23726.9 334896.0 0
28043.2 335651.0 0
37894.0 335176.0 0
44669.6 337598.0 0
48901.4 335774.0 0
53337.5 337868.0 0
59411.4 334303.0 0
57735.5 337776.0 0
78992.8 334887.0 0
84814.0 335104.0 0
103476.0 334119.0 0
108327.0 335548.0 0
127047.0 334336.0 0
133529.0 334818.0 0
141682.0 334863.0 0
147366.0 336769.0 0
166764.0 337782.0 0
172721.0 337945.0 0
178009.0 335106.0 0
182816.0 334780.0 0
188845.0 334707.0 0
195076.0 336970.0 0
204003.0 337040.0 0
208105.0 333975.0 0
212497.0 335545.0 0
217769.0 334534.0 0
223046.0 334385.0 0
226896.0 337917.0 0
230336.0 333631.0 0
232149.0 338457.0 0
235423.0 334699.0 0
240594.0 334866.0 0
245822.0 334397.0 0
251770.0 337423.0 0
256390.0 334682.0 0
259933.0 337711.0 0
262266.0 333560.0 0
264647.0 338393.0 0
267761.0 333855.0 0
272919.0 335646.0 0
278143.0 335170.0 0
284647.0 334697.0 0
290849.0 335398.0 0
296476.0 335213.0 0
320417.0 335842.0 0
324961.0 335767.0 0
339112.0 337958.0 0
349617.0 335167.0 0
356286.0 336086.0 0
366109.0 336335.0 0
370489.0 336629.0 0
391305.0 333697.0 0
405441.0 334331.0 0
410203.0 336252.0 0
415232.0 334734.0 0
420447.0 335384.0 0
424465.0 338230.0 0
429055.0 337781.0 0
436061.0 336194.0 0
441300.0 334686.0 0
447423.0 334273.0 0
452098.0 336053.0 0
463371.0 335754.0 0
472620.0 336085.0 0
478625.0 336351.0 0
482264.0 333982.0 0
488314.0 335492.0 0
497634.0 337025.0 0
10345.6 340746.0 0
14356.5 341681.0 0
17628.4 339365.0 0
21198.9 341550.0 0
31549.5 338624.0 0
81396.5 339205.0 0
88732.2 340442.0 0
94616.0 341147.0 0
115852.0 341652.0 0
124424.0 342974.0 0
131487.0 338868.0 0
129417.0 343286.0 0
151889.0 340532.0 0
157006.0 339125.0 0
162148.0 338823.0 0
209024.0 339220.0 0
204566.0 342811.0 0
215406.0 340182.0 0
220815.0 338799.0 0
223926.0 341833.0 0
233657.0 342829.0 0
237585.0 339445.0 0
242720.0 338593.0 0
241574.0 342862.0 0
247679.0 340317.0 0
255610.0 339863.0 0
260840.0 343442.0 0
269294.0 338478.0 0
267626.0 343313.0 0
275618.0 340441.0 0
282037.0 340008.0 0
288327.0 340548.0 0
294115.0 340474.0 0
307859.0 339457.0 0
313339.0 341017.0 0
318165.0 340099.0 0
333604.0 341536.0 0
344315.0 340100.0 0
348224.0 342067.0 0
361855.0 338898.0 0
373349.0 339631.0 0
375332.0 342999.0 0
382120.0 339697.0 0
377846.0 340234.0 0
386421.0 339925.0 0
412280.0 342739.0 0
425522.0 342173.0 0
434661.0 341196.0 0
439140.0 342999.0 0
444448.0 340706.0 0
456662.0 341155.0 0
461427.0 342602.0 0
475464.0 339371.0 0
478873.0 342035.0 0
484076.0 340439.0 0
2520.43 346426.0 0
23712.7 344898.0 0
27712.7 345812.0 0
35470.8 348504.0 0
38957.8 346882.0 0
64003.3 347012.0 0
69034.9 346924.0 0
73587.4 344321.0 0
78890.1 346148.0 0
83595.1 348598.0 0
99836.4 344182.0 0
106851.0 347297.0 0
111993.0 346763.0 0
115838.0 347413.0 0
132091.0 346699.0 0
137331.0 344865.0 0
141484.0 346502.0 0
173534.0 346523.0 0
178121.0 345138.0 0
182877.0 343685.0 0
190151.0 343904.0 0
198863.0 345334.0 0
194183.0 347141.0 0
206188.0 347293.0 0
209875.0 344183.0 0
214321.0 345909.0 0
219391.0 344068.0 0
223646.0 346391.0 0
228579.0 343727.0 0
232418.0 347326.0 0
237525.0 345351.0 0
241321.0 348643.0 0
249642.0 345087.0 0
245272.0 345700.0 0
254558.0 345324.0 0
268062.0 348519.0 0
273057.0 345463.0 0
278594.0 345323.0 0
282904.0 344975.0 0
286547.0 345132.0 0
290973.0 344985.0 0
295753.0 345788.0 0
304833.0 343886.0 0
320801.0 347345.0 0
326082.0 346331.0 0
339966.0 347337.0 0
345237.0 344617.0 0
344226.0 348563.0 0
348323.0 346397.0 0
353398.0 347569.0 0
387759.0 346628.0 0
391971.0 347826.0 0
396070.0 344883.0 0
405148.0 344903.0 0
416387.0 344394.0 0
422843.0 347058.0 0
431748.0 345190.0 0
448734.0 348287.0 0
452878.0 344613.0 0
457920.0 346110.0 0
465643.0 344654.0 0
488519.0 348376.0 0
493893.0 347062.0 0
31330.3 348917.0 0
58276.5 351648.0 0
62760.5 351799.0 0
79117.6 350966.0 0
85357.4 353269.0 0
102136.0 348910.0 0
118035.0 350928.0 0
122579.0 349047.0 0
182265.0 352956.0 0
187621.0 349339.0 0
186511.0 353041.0 0
204372.0 350385.0 0
210230.0 348786.0 0
219004.0 348949.0 0
214482.0 350716.0 0
219188.0 353636.0 0
223352.0 351159.0 0
227930.0 349362.0 0
236341.0 350407.0 0
241647.0 353721.0 0
246232.0 350902.0 0
251092.0 349182.0 0
251286.0 353739.0 0
256319.0 351295.0 0
262873.0 350141.0 0
272153.0 350578.0 0
276979.0 350244.0 0
282212.0 349736.0 0
286544.0 348807.0 0
288234.0 352396.0 0
292294.0 349536.0 0
296337.0 349289.0 0
296132.0 352514.0 0
334097.0 351582.0 0
338749.0 350544.0 0
367860.0 353480.0 0
377578.0 349103.0 0
383309.0 351238.0 0
388742.0 353695.0 0
417562.0 348786.0 0
429251.0 349833.0 0
440415.0 350782.0 0
444373.0 349860.0 0
449043.0 353337.0 0
472532.0 353465.0 0
476982.0 352915.0 0
483950.0 350507.0 0
23860.2 355564.0 0
57656.8 358331.0 0
89677.3 354438.0 0
114635.0 354634.0 0
119205.0 355088.0 0
148593.0 354208.0 0
154063.0 355284.0 0
160451.0 355998.0 0
172783.0 356534.0 0
177642.0 354767.0 0
175845.0 358406.0 0
204024.0 354842.0 0
209802.0 354234.0 0
215147.0 355098.0 0
216940.0 358630.0 0
222803.0 355621.0 0
226801.0 354138.0 0
232157.0 354507.0 0
237511.0 354694.0 0
247341.0 355853.0 0
251623.0 358287.0 0
257632.0 356054.0 0
261109.0 355151.0 0
267887.0 354028.0 0
273118.0 355000.0 0
270758.0 358585.0 0
279208.0 354550.0 0
276116.0 358806.0 0
284038.0 354679.0 0
287786.0 356700.0 0
292239.0 355008.0 0
295702.0 357979.0 0
343860.0 355891.0 0
347413.0 358377.0 0
354633.0 355904.0 0
362728.0 355072.0 0
374256.0 353816.0 0
378320.0 357592.0 0
441465.0 356974.0 0
447200.0 357369.0 0
487877.0 356070.0 0
496741.0 358584.0 0
18980.9 359479.0 0
24601.3 360690.0 0
29372.6 361864.0 0
34198.8 363824.0 0
41944.7 362043.0 0
46285.1 359998.0 0
59419.7 362232.0 0
125705.0 362935.0 0
131308.0 361590.0 0
136308.0 361458.0 0
164978.0 359727.0 0
169679.0 360931.0 0
203274.0 360615.0 0
207137.0 359022.0 0
212577.0 359175.0 0
216053.0 362362.0 0
221062.0 359828.0 0
226496.0 359307.0 0
231426.0 359592.0 0
236727.0 359648.0 0
242999.0 359086.0 0
247803.0 360016.0 0
256138.0 359857.0 0
260898.0 359440.0 0
263556.0 363288.0 0
265893.0 359383.0 0
269618.0 363705.0 0
273804.0 362296.0 0
281418.0 359029.0 0
282425.0 363511.0 0
285807.0 360085.0 0
286249.0 363815.0 0
291019.0 359938.0 0
295523.0 362906.0 0
300706.0 359839.0 0
351113.0 359398.0 0
354750.0 362690.0 0
359569.0 359077.0 0
374379.0 363631.0 0
378180.0 361974.0 0
388980.0 363279.0 0
441425.0 363382.0 0
3000.82 365130.0 0
38189.5 366877.0 0
44756.1 365499.0 0
49720.9 364326.0 0
78998.1 365025.0 0
78850.0 368479.0 0
110294.0 367176.0 0
198811.0 367513.0 0
203607.0 364195.0 0
204568.0 369037.0 0
209634.0 364857.0 0
214999.0 365972.0 0
217604.0 368620.0 0
219973.0 364755.0 0
225158.0 364855.0 0
230509.0 364231.0 0
235422.0 365053.0 0
240024.0 364304.0 0
245809.0 364941.0 0
252781.0 364871.0 0
259148.0 364277.0 0
265008.0 367381.0 0
277549.0 364195.0 0
275512.0 368474.0 0
290585.0 365422.0 0
286358.0 368297.0 0
295333.0 368703.0 0
303312.0 365219.0 0
318205.0 366253.0 0
321222.0 368523.0 0
324319.0 367447.0 0
344872.0 366019.0 0
382647.0 364519.0 0
399164.0 367994.0 0
425901.0 368275.0 0
430527.0 366362.0 0
435600.0 365713.0 0
463934.0 364473.0 0
5576.37 369530.0 0
1491.71 375264.0 0
4337.9 375153.0 0
8378.23 375180.0 0
5222.79 377979.0 0
13548.6 375050.0 0
18628.7 375096.0 0
22921.8 375100.0 0
27052.0 375268.0 0
29816.2 377171.0 0
31068.0 374255.0 0
34090.8 375716.0 0
40979.9 369622.0 0
37137.0 375342.0 0
43471.8 375042.0 0
46966.4 375356.0 0
50962.1 375976.0 0
55009.1 375162.0 0
58961.8 375101.0 0
62636.5 375468.0 0
65702.3 375196.0 0
69654.0 375090.0 0
67025.4 377119.0 0
74798.6 375112.0 0
77989.7 377410.0 0
79192.6 375318.0 0
82513.7 375247.0 0
87093.4 375567.0 0
91154.8 375184.0 0
95984.2 375027.0 0
100532.0 375218.0 0
104887.0 369968.0 0
109808.0 375326.0 0
113422.0 370982.0 0
115612.0 375020.0 0
119513.0 375348.0 0
123319.0 375542.0 0
131785.0 375745.0 0
127345.0 375669.0 0
136064.0 375492.0 0
139945.0 375304.0 0
144165.0 375373.0 0
148385.0 375058.0 0
151843.0 375722.0 0
154910.0 375422.0 0
159127.0 375231.0 0
163813.0 375326.0 0
167318.0 375292.0 0
170662.0 375389.0 0
173705.0 375779.0 0
177728.0 375180.0 0
181272.0 375523.0 0
189262.0 375153.0 0
184809.0 375325.0 0
193684.0 375432.0 0
197836.0 372820.0 0
199385.0 376369.0 0
203800.0 373924.0 0
213876.0 369250.0 0
209768.0 372202.0 0
215558.0 373501.0 0
222165.0 369430.0 0
219952.0 374148.0 0
222859.0 373224.0 0
227322.0 369628.0 0
232805.0 369547.0 0
238430.0 369151.0 0
242857.0 369161.0 0
241964.0 373382.0 0
247481.0 370682.0 0
251327.0 369637.0 0
252208.0 373847.0 0
255284.0 370525.0 0
260302.0 369488.0 0
265680.0 374040.0 0
270360.0 369942.0 0
275379.0 373085.0 0
280879.0 369269.0 0
285529.0 373396.0 0
290358.0 370964.0 0
300835.0 375587.0 0
304192.0 375952.0 0
306580.0 371666.0 0
311137.0 375091.0 0
315369.0 375453.0 0
319485.0 375537.0 0
323456.0 375416.0 0
327487.0 375326.0 0
331719.0 375546.0 0
336778.0 375038.0 0
341833.0 375618.0 0
345566.0 376945.0 0
350145.0 375006.0 0
355159.0 375052.0 0
359261.0 375238.0 0
363627.0 375222.0 0
368289.0 375237.0 0
372948.0 375273.0 0
376097.0 375207.0 0
378702.0 375457.0 0
382046.0 375494.0 0
386040.0 375678.0 0
389927.0 375148.0 0
394439.0 371561.0 0
398724.0 375206.0 0
401752.0 375357.0 0
406576.0 370097.0 0
412274.0 369776.0 0
408972.0 375472.0 0
416583.0 375185.0 0
420030.0 369729.0 0
423029.0 375551.0 0
426861.0 376140.0 0
430494.0 375571.0 0
437988.0 375406.0 0
434474.0 375729.0 0
441843.0 376293.0 0
445261.0 375236.0 0
448804.0 375213.0 0
453374.0 375675.0 0
458284.0 375221.0 0
463313.0 375568.0 0
467281.0 370963.0 0
467460.0 376351.0 0
470888.0 372815.0 0
474575.0 375634.0 0
479660.0 375004.0 0
484409.0 375527.0 0
488177.0 375191.0 0
493022.0 375057.0 0
497904.0 375590.0 0
1610.29 377989.0 0
4167.23 381277.0 0
1324.52 381004.0 0
8167.32 380127.0 0
10988.9 377845.0 0
13186.7 380258.0 0
16062.7 377679.0 0
17360.4 381644.0 0
25434.6 378154.0 0
21220.7 379045.0 0
25206.1 381716.0 0
28144.6 379813.0 0
32547.3 378649.0 0
31422.8 381875.0 0
36129.9 379266.0 0
40259.4 377131.0 0
39459.9 381445.0 0
44485.4 378562.0 0
42681.7 381539.0 0
48374.7 378559.0 0
51074.2 380618.0 0
46767.6 381847.0 0
54512.9 379023.0 0
58660.6 378436.0 0
58658.0 382352.0 0
63564.9 379800.0 0
68503.4 379775.0 0
70945.4 377922.0 0
71366.2 381758.0 0
73936.4 379194.0 0
76985.1 380316.0 0
81190.4 378898.0 0
85296.7 379094.0 0
83861.5 382453.0 0
89620.9 379810.0 0
93544.9 377754.0 0
94616.5 381755.0 0
98254.0 378703.0 0
101691.0 379616.0 0
103679.0 376409.0 0
105502.0 379922.0 0
106688.0 375949.0 0
109310.0 379579.0 0
112686.0 376888.0 0
116898.0 378098.0 0
113529.0 380396.0 0
117362.0 382023.0 0
120990.0 379008.0 0
125638.0 380306.0 0
129956.0 379359.0 0
135126.0 378745.0 0
133013.0 379351.0 0
132439.0 382295.0 0
136345.0 382106.0 0
141919.0 378415.0 0
138202.0 378593.0 0
140218.0 381760.0 0
144835.0 379722.0 0
147409.0 378192.0 0
147974.0 382040.0 0
151749.0 379534.0 0
155699.0 378230.0 0
155524.0 382096.0 0
162432.0 378593.0 0
158839.0 379977.0 0
161546.0 382067.0 0
166223.0 378544.0 0
164563.0 381661.0 0
168239.0 381616.0 0
169531.0 378007.0 0
172604.0 380015.0 0
175952.0 377692.0 0
176752.0 380077.0 0
179514.0 382091.0 0
182844.0 379173.0 0
179504.0 378420.0 0
185736.0 382040.0 0
187143.0 378440.0 0
191060.0 378584.0 0
193482.0 381635.0 0
194690.0 378886.0 0
196820.0 377026.0 0
196510.0 381006.0 0
199425.0 379945.0 0
207097.0 377789.0 0
213514.0 378775.0 0
218034.0 378746.0 0
222500.0 378610.0 0
226723.0 375288.0 0
231993.0 374594.0 0
233083.0 379177.0 0
236845.0 374211.0 0
237957.0 379019.0 0
242687.0 377958.0 0
246428.0 375472.0 0
251718.0 378005.0 0
255230.0 375255.0 0
260039.0 374714.0 0
270919.0 375913.0 0
280234.0 375127.0 0
284087.0 379220.0 0
289387.0 377101.0 0
294629.0 374857.0 0
300916.0 379160.0 0
304495.0 381125.0 0
306308.0 378239.0 0
307903.0 376167.0 0
308653.0 380777.0 0
313143.0 378560.0 0
310227.0 378642.0 0
317284.0 379746.0 0
320789.0 382307.0 0
322094.0 378885.0 0
325389.0 378311.0 0
326189.0 380776.0 0
323933.0 381653.0 0
329616.0 378957.0 0
334260.0 378609.0 0
336501.0 381145.0 0
332553.0 382070.0 0
342093.0 379334.0 0
338877.0 378727.0 0
339768.0 382220.0 0
349227.0 380245.0 0
353139.0 377944.0 0
356878.0 377919.0 0
354104.0 382377.0 0
361879.0 378276.0 0
359130.0 380908.0 0
366312.0 379838.0 0
371294.0 378363.0 0
370275.0 382032.0 0
375439.0 377886.0 0
374217.0 381240.0 0
379096.0 378968.0 0
381798.0 382157.0 0
384061.0 378698.0 0
385791.0 381736.0 0
389043.0 379315.0 0
392914.0 376767.0 0
396439.0 377458.0 0
398089.0 381719.0 0
400823.0 378796.0 0
405264.0 375878.0 0
408032.0 378908.0 0
404382.0 379007.0 0
411498.0 378864.0 0
412810.0 375815.0 0
415904.0 378837.0 0
419645.0 376479.0 0
419931.0 379997.0 0
427407.0 379876.0 0
423749.0 379671.0 0
430990.0 379348.0 0
433022.0 377924.0 0
433185.0 381521.0 0
435161.0 379392.0 0
437789.0 378416.0 0
440019.0 380587.0 0
443477.0 380469.0 0
446320.0 378671.0 0
450592.0 378683.0 0
453308.0 380607.0 0
456142.0 378905.0 0
460122.0 379041.0 0
464030.0 379860.0 0
460374.0 382236.0 0
467916.0 381125.0 0
471144.0 377674.0 0
472099.0 382201.0 0
474592.0 379288.0 0
477854.0 378403.0 0
476567.0 382646.0 0
482485.0 378229.0 0
480367.0 380757.0 0
486395.0 378502.0 0
484879.0 382170.0 0
489286.0 382123.0 0
490166.0 378583.0 0
494592.0 379089.0 0
498561.0 379290.0 0
1426.34 383741.0 0
1943.37 387002.0 0
5925.45 384411.0 0
10144.9 385982.0 0
10424.9 382356.0 0
13969.2 384140.0 0
18359.0 385601.0 0
22203.2 383680.0 0
27975.0 383314.0 0
25954.4 385649.0 0
30482.9 386519.0 0
35103.0 383702.0 0
38740.5 384144.0 0
44425.6 384177.0 0
41340.9 384855.0 0
49823.2 383083.0 0
47948.5 385910.0 0
54455.5 382840.0 0
51745.2 384952.0 0
54751.0 387268.0 0
56657.9 384943.0 0
59345.4 386473.0 0
62919.0 384472.0 0
67257.0 383188.0 0
70651.2 385548.0 0
66472.5 386997.0 0
75076.3 384215.0 0
79980.9 383174.0 0
78881.3 387337.0 0
83587.0 386430.0 0
87041.7 383191.0 0
90949.0 384311.0 0
87490.6 386593.0 0
95420.4 386078.0 0
98802.5 382674.0 0
99782.4 386363.0 0
102509.0 383131.0 0
107075.0 383901.0 0
111224.0 383596.0 0
114598.0 384365.0 0
121453.0 383650.0 0
118310.0 386504.0 0
127202.0 385872.0 0
124399.0 384427.0 0
129284.0 382735.0 0
130925.0 385040.0 0
134577.0 386436.0 0
139824.0 386340.0 0
144076.0 383267.0 0
144673.0 387047.0 0
151672.0 384114.0 0
148114.0 385772.0 0
155820.0 386551.0 0
159131.0 383562.0 0
162601.0 384659.0 0
160419.0 386934.0 0
166081.0 385214.0 0
170690.0 384535.0 0
175544.0 384413.0 0
182058.0 382713.0 0
183833.0 385382.0 0
180127.0 386552.0 0
187409.0 386198.0 0
189825.0 382571.0 0
193185.0 384401.0 0
191092.0 386401.0 0
196189.0 384278.0 0
199250.0 383429.0 0
203348.0 379927.0 0
204162.0 383659.0 0
209644.0 382023.0 0
218267.0 383416.0 0
222684.0 383532.0 0
228119.0 380546.0 0
231461.0 383855.0 0
236419.0 383799.0 0
241623.0 382600.0 0
247738.0 379676.0 0
253232.0 383963.0 0
255863.0 379436.0 0
258454.0 384054.0 0
260294.0 379761.0 0
265061.0 379417.0 0
262411.0 383408.0 0
270007.0 381266.0 0
275907.0 379318.0 0
280255.0 382128.0 0
288754.0 382617.0 0
294798.0 381500.0 0
300721.0 383996.0 0
304561.0 384996.0 0
308926.0 385080.0 0
312900.0 382495.0 0
313081.0 386050.0 0
317318.0 385202.0 0
325246.0 383648.0 0
322776.0 384797.0 0
328422.0 383281.0 0
331232.0 385855.0 0
335712.0 385382.0 0
340727.0 385736.0 0
344772.0 382569.0 0
349662.0 384708.0 0
347194.0 386789.0 0
352492.0 386635.0 0
355793.0 386875.0 0
358188.0 384239.0 0
362840.0 383396.0 0
367631.0 384980.0 0
372488.0 384824.0 0
377210.0 383450.0 0
380511.0 386286.0 0
384683.0 385257.0 0
389235.0 384219.0 0
393807.0 381886.0 0
398219.0 385786.0 0
402094.0 383076.0 0
402175.0 387150.0 0
405747.0 381836.0 0
409679.0 382877.0 0
413666.0 381616.0 0
417703.0 383569.0 0
413676.0 385547.0 0
422661.0 383449.0 0
426226.0 383766.0 0
429909.0 383024.0 0
433393.0 384833.0 0
436717.0 382540.0 0
437492.0 386569.0 0
440169.0 384293.0 0
443735.0 383920.0 0
448580.0 382909.0 0
453105.0 383864.0 0
451397.0 387063.0 0
456961.0 382581.0 0
456276.0 387115.0 0
462916.0 383192.0 0
460156.0 385291.0 0
463067.0 386660.0 0
465852.0 384293.0 0
469786.0 385054.0 0
473538.0 386226.0 0
477581.0 386054.0 0
480687.0 384301.0 0
484088.0 386092.0 0
488776.0 386457.0 0
493238.0 382735.0 0
493969.0 386742.0 0
497931.0 382821.0 0
498317.0 386652.0 0
1887.83 391005.0 0
6165.24 389280.0 0
14348.0 388368.0 0
10224.7 389603.0 0
19182.4 389421.0 0
22872.2 387808.0 0
22639.4 392348.0 0
26860.9 389607.0 0
34378.7 388061.0 0
31763.6 391755.0 0
38105.2 387502.0 0
36902.7 391445.0 0
40977.4 387891.0 0
43946.0 388053.0 0
40797.5 390690.0 0
47518.4 390139.0 0
51083.9 388714.0 0
54026.6 391196.0 0
58161.6 390183.0 0
62725.0 388941.0 0
69963.1 388954.0 0
66512.0 391541.0 0
71113.2 392395.0 0
74271.6 388850.0 0
78230.0 390812.0 0
82079.0 390092.0 0
86242.9 389752.0 0
91119.8 389154.0 0
96664.2 390373.0 0
101571.0 390340.0 0
104278.0 386727.0 0
106661.0 390254.0 0
109455.0 387262.0 0
110669.0 390997.0 0
114044.0 388358.0 0
116581.0 391761.0 0
119494.0 390093.0 0
122921.0 387867.0 0
126414.0 390520.0 0
122899.0 392203.0 0
130448.0 388667.0 0
137209.0 390416.0 0
133481.0 390713.0 0
142742.0 390925.0 0
147775.0 389547.0 0
151403.0 388091.0 0
151288.0 391741.0 0
154354.0 390343.0 0
158955.0 390847.0 0
162554.0 392320.0 0
163661.0 388804.0 0
166406.0 391960.0 0
168576.0 388313.0 0
172531.0 387832.0 0
171742.0 391965.0 0
175900.0 389183.0 0
176170.0 392746.0 0
179927.0 391021.0 0
184574.0 389624.0 0
189490.0 389370.0 0
192586.0 391950.0 0
194384.0 388201.0 0
198030.0 392260.0 0
198975.0 387303.0 0
204133.0 389211.0 0
208136.0 386158.0 0
213353.0 384448.0 0
218030.0 388363.0 0
222022.0 388404.0 0
226647.0 385065.0 0
225713.0 389412.0 0
230688.0 389326.0 0
236461.0 389019.0 0
242315.0 388872.0 0
247086.0 384788.0 0
252046.0 388830.0 0
256533.0 388616.0 0
261405.0 388343.0 0
266443.0 385268.0 0
273834.0 384625.0 0
271399.0 388669.0 0
278191.0 385495.0 0
282271.0 385058.0 0
282163.0 389602.0 0
285891.0 386633.0 0
290348.0 387129.0 0
295392.0 388085.0 0
305444.0 387858.0 0
301660.0 388422.0 0
305544.0 391352.0 0
308240.0 389120.0 0
309846.0 391927.0 0
314820.0 388584.0 0
311604.0 388716.0 0
318297.0 390486.0 0
321412.0 388039.0 0
326624.0 387937.0 0
332011.0 389620.0 0
336147.0 390645.0 0
338432.0 387915.0 0
340601.0 390559.0 0
343938.0 387582.0 0
346889.0 389769.0 0
344628.0 391168.0 0
350106.0 389525.0 0
353870.0 389415.0 0
357128.0 390872.0 0
359891.0 387520.0 0
362119.0 392041.0 0
364040.0 387553.0 0
366920.0 389452.0 0
370448.0 387546.0 0
370940.0 391776.0 0
375588.0 388468.0 0
380306.0 390486.0 0
383436.0 388785.0 0
387673.0 389176.0 0
383849.0 392202.0 0
393446.0 387453.0 0
397573.0 389608.0 0
395606.0 391442.0 0
400817.0 390052.0 0
405932.0 386213.0 0
404554.0 390224.0 0
408449.0 390187.0 0
410019.0 386847.0 0
412757.0 389712.0 0
416783.0 388105.0 0
420664.0 386736.0 0
420190.0 390574.0 0
424774.0 387842.0 0
427635.0 391150.0 0
429180.0 387161.0 0
430659.0 390812.0 0
433686.0 388723.0 0
437654.0 390724.0 0
441944.0 388506.0 0
446621.0 387607.0 0
449616.0 390584.0 0
453674.0 390920.0 0
457706.0 391308.0 0
460378.0 388629.0 0
461080.0 391829.0 0
467241.0 387642.0 0
464377.0 390110.0 0
468829.0 391760.0 0
470768.0 388293.0 0
473130.0 390635.0 0
476196.0 388782.0 0
477773.0 392554.0 0
480622.0 388321.0 0
482297.0 391411.0 0
485176.0 389117.0 0
488771.0 390341.0 0
486184.0 392719.0 0
492536.0 390720.0 0
497796.0 390574.0 0
1447.66 394687.0 0
8777.14 392357.0 0
5527.49 394038.0 0
9691.83 395341.0 0
12017.0 392394.0 0
12969.1 396038.0 0
16523.1 392882.0 0
19952.4 395291.0 0
22585.7 397405.0 0
26776.1 394447.0 0
31460.9 397238.0 0
40116.8 394422.0 0
35910.3 395302.0 0
38019.4 396928.0 0
44236.2 392612.0 0
44342.5 396415.0 0
50101.7 394425.0 0
56769.4 394521.0 0
61082.3 396741.0 0
61495.2 392805.0 0
64814.5 394986.0 0
68820.4 395888.0 0
75445.5 393060.0 0
72767.9 395224.0 0
76392.3 396868.0 0
80304.0 394496.0 0
84598.5 392834.0 0
85056.4 397050.0 0
88321.4 393020.0 0
89574.6 396515.0 0
93232.8 393788.0 0
95948.5 396337.0 0
99066.1 394754.0 0
104248.0 394768.0 0
109191.0 394252.0 0
113283.0 393127.0 0
117009.0 395245.0 0
119677.0 393172.0 0
121977.0 396625.0 0
126444.0 394793.0 0
129988.0 392856.0 0
129938.0 396526.0 0
134174.0 394857.0 0
139061.0 394019.0 0
147301.0 393490.0 0
143333.0 396431.0 0
147676.0 397083.0 0
151290.0 395507.0 0
155356.0 393693.0 0
159880.0 395609.0 0
164117.0 395192.0 0
168529.0 395880.0 0
178661.0 394576.0 0
174204.0 396998.0 0
183060.0 394306.0 0
179713.0 397592.0 0
187777.0 392961.0 0
187050.0 397063.0 0
191225.0 396008.0 0
194781.0 395251.0 0
196796.0 396817.0 0
199383.0 396315.0 0
208591.0 391070.0 0
213377.0 389661.0 0
247904.0 390330.0 0
266229.0 391096.0 0
276576.0 390587.0 0
287472.0 391477.0 0
292377.0 392270.0 0
296214.0 393898.0 0
301255.0 392576.0 0
304728.0 395049.0 0
301376.0 397490.0 0
307940.0 394651.0 0
311205.0 395691.0 0
314214.0 392537.0 0
315375.0 396700.0 0
318668.0 394444.0 0
323209.0 392456.0 0
322008.0 396422.0 0
325798.0 396741.0 0
328723.0 393323.0 0
333697.0 394243.0 0
338100.0 394486.0 0
342615.0 394413.0 0
347684.0 393624.0 0
352963.0 393462.0 0
357748.0 394612.0 0
361296.0 396103.0 0
366339.0 393084.0 0
364679.0 396397.0 0
368840.0 396148.0 0
375072.0 393132.0 0
373082.0 396021.0 0
376336.0 395702.0 0
378092.0 393201.0 0
381012.0 393877.0 0
379370.0 396515.0 0
386901.0 393694.0 0
383742.0 396710.0 0
391418.0 392681.0 0
388780.0 396669.0 0
393056.0 397097.0 0
395403.0 394434.0 0
397106.0 397163.0 0
398841.0 393497.0 0
406863.0 392799.0 0
403310.0 394202.0 0
407016.0 396194.0 0
410926.0 394266.0 0
416142.0 392866.0 0
420269.0 395821.0 0
423966.0 392449.0 0
426986.0 394535.0 0
424610.0 396520.0 0
429960.0 394233.0 0
433827.0 393061.0 0
437686.0 395425.0 0
441235.0 392699.0 0
443015.0 396409.0 0
445749.0 392558.0 0
447693.0 397001.0 0
450660.0 394255.0 0
455526.0 394625.0 0
459632.0 394950.0 0
462101.0 397257.0 0
464484.0 394282.0 0
468377.0 395576.0 0
472942.0 394816.0 0
478287.0 397565.0 0
482339.0 395029.0 0
486390.0 396576.0 0
490376.0 394861.0 0
498882.0 394034.0 0
495375.0 394245.0 0
498287.0 397229.0 0
2789.17 398922.0 0
7518.63 397949.0 0
7852.21 402060.0 0
11229.3 399240.0 0
16849.7 399294.0 0
21917.4 401782.0 0
26441.0 399263.0 0
30755.9 402556.0 0
35954.2 399959.0 0
40698.0 398722.0 0
44933.0 401710.0 0
47266.5 398370.0 0
50497.2 401020.0 0
53998.7 398015.0 0
55701.2 402380.0 0
58021.2 398755.0 0
64795.6 398586.0 0
61541.6 401923.0 0
68428.4 400756.0 0
72651.5 398381.0 0
76165.2 400032.0 0
73292.0 402575.0 0
80220.8 399508.0 0
84423.8 401839.0 0
88835.6 400726.0 0
93478.0 399196.0 0
97703.1 398862.0 0
101776.0 399758.0 0
107257.0 398508.0 0
112743.0 397505.0 0
115004.0 401444.0 0
117764.0 399133.0 0
121700.0 401662.0 0
126964.0 399818.0 0
132897.0 400071.0 0
138185.0 398497.0 0
142422.0 401314.0 0
146182.0 399949.0 0
150559.0 400200.0 0
155138.0 397719.0 0
154538.0 401634.0 0
159025.0 400399.0 0
164290.0 399513.0 0
169329.0 400496.0 0
173249.0 401608.0 0
177330.0 401035.0 0
183732.0 398260.0 0
181954.0 401227.0 0
186297.0 401018.0 0
190516.0 400046.0 0
194439.0 398596.0 0
198289.0 399822.0 0
302394.0 402043.0 0
307251.0 399361.0 0
312350.0 399102.0 0
315931.0 400655.0 0
319069.0 398477.0 0
319977.0 402220.0 0
322971.0 399689.0 0
330904.0 398324.0 0
326741.0 400191.0 0
335849.0 397983.0 0
340308.0 397786.0 0
338266.0 400953.0 0
344971.0 397710.0 0
342251.0 401380.0 0
350023.0 397706.0 0
347254.0 401774.0 0
354718.0 397865.0 0
352209.0 401999.0 0
359016.0 397845.0 0
357593.0 402025.0 0
362597.0 399780.0 0
366845.0 399816.0 0
371307.0 399539.0 0
369428.0 402638.0 0
376054.0 399477.0 0
380365.0 400215.0 0
383614.0 401221.0 0
386738.0 400059.0 0
390920.0 401051.0 0
395159.0 399730.0 0
400832.0 397146.0 0
399121.0 400946.0 0
404475.0 399603.0 0
410080.0 399994.0 0
414695.0 397572.0 0
414628.0 402111.0 0
418292.0 400060.0 0
423231.0 400405.0 0
428187.0 398100.0 0
432827.0 397215.0 0
431479.0 400866.0 0
436600.0 400735.0 0
439859.0 398137.0 0
441304.0 400139.0 0
444881.0 400529.0 0
452871.0 398081.0 0
449619.0 401321.0 0
457835.0 399006.0 0
454684.0 402432.0 0
462187.0 400955.0 0
465602.0 398182.0 0
466783.0 402179.0 0
469720.0 398840.0 0
473855.0 398968.0 0
476441.0 401852.0 0
483895.0 399062.0 0
480578.0 401923.0 0
489058.0 399420.0 0
489746.0 402751.0 0
493920.0 398268.0 0
492995.0 401961.0 0
497628.0 400922.0 0
2915.56 404691.0 0
8423.01 407093.0 0
12507.6 403601.0 0
17697.8 404853.0 0
22564.5 406564.0 0
25834.9 403573.0 0
27583.5 407080.0 0
31573.2 407091.0 0
35512.8 404940.0 0
40156.2 403584.0 0
44101.9 407244.0 0
47975.3 405104.0 0
51846.7 405633.0 0
55649.6 406397.0 0
59086.6 405391.0 0
65296.3 403816.0 0
69258.6 406182.0 0
74897.2 406864.0 0
77698.4 403106.0 0
81131.4 403499.0 0
79597.0 406656.0 0
83940.5 406199.0 0
88148.6 404980.0 0
91356.7 407244.0 0
92790.6 403717.0 0
96173.3 407255.0 0
97422.8 402765.0 0
101369.0 405436.0 0
105149.0 402686.0 0
106480.0 406702.0 0
110472.0 402922.0 0
115252.0 405343.0 0
117940.0 402807.0 0
119688.0 405890.0 0
125055.0 405713.0 0
129660.0 403782.0 0
133756.0 404936.0 0
137895.0 402896.0 0
142177.0 405551.0 0
138207.0 407282.0 0
146895.0 403971.0 0
151785.0 405109.0 0
156860.0 405049.0 0
162343.0 404652.0 0
166355.0 403406.0 0
166230.0 406475.0 0
170160.0 405336.0 0
174989.0 404893.0 0
177290.0 407850.0 0
179724.0 404623.0 0
184555.0 404691.0 0
189368.0 404375.0 0
194610.0 403149.0 0
198077.0 406841.0 0
199090.0 403421.0 0
301592.0 406606.0 0
306988.0 405272.0 0
311577.0 403076.0 0
316135.0 405108.0 0
320845.0 406640.0 0
324567.0 403742.0 0
329516.0 402865.0 0
327874.0 406808.0 0
334352.0 402557.0 0
331916.0 405621.0 0
335439.0 407316.0 0
338860.0 404791.0 0
343872.0 406074.0 0
349398.0 406501.0 0
354594.0 406463.0 0
361753.0 403026.0 0
360529.0 407395.0 0
365425.0 404097.0 0
370159.0 406755.0 0
373498.0 403482.0 0
375618.0 407432.0 0
377895.0 403691.0 0
381902.0 404151.0 0
379596.0 407277.0 0
386426.0 404402.0 0
390946.0 405569.0 0
395103.0 403272.0 0
394785.0 406842.0 0
402771.0 403804.0 0
398845.0 406123.0 0
407320.0 404637.0 0
411749.0 404154.0 0
414636.0 405470.0 0
418822.0 404424.0 0
427616.0 402358.0 0
424071.0 405280.0 0
430551.0 403829.0 0
428764.0 406741.0 0
433405.0 404160.0 0
437061.0 405671.0 0
441320.0 403718.0 0
446075.0 404842.0 0
443701.0 407752.0 0
451414.0 406243.0 0
458770.0 403548.0 0
456031.0 405862.0 0
463223.0 405184.0 0
459656.0 407643.0 0
467716.0 406758.0 0
471969.0 403461.0 0
477203.0 406239.0 0
482158.0 405429.0 0
485944.0 403087.0 0
485535.0 407275.0 0
490929.0 407290.0 0
495326.0 404395.0 0
498567.0 404372.0 0
3584.77 410263.0 0
8854.37 411735.0 0
13617.8 408911.0 0
18638.3 408745.0 0
21424.3 410272.0 0
25280.4 410486.0 0
30395.8 411649.0 0
34645.5 409215.0 0
39164.7 408722.0 0
44934.9 411556.0 0
48794.3 409505.0 0
53525.2 409692.0 0
58119.0 409101.0 0
60434.7 411911.0 0
63199.8 407806.0 0
67331.2 410650.0 0
71610.3 410587.0 0
74773.9 410383.0 0
78194.1 410552.0 0
82440.7 410386.0 0
87469.8 409774.0 0
92453.3 410766.0 0
99998.1 409343.0 0
97124.9 411851.0 0
103782.0 409767.0 0
111362.0 408198.0 0
107755.0 410338.0 0
116597.0 409907.0 0
121588.0 409459.0 0
125534.0 411121.0 0
129963.0 408501.0 0
134613.0 408766.0 0
133519.0 411750.0 0
141783.0 410149.0 0
137524.0 411453.0 0
145710.0 408155.0 0
146958.0 412385.0 0
149944.0 408949.0 0
154600.0 409383.0 0
159188.0 408667.0 0
160035.0 412618.0 0
163510.0 409398.0 0
173235.0 409185.0 0
168530.0 410548.0 0
177054.0 411680.0 0
181774.0 408841.0 0
187418.0 408727.0 0
184716.0 412298.0 0
193000.0 408651.0 0
198101.0 411299.0 0
304945.0 409289.0 0
301541.0 411531.0 0
308023.0 409928.0 0
311847.0 408427.0 0
313755.0 412493.0 0
317141.0 409864.0 0
324488.0 408058.0 0
321974.0 411080.0 0
331299.0 409694.0 0
326570.0 411272.0 0
335352.0 412237.0 0
339837.0 410014.0 0
344316.0 410288.0 0
352022.0 410157.0 0
347925.0 411523.0 0
356546.0 411463.0 0
365671.0 409417.0 0
369577.0 411368.0 0
372862.0 409748.0 0
378558.0 411313.0 0
383256.0 407925.0 0
387780.0 409258.0 0
383622.0 412098.0 0
392312.0 409000.0 0
391415.0 411898.0 0
396538.0 410710.0 0
400206.0 409109.0 0
401533.0 411833.0 0
403384.0 407985.0 0
407740.0 407898.0 0
406930.0 411766.0 0
411248.0 408202.0 0
416305.0 409378.0 0
420983.0 408122.0 0
420579.0 411800.0 0
425313.0 410512.0 0
433139.0 408167.0 0
429847.0 410797.0 0
437294.0 410048.0 0
440456.0 407589.0 0
442442.0 411971.0 0
446975.0 409282.0 0
450827.0 410918.0 0
455370.0 409944.0 0
460756.0 411653.0 0
464169.0 409194.0 0
469137.0 411825.0 0
472166.0 408086.0 0
474905.0 409779.0 0
478013.0 411131.0 0
481663.0 409278.0 0
486137.0 411615.0 0
494217.0 411704.0 0
497384.0 408236.0 0
498004.0 412891.0 0
1657.29 414189.0 0
5663.25 414930.0 0
9280.77 415839.0 0
12958.0 414160.0 0
17874.1 412903.0 0
19849.3 416455.0 0
16484.6 417489.0 0
22405.9 413535.0 0
23073.4 417318.0 0
26214.8 414493.0 0
29138.4 415389.0 0
32249.4 416588.0 0
36203.8 413453.0 0
40009.2 417064.0 0
41325.5 412884.0 0
44598.4 415928.0 0
47744.7 413445.0 0
48938.7 416733.0 0
51631.8 413694.0 0
56358.3 413191.0 0
59880.0 416112.0 0
64033.0 413522.0 0
69628.6 415868.0 0
75032.3 413847.0 0
80015.2 415288.0 0
84699.8 413555.0 0
84690.6 417304.0 0
89027.8 414877.0 0
94033.1 414483.0 0
101337.0 413297.0 0
98014.9 416593.0 0
106007.0 413765.0 0
111352.0 413248.0 0
116529.0 415146.0 0
112884.0 417770.0 0
121108.0 413332.0 0
125114.0 416048.0 0
129714.0 413859.0 0
135371.0 416597.0 0
140469.0 414523.0 0
143541.0 412949.0 0
144401.0 416284.0 0
151676.0 412989.0 0
148794.0 416592.0 0
155851.0 413326.0 0
153615.0 417403.0 0
161839.0 416271.0 0
158154.0 416430.0 0
164635.0 413524.0 0
165239.0 417401.0 0
172626.0 414095.0 0
168302.0 415320.0 0
177691.0 416861.0 0
180970.0 413320.0 0
183960.0 416802.0 0
188283.0 418135.0 0
188976.0 413688.0 0
191484.0 417119.0 0
193889.0 414029.0 0
198074.0 416453.0 0
194375.0 418101.0 0
305599.0 412926.0 0
301957.0 415659.0 0
309739.0 413052.0 0
306837.0 417620.0 0
312539.0 416660.0 0
318362.0 415369.0 0
324222.0 415119.0 0
330349.0 414805.0 0
334941.0 416425.0 0
339109.0 415167.0 0
343562.0 413981.0 0
347656.0 416299.0 0
352102.0 414287.0 0
361873.0 413157.0 0
357316.0 416949.0 0
366372.0 413667.0 0
362350.0 417751.0 0
366932.0 417838.0 0
369808.0 414919.0 0
373757.0 413356.0 0
377009.0 416271.0 0
380773.0 414980.0 0
384374.0 416766.0 0
388109.0 414152.0 0
393542.0 415897.0 0
398669.0 414755.0 0
403207.0 416719.0 0
412525.0 413295.0 0
409029.0 417161.0 0
417404.0 414733.0 0
423135.0 416181.0 0
428377.0 414677.0 0
433350.0 413304.0 0
437941.0 413592.0 0
436365.0 416993.0 0
440154.0 415892.0 0
447492.0 413823.0 0
444000.0 417166.0 0
452713.0 415060.0 0
457401.0 414039.0 0
461477.0 416700.0 0
464418.0 413081.0 0
466855.0 416789.0 0
474279.0 413170.0 0
471669.0 416779.0 0
477999.0 414330.0 0
476206.0 417045.0 0
481661.0 413770.0 0
481632.0 418015.0 0
485554.0 415991.0 0
490432.0 413301.0 0
494118.0 415668.0 0
489843.0 417595.0 0
497959.0 416689.0 0
2430.4 418233.0 0
7271.4 419847.0 0
12105.6 418832.0 0
20021.6 420512.0 0
15445.6 421853.0 0
23911.8 420870.0 0
27840.3 419150.0 0
32850.8 421155.0 0
36009.0 418284.0 0
38576.1 422271.0 0
42741.6 419830.0 0
46674.1 419987.0 0
50559.6 419742.0 0
54731.5 418069.0 0
59734.8 420915.0 0
64168.5 418439.0 0
67869.7 420916.0 0
75108.2 418151.0 0
71940.4 421105.0 0
78717.0 421006.0 0
81870.3 418723.0 0
83579.2 421635.0 0
87999.1 420286.0 0
93112.2 419108.0 0
98074.8 422401.0 0
103123.0 418527.0 0
108744.0 417901.0 0
111894.0 421933.0 0
107122.0 422608.0 0
116171.0 420059.0 0
120739.0 418198.0 0
119978.0 423013.0 0
124550.0 421556.0 0
129711.0 419760.0 0
135243.0 422973.0 0
140725.0 419648.0 0
145838.0 420365.0 0
149905.0 420275.0 0
157576.0 420263.0 0
153458.0 422663.0 0
161968.0 420208.0 0
167129.0 421193.0 0
170834.0 418407.0 0
174121.0 419494.0 0
176959.0 421812.0 0
181071.0 420410.0 0
185776.0 422047.0 0
191401.0 421366.0 0
197225.0 421810.0 0
301898.0 419634.0 0
311068.0 420956.0 0
306929.0 422822.0 0
315953.0 420812.0 0
322051.0 419312.0 0
324504.0 422705.0 0
327098.0 418916.0 0
332194.0 419810.0 0
337906.0 420323.0 0
343173.0 418475.0 0
351975.0 418984.0 0
347443.0 421018.0 0
355841.0 421780.0 0
360113.0 421476.0 0
364223.0 421171.0 0
372301.0 418686.0 0
368514.0 422623.0 0
376670.0 420262.0 0
380476.0 418956.0 0
384239.0 421629.0 0
388891.0 419352.0 0
393923.0 422094.0 0
398050.0 419008.0 0
401261.0 421890.0 0
406000.0 421419.0 0
410674.0 421814.0 0
414153.0 418531.0 0
418813.0 418820.0 0
422111.0 421530.0 0
426590.0 420111.0 0
431501.0 418647.0 0
435662.0 420928.0 0
439959.0 420244.0 0
444594.0 422206.0 0
448817.0 418863.0 0
453011.0 419442.0 0
456522.0 418408.0 0
459764.0 421498.0 0
464465.0 421243.0 0
469419.0 421067.0 0
474015.0 420928.0 0
478235.0 420382.0 0
481773.0 422736.0 0
485879.0 420420.0 0
493750.0 419452.0 0
490447.0 422867.0 0
494656.0 423040.0 0
497776.0 420706.0 0
2764.35 423229.0 0
1142.37 426888.0 0
7321.89 424298.0 0
9919.01 427643.0 0
11135.7 423164.0 0
14696.3 426575.0 0
18714.3 424436.0 0
23182.6 424587.0 0
28683.0 424629.0 0
34125.4 425844.0 0
38707.6 427465.0 0
44005.9 424109.0 0
49486.2 423812.0 0
55017.6 423888.0 0
60175.2 426049.0 0
64358.6 423270.0 0
69419.9 425373.0 0
74955.9 424653.0 0
80998.9 425644.0 0
86874.4 426047.0 0
92499.9 424406.0 0
96078.8 427764.0 0
100670.0 427032.0 0
102945.0 423646.0 0
105565.0 427515.0 0
110089.0 426033.0 0
115711.0 424027.0 0
114103.0 427823.0 0
118154.0 426722.0 0
122292.0 426991.0 0
128441.0 426539.0 0
134081.0 427656.0 0
139559.0 423366.0 0
139055.0 426336.0 0
143189.0 424433.0 0
145672.0 427816.0 0
148475.0 424621.0 0
158488.0 425390.0 0
163572.0 424324.0 0
167695.0 426474.0 0
172172.0 423315.0 0
176421.0 426082.0 0
180936.0 424678.0 0
185184.0 427321.0 0
189200.0 425446.0 0
193522.0 426155.0 0
198070.0 427062.0 0
302415.0 424063.0 0
310982.0 425551.0 0
306266.0 426952.0 0
315798.0 425446.0 0
320110.0 423768.0 0
324978.0 427587.0 0
328966.0 423604.0 0
333861.0 424541.0 0
338287.0 425643.0 0
342823.0 423751.0 0
351765.0 423932.0 0
347462.0 425869.0 0
356754.0 426810.0 0
363197.0 426069.0 0
373989.0 424356.0 0
379573.0 423388.0 0
383573.0 426229.0 0
388814.0 425184.0 0
393521.0 426817.0 0
398198.0 425643.0 0
403480.0 426022.0 0
408052.0 425419.0 0
412726.0 426253.0 0
417145.0 423100.0 0
421215.0 426119.0 0
425664.0 424837.0 0
429607.0 423091.0 0
429429.0 426994.0 0
434112.0 425279.0 0
440130.0 425650.0 0
445501.0 427449.0 0
449335.0 423954.0 0
454969.0 423898.0 0
462001.0 426553.0 0
467027.0 424926.0 0
471892.0 425811.0 0
477146.0 424600.0 0
481428.0 427461.0 0
485694.0 425090.0 0
489370.0 427716.0 0
493814.0 426659.0 0
497890.0 425050.0 0
4877.78 428170.0 0
1187.59 429407.0 0
2505.42 432631.0 0
7989.02 432344.0 0
13101.5 431468.0 0
19910.4 429288.0 0
25616.4 429072.0 0
30537.6 429480.0 0
35225.7 430903.0 0
39772.2 431833.0 0
42904.6 428890.0 0
43570.5 432995.0 0
47183.4 428078.0 0
51942.3 428514.0 0
54582.4 432909.0 0
56471.0 428807.0 0
60508.9 431454.0 0
64832.7 428318.0 0
68850.4 430246.0 0
72958.5 429244.0 0
75691.1 433078.0 0
77554.3 428816.0 0
82657.6 431312.0 0
91558.1 428850.0 0
88189.5 431365.0 0
94264.0 432505.0 0
99444.1 431662.0 0
104745.0 432943.0 0
109969.0 430918.0 0
114582.0 432088.0 0
119055.0 430936.0 0
124138.0 431222.0 0
132470.0 431618.0 0
128195.0 432509.0 0
137451.0 430409.0 0
142102.0 429128.0 0
146221.0 432236.0 0
148650.0 428730.0 0
151101.0 432764.0 0
152960.0 428210.0 0
157902.0 431424.0 0
163023.0 429117.0 0
167328.0 431353.0 0
172480.0 429570.0 0
176973.0 429536.0 0
176958.0 433160.0 0
180638.0 429878.0 0
184617.0 431791.0 0
189869.0 430757.0 0
195343.0 430459.0 0
198302.0 433199.0 0
302025.0 428661.0 0
305670.0 431436.0 0
301630.0 432688.0 0
309422.0 429672.0 0
313919.0 429805.0 0
319253.0 429014.0 0
322954.0 432578.0 0
330505.0 428308.0 0
327726.0 432482.0 0
335737.0 429170.0 0
332578.0 432644.0 0
341540.0 430096.0 0
346861.0 429890.0 0
351317.0 429043.0 0
355262.0 432467.0 0
360419.0 431459.0 0
365340.0 432324.0 0
369238.0 428384.0 0
373381.0 432431.0 0
378605.0 429332.0 0
386236.0 429920.0 0
391001.0 430376.0 0
396242.0 430630.0 0
401223.0 430155.0 0
404753.0 429634.0 0
408658.0 430100.0 0
417230.0 428234.0 0
413656.0 431316.0 0
421072.0 430642.0 0
426056.0 430023.0 0
432107.0 430872.0 0
436933.0 429627.0 0
441502.0 431254.0 0
446635.0 432210.0 0
451258.0 429334.0 0
456968.0 429256.0 0
462781.0 431959.0 0
467502.0 429689.0 0
476223.0 430272.0 0
481604.0 432386.0 0
485475.0 429113.0 0
492856.0 431922.0 0
497651.0 429344.0 0
5054.89 435500.0 0
11413.0 437156.0 0
17501.8 435038.0 0
22821.5 433959.0 0
27873.0 433904.0 0
33093.2 435769.0 0
38440.7 436344.0 0
48720.5 433518.0 0
58414.1 436337.0 0
65599.4 433602.0 0
71261.9 433433.0 0
79304.2 435869.0 0
86441.8 434538.0 0
90212.5 435171.0 0
95575.6 437390.0 0
100881.0 436912.0 0
108010.0 436207.0 0
112266.0 435708.0 0
117030.0 435520.0 0
121672.0 434741.0 0
125499.0 435413.0 0
136000.0 435991.0 0
141156.0 433800.0 0
154578.0 435942.0 0
159733.0 436494.0 0
163641.0 433937.0 0
167700.0 435789.0 0
172484.0 435422.0 0
181512.0 434685.0 0
186526.0 435778.0 0
194019.0 435647.0 0
304301.0 436422.0 0
310565.0 435092.0 0
316952.0 433761.0 0
320770.0 436965.0 0
325218.0 436005.0 0
337277.0 434894.0 0
345966.0 433609.0 0
342376.0 435992.0 0
350465.0 434309.0 0
358459.0 436104.0 0
369186.0 433423.0 0
371211.0 436324.0 0
376038.0 436031.0 0
379081.0 434508.0 0
382987.0 433536.0 0
388015.0 434602.0 0
393200.0 434959.0 0
399710.0 434764.0 0
404708.0 433136.0 0
410309.0 435234.0 0
417741.0 434739.0 0
423508.0 434906.0 0
428518.0 434591.0 0
437024.0 434415.0 0
443842.0 435937.0 0
449586.0 435215.0 0
454182.0 434289.0 0
458694.0 433367.0 0
461889.0 436942.0 0
466352.0 434782.0 0
471432.0 434101.0 0
478009.0 435953.0 0
482701.0 436587.0 0
486903.0 433714.0 0
491038.0 436977.0 0
497944.0 433697.0 0
495141.0 436465.0 0
POINT_DATA 5000
SCALARS Radius float 1
LOOKUP_TABLE default
4796.58 3979.26 3471.03 5253.55 5820.48 5782.6 4862.21 5113.21 3929.19 4107.03 4478.15 5379.87 5925.6 4501.51 4792.73 4736.58 4931.38 3485.26 4329.05 4151.94 4049.23 5337.48 6124.89 5708.81 5252.48 4780.03 5495.39 3996.0 3856.1 4665.12 3383.4 4133.88 4834.9 3850.77 6044.04 5415.48 5120.0 3863.18 2356.98 4998.37 6182.6 5492.18 5258.36 5061.3 3642.12 3163.97 5812.43 5122.66 5906.14 5484.19 7513.1 5254.28 4436.4 5733.48 4672.91 5580.89 5645.7 5176.86 6810.52 5840.26 6110.27 5561.06 5073.35 3615.22 5670.04 4380.59 3589.27 6716.79 5759.91 7613.27 5529.52 4951.03 5255.32 6037.08 5096.78 6756.95 4129.43 6324.23 3843.58 3320.52 4194.5 4270.53 5344.25 5191.63 4593.7 4150.99 4216.92 4742.68 4344.58 5634.83 5495.84 6268.1 4861.06 5374.51 5320.28 6739.08 4797.52 4569.12 4298.67 5960.66 6608.73 5011.84 7034.11 6261.42 4502.5 3771.48 4043.57 4271.69 5681.38 4138.42 3708.04 5513.6 3240.09 4556.36 6082.81 3191.99 4685.34 5601.05 4929.8 3586.91 3103.0 3554.9 4015.92 5542.21 4487.31 3936.02 4044.71 5980.74 4094.62 4927.02 5546.39 5325.36 5484.83 5085.53 5351.6 4730.36 4715.55 5867.73 3951.75 5013.56 4499.64 4375.68 5542.27 5054.98 6030.06 5170.02 3557.27 4927.31 4688.68 4402.52 4517.56 4182.53 5903.42 3588.44 3955.56 3761.32 4118.05 4366.19 5553.16 3672.51 2938.66 4940.78 4231.61 4008.92 3942.53 3379.84 4827.82 3997.1 3607.45 3260.67 5123.52 3038.33 4392.68 4333.2 7199.21 4523.7 2240.39 5091.39 5293.9 6142.94 3912.37 4727.24 4602.25 4790.08 5082.47 4763.45 5445.87 3815.26 4704.72 4177.94 4571.7 5896.46 5022.8 3784.5 3780.23 6481.79 5224.12 7042.12 4819.73 6326.39 4471.58 5873.69 4962.09 3999.48 4359.62 6946.21 2586.12 5433.8 4011.77 5499.11 3633.87 5922.5 5198.77 5987.17 6013.14 2765.2 4901.41 5110.37 5664.98 4382.74 5927.43 4651.28 3693.63 4384.42 4516.43 5481.78 5637.59 4937.14 5043.05 5816.2 5109.54 6483.19 5945.65 6759.9 5538.89 7021.47 5416.38 6059.59 4955.55 2720.68 5701.86 3563.63 4238.81 4468.59 5885.03 2837.58 5325.02 5200.76 5017.13 4862.64 5185.34 4432.58 6684.56 3968.64 4688.67 2635.86 5292.64 6166.5 5065.13 5936.02 5305.17 4861.08 4003.05 5390.22 4805.87 4712.33 5227.21 5697.78 4667.36 4091.31 6372.62 4295.38 5615.42 7565.34 5923.5 4612.68 4281.49 4973.83 6342.25 6691.39 4840.84 5135.69 5344.0 4020.32 6045.46 4245.72 5908.1 6048.7 6133.92 3719.84 4178.4 3095.48 4166.08 4123.6 4850.14 3382.7 6817.32 4319.79 6098.14 4472.17 4203.26 5188.81 4730.41 6057.22 5062.71 6125.34 4527.08 5347.48 4850.01 3970.25 5147.67 3979.82 5011.31 5138.31 5264.06 4659.59 6327.9 4048.37 6355.42 4362.19 5690.56 4948.92 3115.91 3307.12 4493.48 5924.89 5693.81 4002.16 4174.52 4138.16 3486.22 3829.13 4684.5 6230.49 6458.82 5418.62 4601.27 5493.32 5740.68 5926.61 6051.14 5836.15 3261.21 4345.55 6704.06 3653.41 3871.88 3856.01 5246.2 4390.66 5279.39 3673.74 5205.43 6116.18 7447.37 4924.6 4385.06 4733.32 7184.19 2899.43 2924.37 4290.3 3867.67 5399.73 4660.72 3888.21 5891.05 6038.78 6902.81 6644.76 4254.17 5629.19 5090.24 5740.84 5530.87 4310.18 7134.64 5978.9 4187.56 3629.62 4997.27 4301.06 4877.67 4290.14 6562.18 4156.38 5316.75 4541.21 4164.68 5669.65 5934.22 5624.49 5762.59 7092.87 5163.55 4666.81 3703.1 3954.91 6471.55 2965.01 6643.85 3637.61 6222.42 5654.31 3745.84 5690.26 4156.2 4497.59 5965.78 4374.35 4810.12 5643.58 5215.05 4292.06 5577.04 5006.58 4602.86 3688.8 4548.16 3369.23 5449.18 5492.26 5244.78 5762.84 3937.74 4749.8 6084.86 5478.92 4778.34 5551.36 6894.71 3091.3 4414.54 5789.98 7054.71 3641.64 5489.43 5747.75 4277.89 5054.25 4796.33 4195.44 5539.32 5360.19 6496.85 5600.93 4874.39 5541.59 4124.71 5728.85 4827.23 4911.47 5803.39 5863.59 4381.97 6257.19 3255.82 5242.73 2812.98 4065.69 5603.15 4695.45 6052.7 3921.18 3798.62 5308.1 3666.57 4907.89 4937.02 5655.21 4786.6 4645.41 4433.59 4320.28 6445.94 5542.14 4218.06 6308.71 4716.19 5514.76 3456.98 3498.2 5105.16 3066.13 4302.5 6006.16 6009.88 7055.53 5013.67 5826.04 5339.78 4970.88 4143.78 4636.5 4940.42 5923.4 5499.39 5644.82 5501.93 5463.38 5945.21 4938.74 5696.88 5607.14 3923.03 5975.63 5252.34 6396.74 4138.46 2775.04 3821.72 4986.77 6318.18 5586.81 4621.75 3948.17 4551.24 5358.59 4220.88 4515.71 6519.71 6640.13 5082.6 5810.84 4230.54 5094.44 3748.24 4655.49 4467.94 4850.81 6038.14 6138.47 5527.54 5573.7 5697.4 4727.62 4270.95 4055.8 7325.81 5280.17 6425.26 4794.96 6186.19 4839.34 5083.08 6834.49 6337.56 5525.39 3998.5 5938.34 4024.3 6394.38 5555.28 4737.14 4686.65 5834.74 5556.96 5788.23 5581.75 6392.01 6730.19 4907.06 4073.93 3735.44 6043.3 5952.75 6332.36 6122.55 2739.94 4931.53 5480.13 5911.67 3323.28 6695.82 6405.76 5794.24 4678.38 5448.61 5050.65 4827.33 5206.48 5513.57 5729.23 5226.0 3365.82 4538.95 5965.15 4763.66 4780.2 6090.91 4946.42 5019.93 5085.71 6116.33 6343.14 5462.21 5750.71 5470.77 4831.47 4643.85 4004.04 4289.17 5564.02 4274.61 2965.79 6898.19 6035.6 5137.34 4481.53 5330.45 4581.13 3610.4 4219.07 6387.01 5367.52 3092.35 4322.15 5210.03 3629.96 5478.47 5351.39 6142.37 6061.47 4933.21 5375.47 2540.31 5120.49 6029.66 5262.61 6302.8 5409.61 6038.2 4005.44 5206.78 5555.88 6732.43 5143.58 6362.12 4484.76 4840.01 2980.99 5611.2 7933.0 4455.12 5173.87 4894.16 5380.13 5711.87 5118.27 5169.36 5932.23 5791.61 3369.13 4479.66 3043.85 5367.2 5461.13 4726.76 3599.45 5839.13 5489.34 5163.9 5708.14 5537.72 3920.42 8332.24 6155.31 4223.33 4553.56 5329.64 5709.62 5835.78 4127.74 2476.04 3942.07 7443.72 3937.08 5260.34 4709.35 6586.45 4373.3 4750.78 4163.5 5724.64 5078.86 5100.1 3561.29 4963.34 3295.83 5081.78 4260.92 6263.44 5960.56 5774.97 4118.84 4020.95 6313.06 3474.39 6470.3 4200.03 6062.05 5082.74 6915.83 6072.45 4410.55 7099.43 5526.14 5198.29 5423.0 5077.33 3856.59 4746.52 5413.79 6338.89 6202.55 5025.39 4714.54 5893.5 3320.11 5030.91 6022.17 5119.37 3982.23 6163.38 4566.18 4723.12 3459.9 4964.09 5201.36 5024.9 4306.53 5094.81 5972.06 5713.22 5861.71 5028.96 4359.04 3183.98 3866.16 3794.63 4524.28 3778.1 5152.36 4511.82 5826.64 4220.65 6820.42 4816.2 4896.52 4751.02 3372.79 4941.22 5282.64 4715.72 4669.66 4808.52 5046.33 5607.24 5053.92 6352.26 5495.68 3847.38 3818.59 4863.72 5002.48 6623.85 4262.82 5102.36 4342.9 5069.84 4051.44 4241.89 6049.55 5941.72 5991.09 5133.97 6600.94 4788.58 5371.02 6155.1 5876.71 5029.78 6515.84 4888.6 4739.14 4918.77 4371.99 4219.78 3885.86 4459.28 5235.29 4479.94 6250.23 6413.02 4863.27 5862.86 6049.79 3493.7 5374.98 4719.7 6939.12 4735.33 5092.37 6444.77 4287.63 5315.4 6449.45 3975.31 3689.45 3824.16 5572.95 3868.18 6723.16 5584.06 7111.16 4547.19 3817.13 5507.24 6851.54 4583.31 4503.89 5806.08 4853.39 4997.27 4093.08 4809.42 4449.22 5543.27 4717.05 5659.17 6135.57 5998.38 4312.67 5423.8 4270.24 4989.15 5017.78 5015.69 6175.81 4727.24 6677.09 4305.57 6959.81 4829.35 5201.67 6321.41 4089.76 5526.55 3192.41 5184.56 5215.15 4987.87 3315.57 5804.71 4764.96 5727.3 4242.52 5356.51 4277.88 4087.15 3057.03 4143.08 7500.97 3948.23 5228.18 5787.31 5065.11 5868.82 4978.31 4050.9 4099.77 5054.74 4537.32 4981.9 4656.78 5126.91 3600.43 5131.24 5196.67 6496.67 5474.8 6262.72 3664.11 5117.47 4925.63 2990.77 5882.65 4434.19 5187.7 4623.61 4188.3 6261.75 5177.64 4255.31 5453.3 3492.19 4584.5 5122.63 4703.08 6345.13 5274.19 5516.95 4406.4 5411.85 4844.57 4027.46 6314.07 5776.37 4516.28 3627.82 4044.45 5125.78 5344.43 4373.47 5045.38 5350.88 5372.61 3686.21 6480.17 5023.15 4377.07 3813.22 5570.3 4336.42 5243.29 7589.94 3130.65 5628.24 5856.11 5287.2 3327.49 4109.88 4234.94 4562.29 5013.13 5080.66 3417.33 4926.42 4164.13 4642.34 4520.1 4947.52 5874.89 4293.03 4389.21 3791.79 4424.7 4925.44 4754.05 4951.47 6084.93 4307.28 3697.96 4739.42 5538.93 5020.12 4745.45 2631.9 5281.28 6255.18 4668.71 4758.21 7228.46 6362.14 6719.88 5978.82 5266.5 3927.99 4523.88 4066.38 4948.98 5227.52 4414.48 4092.24 5163.02 7144.24 4906.82 5687.83 5004.23 6442.69 6320.71 4648.04 6607.87 4721.32 3293.56 3163.78 5274.14 4903.82 5746.28 4082.47 5511.6 4338.08 4378.3 6134.99 4094.73 4407.9 4718.54 4440.57 5548.29 6766.43 2315.64 5226.56 5599.49 5313.22 4413.85 3905.51 3999.94 4470.98 4864.22 3901.8 5759.46 3921.08 4190.31 5678.96 5262.19 4244.9 6070.58 6034.41 5452.83 5130.91 5402.24 4519.22 6445.22 3844.9 3695.36 5101.59 3963.86 3848.93 4306.11 5935.47 3402.32 5903.66 4528.49 5004.67 5365.89 5992.26 3960.8 5070.39 4980.85 5714.58 5110.45 5208.32 5248.77 4083.97 4607.02 5153.74 4528.09 3895.51 4165.81 5813.4 6291.51 4128.98 5882.89 6246.22 4188.32 5246.61 4100.38 5344.77 4723.48 4899.11 5097.87 4278.07 7267.18 6256.02 5320.92 5269.18 4406.1 5034.59 4942.77 4263.33 4454.63 5080.18 5912.61 3279.1 4403.98 4560.84 4729.43 5776.57 4562.74 5683.26 5598.74 7493.3 4814.55 3527.05 3464.83 5698.77 2477.07 6413.11 4305.16 5092.28 4965.89 5659.95 4152.85 2908.7 4453.64 4517.73 5469.47 5660.16 4989.56 3838.47 2588.37 6736.03 6235.57 3623.87 5916.16 4390.41 6113.95 4097.57 5017.5 5563.79 6171.13 5511.88 5083.41 4512.11 7055.42 5486.68 6048.86 4285.32 5490.43 5022.28 5197.52 4959.34 4948.5 4527.02 4531.14 4564.34 3838.56 4871.44 5076.35 6020.48 6375.99 5200.05 5234.29 5313.66 5419.37 4466.03 4511.54 5409.33 5196.0 4923.9 4973.78 3329.99 3947.47 3296.27 4713.25 4204.84 6243.0 6673.96 3556.85 5441.96 3435.9 5174.89 4288.3 5370.52 4652.29 5774.81 3746.31 5498.32 5027.98 5346.27 6475.1 4969.21 2691.29 2845.98 5289.52 5314.85 4305.43 5450.44 6510.17 5742.65 5592.32 5381.16 5565.13 6193.35 6086.96 5233.78 3701.27 5653.9 5046.21 4929.14 5894.61 5139.5 3979.54 5304.13 5944.09 5833.06 4923.41 4497.31 5384.76 5529.42 5257.12 5243.43 4537.14 5551.9 3757.34 6415.61 4687.64 4419.71 5037.06 4541.8 5175.29 5842.56 5887.15 5412.31 3087.09 6934.37 4890.5 4050.08 3981.07 5452.42 5328.22 6853.85 2395.5 3497.9 5941.61 5782.48 6248.6 5683.61 3836.45 5100.25 6894.26 4986.51 5339.38 5178.99 5383.07 4591.87 5013.42 4790.78 4247.15 6552.22 5651.07 6248.81 5273.35 4091.8 2651.49 4645.58 5512.23 5275.32 5985.29 4898.94 4178.15 4613.31 4733.04 6119.09 5788.66 5091.68 7531.29 5069.25 5048.89 5935.03 3161.47 3991.03 6390.78 7435.25 6826.57 4788.87 4495.87 6022.72 4643.31 5527.33 6917.52 5402.21 4989.09 4880.14 4982.31 3848.54 4307.48 5941.4 5331.02 4871.96 4863.23 4402.67 4470.61 4631.83 4384.88 6887.27 6008.49 4806.34 4287.53 5612.21 5945.08 4968.03 3306.14 5490.58 4863.79 4702.06 3830.46 6031.67 4689.15 6138.12 4428.78 5409.66 4345.67 4765.72 4642.66 4752.14 5329.59 4888.12 4950.97 5512.16 3197.63 4863.96 5191.08 5203.08 7480.41 3423.15 5163.77 4488.85 3731.84 4901.07 5186.3 3436.15 4151.76 4020.4 3493.47 4596.75 4933.65 5443.58 4558.46 5805.86 4049.02 4470.4 5311.03 5255.12 6169.11 5615.35 4027.09 6422.84 4502.18 5379.09 4602.85 4962.77 5872.05 4853.02 6259.23 5181.4 5670.2 4711.62 4247.23 4114.24 4268.65 4694.83 5509.42 4354.08 4256.43 5936.36 4520.62 3903.75 4755.47 4485.99 5127.16 5475.8 5314.69 6050.81 5543.46 4249.46 5965.81 3702.37 4750.17 5660.85 2330.66 4177.19 3587.05 6229.37 6718.19 5282.91 4425.84 3797.33 7256.35 4800.69 6566.1 3555.86 6386.78 4996.99 4896.39 6081.14 5480.83 4220.46 4607.85 5128.57 6000.7 3169.67 5604.21 3361.92 6710.88 5395.14 3967.48 6213.04 6622.11 3685.13 6790.73 4655.16 5251.4 3867.19 5857.79 4039.91 5276.7 5036.58 6119.63 5411.02 4752.9 4287.16 5199.44 4062.5 4435.51 5374.07 4588.7 3766.55 4579.69 3554.48 6496.52 5005.85 4216.17 6484.17 4721.02 4254.37 3374.08 4031.78 6098.1 5708.99 5687.85 5346.68 5296.29 4611.53 4285.66 4896.11 5172.53 4135.62 5801.99 5534.94 5210.48 7644.38 7552.94 6101.92 5323.3 5088.44 4998.21 4662.56 5166.79 5349.31 2976.22 4649.22 5394.55 5094.52 4946.74 2682.24 5928.32 5229.48 5475.7 4016.18 5526.75 5435.74 4244.99 5327.45 5560.26 6185.89 3997.96 4439.35 3460.94 3990.25 3691.0 3758.07 4752.51 4236.14 4407.87 5733.62 5282.51 4460.92 5945.89 4042.28 4105.55 4340.76 6065.22 4221.28 4456.39 5514.84 3633.79 5421.53 5937.08 6070.3 5233.29 4312.56 4612.06 5204.04 4750.58 5926.11 6667.68 5235.11 5211.38 4590.55 4741.26 5920.32 4255.85 5097.69 3988.3 6543.13 5149.72 5776.96 5464.25 5486.48 5301.47 4617.55 5424.88 5415.85 8659.64 5683.95 6027.62 5010.2 6123.03 5966.61 5711.11 4575.94 4938.72 3546.71 5768.57 5564.23 5950.04 4231.83 2435.33 6401.43 5020.71 2681.29 5094.48 3872.61 4238.4 4318.48 6132.95 5266.22 4860.33 3685.13 6004.68 4051.34 3627.55 6239.84 4635.6 4256.67 3457.48 3931.07 3405.98 5417.15 3688.16 4681.72 4945.39 5996.33 3950.63 5415.19 4612.62 3619.07 4275.57 4467.04 6385.23 2983.99 2614.4 6363.92 6205.93 4923.24 5830.72 6184.4 3828.81 4373.45 5309.98 4082.57 5255.18 5169.9 3004.16 4767.78 5235.17 4421.12 4779.5 5254.49 6649.96 4303.19 5784.3 3914.2 4256.57 6088.68 4643.56 4135.08 5620.74 4778.82 6124.08 5467.84 5053.95 5253.37 5767.9 6515.8 5089.62 5869.4 3685.65 3701.16 4186.6 5895.77 4732.09 6136.49 4356.25 4216.95 4209.49 5742.74 4244.21 4947.24 3645.12 3875.05 6200.54 5148.58 4199.45 6599.66 5469.13 4055.54 4233.8 5765.42 6098.95 4997.83 4893.49 5325.44 5021.88 5956.65 4498.25 4188.87 3735.24 6574.95 4074.48 6333.29 4558.47 5731.57 5997.88 5839.71 5576.92 6408.83 3930.79 4004.35 5226.97 3312.06 5180.76 3361.26 6799.4 5278.36 5865.39 4427.28 6079.11 3082.32 6430.39 3658.37 7440.72 3949.6 5703.6 6326.18 5661.62 6631.19 6648.68 4713.74 5626.61 5817.25 5407.78 4084.49 5061.98 6632.99 4537.6 5147.36 4419.61 7177.44 4563.46 6553.94 5726.66 5460.65 5652.0 5463.41 5225.33 4929.75 4435.36 6045.22 4614.3 5134.39 3532.3 5769.98 5442.32 2221.99 3580.58 4863.01 5356.79 5657.36 3619.79 5029.47 6306.21 5266.01 2978.76 2040.66 7016.27 5884.9 3876.21 5689.26 4916.22 6022.7 4940.84 5750.07 4809.67 4757.74 6045.67 3946.28 3821.94 5439.9 5367.73 3540.11 3456.47 4652.01 5421.64 7234.66 4207.54 4886.12 6419.12 4976.12 4817.16 5453.98 3991.42 4388.63 5102.75 4200.09 4597.29 5931.77 5151.21 5398.64 6817.57 4477.04 3614.96 3886.68 5703.74 5662.55 5737.92 4360.23 5365.24 5293.51 4763.96 5754.18 5008.63 3418.99 4480.95 4993.35 4409.63 5521.25 3661.9 5370.85 5949.46 3178.54 4765.02 5376.71 4448.13 5070.29 4807.28 4867.08 2261.36 4266.03 5280.69 4220.03 6923.84 5227.59 5449.46 6179.96 5703.07 6113.54 4662.43 6260.79 3963.76 5528.53 6799.88 3062.43 5426.78 2967.38 4159.35 6477.91 4237.98 6439.37 4081.97 5401.99 5580.92 5973.33 5067.46 3583.21 2511.46 4011.37 2775.69 4785.25 6519.43 5876.64 5424.46 4857.84 4908.49 4962.21 4858.44 3468.42 4673.35 4771.13 4992.42 5297.19 4351.38 4833.46 5933.7 7248.4 5280.12 4444.97 5984.81 3498.16 4409.27 4640.06 5471.74 3548.39 3673.28 4928.27 4858.51 3375.28 5625.65 4301.61 6107.89 4446.84 5660.55 5148.08 4834.87 5760.22 3672.21 5938.17 4795.43 5097.95 5108.06 3573.73 4693.52 6853.04 4745.43 5831.96 4747.55 3056.7 3755.95 6234.32 4586.19 4446.06 3450.93 4270.74 5132.68 6595.03 4558.15 6218.95 5222.16 5107.23 5136.08 3776.94 5558.68 4802.32 4010.57 5629.39 2684.03 6157.04 4768.61 5075.55 4522.21 5506.19 6719.94 4950.67 6166.29 5453.6 5409.63 5294.77 4709.05 4630.82 4043.66 4813.08 5860.67 4540.86 5990.52 3764.1 4835.83 5604.35 6316.56 4332.87 3091.67 6420.81 4715.58 4450.7 5151.52 5369.08 4347.74 4009.62 5291.9 2081.58 6505.78 5461.55 4270.15 6865.76 6449.64 6464.8 4684.44 4749.59 5799.69 3809.69 5571.72 3208.96 7051.9 4184.23 4144.57 5550.75 6834.41 6226.14 5466.33 3000.29 5721.05 4247.69 4514.39 4588.99 4321.21 4344.34 3583.49 5052.84 4366.74 5297.16 3184.64 5206.33 5530.49 5653.03 3718.69 4514.79 2216.82 4509.89 6752.75 5269.38 5607.3 2928.82 4222.4 4000.43 3420.08 4568.41 4912.04 4539.07 5464.68 2685.81 5591.76 4585.31 6625.18 5323.91 5097.45 6293.89 2761.07 5737.75 4983.39 5366.52 4690.55 5533.72 5533.42 3678.08 4599.38 5246.47 4187.31 6191.29 3240.51 7422.36 5161.01 4298.15 4628.4 5832.37 6051.83 4642.93 4263.16 3973.12 3077.84 6024.75 6109.49 5567.93 5987.42 5332.65 4442.22 6451.33 5413.31 3012.99 6400.08 4743.59 5208.14 3317.83 3763.05 5092.24 5549.49 3101.75 4518.04 4766.06 4874.18 5435.19 3298.2 4953.1 5818.95 4093.99 3940.49 4406.05 4680.94 5828.35 5876.72 5236.43 5285.07 4680.14 4608.41 4187.94 5980.59 5021.77 3796.15 4801.8 7216.98 5271.02 4209.31 5718.28 6242.79 5950.45 5713.03 5849.65 5134.67 4165.21 4215.0 4936.96 4481.76 5452.78 5065.26 4304.41 6192.0 4940.28 5885.28 6579.31 3004.34 3022.6 4811.76 4914.45 4698.87 4661.03 3624.7 4691.91 5262.35 4475.83 4510.8 5889.35 5010.04 4394.56 4570.98 4275.07 5825.38 4185.61 4047.87 5742.47 3778.02 6552.21 5417.8 5146.37 7132.12 4836.16 5518.57 5151.11 5463.48 5730.33 5545.46 4527.99 4376.7 4543.1 5190.61 8325.01 3764.06 4440.81 5941.9 5434.47 6642.76 5829.22 4497.78 4243.79 5811.18 5433.65 4008.15 4887.76 4669.06 4811.32 4286.49 6184.88 5829.32 4396.25 5551.95 3918.87 5423.42 2275.45 6605.86 5012.5 4383.56 3562.79 7093.13 4516.53 4122.92 3604.14 4452.54 5089.1 2711.19 4028.32 4099.92 4884.59 3858.06 4511.7 4083.79 5263.27 6300.92 4173.54 5599.29 6038.68 5046.12 4807.4 7013.17 3805.67 4601.74 6506.86 5088.57 5580.34 3852.6 5775.31 4706.5 4603.5 4647.67 5375.12 4356.36 4892.44 5578.94 7610.49 4286.17 3684.56 5323.55 5375.1 4172.6 5313.12 5351.56 5160.59 3984.88 4732.09 4320.42 4255.34 5064.79 5480.3 7509.24 4146.81 5896.26 5388.78 6101.13 4573.72 5099.21 4917.99 5636.4 4367.78 4350.12 5227.02 5670.0 4232.16 5300.96 4344.51 5680.94 3781.77 5581.55 5193.01 3474.5 6550.44 3860.83 6348.03 5732.27 4523.39 5278.56 5146.37 6917.62 4013.38 5631.14 4343.78 5263.3 4909.65 6523.86 7693.4 4326.48 4437.07 3449.37 5491.9 6405.0 4659.16 5789.55 4633.05 4901.2 5711.62 4990.79 4798.17 5166.79 6479.39 2895.63 4997.91 5079.22 5381.54 5810.77 4714.83 5474.15 7519.2 6355.68 4478.6 3953.55 4304.63 4063.9 4469.54 4314.56 3928.53 5606.51 5740.65 3834.47 6349.67 6329.53 4590.01 6101.86 4227.41 5993.0 4803.57 5966.42 4110.59 3332.49 5354.66 4214.44 5378.23 4787.97 3746.36 6789.23 3989.7 4777.03 4246.61 6028.09 5452.36 3804.5 6486.37 5498.42 5318.53 3344.57 5220.76 4281.98 7165.9 5344.83 7046.11 3427.63 4863.97 6342.48 5756.75 5599.7 4587.67 4163.74 6969.28 3665.95 5698.96 4095.75 3603.51 4298.45 5222.51 6609.84 5135.96 3834.43 5658.37 4707.06 6074.94 5491.37 4250.88 3783.54 5268.38 3475.67 4792.39 7038.89 3863.67 4814.12 5067.56 6137.8 2735.53 3352.35 5116.6 3747.03 2783.85 4356.49 4526.81 3994.07 4219.94 5907.46 4264.91 6740.71 5399.29 4909.31 5971.22 6522.59 6602.43 3568.28 5425.98 5996.66 4405.42 2995.67 3598.08 4599.81 5698.23 7300.58 3608.06 6633.61 5217.95 4867.7 5484.36 4277.24 5291.05 5161.1 4619.2 5166.41 5067.56 2596.96 5701.75 4350.15 4139.3 6541.45 4750.49 5078.31 5391.48 4923.43 5131.15 4847.14 3950.27 5116.66 3566.79 5374.67 4981.43 4741.28 4215.2 5069.89 4157.29 6813.72 5327.75 4609.02 4896.65 4638.18 4196.37 6448.66 4453.97 6945.98 5138.2 5783.48 4449.98 4701.5 4504.35 4771.65 4840.44 5093.82 5951.81 3924.14 6918.35 4296.69 6238.32 3319.67 6471.42 5283.8 4076.59 5369.5 4428.14 5164.1 6464.15 4479.11 4972.17 6685.4 5699.53 4222.77 4850.06 6332.01 5527.23 4805.33 4234.18 7085.01 5980.95 6193.08 6069.3 5887.01 5168.35 5388.39 5335.47 3728.18 5633.61 5048.19 6799.23 4888.27 4592.15 6487.56 4854.11 5533.19 4998.22 5417.21 6104.26 5583.61 6063.64 7382.3 4022.56 5522.21 3772.3 4855.01 6208.9 4923.57 3340.09 6061.63 2279.05 4829.35 4075.28 8137.11 5484.32 6650.77 4067.96 7104.73 6162.3 3272.75 4264.54 3516.27 7043.44 4263.78 4643.9 5228.75 6047.14 5009.83 5210.38 5717.8 3629.44 5003.78 3299.24 6246.56 4061.6 2603.64 5107.0 6212.15 6502.97 4783.07 4946.23 4852.58 6083.28 5211.6 3556.79 5806.31 5456.71 3503.41 7317.04 6412.67 7001.83 5012.97 5589.37 5439.49 6639.64 5212.43 4834.3 5454.12 6348.54 6804.79 5642.35 6372.13 5404.01 6016.19 4124.49 3230.13 5714.25 6176.67 5325.96 5412.24 5016.02 7044.29 4920.21 4049.16 3936.95 6153.94 6836.82 3862.77 3858.17 4631.99 4740.98 3185.39 5128.77 7122.87 5797.36 4243.26 4153.84 5119.86 5089.26 5084.17 4901.44 3776.8 5096.43 6156.21 2460.79 4653.83 6171.71 4986.71 3628.89 6589.82 4668.88 5027.43 5522.75 5867.64 4438.58 6059.93 5602.53 5073.02 6545.43 3472.91 6760.92 4989.2 4711.04 7144.05 4506.18 4824.12 2970.9 6542.5 4383.47 5971.21 4036.91 4066.57 4206.98 5156.76 6357.47 6101.57 4891.38 5535.91 4793.65 2949.12 5955.86 4532.89 4533.37 4848.46 5742.09 2779.99 5887.38 4581.37 6942.34 5851.61 3658.05 5478.11 5526.31 5030.15 6318.23 4058.87 5174.75 5932.07 4984.46 5948.71 3856.53 5460.89 6040.74 5260.85 2884.65 5393.65 5807.46 4648.21 4393.16 3311.29 4549.69 6423.81 6192.77 6413.15 6103.11 5048.55 6459.51 4024.31 4955.16 5844.72 3992.97 4147.31 5989.05 4054.22 7228.94 4441.22 4961.99 6551.93 4595.12 3110.13 6484.43 4625.67 3485.54 6735.97 5305.59 5416.45 4330.58 5754.6 3288.01 4904.51 4355.83 6870.97 2202.77 5351.86 5751.15 5950.88 4149.55 6201.86 5853.89 3380.69 4140.4 3639.44 4386.8 5446.4 4725.01 5966.75 4729.42 3104.96 4844.83 5244.78 3636.15 6114.89 5135.63 6384.7 5952.38 6056.87 5474.01 5307.35 7554.58 5166.89 4731.21 5491.63 5725.37 3868.62 5138.33 3477.1 4811.22 5216.26 4749.96 5377.37 5652.87 5483.7 5018.69 3152.86 3896.27 5973.89 5807.52 5963.36 5230.02 5087.14 4342.18 5169.48 6016.08 6776.22 3124.7 6064.71 6102.98 6060.17 4385.81 6592.93 5096.24 5769.14 3381.82 4831.93 4023.93 5494.28 4834.39 5493.89 5261.19 4918.76 4208.41 5826.78 6214.73 4553.68 3758.22 4268.19 4532.7 5561.74 6100.73 4788.08 4593.7 4349.13 6379.14 3687.65 3634.5 5478.95 3851.85 4019.34 4658.24 5869.67 4311.48 4387.39 4899.73 4564.1 5457.66 6394.19 5366.22 6193.73 5518.11 3742.11 5712.35 5701.52 4743.9 5321.17 3719.11 4467.13 3877.8 6418.11 5934.82 4501.78 5415.45 6350.71 5039.12 5135.5 7107.63 5868.89 5545.59 4099.26 5206.47 3831.52 4263.65 6106.43 6761.81 5467.63 4127.53 5210.75 2856.55 5361.87 3205.68 4473.29 4908.75 6556.26 3971.08 4482.9 6818.91 3503.65 3623.19 4869.48 4906.11 5510.96 4745.16 5825.55 5509.51 4848.14 3199.4 4316.5 5254.24 4192.21 4914.03 3597.43 5144.56 4158.91 5311.55 3360.86 3034.16 5551.43 4869.25 5545.21 4333.87 4922.49 3572.94 5001.58 6456.58 5244.98 5366.11 4824.81 5944.3 7307.21 3619.72 4565.93 5615.84 4464.73 5788.97 6440.38 3274.85 5007.21 4580.06 4835.97 4057.17 5262.47 7066.96 4587.7 5196.92 5644.81 4568.64 5666.95 4642.2 5175.89 3894.64 3703.49 5232.85 4374.74 5975.23 6816.66 4745.79 4211.82 6204.65 6550.4 5513.8 4887.52 6631.28 5350.88 6571.31 4392.65 5429.3 4944.51 6653.07 4697.91 4584.81 5071.98 5719.79 4371.08 7261.51 4968.14 5949.73 5086.29 4312.48 5527.13 5139.18 4278.57 6318.25 5049.99 4201.03 4458.64 5001.87 4312.15 3657.69 4883.63 4078.93 6015.02 4820.17 3814.65 3886.72 4034.05 5127.82 5798.38 6436.74 3419.87 4384.28 4456.26 3908.98 5113.6 6328.42 5640.72 5851.63 4504.52 4954.81 5610.53 6419.64 3926.11 5464.83 5414.58 4991.35 4807.35 5334.36 5750.35 4489.99 6555.44 5293.75 5658.14 5473.72 7124.45 6358.93 2205.51 5144.44 4757.2 5034.69 4198.94 5079.64 5470.04 6003.78 5684.25 4891.67 5188.53 4882.66 4027.63 5603.68 4526.34 5610.95 5532.72 3220.8 5179.17 4598.92 5579.39 5270.51 5148.1 5490.75 5224.64 5783.94 6370.33 5081.08 4202.77 5836.14 6864.06 6008.81 3644.78 5510.9 4505.28 3492.83 7039.98 6006.89 7778.01 5910.86 5690.96 5805.1 3862.91 4456.11 4027.33 4810.98 5091.22 3563.14 5212.92 5556.0 5748.9 3742.31 5755.15 4608.34 5695.79 2781.96 3512.94 4467.0 4994.65 5601.55 3903.91 4929.6 3919.62 3683.86 4548.45 5730.61 4508.18 2617.39 4062.56 5969.37 3217.67 4509.46 6163.54 5212.37 5438.92 3766.69 5110.11 5036.98 4521.75 4813.33 5569.2 5635.32 4827.61 4316.45 5409.08 5042.75 5241.22 6647.08 4979.52 3422.29 4407.79 5214.63 6548.29 3495.68 3990.96 5352.24 7362.42 5793.12 5473.05 4373.2 4583.52 6280.13 5244.22 5585.14 4960.64 5792.98 4983.3 5053.15 5124.17 6239.68 7320.78 4234.88 5782.43 4708.31 5026.76 6282.38 5657.55 5727.79 5188.82 5043.14 3663.0 6304.49 4420.6 3622.8 4431.23 4258.98 6545.99 4368.28 4945.0 4658.11 4551.26 5114.07 7142.95 5064.67 6618.21 3717.47 4504.86 6200.63 4928.35 1937.5 3844.54 3538.53 996.652 6500.49 5965.58 5058.51 4244.49 4050.03 4120.07 3840.21 4952.52 3429.57 6746.66 5410.33 5420.67 5661.6 5285.75 5385.03 5481.64 5673.75 5360.67 5968.54 6263.3 4501.05 4537.03 3247.97 4114.2 4326.06 5034.46 5757.29 5016.46 5469.17 5061.75 3769.24 3743.76 5153.18 6711.21 4971.29 5832.29 2606.51 4438.76 3864.92 6119.99 5372.82 5401.4 4775.49 4681.29 5749.6 3845.9 4174.44 4834.44 3873.92 4092.07 4213.05 5347.9 4224.3 4717.73 4928.85 5072.5 4749.18 4546.96 4316.0 5424.55 5134.72 4475.38 5287.25 5917.34 5740.98 5630.9 4728.55 4554.68 4140.92 6570.35 4559.74 4383.68 6666.67 4583.94 5046.31 4337.32 4680.69 2628.22 3352.34 4901.29 3242.31 6099.28 5372.25 4169.15 3234.26 4778.37 3494.16 5134.17 4074.16 4904.35 5592.54 5390.33 5124.34 4904.37 4358.81 4651.64 5729.92 4179.87 6224.13 4761.84 3661.67 3425.69 5510.45 4730.14 3994.39 4159.81 4446.58 4402.17 5499.59 6331.74 4198.9 5235.87 3904.07 5553.94 6502.99 4921.1 4191.01 4770.51 5577.41 6511.37 3787.08 4462.87 4218.16 6139.64 4692.32 4474.83 5236.24 4585.04 3127.83 4242.63 7407.91 6063.44 4051.18 5849.53 4420.11 5863.0 6127.39 4124.76 7200.89 4802.98 4833.55 7224.99 3908.56 5265.63 4898.29 4431.06 5730.2 4830.13 5620.88 5370.9 4941.52 4529.77 4325.13 6172.27 3783.79 5078.73 4248.14 5278.54 5279.19 5729.0 5192.92 5275.57 4786.66 5891.25 5370.1 5393.76 3684.15 7123.04 5906.57 7541.76 4990.23 3784.94 5667.51 5431.29 4833.67 5325.91 5157.38 4646.51 4546.44 6203.03 4700.07 5273.37 4732.37 5713.36 4704.92 4287.25 4392.75 3814.16 4589.06 4216.44 3999.5 4012.92 4346.07 4933.49 3269.54 5836.26 6015.22 6449.06 5241.75 4651.99 4731.53 5640.12 4972.18 5329.76 5684.88 5764.52 6523.78 4645.86 4045.67 4308.49 5900.0 4262.74 4581.1 6241.77 5317.19 7360.12 4016.6 6223.98 5821.49 7050.08 5580.44 5998.13 5902.67 5454.11 4236.86 6010.59 4128.1 4618.73 4932.29 4506.66 3220.29 4439.71 4141.21 4064.58 5023.41 952.938 4184.21 5473.89 6089.45 4985.3 4966.07 3987.69 4666.12 6219.34 4920.88 4013.86 4177.47 2918.64 4770.63 5678.58 4385.49 6102.49 5114.23 5495.0 6061.85 5512.44 4826.52 2904.46 3763.9 4577.73 4288.45 5419.57 4147.49 5760.98 4954.76 4642.74 5384.86 3770.22 4390.64 5150.84 4608.01 5087.97 6005.95 4519.03 4930.17 5110.27 4085.96 4745.44 5762.82 4232.33 5462.6 5617.29 3035.06 4262.19 4597.88 5095.52 4763.4 4941.02 5806.61 3682.35 2955.36 5182.13 3965.3 6110.48 4125.9 4564.41 5426.4 5951.86 3791.41 5853.12 5702.4 5810.17 5265.21 4657.24 4400.14 5674.63 5340.05 5345.73 4639.8 4212.15 4263.18 4489.29 4454.74 5120.92 4685.4 4636.53 4081.34 3646.95 3402.44 4848.98 5184.98 4491.96 4199.44 4467.51 5339.82 5460.57 5065.78 5703.34 4612.68 4521.42 6668.98 6649.52 4939.56 4747.68 5770.92 3093.38 4845.91 4878.93 2002.78 4461.67 5784.37 3142.09 6793.1 5515.73 6715.73 5209.55 5247.01 4841.7 4678.7 3450.07 3306.84 3484.81 5308.33 4271.07 5759.79 4462.35 4301.93 4924.07 3200.6 4918.64 6206.98 6638.25 4775.04 5162.67 2403.72 5537.61 6084.88 4397.06 3543.98 4053.12 4479.5 6261.67 3435.13 4431.46 4610.55 3207.84 3977.98 6043.34 4128.93 4462.5 4959.72 5573.31 4712.17 3808.04 4723.71 4405.61 5003.3 3668.93 3756.96 3954.77 6016.87 5077.29 6740.35 4550.92 6023.07 6506.63 6710.14 4598.54 5218.42 5188.22 4512.07 4896.43 3986.41 6240.42 5146.0 4788.7 5078.59 4607.18 3228.27 4721.98 5252.82 4142.1 5056.26 5878.55 4014.44 6604.72 6002.77 3794.47 4967.02 4614.49 3361.11 5400.69 6038.56 2807.46 5004.68 4179.8 4023.88 3488.34 5348.11 5428.24 6273.6 4009.24 5800.81 6245.52 5166.05 3125.13 5866.91 6075.99 5995.4 4841.23 4196.62 5984.8 3469.18 3372.95 6347.72 6334.53 3956.24 5580.95 7558.99 3393.59 4032.06 5043.14 5333.04 5445.91 4521.99 4812.59 6842.54 7115.67 5675.45 5329.84 5599.16 3879.83 5658.35 4577.98 5886.81 5684.05 4708.17 2741.2 3779.45 5167.53 7035.54 5763.05 5797.21 4208.37 6019.35 5191.26 4184.47 4140.04 3495.3 5890.25 5322.11 5700.79 4726.2 5034.05 4816.51 4711.15 3825.48 4658.59 2804.54 3810.68 3990.94 4756.8 5477.8 5463.06 4176.32 5260.52 3185.09 5532.75 4241.68 6949.65 4095.83 2945.34 5676.61 5846.95 5064.23 5268.15 5701.63 5819.0 4870.94 3460.93 5124.86 4629.02 4927.73 6006.16 5914.5 5721.14 4608.62 5407.96 5084.5 4987.28 4071.75 6562.03 4815.47 4759.99 3899.7 5134.33 5214.4 3629.49 4705.68 5766.05 5469.35 5117.64 3916.42 4313.38 3549.92 6598.99 5250.56 5246.81 3633.58 2468.16 5089.1 5888.95 5394.78 3463.34 5169.09 5122.38 2853.68 2459.88 5262.85 4998.37 5901.71 6559.82 5342.9 6565.95 5733.12 5043.34 4493.79 4932.56 5136.87 5638.7 5024.32 5813.79 4644.88 5790.42 4983.1 7350.26 5591.77 6224.85 7145.73 4168.52 4795.08 5106.46 6562.92 4068.31 3671.06 3612.44 4983.43 4850.5 5233.76 6405.69 2820.07 5129.68 5357.39 4252.18 5076.84 4659.88 6296.54 5811.26 5062.77 5685.74 5069.9 4884.93 6028.63 3673.6 5146.1 6215.87 6485.77 6060.06 3669.32 5866.42 4762.1 5393.43 6896.55 4685.65 5377.01 6470.23 5939.22 4668.8 4271.93 4215.05 5125.17 4697.49 4859.01 5735.08 5524.45 4426.02 7133.44 3953.26 4750.81 4474.39 5467.51 5459.92 6478.35 4625.53 5453.77 4096.47 4357.11 5005.6 5114.67 5486.89 6069.78 5589.53 7208.19 4549.51 3587.93 5196.08 4975.85 4517.29 5695.25 5323.95 4495.75 6171.01 5716.42 6229.83 5796.26 4468.26 4603.04 5578.18 4620.95 5293.37 5368.93 4488.39 5271.88 5933.54 6121.56 7168.2 4602.57 3565.32 3419.07 4571.74 5740.78 5710.33 4096.86 4796.12 3622.48 5344.44 5001.51 6432.8 4626.72 5115.42 5549.71 5131.77 3186.07 4410.82 4369.86 4967.51 4368.12 6443.99 2646.13 4365.58 3889.98 5399.43 5193.58 5490.64 5034.34 5695.44 3769.2 3422.21 3835.81 4507.46 5036.14 5827.3 6036.99 3010.1 3825.98 6294.14 4339.97 5087.03 5203.75 4667.84 3906.41 4691.15 4512.6 4210.24 5470.67 5225.11 5252.22 6060.19 4962.35 6436.29 5537.34 5884.99 3667.93 4279.44 5192.49 4899.19 3487.31 6643.4 4674.9 5058.34 4028.22 3918.94 3392.26 5575.11 5293.13 3852.82 5487.63 3768.46 4507.36 5138.93 6406.8 4556.19 5403.97 7086.69 5648.78 5368.66 6875.73 5501.73 4436.48 4697.24 5226.42 6081.3 5615.35 5117.52 3967.76 6311.89 4683.28 6549.8 4217.36 5679.74 4825.73 4851.18 4150.76 4165.36 5288.33 5368.52 4871.77 5155.28 5205.38 5388.73 4764.83 1969.87 3132.34 4600.71 3957.38 5262.79 4494.15 5927.2 5035.71 4710.88 4419.79 5407.69 5152.78 3869.39 5960.5 5544.27 5534.23 4117.9 4753.76 6025.77 4638.09 4781.9 4441.91 6815.96 5339.6 5330.26 5828.25 4725.11 3626.86 5418.12 6371.96 5322.07 4604.1 5076.11 5990.75 5600.21 4282.11 4656.01 5781.62 6589.13 2347.41 3543.37 4542.16 2809.19 5628.97 4916.7 4104.04 5353.66 2638.82 5030.33 5593.79 5025.42 4965.24 5234.2 6379.38 6257.79 5327.05 5438.55 4849.5 5353.23 4434.65 5977.66 4523.81 5209.5 5106.33 5791.25 5198.94 4028.35 5559.79 5464.05 5879.24 2980.31 3763.85 3148.79 6348.93 6824.53 5997.91 4332.64 5385.86 4742.82 6791.86 4082.4 4209.0 4820.68 5482.76 5173.82 7212.97 3720.7 4211.36 6297.99 5378.24 5698.53 3604.31 3856.73 4450.49 3468.45 2832.83 4474.96 4084.87 5259.29 3584.05 4589.22 4818.53 5097.85 5584.64 4123.08 6224.64 4260.38 4221.03 4636.45 4932.27 3799.55 5638.51 6793.49 3563.33 5536.0 6786.37 6022.78 4087.32 6647.85 5726.42 2569.12 7025.09 2549.95 4433.12 5461.72 4361.24 6599.28 5099.9 6945.69 5118.86 4298.7 3902.48 4183.4 4304.64 6170.9 5833.78 4823.06 5758.98 5254.49 5288.64 6213.24 6734.39 5987.88 5942.45 3579.59 4228.53 6123.46 5005.72 6142.88 5057.59 5111.26 4574.54 4949.55 5490.54 4841.28 5203.54 4047.95 5507.38 6889.5 4416.87 5001.69 5300.17 6581.56 4057.4 4052.43 3980.46 4896.67 3934.11 5158.44 3886.56 4466.22 4496.51 6153.71 5917.08 6561.94 5483.37 5259.21 5092.93 5934.05 5770.07 4714.66 5101.6 4984.17 6182.19 5327.39 4037.86 7415.84 5602.62 4981.81 2030.03 5714.51 4138.59 4938.33 4484.78 4621.33 5527.27 5104.39 4612.13 5847.91 4934.66 5846.6 4109.44 4903.84 4290.49 6688.53 5927.1 6175.27 5065.74 5876.51 4873.23 4103.76 6731.89 4286.61 4733.41 5410.6 5264.83 4603.66 5453.2 5136.51 3901.53 6815.51 5232.16 4422.23 4457.05 3989.26 6031.22 3618.64 4930.72 5485.84 5728.58 3745.02 6424.77 4887.73 4335.79 5453.69 5918.95 4538.89 5689.56 5817.74 6556.86 5887.71 5367.05 4758.76 4790.63 4088.72 3945.62 4916.75 3743.85 6236.46 5342.17 6379.3 6189.04 3795.63 5189.4 4576.71 5082.66 4550.77 4894.15 4337.93 3550.88 5201.3 4345.51 4048.73 6223.33 4009.68 5517.65 5114.51 3303.49 4655.37 4161.32 4622.73 5256.75 5161.74 7336.37 5932.28 5560.23 2960.5 5783.38 4975.32 3043.77 4139.39 5237.55 3909.94 5088.64 6030.39 6589.8 4733.79 4905.53 3799.01 6920.92 7392.65 5319.1 3757.23 6828.8 4181.93 6883.86 3350.99 3820.19 4979.5 6161.94 4586.82 4745.37 4065.28 5939.29 4461.14 5285.6 5418.98 5575.11 4034.41 5615.06 4052.49 5061.74 5326.03 6189.67 6142.94 4948.96 5256.82 4013.86 4061.87 4645.93 5383.9 5165.31 5448.64 3798.09 4585.37 4288.5 6417.61 5715.51 3721.69 4511.05 3456.3 5783.69 6074.39 5317.83 4256.08 2803.01 5881.93 4399.52 4444.0 4554.24 6771.18 3939.96 4867.12 5910.66 6520.19 5141.03 4637.3 1458.87 4970.55 4840.44 8123.59 5765.14 4767.54 5157.73 4541.22 4946.08 4984.01 3539.68 4696.03 6217.33 4557.1 6177.68 4605.39 4698.7 6270.59 2848.44 6045.26 6500.45 4907.55 4094.63 5084.76 2932.52 6605.11 4757.87 4969.68 3557.46 6636.43 5431.14 5313.86 6298.8 3689.24 5178.07 5189.91 5777.26 4171.02 5703.84 3530.82 7012.36 5797.32 5028.06 5432.04 4886.99 5159.67 3921.27 3161.1 3702.45 4449.73 5647.11 5015.67 6538.04 6157.59 5848.41 4090.28 4246.83 5129.4 4746.15 6275.25 3720.38 4758.84 5585.25 4731.37 5023.61 6351.89 3976.0 4672.86 6530.78 5059.37 4742.35 5394.79 5645.54 6264.03 4526.87 3562.8 4151.74 4691.01 5192.82 3729.16 4174.22 3573.84 3783.36 3038.91 4067.89 3922.28 6294.09 6570.43 4571.57 5131.07 3445.92 4121.07 5236.69 3133.28 5524.28 5105.54 6026.04 6200.05 6353.81 5859.17 3518.14 3414.67 4150.44 5522.34 5771.98 4420.35 5899.78 5717.45 5000.74 5117.83 5268.27 4813.81 3882.37 5244.95 4634.25 5901.8 6351.48 5395.12 3830.7 6210.0 3483.61 5350.9 4262.52 6738.9 4460.89 5992.06 4157.1 8052.53 4970.12 6044.01 6369.66 5973.57 5734.07 6241.48 3997.68 6033.28 4819.83 5957.82 4801.16 5071.38 6286.27 6327.54 5121.08 2927.84 5616.66 5688.77 5368.28 5466.13 6229.64 4220.43 6263.87 5743.8 6666.34 3826.01 4645.91 5581.01 6834.92 6379.33 5971.95 5652.73 3979.46 6321.97 5151.19 3985.93 6412.84 6509.54 6119.0 3792.06 5128.59 4002.99 4993.49 4293.3 5587.3 3572.73 4864.38 5631.32 6892.33 4505.3 4491.26 4452.36 4609.65 4511.34 6463.71 4068.41 5009.21 4574.03 4379.91 5290.37 4942.63 5850.38 6139.74 5264.08 4975.57 4227.66 7066.26 4730.97 4594.89 5245.95 3677.85 5821.42 4515.02 3463.53 4924.52 6126.03 2970.24 4197.87 6044.69 5658.05 6593.1 5731.43 4000.51 5462.1 6032.45 5444.36 5044.68 4026.03 6908.32 2649.69 3467.11 4817.75 5772.57 6153.26 5637.53 4848.15 5523.81 4095.4 5648.59 4718.61 5188.57 3873.79 5357.33 5717.67 5252.37 3224.81 5432.4 4499.54 5037.58 7430.48 5640.67 5545.68 6080.69 5555.89 4967.93 4766.47 4871.1 5678.08 5922.62 5872.45 4414.09 5125.45 3784.68 4188.16 3717.22 6649.21 5507.07 4802.36 2943.17 4654.92 5327.71 4880.78 4322.56 5257.38 5509.09 5075.23 5625.02 4975.56 5212.05 7282.36 4829.77 3928.99 4444.92 6959.88 4125.75 5749.53 5130.57 5090.48 5247.73 5402.45 5582.28 5945.25 6071.59 2589.19 3856.4 6079.55 5485.61 4137.16 4937.36 5308.4 5310.33 6583.37 4569.32 3688.83 6126.5 6322.0 5793.14 6345.2 5488.96 5704.61 4832.21 5128.03 5410.73 3720.92 4793.06 5087.3 6637.38 6188.33 6111.23 3057.3 6916.18 6150.31 5873.62 5214.71 4996.91 4677.84 4811.11 3920.44 5379.52 4866.8 5314.67 3851.47 5563.47 4966.74 5651.46 4066.36 3162.27 6033.93 5011.37 5516.37 2827.92 5092.44 4441.44 4232.44 5336.61 5563.09 3312.3 6381.58 4439.09 3282.57 4798.13 5212.2 5108.42 6697.45 6296.36 4432.32 5515.59 4451.76 7885.41 3775.38 4046.22 6457.89 4844.2 6572.17 3751.73 3374.62 4926.62 6332.64 3917.09 6009.93 4083.1 5270.1 5191.29 4947.64 4063.26 6305.9 4997.89 4542.62 3470.69 4859.95 5286.55 5522.18 5223.1 3873.72 4850.49 4592.49 5479.86 3625.98 6474.5 4702.32 4763.04 5971.9 3746.62 4413.56 4876.37 4532.67 5034.02 5316.05 4769.62 5260.13 4649.5 5019.84 5181.31 4696.06 5985.75 5475.83 6189.29 5984.55 4329.8 6581.13 5803.3 4034.88 5108.84 3511.5 6007.1 4520.14 5067.92 3188.21 5357.14 5919.27 4850.95 5374.09 6271.22 3421.81 3920.64 5378.75 6186.24 5786.06 4137.41 3868.69 5447.74 4450.51 6033.72 5007.41 3768.62 3692.99 6213.74 2329.93 4369.87 4959.94 1635.31 6938.87 5639.4 6185.73 4083.24 4806.99 6520.96 5432.2 3771.91 5217.62 4612.4 6178.19 4746.19 4616.81 5715.25 4362.94 4611.21 6545.78 4630.5 3354.94 4404.87 5237.27 5767.65 4750.76 5782.25 4907.03 4104.97 4575.72 4081.77 5114.61 6118.13 2181.29 4987.01 4420.3 4706.31 4202.12 2694.25 4735.99 6492.44 4739.56 4613.32 5145.39 3482.73 3996.93 5130.56 4957.99 5195.09 5345.05 7679.2 5093.28 6131.52 4132.08 4311.92 6009.88 4699.77 4981.55 5093.41 5144.23 6188.62 6153.07 3621.63 4414.06 5908.57 5944.52 7296.47 5050.2 2513.38 4821.41 4908.32 4924.53 3995.08 5616.11 3874.12 4499.52 4810.74 4028.13 5784.38 3900.93 6476.35 4149.17 6260.58 4067.24 5728.27 3053.19 5672.46 5202.33 3074.49 4582.12 4487.51 4295.25 6805.02 5354.48 7394.47 4729.45 6261.13 4167.55 4720.34 5244.47 4731.16 5510.89 5822.7 6470.87 3780.07 4495.33 5282.67 4159.89 5466.49 5178.55 4038.17 5146.69 4907.48 6818.23 4488.41 6679.12 5412.07 5652.19 5512.57 6578.62 4813.55 5856.43 3465.03 4796.04 3839.0 5349.85 5229.56 5799.86 5172.1 6052.22 4469.82 5376.41 4870.14 5003.63 2932.2 4695.7 5105.72 4944.08 4082.01 5003.49 3964.03 5269.39 4216.33 5497.27 5617.91 4948.21 5161.02 4721.2 3124.49 6265.48 5003.81 4203.68 6262.18 3818.37 4701.03 3352.46 6351.95 5434.04 5200.1 3997.52 4881.51 4444.54 5779.9 2626.41 4909.74 5310.33 6729.99 6664.54 6842.35 5464.34 5259.48 5161.73 4777.96 5801.89 5254.93 4803.4 6833.5 6608.94 5742.39 4780.16 3834.01 4433.23 5738.37 4813.24 5759.19 4457.73 3113.64 4490.2 4304.75 5480.86 6139.9 6571.26 4246.24 4919.13 4600.81 5640.63 4900.26 4358.06 5783.88 5002.38 6705.93 4865.11 5502.14 5449.09 4605.61 4465.56 4131.08 5747.9 5386.95 3864.19 4287.93 5315.71 6203.24 6158.93 5081.65 4823.14 5438.5 4621.32 5806.74 3878.8 5237.76 4698.94 6284.12 3948.21 5669.15 5296.05 6011.4 3330.85 4672.34 5056.32 5533.52 5410.33 4747.24 4380.86 4909.13 5576.16 4305.35 5648.02 3308.75 5210.22 5832.72 2451.27 3903.9 4929.35 4444.95 5606.22 3943.77 5242.38 6081.35 5459.52 4609.98 5566.5 5663.36 6225.05 5579.04 5125.53 5994.21 5403.81 5082.25 6964.78 5299.03 5036.84 4565.36 3922.98 5813.68 4025.08 4008.67 5040.9 3618.53 4770.21 8013.28 3846.55 2613.78 3796.73 5417.07 3082.16 5656.84 6789.66 4739.41 5312.2 5847.27 4706.59 5734.84 5551.79 3982.31 4950.07 4720.22 5402.81 5561.63 4328.76 4124.33 5168.97 6568.45 5093.51 5647.93 4280.92 6201.49 5154.74 4696.92 6437.99 6898.8 6540.57 5332.11 4893.72 6004.72 4072.4 5373.78 5345.65 4489.18 5863.36 5699.4 4752.94 4994.98 4286.84 3950.53 6423.96 6058.13 5894.69 5263.86 6988.4 6635.51 4060.17 6051.35 5302.53 5543.67 4287.61 4867.13 4604.34 4439.17 5677.42 2701.42 4502.12 5442.79 5051.39 6673.92 5151.68 4884.94 5362.15 4455.61 4738.72 3695.72 4752.31 5240.97 5106.9 4276.59 5569.85 5405.6 3929.35 4884.93 4733.37 4759.38 6960.97 4374.05 4287.15 5282.51 5504.65 5669.41 5732.11 3919.47 5596.68 4868.66 5159.9 4004.39 5283.65 4644.68 5943.61 2892.36 4248.58 5981.54 5911.29 5416.41 4694.27 6760.64 2515.5 4849.21 5177.88 3793.83 6981.47 4582.24 3916.15 4333.23 5145.13 3860.8 3747.96 5611.29 5940.5 4521.88 5004.22 5103.3 4601.54 4963.88 7263.57 3832.09 5705.96 5267.65 5739.69 4790.16 6632.04 5360.88 7360.62 4985.45 4983.56 5699.51 4714.52 2489.44 5499.37 4632.75 4883.13 4836.76 5551.09 5755.98 4501.1 5581.47 4384.91 6550.61 4987.01 4713.56 6094.34 6779.82 4739.5 3999.81 6377.45 4863.27 3255.93 6853.07 6327.61 4633.59 5733.59 5575.8 5268.93 6874.6 5306.31 5523.96 4223.53 4535.94 3037.72 4523.9 5126.08 5604.0 3760.4 4951.02 4602.7 3783.35 4037.16 6395.63 4987.48 5479.17 5020.37 4542.25 4414.23 5233.88 4785.55 5245.4 6189.81 5438.6 7370.52 4726.5 5467.05 3724.23 5888.94 4122.2 4727.98 5175.88 4516.26 3509.34 3647.26 3731.58 3166.37 4977.64 5369.42 5207.08 5205.53 4587.19 5543.05 6028.89 5333.16 4888.17 5392.85 5077.2 4274.05 5275.27 4277.54 5529.09 4531.46 5925.82 5448.68 4072.95 6210.48 4491.62 4182.05 3865.5 
SCALARS Velocity float 1
LOOKUP_TABLE default
1.19184 1.19193 1.19188 1.19191 1.19178 1.19197 1.19193 1.19191 1.19177 1.1919 1.19178 1.19181 1.19178 1.19178 1.19183 1.19178 1.19178 1.19179 1.19178 1.19178 1.19177 1.19186 1.19183 1.19178 1.19178 1.19177 1.19178 1.19177 1.19178 1.19178 1.19178 1.19182 1.19184 1.19188 1.19188 1.19187 1.19184 1.19181 1.19177 1.19183 1.19181 1.19178 1.19186 1.19178 1.19177 1.19195 1.19188 1.19181 1.19181 1.19183 1.19178 1.19185 1.19177 1.19189 1.19187 1.19178 1.19178 1.19179 1.1918 1.19194 1.19179 1.19203 1.19186 1.19176 1.19178 1.19179 1.19178 1.19185 1.19197 1.1918 1.19198 1.19198 1.192 1.19191 1.19182 1.19184 1.19196 1.192 1.19193 1.19188 1.19178 1.19186 1.19193 1.19193 1.19178 1.19183 1.19179 1.19185 1.19197 1.19208 1.19187 1.19189 1.19188 1.19185 1.19178 1.19182 1.19181 1.19216 1.192 1.19186 1.19192 1.19198 1.19199 1.1919 1.19192 1.19195 1.19193 1.19178 1.19181 1.19177 1.19178 1.19184 1.19178 1.19178 1.19179 1.19178 1.1919 1.19178 1.19187 1.19178 1.19178 1.19178 1.1918 1.19178 1.19178 1.19179 1.19179 1.1918 1.19184 1.19187 1.19189 1.19188 1.19187 1.19185 1.19182 1.19179 1.19185 1.19182 1.19187 1.19186 1.19176 1.19189 1.19195 1.19181 1.19178 1.19196 1.19186 1.19183 1.19183 1.19181 1.19195 1.19213 1.19211 1.19177 1.19177 1.19178 1.19182 1.1918 1.19193 1.1919 1.1919 1.19178 1.19206 1.19187 1.19178 1.19178 1.19186 1.19181 1.19173 1.19201 1.19176 1.19181 1.19196 1.19208 1.19199 1.19197 1.19196 1.19182 1.1918 1.19199 1.19177 1.19193 1.1919 1.19175 1.19186 1.19197 1.19197 1.19176 1.19185 1.19177 1.19188 1.19202 1.19176 1.19187 1.19184 1.19188 1.19185 1.19185 1.19184 1.19181 1.19178 1.19202 1.19207 1.19194 1.19206 1.19199 1.19204 1.19191 1.1918 1.19193 1.19185 1.1918 1.19202 1.19178 1.19185 1.19178 1.19178 1.1918 1.19178 1.1919 1.19178 1.19187 1.1918 1.19188 1.19178 1.19181 1.19178 1.19176 1.19182 1.19179 1.19183 1.19187 1.19191 1.19188 1.19185 1.19182 1.19179 1.19184 1.19178 1.19187 1.19186 1.19178 1.1919 1.19195 1.19181 1.19178 1.19177 1.19193 1.19187 1.19183 1.19181 1.19198 1.19222 1.19183 1.19178 1.19181 1.19191 1.19186 1.19196 1.1919 1.19188 1.19208 1.19187 1.19196 1.19186 1.19215 1.19181 1.19201 1.1918 1.19189 1.1918 1.19212 1.192 1.19195 1.19196 1.19181 1.19197 1.19179 1.19198 1.19192 1.19198 1.19178 1.1919 1.19189 1.19197 1.19222 1.19181 1.19173 1.19191 1.19175 1.19182 1.19212 1.19186 1.19206 1.19188 1.19184 1.19185 1.19178 1.19202 1.19198 1.19195 1.19208 1.19209 1.19203 1.1919 1.1918 1.1919 1.19178 1.19178 1.192 1.19184 1.19184 1.19188 1.19177 1.1918 1.19174 1.1919 1.19186 1.19186 1.19189 1.19183 1.19177 1.19178 1.19178 1.19181 1.19183 1.19183 1.19182 1.192 1.19188 1.19186 1.19189 1.19188 1.19191 1.19188 1.19185 1.19182 1.19192 1.19181 1.19186 1.19179 1.19185 1.19161 1.19192 1.19192 1.19193 1.19183 1.19175 1.19195 1.19187 1.19191 1.19194 1.19206 1.19226 1.19181 1.1918 1.19185 1.19187 1.1919 1.19178 1.19178 1.19214 1.19178 1.19231 1.19193 1.19209 1.19187 1.19183 1.19202 1.1918 1.19188 1.19185 1.19211 1.19194 1.19194 1.19196 1.19164 1.19202 1.19199 1.1919 1.19208 1.19185 1.19225 1.19186 1.19195 1.19223 1.19185 1.19186 1.1922 1.19179 1.19208 1.19217 1.19184 1.19205 1.19171 1.19184 1.19188 1.19189 1.19185 1.19211 1.19198 1.19189 1.19193 1.19207 1.19205 1.19201 1.19186 1.19207 1.19187 1.1916 1.19176 1.19202 1.19183 1.19186 1.19191 1.19178 1.19183 1.19177 1.1919 1.19177 1.19186 1.1919 1.19184 1.19178 1.19207 1.19182 1.19178 1.19183 1.19181 1.1919 1.1918 1.19181 1.19187 1.1919 1.19179 1.1919 1.19191 1.19184 1.19186 1.19177 1.19174 1.19183 1.19159 1.19185 1.19207 1.19182 1.19165 1.19202 1.19186 1.19191 1.19194 1.19192 1.19225 1.19181 1.1918 1.19185 1.19189 1.19188 1.19178 1.19177 1.19175 1.19206 1.1922 1.1921 1.19186 1.19174 1.19202 1.19178 1.19191 1.19178 1.1921 1.19184 1.19188 1.19212 1.19192 1.19211 1.19198 1.19195 1.19195 1.19199 1.19201 1.19176 1.19227 1.19208 1.19195 1.19213 1.19186 1.19198 1.19166 1.19191 1.19195 1.19189 1.19191 1.19211 1.19191 1.19189 1.19212 1.19178 1.19187 1.1919 1.19204 1.19205 1.19198 1.19184 1.19207 1.19186 1.19152 1.19181 1.19178 1.19208 1.19194 1.192 1.19181 1.19185 1.19189 1.19194 1.19183 1.19186 1.19189 1.19183 1.19172 1.19206 1.19183 1.19182 1.19184 1.1919 1.19178 1.19181 1.19177 1.19184 1.19188 1.19187 1.19182 1.19193 1.19184 1.19179 1.19173 1.19182 1.19182 1.1918 1.19184 1.19189 1.19185 1.1918 1.19193 1.19191 1.19193 1.19217 1.19222 1.19185 1.1918 1.19184 1.19184 1.19175 1.19175 1.19165 1.19205 1.19217 1.1919 1.19223 1.19165 1.19201 1.192 1.19191 1.19199 1.19179 1.192 1.19216 1.19209 1.19205 1.19164 1.19196 1.19183 1.19192 1.19208 1.19221 1.19225 1.19206 1.19175 1.19209 1.19185 1.19202 1.19172 1.19195 1.19178 1.1919 1.19182 1.19173 1.19179 1.19209 1.19191 1.19161 1.19184 1.1921 1.19185 1.19201 1.19204 1.19196 1.19184 1.19207 1.19182 1.19154 1.19182 1.19182 1.19169 1.19193 1.19179 1.19177 1.19184 1.19194 1.1919 1.19186 1.19171 1.19181 1.19181 1.19183 1.19194 1.19191 1.19185 1.19178 1.19178 1.1918 1.19181 1.19175 1.19183 1.19188 1.1919 1.19184 1.19184 1.19194 1.19184 1.1919 1.19168 1.19184 1.19181 1.19179 1.1918 1.19172 1.19204 1.19209 1.19228 1.19189 1.19212 1.19217 1.19219 1.19185 1.19187 1.19211 1.19184 1.19173 1.19173 1.19165 1.19178 1.19187 1.19299 1.19212 1.19171 1.19177 1.19178 1.19173 1.19202 1.19199 1.19194 1.19177 1.19199 1.19187 1.19209 1.19176 1.19218 1.19191 1.19187 1.19207 1.19248 1.1922 1.1922 1.19189 1.19168 1.19204 1.1918 1.192 1.19171 1.19194 1.19173 1.19187 1.19178 1.19194 1.19176 1.19192 1.19162 1.19183 1.19178 1.19189 1.19174 1.19186 1.19185 1.19194 1.19156 1.19194 1.19203 1.19174 1.19193 1.19205 1.1918 1.1918 1.19176 1.1917 1.19186 1.19167 1.1919 1.19201 1.19193 1.19183 1.19184 1.19183 1.19179 1.19194 1.19183 1.1918 1.19173 1.19186 1.19178 1.19186 1.19164 1.19178 1.19183 1.19186 1.19184 1.19188 1.19185 1.19183 1.19193 1.19195 1.1917 1.19214 1.19176 1.19185 1.19176 1.19185 1.19178 1.19169 1.19175 1.19185 1.19215 1.19182 1.19195 1.1921 1.19216 1.19216 1.19233 1.19223 1.19263 1.19159 1.19228 1.19178 1.19168 1.19187 1.19211 1.19206 1.19192 1.19143 1.19213 1.19178 1.19211 1.19201 1.19174 1.19192 1.19176 1.19198 1.19181 1.19215 1.19192 1.19202 1.19201 1.19186 1.19198 1.19226 1.19201 1.1919 1.19166 1.19205 1.19191 1.19177 1.19202 1.19189 1.19159 1.19206 1.19177 1.19209 1.19179 1.19182 1.19186 1.19178 1.19178 1.1917 1.19179 1.19191 1.1916 1.19192 1.19169 1.19185 1.19185 1.19178 1.19177 1.19174 1.19189 1.19176 1.19159 1.19209 1.19191 1.19183 1.19183 1.19174 1.19174 1.1919 1.19184 1.19184 1.1918 1.19185 1.19172 1.19184 1.19163 1.19177 1.19181 1.19183 1.19189 1.19183 1.19181 1.19182 1.19192 1.19186 1.19193 1.19183 1.19209 1.1918 1.19205 1.19178 1.19191 1.19173 1.19188 1.19213 1.19183 1.19178 1.19204 1.19208 1.1921 1.19184 1.19226 1.19225 1.19232 1.19172 1.19219 1.19246 1.19216 1.19171 1.19147 1.192 1.19199 1.19188 1.19144 1.19211 1.19176 1.19207 1.19183 1.19192 1.19177 1.19194 1.19186 1.19178 1.19189 1.19208 1.19196 1.19193 1.19187 1.19193 1.19196 1.19225 1.19213 1.19198 1.19178 1.19206 1.19191 1.19189 1.19183 1.192 1.19194 1.1919 1.19152 1.19176 1.19205 1.19176 1.19209 1.19213 1.19191 1.19175 1.19155 1.19167 1.19171 1.19189 1.19157 1.19175 1.19201 1.19178 1.19168 1.19179 1.19186 1.19184 1.19169 1.19196 1.19186 1.19158 1.19178 1.19192 1.1918 1.19181 1.19171 1.19173 1.19188 1.19183 1.1918 1.19188 1.1918 1.19174 1.19161 1.19178 1.19181 1.19179 1.19178 1.19173 1.19177 1.19185 1.19184 1.19178 1.19178 1.19179 1.19183 1.19191 1.19178 1.19177 1.19228 1.19138 1.19216 1.19212 1.19187 1.19178 1.19205 1.19243 1.19187 1.19214 1.19226 1.19223 1.19234 1.19218 1.19183 1.19224 1.19164 1.19154 1.19158 1.19198 1.19199 1.19188 1.19115 1.19206 1.19206 1.19174 1.19192 1.19185 1.19198 1.19184 1.1918 1.19111 1.19204 1.19187 1.1919 1.19195 1.19189 1.19194 1.19199 1.19159 1.19185 1.19201 1.19195 1.19192 1.19189 1.19211 1.19191 1.19158 1.19156 1.19179 1.19203 1.19174 1.19179 1.19221 1.19191 1.19174 1.19161 1.1917 1.19172 1.19156 1.1917 1.19196 1.19216 1.19192 1.19175 1.19178 1.19178 1.19171 1.19186 1.19171 1.19183 1.1917 1.1918 1.1919 1.19184 1.19163 1.19188 1.19179 1.19181 1.1917 1.19169 1.19187 1.19182 1.1918 1.19188 1.19178 1.19175 1.19172 1.1919 1.19174 1.19178 1.1918 1.19188 1.19169 1.1917 1.19177 1.19182 1.19178 1.1918 1.19177 1.19185 1.19195 1.19186 1.19171 1.19228 1.19131 1.19206 1.19207 1.19204 1.19188 1.19227 1.19194 1.192 1.19252 1.19223 1.19216 1.19217 1.19223 1.1919 1.19119 1.19224 1.19153 1.19119 1.1914 1.19194 1.19185 1.19168 1.19202 1.19171 1.19164 1.19178 1.19187 1.19187 1.19217 1.19174 1.19145 1.19187 1.19158 1.19216 1.19183 1.19188 1.19192 1.19188 1.19179 1.19188 1.19178 1.19164 1.19167 1.19178 1.19214 1.19154 1.19189 1.19156 1.19177 1.19201 1.19085 1.19207 1.19226 1.19202 1.1916 1.19168 1.19184 1.19175 1.19157 1.19175 1.19198 1.19219 1.19176 1.19175 1.19172 1.19166 1.19176 1.19185 1.19184 1.19196 1.19178 1.19176 1.19175 1.19181 1.19194 1.19176 1.19168 1.19166 1.19185 1.19182 1.1918 1.19189 1.19175 1.19178 1.19196 1.19199 1.19178 1.19177 1.19188 1.19169 1.19179 1.19178 1.19183 1.19168 1.19172 1.19179 1.19185 1.19193 1.19178 1.19171 1.19251 1.19171 1.19203 1.19206 1.19194 1.19178 1.19238 1.19208 1.19251 1.19223 1.19234 1.19211 1.19212 1.19177 1.19195 1.19225 1.19118 1.19177 1.19169 1.19186 1.19178 1.19196 1.19182 1.19213 1.19146 1.19185 1.19175 1.19182 1.19187 1.19173 1.19161 1.19174 1.19171 1.19187 1.19176 1.19182 1.19191 1.19183 1.19191 1.19134 1.19179 1.1913 1.19174 1.19176 1.19152 1.19146 1.19162 1.19188 1.19114 1.19125 1.192 1.19198 1.19225 1.19169 1.19205 1.19164 1.19191 1.19181 1.19156 1.19171 1.19194 1.19186 1.19168 1.19172 1.19173 1.1917 1.1919 1.1917 1.1918 1.19204 1.19159 1.19201 1.19163 1.19171 1.19179 1.19172 1.19188 1.19172 1.19167 1.19164 1.19184 1.19178 1.1918 1.19176 1.19164 1.19179 1.19195 1.19195 1.19185 1.19184 1.19178 1.19181 1.19174 1.19168 1.19174 1.19172 1.19186 1.19132 1.19156 1.19207 1.1922 1.19163 1.19255 1.1921 1.19229 1.192 1.19188 1.19178 1.19178 1.19243 1.19248 1.19204 1.19258 1.19182 1.19204 1.19233 1.19213 1.19124 1.19185 1.19159 1.19197 1.19207 1.19179 1.19171 1.19196 1.19239 1.19179 1.19166 1.19172 1.19178 1.19174 1.19153 1.19174 1.19186 1.19161 1.19174 1.1917 1.19185 1.19152 1.19181 1.19166 1.19133 1.1918 1.1917 1.19151 1.19147 1.19166 1.19191 1.19113 1.19126 1.19199 1.19196 1.19224 1.19166 1.19203 1.19164 1.1918 1.19182 1.1917 1.19178 1.19135 1.1916 1.19168 1.19169 1.19175 1.19172 1.19189 1.19172 1.1918 1.19165 1.19172 1.19189 1.19159 1.1917 1.19172 1.19178 1.19185 1.19178 1.19172 1.19162 1.19152 1.19185 1.1918 1.19163 1.19169 1.19185 1.192 1.19189 1.19183 1.19193 1.19186 1.19175 1.19175 1.1917 1.19167 1.19187 1.19169 1.19166 1.19191 1.19228 1.19178 1.19142 1.19204 1.192 1.19238 1.19213 1.19215 1.19224 1.19222 1.1924 1.19193 1.19187 1.19236 1.19178 1.19201 1.19202 1.19227 1.19306 1.19233 1.19128 1.19208 1.19177 1.19211 1.19176 1.19153 1.19202 1.1925 1.19181 1.19173 1.19147 1.19165 1.19169 1.19181 1.19165 1.19165 1.19183 1.19174 1.19171 1.19167 1.19183 1.19155 1.19146 1.19179 1.19173 1.1917 1.1915 1.19144 1.19191 1.1919 1.19113 1.19119 1.19188 1.1918 1.19208 1.19202 1.1919 1.19164 1.19181 1.19179 1.19177 1.19176 1.19132 1.19152 1.19162 1.19177 1.19174 1.19191 1.19179 1.19175 1.19169 1.19173 1.19184 1.19158 1.19171 1.19175 1.19176 1.19184 1.19175 1.19169 1.19166 1.19155 1.19186 1.1918 1.19162 1.19176 1.19181 1.19167 1.19191 1.19183 1.19188 1.1918 1.19199 1.19171 1.19167 1.19167 1.19207 1.19197 1.19104 1.19226 1.19249 1.1921 1.19131 1.19189 1.19174 1.19244 1.1921 1.19214 1.19247 1.19216 1.19223 1.19181 1.19175 1.19218 1.19179 1.19165 1.19264 1.19304 1.19231 1.19129 1.1912 1.19214 1.19177 1.19207 1.19201 1.19106 1.19166 1.19171 1.19248 1.19184 1.19155 1.19144 1.19167 1.19172 1.19179 1.19169 1.19172 1.19171 1.19161 1.19167 1.19155 1.19155 1.19165 1.19173 1.19173 1.19165 1.19171 1.19172 1.19175 1.19184 1.19152 1.19176 1.19174 1.1918 1.19203 1.19163 1.1918 1.19165 1.19182 1.1919 1.19181 1.19136 1.19143 1.19157 1.19174 1.19189 1.19175 1.19171 1.1918 1.19164 1.19179 1.19179 1.19175 1.19173 1.1918 1.19169 1.19177 1.19167 1.1917 1.19179 1.19183 1.19178 1.19163 1.19178 1.1918 1.19166 1.19167 1.1919 1.19185 1.19192 1.19188 1.19207 1.19165 1.19137 1.19234 1.19205 1.19159 1.19176 1.19243 1.19209 1.1918 1.19156 1.19169 1.19237 1.19232 1.19216 1.19235 1.19226 1.19213 1.19163 1.19171 1.19212 1.19204 1.19169 1.19264 1.19261 1.1913 1.19228 1.19223 1.1922 1.19215 1.19189 1.19178 1.19104 1.19162 1.1918 1.19167 1.19202 1.19151 1.19144 1.19152 1.19163 1.19171 1.19169 1.19171 1.19165 1.19154 1.19162 1.19153 1.19193 1.19163 1.19173 1.19165 1.19152 1.19149 1.19172 1.19149 1.19171 1.1919 1.19157 1.19178 1.19159 1.19171 1.19199 1.19163 1.19178 1.19164 1.19185 1.1918 1.19179 1.19174 1.19183 1.19135 1.19153 1.19151 1.19146 1.19174 1.19178 1.19174 1.19171 1.19177 1.19165 1.1918 1.19179 1.19177 1.19173 1.1918 1.1917 1.19178 1.19165 1.1918 1.19156 1.19186 1.19179 1.19162 1.19186 1.19174 1.1916 1.19164 1.19211 1.19186 1.19193 1.19187 1.19204 1.19164 1.19178 1.19232 1.19178 1.1918 1.19167 1.19227 1.19224 1.19192 1.19175 1.19196 1.19256 1.19211 1.19227 1.19234 1.19175 1.19205 1.19184 1.19147 1.19231 1.19209 1.19177 1.19249 1.19247 1.19178 1.19222 1.19212 1.19183 1.19163 1.19157 1.19165 1.19169 1.19194 1.19186 1.19149 1.1916 1.19091 1.19166 1.19168 1.19178 1.19171 1.19169 1.19151 1.19157 1.19152 1.19194 1.19163 1.19157 1.19181 1.19182 1.19165 1.19151 1.19146 1.19132 1.19152 1.19187 1.19153 1.19178 1.19158 1.19171 1.19197 1.19147 1.19171 1.19163 1.19178 1.19173 1.19175 1.19181 1.19166 1.19144 1.19158 1.19147 1.1914 1.19147 1.19175 1.19172 1.19178 1.19164 1.1918 1.1918 1.19178 1.19173 1.19179 1.1917 1.1916 1.19159 1.19163 1.19155 1.19178 1.19178 1.19162 1.1917 1.19176 1.19159 1.19164 1.19209 1.1919 1.19178 1.19164 1.19195 1.19195 1.1921 1.19143 1.19207 1.19283 1.19178 1.19219 1.19223 1.19176 1.19184 1.19275 1.19146 1.19136 1.19252 1.19209 1.19204 1.19217 1.19194 1.19209 1.19244 1.19181 1.19203 1.19174 1.19247 1.19246 1.19176 1.19183 1.1918 1.19238 1.19163 1.19178 1.1916 1.19227 1.19167 1.19203 1.19136 1.19164 1.19134 1.19168 1.19178 1.19178 1.19177 1.19183 1.19162 1.19154 1.19149 1.19165 1.19159 1.1919 1.19163 1.19163 1.19151 1.19166 1.19137 1.19153 1.19185 1.19153 1.19162 1.19153 1.19172 1.19196 1.19164 1.1917 1.19165 1.19178 1.19172 1.19177 1.19179 1.19167 1.19158 1.19145 1.19135 1.19148 1.19147 1.19145 1.19163 1.1917 1.1918 1.19164 1.19179 1.1917 1.19179 1.19171 1.19174 1.1917 1.1916 1.1916 1.19163 1.19166 1.19178 1.1918 1.19178 1.19168 1.19175 1.19158 1.19171 1.19228 1.19187 1.19153 1.19162 1.19192 1.19195 1.19198 1.19189 1.19158 1.19234 1.19293 1.19238 1.19214 1.19222 1.19192 1.19172 1.19268 1.19201 1.19238 1.19205 1.19186 1.19221 1.1921 1.19237 1.19187 1.19193 1.19171 1.19251 1.19246 1.19173 1.19176 1.19185 1.19201 1.19211 1.19226 1.19163 1.19126 1.19172 1.19227 1.19177 1.19196 1.19133 1.19162 1.19133 1.19178 1.19209 1.19166 1.19182 1.19184 1.19168 1.19166 1.19146 1.19181 1.19157 1.19178 1.19163 1.19165 1.19167 1.1916 1.19137 1.19177 1.1917 1.19167 1.19161 1.1915 1.19175 1.19156 1.19161 1.19161 1.19171 1.19178 1.19178 1.19177 1.19179 1.19183 1.19181 1.19138 1.1915 1.19178 1.19143 1.19161 1.19178 1.19181 1.19171 1.19178 1.19178 1.19177 1.19171 1.19174 1.1917 1.19172 1.1917 1.19178 1.19162 1.19178 1.19177 1.19178 1.19158 1.19168 1.19165 1.19175 1.19228 1.19179 1.1915 1.19204 1.19164 1.1919 1.1919 1.19173 1.19179 1.19271 1.19176 1.19231 1.19201 1.1918 1.19266 1.19206 1.1918 1.19225 1.19177 1.19204 1.19182 1.19206 1.19227 1.19188 1.19206 1.19186 1.19121 1.19239 1.19178 1.1918 1.19199 1.19157 1.19146 1.19152 1.19128 1.19188 1.19161 1.19176 1.19198 1.1914 1.19169 1.19139 1.19178 1.19169 1.19177 1.19181 1.19183 1.19166 1.19148 1.19151 1.19196 1.19156 1.1915 1.19166 1.1917 1.19157 1.19152 1.19136 1.19148 1.19172 1.19168 1.1916 1.19149 1.19174 1.19178 1.19156 1.1916 1.19174 1.19174 1.1918 1.19174 1.19174 1.1918 1.19176 1.19141 1.19162 1.1917 1.19143 1.1917 1.19176 1.19168 1.19178 1.19178 1.19177 1.19172 1.19172 1.19178 1.19178 1.19181 1.1918 1.19162 1.19197 1.19201 1.19175 1.19178 1.19161 1.19181 1.19179 1.19175 1.19184 1.19167 1.19168 1.19175 1.19149 1.19193 1.19183 1.1919 1.19179 1.19184 1.1922 1.1923 1.19234 1.19278 1.19232 1.19173 1.1916 1.19239 1.19203 1.19172 1.19204 1.19174 1.19171 1.19187 1.19199 1.19206 1.19179 1.19116 1.19239 1.19178 1.1917 1.19144 1.1915 1.19144 1.19149 1.19124 1.19182 1.19204 1.19159 1.19196 1.19149 1.19158 1.19171 1.19143 1.19171 1.19181 1.19167 1.19163 1.19162 1.19146 1.19152 1.19178 1.19162 1.19157 1.19178 1.19195 1.19167 1.19178 1.19177 1.19151 1.19199 1.19167 1.19161 1.19185 1.19163 1.19146 1.19155 1.19159 1.19174 1.19178 1.19178 1.19174 1.19174 1.19177 1.19175 1.19176 1.19174 1.19169 1.19141 1.19169 1.19176 1.19169 1.19178 1.19176 1.19172 1.19172 1.19176 1.19179 1.19168 1.1918 1.19182 1.19197 1.19173 1.19177 1.19167 1.19189 1.19175 1.19186 1.1918 1.19152 1.19183 1.19156 1.19165 1.19141 1.19192 1.19194 1.19198 1.19183 1.19156 1.19182 1.19209 1.19231 1.19213 1.19234 1.19235 1.19178 1.19163 1.19098 1.19174 1.19217 1.19318 1.19159 1.19173 1.19208 1.19189 1.19215 1.19175 1.19126 1.19246 1.19235 1.19137 1.1914 1.19147 1.19146 1.1917 1.19182 1.19204 1.19152 1.19189 1.19144 1.19152 1.19174 1.19177 1.19169 1.1918 1.1913 1.19164 1.19163 1.19142 1.19168 1.19171 1.19167 1.19153 1.19165 1.19197 1.19176 1.19179 1.19184 1.19165 1.19171 1.19178 1.19166 1.19162 1.19178 1.19178 1.1915 1.19156 1.19158 1.19174 1.19179 1.19177 1.19178 1.19178 1.19177 1.19175 1.19176 1.19174 1.19178 1.19143 1.19171 1.19177 1.19178 1.19178 1.19176 1.19178 1.19171 1.19175 1.19175 1.19166 1.19178 1.19181 1.1918 1.19178 1.19157 1.19178 1.19184 1.19179 1.19174 1.19181 1.1915 1.19182 1.19155 1.19139 1.19151 1.19145 1.19189 1.19172 1.19183 1.19156 1.1918 1.19198 1.1922 1.19179 1.19229 1.19216 1.19179 1.1917 1.19108 1.19162 1.19298 1.19099 1.19178 1.19166 1.1921 1.19177 1.19072 1.19146 1.19136 1.19216 1.19198 1.19215 1.19139 1.19154 1.19178 1.1912 1.19177 1.19136 1.19164 1.19207 1.19191 1.1915 1.19149 1.19181 1.19175 1.19181 1.19162 1.19178 1.19182 1.19178 1.19164 1.1918 1.19168 1.19171 1.19167 1.19152 1.19163 1.19165 1.19176 1.19173 1.19177 1.19165 1.19166 1.19163 1.19173 1.19165 1.19157 1.19166 1.19157 1.19174 1.19174 1.19176 1.19178 1.19178 1.19177 1.19175 1.19176 1.19178 1.19178 1.19178 1.19171 1.19177 1.19178 1.19178 1.19177 1.19178 1.19171 1.19175 1.19175 1.19178 1.19177 1.19176 1.19172 1.19175 1.19157 1.19174 1.19185 1.19158 1.19156 1.1917 1.1915 1.19136 1.19167 1.19144 1.19138 1.19161 1.19113 1.19156 1.1919 1.19152 1.1917 1.19159 1.19188 1.19182 1.19162 1.19242 1.19206 1.19216 1.19185 1.1912 1.19151 1.19217 1.1922 1.19082 1.19136 1.19225 1.19192 1.19168 1.19104 1.19105 1.19178 1.19181 1.19137 1.19169 1.19146 1.19113 1.19171 1.19168 1.19156 1.19171 1.19148 1.19151 1.19155 1.1918 1.19155 1.19181 1.19181 1.19178 1.19185 1.19164 1.19178 1.19169 1.1918 1.19168 1.19151 1.19163 1.19165 1.19173 1.19178 1.19177 1.19181 1.19166 1.19174 1.19165 1.19145 1.19163 1.19166 1.19157 1.19174 1.19178 1.19176 1.19178 1.19178 1.19177 1.19175 1.19176 1.19178 1.19178 1.19178 1.19171 1.19178 1.19178 1.19178 1.19178 1.19178 1.19171 1.19175 1.19175 1.19176 1.19176 1.19178 1.19179 1.1916 1.19176 1.19169 1.1918 1.1916 1.19158 1.19178 1.1913 1.19167 1.19148 1.19142 1.19087 1.19159 1.19134 1.19125 1.19149 1.19132 1.19157 1.19189 1.19257 1.19203 1.19141 1.19157 1.19121 1.19157 1.19202 1.19072 1.19157 1.19184 1.19134 1.19126 1.19105 1.19146 1.19062 1.19144 1.19059 1.19091 1.19211 1.19089 1.19141 1.19164 1.1918 1.19177 1.19172 1.19148 1.1915 1.1916 1.1916 1.19145 1.19162 1.19178 1.19166 1.1918 1.19165 1.19166 1.19165 1.19163 1.19176 1.19182 1.19161 1.19177 1.1916 1.19169 1.19173 1.19173 1.19164 1.19173 1.19166 1.19175 1.19167 1.19176 1.19143 1.19145 1.19147 1.19163 1.19173 1.19156 1.19146 1.19115 1.19151 1.19168 1.19196 1.19257 1.19187 1.19186 1.19202 1.19143 1.19212 1.19188 1.19196 1.19186 1.19192 1.19101 1.1917 1.19132 1.19168 1.19159 1.1911 1.19147 1.19167 1.19186 1.19112 1.19177 1.19155 1.19193 1.1915 1.19206 1.19184 1.19191 1.19193 1.19233 1.19222 1.19148 1.19123 1.1915 1.19079 1.19093 1.19134 1.19145 1.19189 1.19139 1.192 1.19163 1.19202 1.19129 1.19174 1.19211 1.19205 1.19209 1.19221 1.19168 1.19109 1.1917 1.19153 1.1913 1.19178 1.19098 1.19162 1.19141 1.19186 1.19158 1.19209 1.19154 1.19112 1.19202 1.19162 1.19154 1.19209 1.19205 1.19204 1.19181 1.19207 1.19187 1.19108 1.19165 1.19178 1.19177 1.19134 1.19115 1.19083 1.19091 1.1916 1.19178 1.19178 1.19184 1.19164 1.19114 1.19187 1.1913 1.19182 1.19141 1.19174 1.19212 1.1917 1.19165 1.19186 1.19134 1.19098 1.19064 1.19127 1.19236 1.19178 1.19178 1.19178 1.19177 1.19162 1.19149 1.19193 1.19126 1.19175 1.19206 1.19205 1.19217 1.19153 1.19233 1.19168 1.19211 1.19168 1.19219 1.19134 1.19062 1.19218 1.19194 1.19202 1.19178 1.19178 1.19178 1.19178 1.19178 1.19178 1.19178 1.19178 1.19178 1.19178 1.19178 1.19178 1.19178 1.19178 1.19178 1.19178 1.19178 1.19178 1.19178 1.19178 1.19178 1.19178 1.19178 1.19178 1.19178 1.19178 1.19178 1.19178 1.19178 1.19171 1.19163 1.19158 1.19211 1.19249 1.1914 1.19161 1.19133 1.1913 1.1928 1.19127 1.19237 1.19172 1.19144 1.19164 1.19194 1.19261 1.19193 1.19197 1.19195 1.19178 1.19178 1.19178 1.19178 1.19178 1.19178 1.19178 1.19178 1.19178 1.19178 1.19178 1.19178 1.19178 1.19178 1.19178 1.19178 1.19178 1.19178 1.19178 1.19178 1.19178 1.19178 1.19178 1.19178 1.19178 1.19178 1.19178 1.19178 1.19178 1.19149 1.19151 1.19169 1.19149 1.19202 1.19125 1.19132 1.1933 1.19237 1.19159 1.19154 1.19256 1.1922 1.19123 1.19156 1.19183 1.19237 1.19208 1.19179 1.19218 1.19204 1.19197 1.19147 1.19178 1.19178 1.19178 1.19178 1.19178 1.19178 1.19178 1.19178 1.19178 1.19178 1.19178 1.19178 1.19178 1.19178 1.19178 1.19178 1.19178 1.19178 1.19178 1.19178 1.19178 1.19178 1.19178 1.19178 1.19178 1.19178 1.19178 1.19178 1.19178 1.19178 1.19178 1.19178 1.19178 1.19178 1.19178 1.19178 1.19178 1.19178 1.19178 1.19178 1.19181 1.19181 1.19198 1.19138 1.19273 1.19145 1.19221 1.19136 1.19204 1.19119 1.19141 1.19107 1.19228 1.19192 1.19111 1.19044 1.19108 1.191 1.19148 1.1918 1.19194 1.19298 1.19198 1.19183 1.19301 1.1921 1.19172 1.19214 1.19178 1.19177 1.19178 1.19178 1.19178 1.19178 1.19178 1.19178 1.19178 1.19178 1.19178 1.19178 1.19178 1.19178 1.19178 1.19178 1.19178 1.19178 1.19178 1.19178 1.19178 1.19178 1.19178 1.19178 1.19178 1.19178 1.19178 1.19178 1.19178 1.19178 1.19178 1.19178 1.19178 1.19178 1.19178 1.19178 1.19178 1.19178 1.19178 1.19178 1.19178 1.19178 1.19178 1.19178 1.19178 1.19178 1.19178 1.19178 1.19177 1.1914 1.19093 1.19161 1.19154 1.19216 1.19124 1.19184 1.19155 1.19158 1.19236 1.19191 1.19113 1.19092 1.19172 1.19273 1.19213 1.1926 1.19192 1.19181 1.19148 1.19243 1.19176 1.19186 1.19178 1.19178 1.19178 1.19178 1.19178 1.19178 1.19178 1.19178 1.19178 1.19178 1.19178 1.19178 1.19178 1.19178 1.19178 1.19178 1.19178 1.19178 1.19178 1.19178 1.19178 1.19178 1.19178 1.19178 1.19178 1.19178 1.19178 1.19178 1.19178 1.19178 1.19178 1.19178 1.19178 1.19178 1.19178 1.19178 1.19178 1.19178 1.19178 1.19178 1.19178 1.19178 1.19175 1.19178 1.19175 1.19145 1.19237 1.19141 1.1913 1.19205 1.19159 1.1916 1.19226 1.19185 1.19137 1.19058 1.19092 1.19178 1.19105 1.1924 1.19248 1.19201 1.19256 1.19152 1.19106 1.19176 1.19178 1.19178 1.19178 1.19178 1.19178 1.19178 1.19178 1.19178 1.19178 1.19178 1.19178 1.19178 1.19178 1.19178 1.19178 1.19178 1.19178 1.19178 1.19178 1.19178 1.19178 1.19178 1.19178 1.19178 1.19178 1.19178 1.19178 1.19178 1.19178 1.19178 1.19178 1.19178 1.19178 1.19178 1.19178 1.19178 1.19178 1.19178 1.19178 1.19178 1.19178 1.19178 1.19178 1.19178 1.19178 1.19178 1.19178 1.19172 1.19178 1.19178 1.1919 1.19075 1.19423 1.1919 1.19147 1.18981 1.19194 1.19268 1.19269 1.19275 1.192 1.19232 1.19215 1.19234 1.19252 1.19261 1.19177 1.19218 1.19195 1.19162 1.19128 1.1916 1.19201 1.19238 1.19178 1.19178 1.19177 1.19178 1.19178 1.19178 1.19178 1.19178 1.19178 1.19178 1.19178 1.19178 1.19178 1.19178 1.19178 1.19178 1.19178 1.19178 1.19178 1.19178 1.19178 1.19178 1.19178 1.19178 1.19178 1.19178 1.19178 1.19178 1.19178 1.19178 1.19178 1.19178 1.19178 1.19178 1.19178 1.19178 1.19178 1.19178 1.19178 1.19178 1.19178 1.19178 1.19178 1.19178 1.19178 1.19178 1.19178 1.19178 1.19231 1.19502 1.1946 1.19472 1.19275 1.19256 1.19272 1.19284 1.19374 1.19245 1.1927 1.19284 1.19414 1.19171 1.19149 1.19361 1.19178 1.1914 1.1912 1.19076 1.19163 1.19178 1.19178 1.19178 1.19178 1.19178 1.19178 1.19178 1.19178 1.19178 1.19178 1.19178 1.19178 1.19178 1.19178 1.19178 1.19178 1.19178 1.19178 1.19178 1.19178 1.19178 1.19178 1.19178 1.19178 1.19178 1.19178 1.19178 1.19178 1.19178 1.19178 1.19178 1.19178 1.19178 1.19178 1.19178 1.19178 1.19178 1.19178 1.19178 1.19178 1.19178 1.19321 1.1923 1.19462 1.19972 1.19008 1.19044 1.1924 1.19337 1.1916 1.19213 1.19348 1.1927 1.19288 1.19324 1.19399 1.19052 1.19149 1.19353 1.19178 1.19448 1.19319 1.19189 1.19178 1.19178 1.19178 1.19178 1.19178 1.19178 1.19178 1.19178 1.19178 1.19178 1.19178 1.19178 1.19178 1.19178 1.19178 1.19178 1.19178 1.19178 1.19178 1.19178 1.19178 1.19178 1.19178 1.19178 1.19178 1.19178 1.19178 1.19178 1.19178 1.19178 1.19178 1.19178 1.19178 1.19178 1.19178 1.19178 1.19178 1.19178 1.19178 1.19538 1.19244 1.19812 1.19765 1.19146 1.1924 1.19177 1.19324 1.19212 1.19436 1.19211 1.19332 1.1919 1.19159 1.19707 1.19338 1.19343 1.19181 1.19178 1.19178 1.19178 1.19178 1.19178 1.19178 1.19178 1.19178 1.19178 1.19178 1.19178 1.19178 1.19178 1.19169 1.19178 1.19178 1.19178 1.19178 1.19178 1.19178 1.19178 1.19178 1.19178 1.19178 1.19178 1.19178 1.19178 1.19178 1.19178 1.19178 1.19178 1.19178 1.19178 1.19178 1.19178 1.19178 1.19178 1.19178 1.19178 1.19178 1.19178 1.19178 1.19178 1.19178 1.19178 1.19188 1.19345 1.19847 1.19494 1.19137 1.19454 1.19607 1.19488 1.19219 1.19555 1.19048 1.19232 1.19099 1.19902 1.19497 1.19305 1.19285 1.19265 1.19182 1.19178 1.19178 1.19178 1.19178 1.19178 1.19178 1.19178 1.19178 1.19178 1.19178 1.19178 1.19178 1.19178 1.19178 1.19178 1.19178 1.19178 1.19178 1.19178 1.19178 1.19178 1.19178 1.19178 1.19178 1.19178 1.19178 1.19178 1.19178 1.19178 1.19178 1.19178 1.19178 1.19084 1.1925 1.1943 1.19668 1.19286 1.19126 1.19369 1.19489 1.19315 1.19103 1.19491 1.19523 1.19088 1.19226 1.19952 1.19443 1.19143 1.19207 1.19263 1.19151 1.19131 1.19137 1.19178 1.19178 1.19178 1.19178 1.19178 1.19178 1.19178 1.19178 1.19178 1.19178 1.19178 1.19178 1.19178 1.19178 1.19178 1.19178 1.19178 1.19178 1.19178 1.19178 1.19178 1.19178 1.19178 1.19178 1.19178 1.19101 1.19092 1.19392 1.19476 1.19075 1.19264 1.18939 1.19471 1.19099 1.19578 1.19208 1.19032 1.19987 1.19818 1.19822 1.19629 1.19965 1.19117 1.19236 1.19118 1.18634 1.19178 1.19178 1.19178 1.19178 1.19178 1.19178 1.19178 1.19178 1.19178 1.19178 1.19178 1.19178 1.19178 1.19178 1.19178 1.19178 1.19178 1.19178 1.19178 1.19178 1.19178 1.19178 1.19178 1.19178 1.18884 1.19421 1.19001 1.19249 1.18915 1.19388 1.19408 1.19034 1.19348 1.19036 1.22079 1.20123 1.19738 1.20426 1.19178 1.19178 1.19178 1.19178 1.19499 1.19507 1.19199 1.19178 1.19178 1.19178 1.19178 1.19178 1.19178 1.19178 1.19178 1.19178 1.19178 1.19178 1.19178 1.19178 1.19178 1.81107 1.19178 1.19167 1.18292 1.19366 1.18611 1.189 1.19058 1.1895 1.19412 1.19099 1.19156 1.19266 1.18956 1.21501 1.19392 1.19074 1.19448 1.18923 1.19047 1.18977 1.19178 1.19178 1.19178 1.19178 1.19178 1.63269 1.19178 1.19182 1.19178 1.19178 1.19178 0.112523 0.0715823 0.124543 0.283079 0.0930669 0.131186 0.0998806 0.256077 1.41249 5.40198 0.89903 1.19176 0.620892 0.55091 0.425799 0.291803 0.223545 0.241798 0.194375 0.147734 0.114968 0.219325 0.0206795 0.162252 0.14822 0.245975 0.296827 0.288161 0.272307 0.212005 1.19177 0.152113 1.18869 0.512935 0.350792 0.198586 0.0517101 0.0983986 0.0475312 0.0227616 0.0989772 0.0894658 0.0346156 0.0277741 0.0445844 0.0243576 0.0126903 0.0652503 0.0492009 0.140132 0.192197 0.653286 0.452142 0.80244 2.97603 1.34068 1.18805 1.19684 1.21071 1.19208 1.19091 1.18923 1.18937 1.19169 1.18757 1.18779 1.18479 1.18699 1.18916 1.19568 1.1968 1.18734 1.1873 1.18554 1.1904 1.18427 1.19839 1.19178 1.18506 0.325186 0.758551 1.80946 0.33908 0.322248 0.178207 0.0403017 0.178244 0.226433 0.0656815 0.0363466 0.0766611 0.124761 0.153696 0.193267 0.23542 0.284925 0.326221 0.252014 0.200089 0.184495 0.0761843 0.445274 1.90627 1.14926 0.221227 1.19178 1.19178 0.106552 0.522036 1.19178 0.398969 0.392155 0.163309 0.163565 0.176666 0.12158 0.158777 0.112006 0.107901 0.473065 0.421331 2.27251 1.14025 3.35016 0.369694 0.514221 0.266338 0.213684 0.205408 0.1671 0.0963379 0.216659 0.207438 0.105545 0.0688317 0.0280796 0.0332786 0.0392647 0.16808 0.077654 0.0212424 0.156008 0.561751 0.111031 0.0466478 0.537995 0.446368 0.0327983 0.224152 0.11406 0.113927 0.0262424 0.179488 0.136621 0.0881169 0.0741281 0.129546 0.166779 0.100003 0.163095 0.13706 0.0535717 0.104612 0.0834675 0.149485 0.244121 0.132863 0.254083 0.269247 0.242745 0.474285 0.142437 0.154471 0.332296 0.141047 0.107416 0.445789 0.34305 0.039571 0.0768789 0.0975123 0.049421 0.065732 0.0543944 0.0968145 0.0126122 0.0588538 0.0524726 0.0338972 0.0632432 0.0437566 0.0434088 0.0331767 0.0118191 0.0457486 0.0349809 0.00835783 0.0187614 0.0529144 0.0683055 0.0375387 0.106981 0.142062 0.0711021 0.178126 0.137662 0.142598 0.427963 0.917058 0.358772 1.11217 2.06228 1.21098 1.18883 1.19922 1.20854 1.19196 1.19178 1.19208 1.18807 1.18824 1.19315 1.19479 1.19178 1.18766 1.19675 1.1872 1.18778 1.19141 1.18576 1.16196 1.19178 1.19178 0.571388 0.12144 1.22374 1.58936 1.02055 0.756738 2.06971 0.291804 0.240853 0.0414756 0.141189 0.0888779 0.148058 0.071072 0.172013 0.184023 0.0982539 0.0550828 0.0825793 0.0713489 0.110839 0.151994 0.170151 0.137927 0.177945 0.147408 0.229182 0.309498 0.219398 0.379193 0.218837 0.370493 0.398999 0.479802 0.616936 0.707288 1.01822 1.13667 0.465082 0.768809 0.0279192 0.587419 0.711751 0.574282 0.372131 0.475914 0.473328 0.330839 0.389528 0.591553 0.445924 0.331463 0.316558 0.043025 0.105333 0.0433043 0.141018 0.116263 0.115359 0.227364 0.339818 0.0514344 0.537128 0.535701 1.01721 2.17664 1.0856 0.577451 0.654403 0.53593 0.370223 0.137464 0.166933 0.163291 0.535193 0.143793 0.235499 0.179183 0.126045 0.141764 0.147385 0.0597782 0.0769252 0.0205071 0.0919592 0.0768736 0.0307111 0.0308004 0.072172 0.191457 0.421371 0.1517 0.247252 0.0272061 0.0538425 0.126273 0.0385908 0.0813839 0.118427 0.0946041 0.0613291 0.0865593 0.0278502 0.0520489 0.0280645 0.0509049 0.0260533 0.0571117 0.0359584 0.03889 0.0575558 0.143041 0.113724 0.259384 0.178715 0.646719 0.12146 0.401525 0.17062 0.169696 0.0396744 0.0607015 0.0747894 0.0184474 0.0385705 0.0714221 0.0782498 0.0897905 0.0621749 0.0601953 0.0617495 0.0509081 0.058835 0.0846005 0.0491166 0.0850721 0.10014 0.161075 0.171178 0.114379 0.164606 0.145156 0.221352 0.169238 0.745235 0.597807 1.04013 1.19178 1.21703 1.19585 1.19613 1.19156 1.19001 1.19176 1.1917 1.18899 1.1862 1.18964 1.19108 1.18843 1.18167 1.19009 1.185 1.19641 1.1891 1.17739 1.20012 0.469018 0.426273 0.436593 0.304345 0.510351 0.297157 0.181168 0.0719115 0.0247542 0.0830098 0.137546 0.117859 0.0914353 0.114687 0.11986 0.153268 0.163233 0.167009 0.182226 0.204357 0.23643 0.339705 0.208044 0.27965 0.303546 0.568176 0.2394 0.272209 0.129754 0.568072 0.448453 0.436963 0.399734 0.327795 0.403692 0.219277 0.12137 0.260562 0.12571 0.152951 0.0604607 0.128409 0.0520761 0.209096 0.0702907 0.253243 0.238273 0.437921 0.240565 0.532161 0.94298 0.326293 0.474943 0.506192 0.124028 0.121622 0.396765 0.410435 0.40736 0.136752 0.0502599 0.114011 0.0934761 0.0752739 0.0331416 0.0679151 0.0697256 0.0916336 0.0806635 0.19485 0.132059 0.261604 0.210325 0.215747 0.171453 0.194061 0.0838529 0.0194007 0.0135823 0.0699329 0.065142 0.0207706 0.0697436 0.0162594 0.0170958 0.00668424 0.021183 0.0432042 0.101396 0.142328 0.195219 0.644071 0.478974 0.743232 0.208938 0.35557 0.304122 0.234937 0.106261 0.0810144 0.177981 0.0250446 0.0467517 0.0379559 0.089945 0.0842549 0.0882166 0.112932 0.105087 0.100274 0.0971551 0.0919516 0.0856927 0.0821142 0.115158 0.0839104 0.119724 0.104013 0.110664 0.115181 0.0669834 0.0586687 0.249583 0.0481624 0.29715 1.06505 1.19742 1.19323 1.25406 1.22205 1.18706 1.15782 1.18655 1.1922 1.18464 1.18918 1.18728 1.18276 1.20133 1.18543 1.19122 1.20582 1.18325 1.18316 1.17434 1.1927 1.14928 1.19045 0.46593 0.300404 0.37825 0.4117 0.412739 0.440947 0.458764 0.353441 0.380036 0.165243 0.145035 0.163111 0.131621 0.104166 0.0926986 0.132201 0.100527 0.14247 0.153833 0.151025 0.170202 0.161429 0.18413 0.189756 0.228032 0.192783 0.229518 0.169949 0.197427 0.177629 0.166744 0.493677 0.388241 0.281794 0.551347 0.703802 0.451166 0.471437 0.359313 0.259096 0.328621 0.588794 0.428007 0.236036 0.157105 0.193951 0.268691 0.245614 0.207145 0.163015 0.0128967 0.043863 0.0998926 0.162503 0.336727 0.229583 0.334136 0.103834 0.247669 0.0485229 0.312167 0.428945 0.22162 0.0842992 0.291857 0.207787 0.912257 0.666769 0.62142 0.127375 0.169652 0.106138 0.124197 0.119807 0.0880085 0.105812 0.12605 0.0995521 0.108307 0.113174 0.117737 0.160843 0.16467 0.15307 0.142777 0.142404 0.0916546 0.0373866 0.0445866 0.0714283 0.193436 0.0217937 0.0454942 0.0696755 0.136307 0.0589995 0.05132 0.0851904 0.0915495 0.112362 0.137895 0.139269 0.173318 0.161441 0.0679098 0.185888 0.229315 0.238471 0.187174 0.121291 0.0777743 0.0965843 0.0902379 0.0731866 0.101042 0.105488 0.121099 0.0996201 0.103897 0.107657 0.101519 0.0817804 0.100623 0.083354 0.084781 0.0707312 0.0916313 0.0697493 0.0544191 0.0308893 0.0331498 0.0373722 0.925391 1.20341 1.18831 1.18184 1.18245 1.18423 1.19177 1.19074 0.309772 0.402043 0.353435 0.38484 0.33307 0.336293 0.308275 0.322724 0.344431 0.29917 0.275741 0.213262 0.17328 0.148936 0.112281 0.128334 0.144256 0.141639 0.135672 0.164795 0.143327 0.168015 0.168266 0.163772 0.17671 0.17361 0.149173 0.149066 0.175121 0.176449 0.343713 0.247557 0.213052 0.236665 0.136782 0.172403 0.610225 0.444623 0.502515 0.460586 0.360098 0.294554 0.16925 0.0880262 0.128141 0.277154 0.279659 0.213212 0.181877 0.194911 0.117096 0.17463 0.10104 0.132119 0.185018 0.101732 0.182965 0.104563 0.181644 0.188633 0.36015 0.0437095 0.62903 0.0336541 0.0263604 0.0406377 0.16126 0.124226 0.155606 0.141491 0.12818 0.127983 0.110551 0.131939 0.145476 0.150979 0.141068 0.149293 0.142903 0.124832 0.153096 0.131638 0.264457 0.192305 0.294558 0.203773 0.141978 0.159445 0.100465 0.0999177 0.108894 0.137396 0.159926 0.0950523 0.11083 0.14428 0.167066 0.176758 0.160162 0.131479 0.128178 0.11241 0.133979 0.10931 0.123752 0.109975 0.128242 0.106004 0.0992648 0.100054 0.084269 0.0680103 0.0673323 0.0510581 0.034589 0.0478767 0.0320428 0.0263861 0.286389 0.313623 0.323807 0.279117 0.299168 0.268975 0.267188 0.209432 0.251287 0.161613 0.139049 0.152816 0.140858 0.143056 0.139609 0.144688 0.138486 0.139603 0.133617 0.131803 0.134553 0.147823 0.137138 0.132007 0.150957 0.164922 0.18787 0.241119 0.171045 0.176684 0.3037 0.275485 0.429163 0.383332 0.430884 0.35755 0.351375 0.239045 0.183574 0.269359 0.246182 0.229861 0.22195 0.242145 0.214958 0.151791 0.181261 0.140532 0.151955 0.113795 0.047438 0.0622495 0.0764437 0.142047 0.111029 0.0408987 0.0836096 0.248122 0.195263 0.254513 0.122296 0.119802 0.186377 0.171387 0.155363 0.149394 0.143504 0.13632 0.142937 0.141041 0.139371 0.137298 0.128765 0.12587 0.10911 0.10366 0.113362 0.335677 0.136683 0.0700893 0.10639 0.0955329 0.0797311 0.0945109 0.10395 0.140194 0.125598 0.140397 0.129051 0.135199 0.150031 0.167597 0.178559 0.195612 0.183949 0.197823 0.137056 0.143097 0.154577 0.156796 0.169552 0.175446 0.128958 0.159419 0.117102 0.0994248 0.102635 0.105074 0.107629 0.0962791 0.0911056 0.0577528 0.0488867 0.026655 0.020289 0.00963951 0.0240925 0.219905 0.259967 0.273862 0.23632 0.222181 0.230411 0.204377 0.18982 0.178606 0.172355 0.171556 0.152943 0.143199 0.150711 0.13662 0.137981 0.135625 0.135936 0.137496 0.12609 0.149568 0.151091 0.163034 0.15236 0.203126 0.203241 0.230362 0.23645 0.354652 0.290319 0.308361 0.33118 0.305049 0.29843 0.282174 0.245875 0.35412 0.276838 0.231101 0.236806 0.268077 0.214486 0.138488 0.190129 0.1049 0.170414 0.151682 0.14559 0.103644 0.0732264 0.064733 0.118797 0.149473 0.114075 0.113673 0.0809801 0.101305 0.209852 0.193952 0.175789 0.166853 0.155118 0.14886 0.146897 0.137114 0.128203 0.139777 0.113138 0.0932024 0.0968509 0.155677 0.185397 0.148326 0.112397 0.0646036 0.0919899 0.116225 0.128803 0.151247 0.150181 0.161945 0.160273 0.196209 0.170713 0.2312 0.217707 0.169815 0.162724 0.166367 0.168465 0.178545 0.175623 0.174249 0.171256 0.219207 0.197938 0.110854 0.0907686 0.0897102 0.106964 0.0863324 0.0985674 0.0700729 0.0700592 0.0566787 0.0212668 0.0173642 0.19979 0.183289 0.218599 0.224465 0.188939 0.202926 0.201103 0.189341 0.170104 0.185043 0.165733 0.153671 0.136221 0.142653 0.155513 0.138585 0.134347 0.153074 0.171458 0.146408 0.196761 0.211193 0.184249 0.214531 0.20129 0.260239 0.273547 0.258963 0.294073 0.275392 0.241186 0.281608 0.280276 0.285369 0.271005 0.281145 0.202458 0.265448 0.215182 0.236497 0.176306 0.176984 0.182163 0.184074 0.135999 0.172264 0.088041 0.0914838 0.0953618 0.0793977 0.106546 0.108734 0.110697 0.0750852 0.056588 0.182169 0.217556 0.190375 0.19052 0.196389 0.209462 0.195318 0.166607 0.174623 0.166846 0.161392 0.158331 0.139047 0.13869 0.131048 0.138145 0.140029 0.146805 0.119636 0.117666 0.145544 0.161063 0.150693 0.0745086 0.141157 0.137524 0.142995 0.149359 0.16296 0.165822 0.171683 0.17488 0.183049 0.23187 0.217308 0.175939 0.0287524 0.160803 0.180042 0.171375 0.179959 0.182867 0.193061 0.183467 0.201983 0.202 0.0977705 0.200456 0.072754 0.0969762 0.0824483 0.0762618 0.0814107 0.0796894 0.0687505 0.0691037 0.0631876 0.0365141 0.019084 0.0219663 0.0310646 0.185029 0.151949 0.187892 0.165177 0.170114 0.184377 0.178306 0.174237 0.16582 0.157639 0.148548 0.156336 0.148083 0.129613 0.137575 0.158836 0.122659 0.15603 0.157913 0.172478 0.155323 0.16425 0.175921 0.194414 0.226033 0.241111 0.230628 0.266037 0.24023 0.273661 0.25515 0.283416 0.229469 0.191646 0.205632 0.171441 0.170794 0.17508 0.181255 0.170826 0.148409 0.150985 0.132175 0.0910338 0.105182 0.0721898 0.0972206 0.106551 0.0977045 0.0945437 0.0939093 0.1021 0.0860525 0.0480231 0.18187 0.156525 0.204888 0.186694 0.203444 0.183828 0.165129 0.165089 0.149713 0.152092 0.142944 0.140638 0.146622 0.134568 0.14169 0.157517 0.159803 0.101399 0.160457 0.162399 0.151307 0.155741 0.143019 0.171322 0.180771 0.180908 0.191809 0.217722 0.20004 0.21221 0.188237 0.194082 0.208308 0.123258 0.180826 0.176891 0.185782 0.184845 0.198559 0.195367 0.073213 0.0940681 0.0764217 0.0806137 0.079814 0.0700138 0.071962 0.0545519 0.0429285 0.144265 0.16779 0.160663 0.177589 0.174247 0.177237 0.175612 0.171024 0.166682 0.157758 0.151415 0.158394 0.145959 0.127999 0.130091 0.169598 0.177299 0.164963 0.16954 0.172277 0.206865 0.19988 0.226044 0.219462 0.235983 0.24364 0.276077 0.261069 0.241832 0.215149 0.274257 0.248154 0.185382 0.187236 0.178852 0.190936 0.170013 0.148658 0.135849 0.123705 0.101809 0.090515 0.0859629 0.0823094 0.0906666 0.082203 0.0768644 0.0560549 0.175561 0.173399 0.162501 0.176988 0.209827 0.209686 0.194478 0.180378 0.170327 0.167345 0.158108 0.145592 0.145647 0.138601 0.138779 0.148859 0.151056 0.192377 0.164794 0.155737 0.180678 0.191391 0.191491 0.190768 0.203418 0.218181 0.20483 0.194931 0.201472 0.192373 0.180247 0.207027 0.162469 0.177055 0.183115 0.194565 0.186495 0.191108 0.0876131 0.0888957 0.0791855 0.0849118 0.0785517 0.0854641 0.0723838 0.0623091 0.0543436 0.147821 0.169378 0.160788 0.17455 0.168835 0.177361 0.17213 0.170259 0.171905 0.168812 0.155011 0.159636 0.14726 0.117566 0.1706 0.167259 0.157444 0.197533 0.188289 0.193418 0.227129 0.240646 0.209248 0.253843 0.245264 0.221353 0.229197 0.235613 0.187798 0.166297 0.178624 0.185789 0.194412 0.130916 0.121096 0.110477 0.0886597 0.0733189 0.0788754 0.079338 0.0730068 0.0634917 0.161765 0.16813 0.162125 0.167801 0.178948 0.193486 0.16915 0.174965 0.172451 0.165446 0.144887 0.151695 0.15085 0.147551 0.152366 0.134799 0.138035 0.143044 0.144315 0.17325 0.187577 0.195113 0.167267 0.176656 0.164883 0.188318 0.200454 0.205895 0.20259 0.194543 0.201601 0.189524 0.198852 0.178986 0.19995 0.192786 0.202886 0.18476 0.213824 0.204043 0.190129 0.111823 0.105894 0.0748145 0.0794882 0.0772058 0.0853661 0.101137 0.063836 0.0786897 0.107336 0.153652 0.162047 0.155251 0.17183 0.170923 0.168606 0.174429 0.174297 0.178289 0.171773 0.177617 0.176303 0.157553 0.162366 0.15481 0.126643 0.214389 0.178604 0.148104 0.149789 0.174595 0.1736 0.188033 0.242119 0.210874 0.220426 0.232635 0.210185 0.23458 0.21651 0.222913 0.179238 0.172062 0.184695 0.181538 0.18991 0.125348 0.111748 0.0962294 0.0634133 0.0735602 0.0725929 0.0646879 0.165787 0.170678 0.159201 0.202326 0.157383 0.148343 0.14546 0.15886 0.158316 0.145751 0.157191 0.172667 0.161443 0.183635 0.187084 0.206673 0.188639 0.199227 0.198874 0.200291 0.196289 0.202019 0.197496 0.197528 0.194134 0.107018 0.101435 0.0809218 0.0791873 0.117891 0.0811129 0.159596 0.171057 0.170422 0.177824 0.176215 0.189521 0.163182 0.173415 0.16409 0.139943 0.177253 0.1669 0.162445 0.147082 0.167325 0.170006 0.175509 0.229005 0.215099 0.217067 0.214505 0.208926 0.203511 0.184653 0.173999 0.200645 0.183216 0.18386 0.165476 0.116129 0.107342 0.0830482 0.0607335 0.0678927 0.0703065 0.0620961 0.0695551 
SCALARS Stress float 1
LOOKUP_TABLE default
-12578100000.0 -12580500000.0 -12570500000.0 -12604000000.0 -12549700000.0 -12647300000.0 -12617900000.0 -12615200000.0 -12558400000.0 -12571100000.0 -12549700000.0 -12561700000.0 -12549700000.0 -12549700000.0 -12566100000.0 -12549700000.0 -12549700000.0 -12552200000.0 -12549700000.0 -12552300000.0 -12558100000.0 -12588100000.0 -12605800000.0 -12582600000.0 -12571900000.0 -12564300000.0 -12557600000.0 -12551500000.0 -12549700000.0 -12549700000.0 -12549700000.0 -12557500000.0 -12567200000.0 -12573000000.0 -12604700000.0 -12585300000.0 -12571300000.0 -12555900000.0 -12550300000.0 -12566400000.0 -12567200000.0 -12551100000.0 -12578700000.0 -12550700000.0 -12552000000.0 -12572300000.0 -12637300000.0 -12629600000.0 -12601500000.0 -12616100000.0 -12559500000.0 -12577000000.0 -12555700000.0 -12620800000.0 -12609400000.0 -12554100000.0 -12552700000.0 -12558600000.0 -12561900000.0 -12626000000.0 -12566500000.0 -12666500000.0 -12597200000.0 -12571800000.0 -12569100000.0 -12563800000.0 -12561400000.0 -12607500000.0 -12653100000.0 -12576400000.0 -12701300000.0 -12783000000.0 -12734000000.0 -12772900000.0 -12755000000.0 -12730500000.0 -12728200000.0 -12682800000.0 -12577000000.0 -12562500000.0 -12549700000.0 -12568000000.0 -12605100000.0 -12604200000.0 -12549700000.0 -12563000000.0 -12561100000.0 -12590000000.0 -12609600000.0 -12774600000.0 -12739300000.0 -12735000000.0 -12624200000.0 -12668600000.0 -12551100000.0 -12600000000.0 -12560500000.0 -13000700000.0 -12838600000.0 -12945900000.0 -13041700000.0 -13245200000.0 -13362000000.0 -13157600000.0 -12661000000.0 -12624900000.0 -12621400000.0 -12549700000.0 -12592500000.0 -12552000000.0 -12549700000.0 -12611200000.0 -12549700000.0 -12549700000.0 -12563400000.0 -12549700000.0 -12580900000.0 -12549700000.0 -12691800000.0 -12549700000.0 -12549700000.0 -12549700000.0 -12555700000.0 -12550700000.0 -12549700000.0 -12551800000.0 -12560700000.0 -12590900000.0 -12604600000.0 -12672900000.0 -12675800000.0 -12765300000.0 -12740300000.0 -12622500000.0 -12599600000.0 -12570200000.0 -12607600000.0 -12644500000.0 -12623400000.0 -12619300000.0 -12568300000.0 -12605300000.0 -12752600000.0 -12572200000.0 -12647600000.0 -12671100000.0 -12636200000.0 -12614900000.0 -12619500000.0 -12556300000.0 -12673200000.0 -12635500000.0 -12821900000.0 -12552600000.0 -12550200000.0 -12549700000.0 -12569800000.0 -12578800000.0 -12754000000.0 -12574500000.0 -12598200000.0 -12549700000.0 -12780000000.0 -12604700000.0 -12549700000.0 -12549700000.0 -12574400000.0 -12626300000.0 -12592300000.0 -12580600000.0 -12553800000.0 -12742400000.0 -12827700000.0 -12886200000.0 -12793400000.0 -13003700000.0 -12572000000.0 -12619900000.0 -12581300000.0 -13131600000.0 -12555300000.0 -12694900000.0 -12671000000.0 -12615000000.0 -12628700000.0 -12773400000.0 -12738900000.0 -12553900000.0 -12596400000.0 -12556200000.0 -12669300000.0 -13193000000.0 -12782900000.0 -12744600000.0 -12738200000.0 -12905600000.0 -12965700000.0 -12888900000.0 -12911500000.0 -12658800000.0 -12549700000.0 -13467100000.0 -13210600000.0 -13224900000.0 -13227900000.0 -12993500000.0 -12572600000.0 -13148700000.0 -12761700000.0 -12879800000.0 -12753600000.0 -12766600000.0 -12718800000.0 -12572700000.0 -12677700000.0 -12549900000.0 -12551500000.0 -12579400000.0 -12549700000.0 -12644200000.0 -12549700000.0 -12735100000.0 -12554500000.0 -12571400000.0 -12549700000.0 -12583500000.0 -12582400000.0 -12587800000.0 -12602800000.0 -12629500000.0 -12687500000.0 -12848200000.0 -12967900000.0 -12626800000.0 -12870700000.0 -12810000000.0 -12731800000.0 -12821000000.0 -12551300000.0 -12560300000.0 -12740200000.0 -12549700000.0 -12637300000.0 -12843100000.0 -12583300000.0 -12585900000.0 -12561200000.0 -12878600000.0 -12775800000.0 -12629300000.0 -12580700000.0 -12780000000.0 -13336400000.0 -12720400000.0 -12692400000.0 -12665200000.0 -12778800000.0 -12846400000.0 -13423300000.0 -13181100000.0 -13216600000.0 -13218400000.0 -12746900000.0 -12865600000.0 -12945700000.0 -12967400000.0 -12867400000.0 -12955000000.0 -12824700000.0 -12849900000.0 -12621400000.0 -12957000000.0 -13762400000.0 -14130500000.0 -12743300000.0 -12628800000.0 -12680400000.0 -12613600000.0 -13872100000.0 -13341200000.0 -13285700000.0 -12910600000.0 -12927900000.0 -12891300000.0 -13267400000.0 -12961800000.0 -12867800000.0 -12727000000.0 -13236100000.0 -12567200000.0 -12663600000.0 -12589800000.0 -12782700000.0 -12617800000.0 -12983900000.0 -12923700000.0 -12932500000.0 -12549700000.0 -13695200000.0 -12612800000.0 -12916900000.0 -13617600000.0 -12870300000.0 -13207400000.0 -13330800000.0 -12644400000.0 -12870600000.0 -12549700000.0 -12622600000.0 -12795000000.0 -12687800000.0 -12702300000.0 -12743600000.0 -12652500000.0 -12686300000.0 -12650200000.0 -12841100000.0 -12710500000.0 -12877900000.0 -12637000000.0 -12613400000.0 -12592100000.0 -12549700000.0 -12554500000.0 -12567400000.0 -12576400000.0 -12694900000.0 -12557800000.0 -12629600000.0 -12756500000.0 -12833000000.0 -12794900000.0 -12696400000.0 -13288600000.0 -13166700000.0 -12970700000.0 -13273800000.0 -13178600000.0 -13202100000.0 -13415500000.0 -13417300000.0 -13077500000.0 -12950900000.0 -12867500000.0 -13302400000.0 -12654000000.0 -12605700000.0 -12570600000.0 -12883100000.0 -12569200000.0 -12930200000.0 -12642800000.0 -13132100000.0 -14099200000.0 -12690100000.0 -12672900000.0 -12730500000.0 -12680400000.0 -13378200000.0 -12549700000.0 -12549700000.0 -12947900000.0 -12549700000.0 -13363500000.0 -13351100000.0 -13130600000.0 -13068800000.0 -12875200000.0 -13751800000.0 -13654100000.0 -13012200000.0 -13593700000.0 -14011800000.0 -12772700000.0 -14516100000.0 -14313400000.0 -14190900000.0 -14548900000.0 -12595000000.0 -12568400000.0 -13311400000.0 -13290200000.0 -13520500000.0 -13138300000.0 -13476500000.0 -12941200000.0 -12793000000.0 -12692300000.0 -13401500000.0 -12820300000.0 -13203000000.0 -13467700000.0 -13549000000.0 -13948600000.0 -12930400000.0 -12833400000.0 -12597700000.0 -12584400000.0 -12816100000.0 -12586400000.0 -14473300000.0 -12688600000.0 -13298700000.0 -14312600000.0 -12867300000.0 -12681300000.0 -13347900000.0 -12999800000.0 -13072800000.0 -12626800000.0 -12615100000.0 -13015500000.0 -12873200000.0 -12650900000.0 -12788600000.0 -12614200000.0 -12631000000.0 -12558400000.0 -12769300000.0 -12554700000.0 -12815100000.0 -12912000000.0 -12732300000.0 -12651500000.0 -12673200000.0 -12630600000.0 -12567800000.0 -12681200000.0 -12608600000.0 -13060100000.0 -12917500000.0 -12737200000.0 -12619300000.0 -13402400000.0 -13574200000.0 -12634400000.0 -13004200000.0 -12686400000.0 -12657800000.0 -12684400000.0 -13160200000.0 -12634100000.0 -12852300000.0 -13222800000.0 -14035400000.0 -12746800000.0 -12714800000.0 -13134500000.0 -12647500000.0 -13263400000.0 -13211100000.0 -12663200000.0 -14451800000.0 -12959600000.0 -12863500000.0 -13006600000.0 -12742800000.0 -13810700000.0 -12549700000.0 -12564700000.0 -12612100000.0 -13176100000.0 -14436800000.0 -12635500000.0 -12579100000.0 -13465900000.0 -13397000000.0 -12610200000.0 -12761100000.0 -14002100000.0 -13702400000.0 -13353700000.0 -13919300000.0 -14053000000.0 -13501500000.0 -12687500000.0 -13212200000.0 -13464900000.0 -14561400000.0 -14028500000.0 -12592900000.0 -12554000000.0 -13375200000.0 -12583100000.0 -14289500000.0 -14542300000.0 -14617600000.0 -14382700000.0 -13574100000.0 -13804000000.0 -13494100000.0 -12618900000.0 -12769400000.0 -13881500000.0 -13303200000.0 -13086500000.0 -14106400000.0 -12549700000.0 -13894500000.0 -12663200000.0 -14518000000.0 -13039800000.0 -13571400000.0 -13637900000.0 -13532900000.0 -13332500000.0 -12974500000.0 -13172300000.0 -12623200000.0 -12606200000.0 -13018400000.0 -13556000000.0 -13562500000.0 -13501000000.0 -13492400000.0 -13427400000.0 -13308600000.0 -13828500000.0 -13565100000.0 -13539900000.0 -13675600000.0 -13833700000.0 -13301300000.0 -13313600000.0 -13102700000.0 -13251300000.0 -12551200000.0 -12637700000.0 -12748100000.0 -12567600000.0 -14389900000.0 -13914500000.0 -12829600000.0 -13095900000.0 -13003300000.0 -12557300000.0 -12618000000.0 -12558600000.0 -13277700000.0 -13110600000.0 -12692100000.0 -13901800000.0 -14086300000.0 -14041200000.0 -14153900000.0 -15146900000.0 -13690000000.0 -13510000000.0 -14916700000.0 -13138400000.0 -13010900000.0 -13647200000.0 -13616300000.0 -13311700000.0 -13660600000.0 -13955200000.0 -14227200000.0 -16291500000.0 -14212900000.0 -14337200000.0 -13180800000.0 -13183400000.0 -13656600000.0 -12988800000.0 -13787300000.0 -13882600000.0 -13055000000.0 -14340200000.0 -12802600000.0 -13564800000.0 -13430000000.0 -13103500000.0 -12668700000.0 -13748100000.0 -14039800000.0 -13624100000.0 -15693200000.0 -14640700000.0 -12941800000.0 -13025200000.0 -14003000000.0 -13463800000.0 -13154700000.0 -13323300000.0 -12549700000.0 -13054500000.0 -12796800000.0 -12567400000.0 -12717700000.0 -14342900000.0 -13489400000.0 -13365800000.0 -13181100000.0 -15627300000.0 -14115600000.0 -16035900000.0 -14587800000.0 -13713400000.0 -13464300000.0 -13690400000.0 -12889700000.0 -12726800000.0 -13042700000.0 -12694000000.0 -12674800000.0 -13714800000.0 -12888900000.0 -12552100000.0 -12568500000.0 -12969100000.0 -12937400000.0 -13189500000.0 -12793800000.0 -12652500000.0 -12888400000.0 -12555900000.0 -12587300000.0 -13207100000.0 -13247200000.0 -13402200000.0 -13375100000.0 -13886800000.0 -13722300000.0 -13057600000.0 -13199300000.0 -12710100000.0 -12920500000.0 -12631000000.0 -12760700000.0 -12886200000.0 -12597100000.0 -13093000000.0 -12811100000.0 -12827600000.0 -13540300000.0 -13496900000.0 -12941400000.0 -13290500000.0 -12665500000.0 -13348700000.0 -12630700000.0 -13416000000.0 -14357900000.0 -13869500000.0 -15435800000.0 -13892100000.0 -13760100000.0 -13449000000.0 -13250700000.0 -12701400000.0 -13380700000.0 -13123200000.0 -12549700000.0 -12571000000.0 -12859900000.0 -15468600000.0 -13226200000.0 -13140500000.0 -13865700000.0 -15048200000.0 -15284600000.0 -15933900000.0 -15233200000.0 -14906300000.0 -14728000000.0 -15486300000.0 -16392400000.0 -13116300000.0 -15837500000.0 -15857400000.0 -15615200000.0 -16631400000.0 -14510900000.0 -14262100000.0 -15792200000.0 -13295200000.0 -13264900000.0 -13734200000.0 -13326000000.0 -13510200000.0 -13334500000.0 -13726800000.0 -12651400000.0 -13326500000.0 -12549700000.0 -14277800000.0 -12621500000.0 -12625000000.0 -12571100000.0 -13443400000.0 -12549700000.0 -17595900000.0 -17241000000.0 -13660700000.0 -17338800000.0 -17104100000.0 -15148700000.0 -15073800000.0 -14625200000.0 -15036200000.0 -14401600000.0 -14823400000.0 -15172100000.0 -14024600000.0 -14159600000.0 -14025700000.0 -13753600000.0 -13682100000.0 -13454100000.0 -13115400000.0 -12739500000.0 -12736700000.0 -13409000000.0 -12739600000.0 -12992400000.0 -13122500000.0 -13074700000.0 -13176100000.0 -12554100000.0 -12807600000.0 -12611100000.0 -12937400000.0 -12690000000.0 -13540700000.0 -13290400000.0 -13621000000.0 -14027800000.0 -12851200000.0 -12760000000.0 -12870200000.0 -13129800000.0 -12989800000.0 -12693700000.0 -13222800000.0 -12761700000.0 -13059600000.0 -12909700000.0 -12816000000.0 -13251700000.0 -12868700000.0 -12717800000.0 -12816900000.0 -13116800000.0 -13389500000.0 -14818300000.0 -15499900000.0 -14895300000.0 -16211800000.0 -12928300000.0 -13207300000.0 -12731000000.0 -13337800000.0 -12728800000.0 -12549700000.0 -12925300000.0 -12790900000.0 -16457700000.0 -13053900000.0 -13302600000.0 -13569500000.0 -15278500000.0 -12549700000.0 -13707100000.0 -13296300000.0 -12570900000.0 -14053200000.0 -13227800000.0 -13455300000.0 -14419200000.0 -15451300000.0 -13575000000.0 -13429500000.0 -16658000000.0 -13501100000.0 -14717800000.0 -14331700000.0 -17298900000.0 -12724000000.0 -12731800000.0 -13794300000.0 -14552100000.0 -13050300000.0 -14069700000.0 -13498300000.0 -13735500000.0 -14618300000.0 -12552900000.0 -12675700000.0 -12559600000.0 -13180500000.0 -13383000000.0 -12549700000.0 -12549700000.0 -16228200000.0 -16369200000.0 -13663100000.0 -13107600000.0 -12784800000.0 -12755600000.0 -12887100000.0 -14920600000.0 -12549700000.0 -13551300000.0 -13556400000.0 -12614500000.0 -12662300000.0 -12847000000.0 -12733700000.0 -13051700000.0 -13100500000.0 -13398800000.0 -12585200000.0 -13243000000.0 -13120400000.0 -12660000000.0 -12870400000.0 -12873300000.0 -13408300000.0 -13375000000.0 -13290500000.0 -13294500000.0 -13631200000.0 -14164300000.0 -13451200000.0 -13762800000.0 -12816800000.0 -14140100000.0 -13385200000.0 -13495600000.0 -12877400000.0 -14644600000.0 -14514800000.0 -14216200000.0 -13954600000.0 -14296300000.0 -14257400000.0 -14538500000.0 -14665100000.0 -14016800000.0 -14514600000.0 -15802500000.0 -12549700000.0 -14151600000.0 -14084700000.0 -15554600000.0 -15167200000.0 -15112800000.0 -15072500000.0 -12634600000.0 -13111700000.0 -15160400000.0 -14560800000.0 -14154900000.0 -14225000000.0 -14832600000.0 -14570300000.0 -12614400000.0 -12892100000.0 -13036100000.0 -13296900000.0 -12563100000.0 -14031900000.0 -13606000000.0 -14552000000.0 -13297700000.0 -14082200000.0 -13742400000.0 -12549700000.0 -13498100000.0 -14743400000.0 -14284100000.0 -14630200000.0 -13237200000.0 -13782300000.0 -14572000000.0 -13590400000.0 -13945100000.0 -18005500000.0 -12549700000.0 -14530100000.0 -14483100000.0 -13206600000.0 -12561900000.0 -12633600000.0 -14497900000.0 -13204600000.0 -13295400000.0 -12568500000.0 -14314300000.0 -13337200000.0 -12909100000.0 -13662800000.0 -12726200000.0 -13843200000.0 -15396100000.0 -12578400000.0 -15660800000.0 -14387500000.0 -12614000000.0 -12613000000.0 -12992800000.0 -14979000000.0 -13358000000.0 -13609100000.0 -12570100000.0 -12560500000.0 -13411900000.0 -13036900000.0 -12663100000.0 -12589000000.0 -12549700000.0 -13101200000.0 -13253100000.0 -13347900000.0 -13098800000.0 -12576800000.0 -13088700000.0 -12803100000.0 -13208000000.0 -13131300000.0 -12553700000.0 -12637300000.0 -12724500000.0 -12550400000.0 -13532700000.0 -13719300000.0 -12550700000.0 -13720400000.0 -12637000000.0 -14222400000.0 -13567100000.0 -12549700000.0 -12550600000.0 -13248100000.0 -12566400000.0 -13715500000.0 -12549700000.0 -12551300000.0 -12653900000.0 -13587300000.0 -13619800000.0 -14068700000.0 -15547000000.0 -12549700000.0 -14226000000.0 -12650800000.0 -12737600000.0 -15393300000.0 -13893100000.0 -13886500000.0 -16000400000.0 -13150800000.0 -12718400000.0 -13302900000.0 -12760800000.0 -13655800000.0 -12676400000.0 -14778100000.0 -13003600000.0 -13962700000.0 -13236000000.0 -13978800000.0 -15161900000.0 -14723300000.0 -17430100000.0 -16497300000.0 -16380900000.0 -13017300000.0 -16220400000.0 -15982500000.0 -16592700000.0 -16227600000.0 -16328200000.0 -17159800000.0 -17127700000.0 -18773500000.0 -14405400000.0 -13805200000.0 -18987600000.0 -20188800000.0 -16551200000.0 -15531800000.0 -13605700000.0 -13606800000.0 -14468300000.0 -13258300000.0 -13190500000.0 -13042700000.0 -14262800000.0 -12555300000.0 -13574700000.0 -13963200000.0 -12802900000.0 -12840700000.0 -13179700000.0 -13262700000.0 -12842000000.0 -12754500000.0 -16141300000.0 -14675500000.0 -12576800000.0 -13148800000.0 -14776500000.0 -12549700000.0 -13153600000.0 -13217000000.0 -12695600000.0 -12786300000.0 -12755800000.0 -12638800000.0 -12573300000.0 -13185900000.0 -12852300000.0 -12844500000.0 -13171300000.0 -12757100000.0 -13862100000.0 -12973500000.0 -12715600000.0 -13207600000.0 -12962500000.0 -12785200000.0 -13032900000.0 -12560000000.0 -12803800000.0 -12758900000.0 -12574300000.0 -12622200000.0 -12552700000.0 -14065400000.0 -12567600000.0 -13297600000.0 -13180800000.0 -13686000000.0 -13920800000.0 -12564300000.0 -12585100000.0 -13284900000.0 -13258200000.0 -14308200000.0 -12657000000.0 -12681900000.0 -13060700000.0 -13376100000.0 -13693100000.0 -13129200000.0 -16175800000.0 -13175700000.0 -15202800000.0 -14051500000.0 -15194700000.0 -12883500000.0 -19076200000.0 -16895700000.0 -17394500000.0 -16768900000.0 -14928400000.0 -13848000000.0 -14064300000.0 -13917200000.0 -13913100000.0 -13764800000.0 -16199000000.0 -15321300000.0 -13015200000.0 -13548100000.0 -13961200000.0 -12902300000.0 -12549700000.0 -15581400000.0 -13935400000.0 -13422300000.0 -13638900000.0 -12757600000.0 -14718300000.0 -14099300000.0 -12990000000.0 -15289500000.0 -12857400000.0 -12657600000.0 -16548200000.0 -16111100000.0 -15529800000.0 -12549700000.0 -14857700000.0 -14768200000.0 -12549700000.0 -15479900000.0 -12781100000.0 -14020800000.0 -12617200000.0 -12567200000.0 -14150400000.0 -12771500000.0 -13248000000.0 -12780400000.0 -14311200000.0 -12685800000.0 -13428500000.0 -13599300000.0 -13270400000.0 -13546400000.0 -15525600000.0 -14498700000.0 -14367300000.0 -13024100000.0 -15288500000.0 -13773600000.0 -13714900000.0 -14103200000.0 -13742400000.0 -13664100000.0 -13265800000.0 -13781000000.0 -12908600000.0 -13023300000.0 -13475700000.0 -12606400000.0 -14242500000.0 -13266000000.0 -13332500000.0 -13778500000.0 -13452200000.0 -13537900000.0 -13511500000.0 -12795900000.0 -12549700000.0 -12858600000.0 -12791800000.0 -12613100000.0 -14271500000.0 -12632800000.0 -12917800000.0 -12921700000.0 -13848200000.0 -13989000000.0 -13256100000.0 -13618500000.0 -12973600000.0 -12621400000.0 -14265700000.0 -12549700000.0 -12559200000.0 -13015800000.0 -13016600000.0 -14034700000.0 -13466000000.0 -15769100000.0 -12549700000.0 -15458400000.0 -16063800000.0 -17299900000.0 -15264800000.0 -12799000000.0 -15614700000.0 -15091100000.0 -14477400000.0 -14688500000.0 -12903400000.0 -13346600000.0 -13209400000.0 -12920700000.0 -14308800000.0 -12549700000.0 -16343900000.0 -15483400000.0 -15756000000.0 -15470500000.0 -17068200000.0 -18167500000.0 -14000800000.0 -14220800000.0 -14640200000.0 -12703300000.0 -16314300000.0 -13232200000.0 -13615600000.0 -14912800000.0 -13152000000.0 -13466900000.0 -13219800000.0 -16105900000.0 -12781400000.0 -17452900000.0 -13312300000.0 -17111800000.0 -14872100000.0 -15982300000.0 -16621900000.0 -18573400000.0 -19051900000.0 -18148900000.0 -17753400000.0 -18641800000.0 -18194900000.0 -18574500000.0 -18208500000.0 -16410100000.0 -15086900000.0 -17261700000.0 -16950100000.0 -17507400000.0 -19282400000.0 -15301900000.0 -12570200000.0 -14902100000.0 -13666700000.0 -13558600000.0 -13115200000.0 -13014300000.0 -12951600000.0 -13048200000.0 -12673400000.0 -12670700000.0 -12729300000.0 -13735300000.0 -13394000000.0 -13286100000.0 -13331800000.0 -13960300000.0 -15077000000.0 -12754200000.0 -13057000000.0 -13239200000.0 -12549700000.0 -12906900000.0 -13542800000.0 -12680400000.0 -14162900000.0 -14164300000.0 -14120400000.0 -14594000000.0 -13684100000.0 -13804300000.0 -13680500000.0 -13933900000.0 -14389200000.0 -13427900000.0 -12796900000.0 -13160200000.0 -13132300000.0 -13255000000.0 -13791900000.0 -14607100000.0 -14272400000.0 -14214400000.0 -15933000000.0 -13577800000.0 -14118500000.0 -16088200000.0 -12549700000.0 -12549700000.0 -19270800000.0 -18940500000.0 -16616400000.0 -15042800000.0 -15991100000.0 -13074000000.0 -13202900000.0 -14966100000.0 -15690600000.0 -14564200000.0 -14385800000.0 -15284000000.0 -17261900000.0 -13131700000.0 -12583800000.0 -13019300000.0 -14923500000.0 -13448900000.0 -14911000000.0 -12563400000.0 -12551400000.0 -14474000000.0 -15433600000.0 -18616900000.0 -15392700000.0 -13084400000.0 -14386500000.0 -13040800000.0 -13353800000.0 -13004700000.0 -12972500000.0 -17820100000.0 -14393600000.0 -16101000000.0 -12930200000.0 -12734000000.0 -13894100000.0 -12618100000.0 -13196700000.0 -13253300000.0 -12844500000.0 -13837800000.0 -14698400000.0 -14129500000.0 -14356100000.0 -14238300000.0 -13031700000.0 -12566600000.0 -12568900000.0 -12641200000.0 -12549700000.0 -16702100000.0 -16179400000.0 -13262200000.0 -12620400000.0 -13109600000.0 -13210200000.0 -13222900000.0 -12708000000.0 -12930400000.0 -12629600000.0 -12584400000.0 -13125300000.0 -12728300000.0 -12775900000.0 -12741700000.0 -12916300000.0 -13077100000.0 -12549700000.0 -14323200000.0 -13965100000.0 -13632300000.0 -14180500000.0 -13893500000.0 -13802400000.0 -14036300000.0 -13086600000.0 -13238700000.0 -12657000000.0 -13058100000.0 -14245900000.0 -13386300000.0 -12880700000.0 -12613100000.0 -14363100000.0 -12766000000.0 -12576400000.0 -12599000000.0 -12921500000.0 -12646300000.0 -15144900000.0 -12549700000.0 -13393700000.0 -13357300000.0 -15942700000.0 -13037700000.0 -13091300000.0 -12925800000.0 -16596600000.0 -17543500000.0 -19697800000.0 -12639000000.0 -12635600000.0 -18391900000.0 -16968200000.0 -13215000000.0 -14075600000.0 -13989700000.0 -12632200000.0 -12739900000.0 -12741500000.0 -12885300000.0 -13343800000.0 -16799800000.0 -13256000000.0 -14405300000.0 -16005500000.0 -14384800000.0 -15093000000.0 -12836400000.0 -16682500000.0 -15649200000.0 -14103700000.0 -14487400000.0 -14774000000.0 -14645100000.0 -14097100000.0 -15959700000.0 -13514100000.0 -12585300000.0 -13558300000.0 -12705000000.0 -14202200000.0 -15604000000.0 -14016000000.0 -16266000000.0 -16070000000.0 -14991300000.0 -14763800000.0 -13695000000.0 -13521500000.0 -12643400000.0 -15320400000.0 -14842000000.0 -13806800000.0 -13204100000.0 -14622800000.0 -12996100000.0 -12618700000.0 -12571100000.0 -12633600000.0 -12573100000.0 -13263100000.0 -16999400000.0 -15253500000.0 -13447100000.0 -13284900000.0 -12961000000.0 -13836500000.0 -13392300000.0 -12854600000.0 -12813800000.0 -13184900000.0 -12596600000.0 -12666200000.0 -12561400000.0 -12755800000.0 -12938400000.0 -12733800000.0 -13924300000.0 -12678800000.0 -12618200000.0 -12869400000.0 -12565700000.0 -12861100000.0 -12557600000.0 -13458500000.0 -13027600000.0 -13487600000.0 -14632000000.0 -15704900000.0 -13272100000.0 -12654600000.0 -12570900000.0 -14186200000.0 -13088900000.0 -13467700000.0 -13112800000.0 -12744800000.0 -12917700000.0 -15451400000.0 -12822800000.0 -13295300000.0 -12578500000.0 -15399300000.0 -18353100000.0 -17408200000.0 -17289900000.0 -18209100000.0 -18232600000.0 -19240500000.0 -12800200000.0 -12570800000.0 -20451300000.0 -15964100000.0 -12703400000.0 -12695900000.0 -13588400000.0 -12927900000.0 -12959400000.0 -13481900000.0 -13155400000.0 -13144300000.0 -13703200000.0 -17663200000.0 -14979100000.0 -17727600000.0 -14316200000.0 -13881900000.0 -13736500000.0 -16037800000.0 -12884800000.0 -12786800000.0 -13403600000.0 -12560100000.0 -14910700000.0 -12580100000.0 -13950500000.0 -15896800000.0 -13154400000.0 -13217800000.0 -13796900000.0 -14609600000.0 -14428700000.0 -16800600000.0 -15413600000.0 -14112500000.0 -13328700000.0 -14569700000.0 -15800900000.0 -16170200000.0 -16559600000.0 -14363700000.0 -14347000000.0 -14832000000.0 -14094300000.0 -14484100000.0 -12911100000.0 -12641700000.0 -12704100000.0 -12729700000.0 -13130700000.0 -15795000000.0 -15216700000.0 -13147100000.0 -12940900000.0 -13657600000.0 -13353000000.0 -13050300000.0 -13236000000.0 -13441400000.0 -13268000000.0 -13314900000.0 -13377500000.0 -13382700000.0 -13020700000.0 -12951000000.0 -14132000000.0 -12618500000.0 -12555900000.0 -12926300000.0 -12570600000.0 -12798000000.0 -12549700000.0 -13259500000.0 -13200200000.0 -13005300000.0 -12939800000.0 -14148500000.0 -13850900000.0 -13314100000.0 -14029000000.0 -14395300000.0 -12985000000.0 -13170500000.0 -13050300000.0 -12607200000.0 -12676200000.0 -16222200000.0 -13633300000.0 -14171300000.0 -15469600000.0 -12610900000.0 -14923300000.0 -13129000000.0 -13496600000.0 -21581400000.0 -13432800000.0 -21034500000.0 -12565800000.0 -12554800000.0 -17800900000.0 -19217500000.0 -12616100000.0 -13402700000.0 -15183900000.0 -13766700000.0 -12786900000.0 -14828500000.0 -12643400000.0 -18457400000.0 -17861800000.0 -12549700000.0 -12709600000.0 -14441100000.0 -12573000000.0 -13468300000.0 -14001300000.0 -16053000000.0 -12797600000.0 -12737100000.0 -13436700000.0 -13773300000.0 -15126500000.0 -14445300000.0 -13398900000.0 -12999900000.0 -15651300000.0 -14245100000.0 -13990300000.0 -15156000000.0 -14252200000.0 -15587100000.0 -14458400000.0 -15634500000.0 -15356600000.0 -12582500000.0 -12567600000.0 -12922300000.0 -14154800000.0 -12549700000.0 -13483600000.0 -12931500000.0 -13828900000.0 -12875100000.0 -14093700000.0 -12837700000.0 -12633900000.0 -12711300000.0 -12739500000.0 -12570500000.0 -12598200000.0 -12906800000.0 -13883000000.0 -14915900000.0 -14428400000.0 -12555800000.0 -12549700000.0 -13617200000.0 -12993700000.0 -12795000000.0 -12981400000.0 -12667400000.0 -12884400000.0 -12675400000.0 -12704800000.0 -12776300000.0 -12600700000.0 -12549700000.0 -13545500000.0 -13079400000.0 -13502800000.0 -13483200000.0 -13601800000.0 -13812600000.0 -13998800000.0 -12753800000.0 -12805100000.0 -12775900000.0 -13084300000.0 -13758000000.0 -13305900000.0 -14551400000.0 -13983200000.0 -13468200000.0 -12937800000.0 -13704900000.0 -12549700000.0 -12949000000.0 -14048800000.0 -17270900000.0 -12677000000.0 -14652200000.0 -15457400000.0 -15552100000.0 -14265200000.0 -14759900000.0 -14513300000.0 -28020900000.0 -16151200000.0 -16364000000.0 -18108200000.0 -16285000000.0 -16381500000.0 -19119200000.0 -14123300000.0 -14099800000.0 -15995000000.0 -13808500000.0 -19448100000.0 -15650600000.0 -14435600000.0 -14011500000.0 -14167300000.0 -14834700000.0 -14076600000.0 -13534400000.0 -13452200000.0 -15224300000.0 -13407600000.0 -13228400000.0 -14899900000.0 -14330700000.0 -12549700000.0 -12557700000.0 -13920300000.0 -13428800000.0 -15313200000.0 -14210900000.0 -13702700000.0 -14928900000.0 -13755300000.0 -12623300000.0 -12555300000.0 -15562600000.0 -13689600000.0 -14160200000.0 -14439300000.0 -15727500000.0 -15397900000.0 -15857600000.0 -12549700000.0 -12950000000.0 -13412400000.0 -14216100000.0 -12735400000.0 -13881000000.0 -12760300000.0 -12631200000.0 -12708700000.0 -12671500000.0 -12717400000.0 -12808300000.0 -14106300000.0 -12589500000.0 -13846000000.0 -14172700000.0 -13165100000.0 -13068300000.0 -12785600000.0 -12728400000.0 -12881900000.0 -12700400000.0 -12984100000.0 -12759200000.0 -13131300000.0 -13007600000.0 -13000800000.0 -13130600000.0 -13171100000.0 -12705000000.0 -12639200000.0 -12551500000.0 -12584500000.0 -12725200000.0 -12717600000.0 -13924900000.0 -13814600000.0 -13543300000.0 -13891500000.0 -14893000000.0 -12549700000.0 -13885600000.0 -14464700000.0 -13406000000.0 -12967400000.0 -12923500000.0 -14926600000.0 -14949800000.0 -12549700000.0 -17920900000.0 -14734000000.0 -12603900000.0 -13662700000.0 -13229100000.0 -15070400000.0 -12558800000.0 -15527900000.0 -16272500000.0 -14717700000.0 -31549800000.0 -12641400000.0 -17849600000.0 -16120900000.0 -19200200000.0 -24628000000.0 -21556600000.0 -18542500000.0 -16595600000.0 -16420900000.0 -19413900000.0 -12575700000.0 -12894200000.0 -12917800000.0 -12549700000.0 -15517500000.0 -13436200000.0 -14142900000.0 -13415700000.0 -13680200000.0 -14157200000.0 -14395600000.0 -13173200000.0 -12656800000.0 -12549700000.0 -12560400000.0 -12582700000.0 -13253600000.0 -14279100000.0 -13608000000.0 -13128200000.0 -14375000000.0 -13411400000.0 -14336100000.0 -13075800000.0 -12919400000.0 -12599600000.0 -13390800000.0 -13108600000.0 -13215100000.0 -12593700000.0 -15443000000.0 -15867800000.0 -15578500000.0 -16083000000.0 -17068300000.0 -14522400000.0 -12658100000.0 -12549700000.0 -12677900000.0 -12580700000.0 -12572900000.0 -12603400000.0 -12756100000.0 -13368800000.0 -13081800000.0 -13605300000.0 -12613700000.0 -13551200000.0 -13111900000.0 -12609500000.0 -12609900000.0 -12720700000.0 -12714900000.0 -12597200000.0 -13014200000.0 -12633900000.0 -12589400000.0 -12631100000.0 -12627400000.0 -12703900000.0 -12808500000.0 -12576200000.0 -12557600000.0 -12560200000.0 -12549700000.0 -12560200000.0 -13163300000.0 -13270500000.0 -12565100000.0 -12622100000.0 -13953500000.0 -13654400000.0 -15038400000.0 -15624300000.0 -13631800000.0 -13136300000.0 -14547600000.0 -13372300000.0 -13730500000.0 -16101100000.0 -16939500000.0 -16621200000.0 -14133800000.0 -12561900000.0 -13450100000.0 -13345900000.0 -15942800000.0 -13611100000.0 -17783200000.0 -19164900000.0 -25007600000.0 -21531800000.0 -23081900000.0 -12971400000.0 -15664000000.0 -18945100000.0 -15613800000.0 -15881600000.0 -17375500000.0 -19933300000.0 -14943600000.0 -15670200000.0 -17103600000.0 -13647200000.0 -13322300000.0 -15453500000.0 -12870000000.0 -12757200000.0 -12940700000.0 -12992000000.0 -13179900000.0 -13340100000.0 -13322800000.0 -12549700000.0 -12788200000.0 -13227500000.0 -12823800000.0 -12845800000.0 -13899200000.0 -12606800000.0 -14303000000.0 -12857700000.0 -13841100000.0 -12549700000.0 -13891200000.0 -13599100000.0 -13095600000.0 -13440000000.0 -13067000000.0 -12804300000.0 -13350700000.0 -13387900000.0 -13677800000.0 -14934500000.0 -13751800000.0 -13821700000.0 -14400800000.0 -13953100000.0 -12629900000.0 -12549700000.0 -12679700000.0 -12583300000.0 -12572100000.0 -12681400000.0 -12575100000.0 -12801400000.0 -13451500000.0 -12549700000.0 -12864800000.0 -12950600000.0 -12667700000.0 -12571100000.0 -12621300000.0 -12549700000.0 -12716500000.0 -13034500000.0 -12587200000.0 -12576900000.0 -12553800000.0 -12574100000.0 -12629500000.0 -12550300000.0 -12665100000.0 -12557800000.0 -12552900000.0 -12571800000.0 -12574000000.0 -12814900000.0 -12793800000.0 -13742500000.0 -13722100000.0 -15133900000.0 -13202400000.0 -12923900000.0 -13059500000.0 -17501000000.0 -16516100000.0 -16384400000.0 -16019600000.0 -16795600000.0 -12669300000.0 -16095600000.0 -14907600000.0 -15357700000.0 -15455500000.0 -13902300000.0 -20029000000.0 -12718700000.0 -16243000000.0 -22146400000.0 -20641100000.0 -20786400000.0 -21351000000.0 -17485200000.0 -16418200000.0 -18349300000.0 -14146600000.0 -14681200000.0 -12549700000.0 -21090500000.0 -16307400000.0 -12607800000.0 -16181400000.0 -15335100000.0 -12771900000.0 -12904200000.0 -12674300000.0 -12832000000.0 -13203500000.0 -13203000000.0 -13336100000.0 -13244000000.0 -12551400000.0 -13110100000.0 -12562500000.0 -12741400000.0 -12735400000.0 -13378200000.0 -13156500000.0 -13115700000.0 -12798700000.0 -13189900000.0 -12996500000.0 -13740800000.0 -13002400000.0 -12773700000.0 -12928200000.0 -13091800000.0 -13057700000.0 -13057200000.0 -13267100000.0 -13019200000.0 -13810700000.0 -12556000000.0 -12551700000.0 -15252800000.0 -13260500000.0 -12691900000.0 -12914600000.0 -12939300000.0 -12913000000.0 -12910400000.0 -12827500000.0 -12835000000.0 -12827000000.0 -12602300000.0 -13225900000.0 -13293500000.0 -13190500000.0 -12906600000.0 -12927000000.0 -12929200000.0 -12868100000.0 -12785200000.0 -12853600000.0 -12553400000.0 -12549700000.0 -12553100000.0 -12578700000.0 -12628600000.0 -12581200000.0 -12579300000.0 -12642300000.0 -12576600000.0 -12554000000.0 -12668300000.0 -12638400000.0 -13476000000.0 -12559500000.0 -12586700000.0 -13407800000.0 -15224300000.0 -14562500000.0 -15139500000.0 -16737500000.0 -13491600000.0 -12742300000.0 -13832600000.0 -13555800000.0 -21461200000.0 -16241300000.0 -17660100000.0 -17580800000.0 -19360900000.0 -15515800000.0 -19116200000.0 -12815700000.0 -14504400000.0 -14317600000.0 -23841100000.0 -32460900000.0 -12928400000.0 -12830400000.0 -21453000000.0 -14056900000.0 -20891500000.0 -13024600000.0 -14079100000.0 -12549700000.0 -19035400000.0 -14101700000.0 -13044900000.0 -13782500000.0 -15558700000.0 -13340300000.0 -13399000000.0 -13027500000.0 -12772700000.0 -13112300000.0 -13388000000.0 -12811800000.0 -13164900000.0 -12558300000.0 -12672800000.0 -12922500000.0 -12621200000.0 -12655400000.0 -13534800000.0 -12793100000.0 -12837900000.0 -12549700000.0 -13067800000.0 -13548900000.0 -12549700000.0 -12936600000.0 -12580300000.0 -12561600000.0 -12552800000.0 -12766200000.0 -12643700000.0 -13545700000.0 -13627800000.0 -12781800000.0 -13357500000.0 -14691400000.0 -13185700000.0 -13014300000.0 -12691200000.0 -12550700000.0 -12549900000.0 -12639500000.0 -12609800000.0 -12587200000.0 -12625400000.0 -12618500000.0 -12595600000.0 -12627900000.0 -12792700000.0 -12743300000.0 -12625300000.0 -12653600000.0 -12668800000.0 -12702600000.0 -12791900000.0 -12861800000.0 -12693800000.0 -12686400000.0 -12728300000.0 -12762600000.0 -12848100000.0 -12789100000.0 -12828900000.0 -12839000000.0 -12737300000.0 -12909500000.0 -13047300000.0 -13285000000.0 -14425200000.0 -13933200000.0 -13956700000.0 -14820000000.0 -12810600000.0 -13537300000.0 -12627200000.0 -16728800000.0 -15577900000.0 -13959700000.0 -12875800000.0 -13457800000.0 -19009600000.0 -14416600000.0 -13600800000.0 -13899300000.0 -21054000000.0 -12549700000.0 -16978300000.0 -15609600000.0 -12553000000.0 -25123400000.0 -13410000000.0 -27547400000.0 -12691200000.0 -12621900000.0 -21150500000.0 -12777900000.0 -21878700000.0 -15962900000.0 -16307400000.0 -18881600000.0 -16662900000.0 -16442200000.0 -16945600000.0 -16601500000.0 -14263600000.0 -13807400000.0 -13855900000.0 -14000300000.0 -14229500000.0 -14201500000.0 -13424100000.0 -13188500000.0 -13349700000.0 -13194500000.0 -12992300000.0 -12914200000.0 -12876600000.0 -13495000000.0 -12819200000.0 -12791800000.0 -13024300000.0 -13104900000.0 -14046400000.0 -12826600000.0 -12769700000.0 -13535400000.0 -13277800000.0 -13095000000.0 -13112400000.0 -13083200000.0 -12551700000.0 -12700500000.0 -12890100000.0 -12560300000.0 -12780400000.0 -14020400000.0 -12807300000.0 -12948500000.0 -12635800000.0 -12567900000.0 -12611500000.0 -12549700000.0 -12549800000.0 -12553800000.0 -12592200000.0 -12573400000.0 -12554700000.0 -12549700000.0 -12604100000.0 -12629300000.0 -12552400000.0 -12549800000.0 -12549700000.0 -12552100000.0 -12549700000.0 -12634200000.0 -12801200000.0 -12787100000.0 -12767500000.0 -12757700000.0 -12714400000.0 -12753000000.0 -12691700000.0 -12806000000.0 -12961200000.0 -13211600000.0 -13448700000.0 -14228300000.0 -12813200000.0 -13145300000.0 -12995100000.0 -14506800000.0 -13619000000.0 -13415800000.0 -13989000000.0 -15679000000.0 -12577900000.0 -16293200000.0 -14745100000.0 -15307400000.0 -16290500000.0 -17068600000.0 -12645100000.0 -13901300000.0 -21678700000.0 -18126100000.0 -14013300000.0 -16082000000.0 -25423600000.0 -13319900000.0 -14234600000.0 -28505900000.0 -12562700000.0 -12868800000.0 -25979800000.0 -18683400000.0 -21455800000.0 -14466000000.0 -16623200000.0 -15004500000.0 -15161900000.0 -13674800000.0 -12592100000.0 -12549700000.0 -13580400000.0 -13743600000.0 -14117000000.0 -14247900000.0 -14311500000.0 -13370600000.0 -14673900000.0 -13659000000.0 -12632400000.0 -12802400000.0 -12596900000.0 -12677800000.0 -12550000000.0 -12568400000.0 -12549700000.0 -13111900000.0 -12699600000.0 -12750600000.0 -12749800000.0 -12812800000.0 -13528600000.0 -12783600000.0 -12789200000.0 -12817800000.0 -12675800000.0 -12792400000.0 -13046800000.0 -12600400000.0 -12816000000.0 -12562700000.0 -13414800000.0 -13210800000.0 -12984400000.0 -12902500000.0 -12574700000.0 -12562900000.0 -12584900000.0 -12549700000.0 -12550600000.0 -12555100000.0 -12580400000.0 -12564600000.0 -12549700000.0 -12549700000.0 -12549700000.0 -12589500000.0 -12550600000.0 -12549700000.0 -12549700000.0 -12552700000.0 -12560300000.0 -12628100000.0 -12576500000.0 -12576300000.0 -12553000000.0 -12585800000.0 -12631000000.0 -12622000000.0 -12727900000.0 -12795200000.0 -12789300000.0 -12748700000.0 -13104700000.0 -13305100000.0 -12814700000.0 -13379900000.0 -13596800000.0 -13896400000.0 -14054100000.0 -14261300000.0 -14246300000.0 -14765000000.0 -15849500000.0 -17166900000.0 -12568100000.0 -16644100000.0 -18154400000.0 -19907400000.0 -18878800000.0 -21124100000.0 -22428800000.0 -27521800000.0 -21640500000.0 -19846000000.0 -27519800000.0 -31076100000.0 -12768600000.0 -24437700000.0 -20945600000.0 -19309400000.0 -22021000000.0 -17210500000.0 -14521300000.0 -15356000000.0 -19867100000.0 -17906500000.0 -15763100000.0 -13657700000.0 -12808700000.0 -12879200000.0 -12769800000.0 -13372500000.0 -12602800000.0 -12745400000.0 -12652400000.0 -12804400000.0 -13378000000.0 -13492200000.0 -12808700000.0 -13193400000.0 -12757100000.0 -12893100000.0 -12748700000.0 -12692600000.0 -12966300000.0 -12551300000.0 -12583500000.0 -12558000000.0 -12575700000.0 -13106500000.0 -12584400000.0 -12564800000.0 -12777400000.0 -12549700000.0 -12600000000.0 -12611800000.0 -13215300000.0 -13089900000.0 -13335400000.0 -13469100000.0 -12667000000.0 -12774200000.0 -12568300000.0 -12556000000.0 -12549700000.0 -12560100000.0 -12549700000.0 -12549800000.0 -12550800000.0 -12559900000.0 -12554200000.0 -12549700000.0 -12549700000.0 -12549700000.0 -12564300000.0 -12549700000.0 -12549700000.0 -12549700000.0 -12550400000.0 -12555500000.0 -12602100000.0 -12586200000.0 -12587900000.0 -12583500000.0 -12558300000.0 -12563500000.0 -12570100000.0 -12625600000.0 -12575200000.0 -12600500000.0 -12612300000.0 -12713900000.0 -12652400000.0 -12609200000.0 -12781600000.0 -12682800000.0 -12807000000.0 -13001300000.0 -13078100000.0 -13134100000.0 -12733600000.0 -13034500000.0 -18482400000.0 -15824000000.0 -17837600000.0 -12596700000.0 -14933900000.0 -19375500000.0 -14662100000.0 -24781500000.0 -15384300000.0 -16865800000.0 -21340800000.0 -16288000000.0 -21633600000.0 -17964700000.0 -13391100000.0 -15085800000.0 -14615200000.0 -23194200000.0 -16714000000.0 -12727500000.0 -13581000000.0 -13135100000.0 -13531800000.0 -13434400000.0 -13405000000.0 -12625200000.0 -12570600000.0 -12562300000.0 -12570700000.0 -12629600000.0 -12640700000.0 -12592700000.0 -12571200000.0 -12917900000.0 -12824400000.0 -12549700000.0 -12611700000.0 -12594600000.0 -12655400000.0 -12595300000.0 -12663800000.0 -12647800000.0 -12636800000.0 -12665200000.0 -12717200000.0 -12550700000.0 -12762100000.0 -12721900000.0 -12569800000.0 -12621400000.0 -12575800000.0 -12648600000.0 -12592900000.0 -12576600000.0 -12653000000.0 -12584600000.0 -13062600000.0 -12568500000.0 -12933900000.0 -12912200000.0 -12736200000.0 -12597100000.0 -14111500000.0 -14058300000.0 -13663400000.0 -20541200000.0 -15665600000.0 -16607400000.0 -19601900000.0 -20476300000.0 -17327200000.0 -19232000000.0 -17250400000.0 -16028300000.0 -17140300000.0 -25848100000.0 -12570900000.0 -16533300000.0 -23704600000.0 -16384300000.0 -15326900000.0 -14676600000.0 -15284900000.0 -21665700000.0 -12729100000.0 -13902300000.0 -14028200000.0 -13237100000.0 -18688700000.0 -13857500000.0 -12815900000.0 -17067400000.0 -12617900000.0 -16304100000.0 -14968400000.0 -16685300000.0 -20997100000.0 -22781400000.0 -20127500000.0 -15843400000.0 -14974700000.0 -15069300000.0 -21289400000.0 -13250800000.0 -14266600000.0 -15187400000.0 -16755200000.0 -15801300000.0 -14496900000.0 -19765700000.0 -24975500000.0 -18598800000.0 -13641200000.0 -20341500000.0 -13830300000.0 -34200300000.0 -16649500000.0 -24374300000.0 -17262200000.0 -14557500000.0 -12549700000.0 -23685100000.0 -12879100000.0 -13021800000.0 -14214700000.0 -13763700000.0 -15838200000.0 -15702900000.0 -18056400000.0 -12591400000.0 -17897900000.0 -17694700000.0 -13220100000.0 -13038500000.0 -13190700000.0 -24448800000.0 -32518700000.0 -12573800000.0 -13700800000.0 -20394900000.0 -12549700000.0 -16031100000.0 -15602000000.0 -15153900000.0 -21456400000.0 -12809100000.0 -12867000000.0 -12549700000.0 -12549700000.0 -13017900000.0 -15489900000.0 -15353900000.0 -21242300000.0 -19229200000.0 -13880300000.0 -18967900000.0 -30572900000.0 -16605500000.0 -15815900000.0 -20993600000.0 -14202800000.0 -14914400000.0 -18985700000.0 -13227300000.0 -12835300000.0 -12977300000.0 -12549700000.0 -12549700000.0 -12549700000.0 -12935900000.0 -14556100000.0 -14498200000.0 -16493200000.0 -16836900000.0 -14295000000.0 -16359300000.0 -14637200000.0 -16302900000.0 -31619400000.0 -14481100000.0 -15773700000.0 -15246700000.0 -19886200000.0 -13880100000.0 -23082500000.0 -19582900000.0 -16335800000.0 -14020800000.0 -12952700000.0 -12549700000.0 -12549700000.0 -12549700000.0 -12549700000.0 -12549700000.0 -12549700000.0 -12549700000.0 -12549700000.0 -12549700000.0 -12549700000.0 -12549700000.0 -12549700000.0 -12549700000.0 -12549700000.0 -12549700000.0 -12549700000.0 -12549700000.0 -12549700000.0 -12549700000.0 -12549700000.0 -12549700000.0 -12549700000.0 -12549700000.0 -12549700000.0 -12549700000.0 -12549700000.0 -12550300000.0 -12549700000.0 -12549700000.0 -12676400000.0 -14419600000.0 -13797200000.0 -14179800000.0 -14194300000.0 -16250500000.0 -17466600000.0 -17039200000.0 -17359500000.0 -18052500000.0 -34398200000.0 -17542100000.0 -12940700000.0 -14181200000.0 -23393100000.0 -22716500000.0 -15660100000.0 -15175500000.0 -13425900000.0 -12645800000.0 -12549700000.0 -12549700000.0 -12549700000.0 -12549700000.0 -12549700000.0 -12549700000.0 -12549700000.0 -12549700000.0 -12549700000.0 -12549700000.0 -12549700000.0 -12549700000.0 -12549700000.0 -12549700000.0 -12549700000.0 -12549700000.0 -12549700000.0 -12549700000.0 -12549700000.0 -12549700000.0 -12549700000.0 -12549700000.0 -12549700000.0 -12549700000.0 -12549700000.0 -12549700000.0 -12549700000.0 -12549800000.0 -12551600000.0 -13717500000.0 -13806500000.0 -12637000000.0 -14494200000.0 -17325900000.0 -23083300000.0 -21416500000.0 -19400000000.0 -16852400000.0 -19242400000.0 -24649600000.0 -15687800000.0 -18089800000.0 -12825200000.0 -21656100000.0 -16587200000.0 -12915900000.0 -12592700000.0 -12553200000.0 -13380700000.0 -17715300000.0 -13180300000.0 -12701600000.0 -12549700000.0 -12549700000.0 -12549700000.0 -12549700000.0 -12549700000.0 -12549700000.0 -12549700000.0 -12549700000.0 -12549700000.0 -12549700000.0 -12549700000.0 -12549700000.0 -12549700000.0 -12549700000.0 -12549700000.0 -12549700000.0 -12549700000.0 -12549700000.0 -12549700000.0 -12549700000.0 -12549700000.0 -12549700000.0 -12549700000.0 -12549700000.0 -12549700000.0 -12549700000.0 -12549700000.0 -12549700000.0 -12549700000.0 -12549700000.0 -12549700000.0 -12549700000.0 -12549700000.0 -12549700000.0 -12549700000.0 -12549700000.0 -12549700000.0 -12549700000.0 -12549700000.0 -12549700000.0 -12598600000.0 -12809800000.0 -12917100000.0 -13112900000.0 -13340500000.0 -14958000000.0 -13545100000.0 -15277700000.0 -18428000000.0 -18157600000.0 -16079700000.0 -13325600000.0 -15631700000.0 -21045900000.0 -28207100000.0 -22955000000.0 -19284900000.0 -22396500000.0 -19650600000.0 -18679900000.0 -12960900000.0 -17506700000.0 -18532100000.0 -12764500000.0 -13377000000.0 -14092300000.0 -12948300000.0 -12682500000.0 -12616200000.0 -12564600000.0 -12556600000.0 -12549700000.0 -12549700000.0 -12549700000.0 -12549700000.0 -12549700000.0 -12549700000.0 -12549700000.0 -12549700000.0 -12549700000.0 -12549700000.0 -12549700000.0 -12549700000.0 -12549700000.0 -12549700000.0 -12549700000.0 -12549700000.0 -12549700000.0 -12549700000.0 -12549700000.0 -12549700000.0 -12549700000.0 -12549700000.0 -12549700000.0 -12549700000.0 -12549700000.0 -12549700000.0 -12549700000.0 -12549700000.0 -12549700000.0 -12549700000.0 -12549700000.0 -12549700000.0 -12549700000.0 -12549700000.0 -12549700000.0 -12549700000.0 -12549700000.0 -12549700000.0 -12549700000.0 -12549700000.0 -12549700000.0 -12549700000.0 -12549700000.0 -12549700000.0 -12552800000.0 -12671700000.0 -13556600000.0 -12941700000.0 -14877500000.0 -16739100000.0 -17120500000.0 -15938600000.0 -12594900000.0 -19006000000.0 -16676100000.0 -21343200000.0 -20983400000.0 -19108600000.0 -17892800000.0 -23292600000.0 -13251600000.0 -18656800000.0 -17483600000.0 -17985000000.0 -14555600000.0 -12579800000.0 -13326800000.0 -12643300000.0 -12576700000.0 -12550400000.0 -12549900000.0 -12549700000.0 -12549700000.0 -12549700000.0 -12549700000.0 -12549700000.0 -12549700000.0 -12549700000.0 -12549700000.0 -12549700000.0 -12549700000.0 -12549700000.0 -12549700000.0 -12549700000.0 -12549700000.0 -12549700000.0 -12549700000.0 -12549700000.0 -12549700000.0 -12549700000.0 -12549700000.0 -12549700000.0 -12549700000.0 -12549700000.0 -12549700000.0 -12549700000.0 -12549700000.0 -12549700000.0 -12549700000.0 -12549700000.0 -12549700000.0 -12549700000.0 -12549700000.0 -12549700000.0 -12549700000.0 -12549700000.0 -12549700000.0 -12549700000.0 -12549700000.0 -12549700000.0 -12549700000.0 -12560500000.0 -12549700000.0 -12761800000.0 -13163800000.0 -13568700000.0 -13540900000.0 -13013500000.0 -19573600000.0 -17386900000.0 -16620700000.0 -20587800000.0 -18290900000.0 -15186200000.0 -22218200000.0 -21614800000.0 -12549700000.0 -12664600000.0 -20427500000.0 -30563000000.0 -24406200000.0 -14720600000.0 -12667700000.0 -12767600000.0 -12565300000.0 -12556900000.0 -12551000000.0 -12549700000.0 -12549700000.0 -12549700000.0 -12549700000.0 -12549700000.0 -12549700000.0 -12549700000.0 -12549700000.0 -12549700000.0 -12549700000.0 -12549700000.0 -12549700000.0 -12549700000.0 -12549700000.0 -12549700000.0 -12549700000.0 -12549700000.0 -12549700000.0 -12549700000.0 -12549700000.0 -12549700000.0 -12549700000.0 -12549700000.0 -12549700000.0 -12549700000.0 -12549700000.0 -12549700000.0 -12549700000.0 -12549700000.0 -12549700000.0 -12549700000.0 -12549700000.0 -12549700000.0 -12549700000.0 -12549700000.0 -12549700000.0 -12549700000.0 -12549700000.0 -12549700000.0 -12549700000.0 -12549700000.0 -12549700000.0 -12549700000.0 -12549700000.0 -12549700000.0 -12578700000.0 -12549700000.0 -12549700000.0 -12939800000.0 -13244000000.0 -14270800000.0 -16132300000.0 -12638800000.0 -22762700000.0 -25690600000.0 -23265900000.0 -19919600000.0 -22055000000.0 -26048700000.0 -15013400000.0 -15024600000.0 -14294200000.0 -20404000000.0 -18888800000.0 -12718000000.0 -33159300000.0 -18098500000.0 -17639600000.0 -13216500000.0 -12697900000.0 -12727700000.0 -13000400000.0 -12549700000.0 -12549700000.0 -12552900000.0 -12549700000.0 -12549700000.0 -12549700000.0 -12549700000.0 -12549700000.0 -12549700000.0 -12549700000.0 -12549700000.0 -12549700000.0 -12549700000.0 -12549700000.0 -12549700000.0 -12549700000.0 -12549700000.0 -12549700000.0 -12549700000.0 -12549700000.0 -12549700000.0 -12549700000.0 -12549700000.0 -12549700000.0 -12549700000.0 -12549700000.0 -12549700000.0 -12549700000.0 -12549700000.0 -12549700000.0 -12549700000.0 -12549700000.0 -12549700000.0 -12549700000.0 -12549700000.0 -12549700000.0 -12549700000.0 -12549700000.0 -12549700000.0 -12549700000.0 -12549700000.0 -12549700000.0 -12549700000.0 -12549700000.0 -12549700000.0 -12549700000.0 -12549700000.0 -12549700000.0 -19000700000.0 -26338400000.0 -13265800000.0 -14743100000.0 -16530100000.0 -15438100000.0 -17414500000.0 -20168500000.0 -13333900000.0 -24765700000.0 -19793400000.0 -14440400000.0 -14106600000.0 -17901500000.0 -17958300000.0 -30862100000.0 -12549700000.0 -19966700000.0 -13699400000.0 -13217600000.0 -12592000000.0 -12549700000.0 -12549700000.0 -12549700000.0 -12549700000.0 -12549700000.0 -12549700000.0 -12549700000.0 -12549700000.0 -12549700000.0 -12549700000.0 -12549700000.0 -12549700000.0 -12549700000.0 -12549700000.0 -12549700000.0 -12549700000.0 -12549700000.0 -12549700000.0 -12549700000.0 -12549700000.0 -12549700000.0 -12549700000.0 -12549700000.0 -12549700000.0 -12549700000.0 -12549700000.0 -12549700000.0 -12549700000.0 -12549700000.0 -12549700000.0 -12549700000.0 -12549700000.0 -12549700000.0 -12549700000.0 -12549700000.0 -12549700000.0 -12549700000.0 -12549700000.0 -12549700000.0 -12549700000.0 -12549700000.0 -13791500000.0 -13322000000.0 -23941600000.0 -23603600000.0 -16534200000.0 -13656500000.0 -14393400000.0 -14953700000.0 -12603200000.0 -19786200000.0 -20960500000.0 -17532400000.0 -18142300000.0 -20943800000.0 -15420400000.0 -14494400000.0 -23092600000.0 -33001400000.0 -12549700000.0 -13550700000.0 -19701800000.0 -13721000000.0 -12549700000.0 -12549700000.0 -12549700000.0 -12549700000.0 -12549700000.0 -12549700000.0 -12549700000.0 -12549700000.0 -12549700000.0 -12549700000.0 -12549700000.0 -12549700000.0 -12549700000.0 -12549700000.0 -12549700000.0 -12549700000.0 -12549700000.0 -12549700000.0 -12549700000.0 -12549700000.0 -12549700000.0 -12549700000.0 -12549700000.0 -12549700000.0 -12549700000.0 -12549700000.0 -12549700000.0 -12549700000.0 -12549700000.0 -12549700000.0 -12549700000.0 -12549700000.0 -12549700000.0 -12549700000.0 -12549700000.0 -12549700000.0 -12549700000.0 -12549700000.0 -12549700000.0 -20426600000.0 -13672400000.0 -38023300000.0 -15656500000.0 -15842500000.0 -16895400000.0 -12554400000.0 -21354200000.0 -19582500000.0 -28881500000.0 -16538500000.0 -38129100000.0 -27977400000.0 -35667100000.0 -31981500000.0 -21416800000.0 -22680600000.0 -13651800000.0 -12549700000.0 -12549700000.0 -12549700000.0 -12549700000.0 -12549700000.0 -12549700000.0 -12549700000.0 -12549700000.0 -12549700000.0 -12549700000.0 -12549700000.0 -12549700000.0 -12549700000.0 -12547800000.0 -12549700000.0 -12549700000.0 -12549700000.0 -12549700000.0 -12549700000.0 -12549700000.0 -12549700000.0 -12549700000.0 -12549700000.0 -12549700000.0 -12549700000.0 -12549700000.0 -12549700000.0 -12549700000.0 -12549700000.0 -12549700000.0 -12549700000.0 -12549700000.0 -12549700000.0 -12549700000.0 -12549700000.0 -12549700000.0 -12549700000.0 -12549700000.0 -12549700000.0 -12549700000.0 -12549700000.0 -12549700000.0 -12549700000.0 -12549700000.0 -12549700000.0 -14010300000.0 -20277900000.0 -40815300000.0 -13332800000.0 -13564900000.0 -17870100000.0 -16959100000.0 -21085400000.0 -18661700000.0 -31817100000.0 -19098300000.0 -24872200000.0 -30430400000.0 -33130800000.0 -26095500000.0 -17338800000.0 -21706400000.0 -14188400000.0 -13212000000.0 -12549700000.0 -12549700000.0 -12549700000.0 -12549700000.0 -12549700000.0 -12549700000.0 -12549700000.0 -12549700000.0 -12549700000.0 -12549700000.0 -12549700000.0 -12549700000.0 -12549700000.0 -12549700000.0 -12549700000.0 -12549700000.0 -12549700000.0 -12549700000.0 -12549700000.0 -12549700000.0 -12549700000.0 -12549700000.0 -12549700000.0 -12549700000.0 -12549700000.0 -12549700000.0 -12549700000.0 -12549700000.0 -12549700000.0 -12549700000.0 -12549700000.0 -12549700000.0 -12954700000.0 -20819800000.0 -14508100000.0 -41780400000.0 -16891200000.0 -12651300000.0 -17522000000.0 -29599500000.0 -18680600000.0 -20039500000.0 -35315300000.0 -26261200000.0 -26412000000.0 -38216900000.0 -51913600000.0 -32936300000.0 -16972100000.0 -19780400000.0 -21793800000.0 -12614800000.0 -12676900000.0 -12599200000.0 -12549700000.0 -12549700000.0 -12549700000.0 -12549700000.0 -12549700000.0 -12549700000.0 -12549700000.0 -12549700000.0 -12549700000.0 -12549700000.0 -12549700000.0 -12549700000.0 -12549700000.0 -12549700000.0 -12549700000.0 -12549700000.0 -12549700000.0 -12549700000.0 -12549700000.0 -12549700000.0 -12549700000.0 -12549700000.0 -12549700000.0 -12549700000.0 -12549700000.0 -13535500000.0 -19314300000.0 -44307800000.0 -38572300000.0 -18873100000.0 -21499500000.0 -20765900000.0 -24014900000.0 -12868600000.0 -39322300000.0 -16874700000.0 -19049400000.0 -35253000000.0 -35022800000.0 -25190000000.0 -31844600000.0 -46156800000.0 -23348300000.0 -17385500000.0 -18528300000.0 -16935500000.0 -12549700000.0 -12549700000.0 -12549700000.0 -12549700000.0 -12549700000.0 -12549700000.0 -12549700000.0 -12549700000.0 -12549700000.0 -12549700000.0 -12549700000.0 -12549700000.0 -12549700000.0 -12549700000.0 -12549700000.0 -12549700000.0 -12549700000.0 -12549700000.0 -12549700000.0 -12549700000.0 -12549700000.0 -12549700000.0 -12549700000.0 -12549700000.0 -35101400000.0 -25821200000.0 -39635400000.0 -35305800000.0 -37006600000.0 -47837900000.0 -31302000000.0 -35960000000.0 -50780700000.0 -46186000000.0 -16907600000.0 -60429000000.0 -73733900000.0 -28491800000.0 -12549700000.0 -12549700000.0 -12549700000.0 -12549700000.0 -17816900000.0 -15228700000.0 -15478300000.0 -12549700000.0 -12549700000.0 -12549700000.0 -12549700000.0 -12549700000.0 -12549700000.0 -12549700000.0 -12549700000.0 -12549700000.0 -12549700000.0 -12549700000.0 -12549700000.0 -12549700000.0 -12549700000.0 -478751000000.0 -12549700000.0 -26052100000.0 -27510900000.0 -25287800000.0 -35548700000.0 -26182400000.0 -18351500000.0 -20378000000.0 -31440300000.0 -35442800000.0 -49895600000.0 -47088900000.0 -16078200000.0 -44354800000.0 -51449900000.0 -12738100000.0 -26985700000.0 -33048400000.0 -15067300000.0 -13476000000.0 -12549700000.0 -12549700000.0 -12549700000.0 -12549700000.0 -12549700000.0 -265956000000.0 -12549700000.0 -12550600000.0 -12549700000.0 -12549700000.0 -12549600000.0 -1.96831e+12 -2.56584e+12 -5.07655e+12 -6.51379e+12 -4.28057e+12 -3.6712e+12 -4.13503e+12 -3.39916e+12 -4.90216e+12 -2.05506e+12 -3.86122e+12 -12549300000.0 -2.88101e+12 -3.07525e+12 -3.83705e+12 -5.25963e+12 -4.83884e+12 -3.28905e+12 -4.77117e+12 -2.23967e+12 -4.5016e+12 -4.68354e+12 -6.16712e+12 -4.50286e+12 -2.31894e+12 -4.80821e+12 -5.67976e+12 -4.36406e+12 -4.45275e+12 -4.82695e+12 -12549600000.0 -3.61067e+12 -12484700000.0 -3.71173e+12 -3.99903e+12 -4.7248e+12 -5.84006e+12 -5.901e+12 -5.07282e+12 -4.01916e+12 -4.87072e+12 -4.215e+12 -4.61051e+12 -3.40071e+12 -6.39287e+12 -4.34471e+12 -3.86649e+12 -3.04296e+12 -4.49775e+12 -3.94385e+12 -3.19069e+12 -3.82344e+12 -4.72356e+12 -4.48864e+12 -1.78558e+12 -2.25719e+12 -13097300000.0 -48296900000.0 -69497200000.0 -13112700000.0 -30166800000.0 -13602100000.0 -14949600000.0 -29504600000.0 -35267500000.0 -20261600000.0 -20033700000.0 -16594800000.0 -23567000000.0 -19553200000.0 -13096100000.0 -40129400000.0 -33742200000.0 -42670100000.0 -119532000000.0 -100110000000.0 -66776500000.0 -12549700000.0 -15960900000.0 -2.41747e+12 -4.07892e+12 -205757000000.0 -4.55978e+12 -4.9114e+12 -5.60859e+12 -4.23466e+12 -5.11405e+12 -5.02058e+12 -7.05447e+12 -5.39165e+12 -7.87518e+12 -6.60968e+12 -3.13379e+12 -3.59463e+12 -4.50966e+12 -6.11365e+12 -3.15102e+12 -2.30017e+12 -2.71729e+12 -4.02352e+12 -4.27515e+12 -4.11655e+12 -908857000000.0 -2.00618e+12 -3.96282e+12 -12549700000.0 -12549700000.0 -4.08133e+12 -3.50562e+12 -12549700000.0 -4.69075e+12 -4.96716e+12 -4.72418e+12 -3.98328e+12 -4.2092e+12 -6.35549e+12 -2.99079e+12 -4.53593e+12 -6.35129e+12 -6.38297e+12 -5.95848e+12 -208733000000.0 -6.16132e+12 -1.5979e+12 -5.13569e+12 -6.07111e+12 -4.38864e+12 -4.96398e+12 -6.41072e+12 -4.35166e+12 -3.92574e+12 -4.81791e+12 -2.87075e+12 -6.29485e+12 -5.48823e+12 -5.66357e+12 -7.88683e+12 -7.60529e+12 -5.2e+12 -1.1168e+13 -4.29567e+12 -5.39739e+12 -4.79976e+12 -6.86684e+12 -7.16709e+12 -7.55106e+12 -5.2675e+12 -7.11232e+12 -4.07176e+12 -5.14326e+12 -5.71851e+12 -6.04282e+12 -7.14034e+12 -8.92371e+12 -7.31104e+12 -1.13281e+13 -5.48131e+12 -3.8448e+12 -6.54023e+12 -6.04367e+12 -5.52323e+12 -7.78361e+12 -7.28839e+12 -5.40663e+12 -9.11643e+12 -8.04478e+12 -9.04486e+12 -8.16131e+12 -5.24603e+12 -4.53708e+12 -7.34981e+12 -3.96238e+12 -6.79538e+12 -6.28922e+12 -5.77827e+12 -6.74632e+12 -8.27892e+12 -9.09574e+12 -1.12223e+13 -5.80336e+12 -3.64939e+12 -3.32472e+12 -4.96207e+12 -7.43887e+12 -7.48928e+12 -4.92932e+12 -6.09292e+12 -3.89053e+12 -6.7959e+12 -6.50822e+12 -9.31705e+12 -6.01511e+12 -6.84949e+12 -7.43887e+12 -6.59802e+12 -3.08536e+12 -5.27377e+12 -5.03172e+12 -6.15173e+12 -5.12819e+12 -9.48061e+12 -2.71834e+12 -5.24138e+12 -4.18292e+12 -6.91983e+12 -6.18499e+12 -7.10875e+12 -6.64955e+12 -7.46638e+12 -3.91288e+12 -3.43749e+12 -3.26724e+12 -4.39472e+12 -3.30138e+12 -77528700000.0 -27958500000.0 -16338600000.0 -12549700000.0 -16770400000.0 -20593300000.0 -18663500000.0 -14059500000.0 -16238400000.0 -12549700000.0 -20624000000.0 -15380200000.0 -28337200000.0 -23579500000.0 -19860900000.0 -123920000000.0 -99335200000.0 -12549700000.0 -12549700000.0 -4.8357e+12 -7.54892e+12 -3.8324e+12 -3.5692e+12 -6.26072e+12 -6.2633e+12 -3.32501e+12 -1.04592e+13 -5.78686e+12 -6.34453e+12 -4.41318e+12 -3.76349e+12 -3.03551e+12 -7.63012e+12 -6.99814e+12 -4.19441e+12 -7.29394e+12 -4.32881e+12 -5.40313e+12 -6.26387e+12 -1.01192e+13 -6.1604e+12 -7.20926e+12 -1.07426e+13 -7.85951e+12 -7.10105e+12 -1.07303e+13 -7.61832e+12 -5.30994e+12 -5.48219e+12 -6.40676e+12 -8.02855e+12 -7.38401e+12 -6.27951e+12 -4.55916e+12 -8.77101e+12 -4.9812e+12 -8.19016e+12 -5.10577e+12 -7.14815e+12 -4.16446e+12 -5.72826e+12 -4.41237e+12 -4.64697e+12 -4.63396e+12 -6.90601e+12 -4.88802e+12 -6.21973e+12 -6.11046e+12 -6.50279e+12 -5.31329e+12 -1.84482e+12 -2.86586e+12 -4.72175e+12 -4.11732e+12 -6.06976e+12 -5.03344e+12 -8.36814e+12 -6.8011e+12 -5.64044e+12 -5.39951e+12 -7.09131e+12 -6.29474e+12 -3.84013e+12 -7.81153e+12 -6.86097e+12 -7.12686e+12 -4.97214e+12 -5.90772e+12 -8.08438e+12 -5.83272e+12 -5.81197e+12 -5.56701e+12 -9.80062e+12 -6.81704e+12 -7.37818e+12 -8.54254e+12 -4.1347e+12 -2.57262e+12 -4.67448e+12 -8.26994e+12 -6.45205e+12 -5.29646e+12 -6.32147e+12 -7.77948e+12 -7.11588e+12 -4.73121e+12 -4.95221e+12 -7.1059e+12 -8.79559e+12 -2.20329e+12 -3.41931e+12 -4.68011e+12 -2.5598e+12 -6.76339e+12 -5.58258e+12 -3.89867e+12 -6.04593e+12 -2.56348e+12 -5.8903e+12 -7.23969e+12 -6.24445e+12 -5.79353e+12 -6.15897e+12 -9.02251e+12 -8.84199e+12 -6.33537e+12 -6.22602e+12 -5.76775e+12 -7.01574e+12 -4.88563e+12 -7.82224e+12 -5.18099e+12 -6.1003e+12 -6.12983e+12 -7.36092e+12 -6.12392e+12 -4.63762e+12 -7.61457e+12 -6.80553e+12 -7.32041e+12 -3.19074e+12 -4.04653e+12 -3.08696e+12 -8.46873e+12 -9.86936e+12 -8.08226e+12 -5.04892e+12 -7.08294e+12 -5.40685e+12 -9.54859e+12 -4.4686e+12 -4.27273e+12 -5.57178e+12 -6.61853e+12 -6.56695e+12 -1.09161e+13 -3.80807e+12 -4.75735e+12 -8.19066e+12 -6.68508e+12 -7.37951e+12 -3.51418e+12 -3.9241e+12 -4.6489e+12 -2.36497e+12 -36207000000.0 -12549700000.0 -71432400000.0 -21192400000.0 -17068500000.0 -15389800000.0 -18718100000.0 -14376300000.0 -18543000000.0 -20306800000.0 -34020100000.0 -34790300000.0 -13863900000.0 -26827300000.0 -31398500000.0 -15135700000.0 -30688300000.0 -19037000000.0 -17973800000.0 -91496600000.0 -36531200000.0 -5.06362e+12 -4.39208e+12 -8.52955e+12 -7.44903e+12 -2.04579e+12 -9.67001e+12 -2.17119e+12 -4.69966e+12 -6.98918e+12 -5.31824e+12 -8.67284e+12 -6.17941e+12 -9.96215e+12 -6.26037e+12 -4.47006e+12 -4.00279e+12 -4.33704e+12 -5.11439e+12 -8.62779e+12 -7.19448e+12 -5.37621e+12 -7.46474e+12 -6.53835e+12 -6.58634e+12 -8.90866e+12 -9.49769e+12 -6.96164e+12 -7.54781e+12 -3.3452e+12 -4.79587e+12 -8.12615e+12 -6.14229e+12 -7.96473e+12 -5.98754e+12 -5.93224e+12 -4.62591e+12 -5.78801e+12 -6.45971e+12 -5.29818e+12 -5.9194e+12 -4.10367e+12 -6.91458e+12 -9.90144e+12 -5.12666e+12 -5.92003e+12 -6.49946e+12 -8.36525e+12 -3.84429e+12 -4.05036e+12 -3.64739e+12 -5.39233e+12 -3.97896e+12 -5.62217e+12 -4.0153e+12 -5.17819e+12 -5.0515e+12 -7.537e+12 -7.86456e+12 -8.95278e+12 -5.44224e+12 -4.47957e+12 -4.07641e+12 -7.18465e+12 -7.06011e+12 -5.09946e+12 -6.20153e+12 -5.79241e+12 -7.15866e+12 -5.95782e+12 -4.3972e+12 -9.91713e+12 -6.51673e+12 -5.01846e+12 -1.70482e+12 -6.65067e+12 -3.76256e+12 -5.94269e+12 -4.5627e+12 -5.12828e+12 -6.39001e+12 -5.70117e+12 -5.08161e+12 -6.27817e+12 -4.84784e+12 -6.68252e+12 -4.0974e+12 -5.06055e+12 -3.98517e+12 -8.46028e+12 -7.33401e+12 -8.11239e+12 -5.77609e+12 -6.87679e+12 -5.37852e+12 -4.14156e+12 -8.19801e+12 -4.07254e+12 -4.48134e+12 -6.18545e+12 -5.77866e+12 -4.28814e+12 -6.48766e+12 -5.77777e+12 -3.91002e+12 -8.94318e+12 -5.89903e+12 -4.63836e+12 -4.08623e+12 -3.92029e+12 -7.00737e+12 -3.11133e+12 -4.86797e+12 -6.1327e+12 -7.01249e+12 -3.99073e+12 -7.89034e+12 -5.4707e+12 -4.51761e+12 -6.09973e+12 -6.86082e+12 -4.45501e+12 -6.51756e+12 -6.83665e+12 -5.38042e+12 -4.891e+12 -316496000000.0 -71148200000.0 -32451700000.0 -83278600000.0 -56096100000.0 -14688600000.0 -48564500000.0 -45485100000.0 -31499700000.0 -26269200000.0 -34497300000.0 -15095800000.0 -19846800000.0 -20228200000.0 -15171300000.0 -19292000000.0 -28838600000.0 -15067100000.0 -13086800000.0 -30526400000.0 -34668600000.0 -22942500000.0 -15289100000.0 -4.04494e+12 -4.40676e+12 -4.86195e+12 -3.06262e+12 -4.29691e+12 -4.24271e+12 -4.561e+12 -5.81556e+12 -6.27693e+12 -1.04773e+13 -7.42165e+12 -6.56489e+12 -3.11048e+12 -6.88813e+12 -5.57837e+12 -2.57441e+12 -4.20929e+12 -5.34121e+12 -3.8739e+12 -5.41982e+12 -7.85948e+12 -7.30467e+12 -5.58567e+12 -5.13224e+12 -3.73603e+12 -9.08542e+12 -1.00254e+13 -5.91553e+12 -3.79235e+12 -9.15775e+12 -3.6597e+12 -9.39146e+12 -2.84743e+12 -3.57397e+12 -4.80398e+12 -7.7254e+12 -4.39128e+12 -4.7936e+12 -4.46673e+12 -7.36339e+12 -4.64077e+12 -6.26225e+12 -6.10729e+12 -5.79909e+12 -3.35143e+12 -6.10666e+12 -3.85981e+12 -5.52495e+12 -5.95717e+12 -7.2463e+12 -8.27588e+12 -5.69956e+12 -5.81745e+12 -3.54429e+12 -3.70313e+12 -4.66436e+12 -6.14883e+12 -5.44262e+12 -5.31451e+12 -3.557e+12 -4.31906e+12 -4.41591e+12 -7.31582e+12 -6.51559e+12 -3.4478e+12 -4.45428e+12 -3.02235e+12 -6.62613e+12 -7.38242e+12 -4.32938e+12 -3.0364e+12 -2.15014e+12 -6.51327e+12 -3.76266e+12 -4.42182e+12 -4.93001e+12 -8.92199e+12 -4.33879e+12 -4.22793e+12 -6.74431e+12 -7.87819e+12 -4.39908e+12 -4.12824e+12 -627809000000.0 -4.65701e+12 -4.13868e+12 -9.75786e+12 -5.58912e+12 -4.29424e+12 -5.09581e+12 -4.4588e+12 -3.92218e+12 -4.91948e+12 -2.7943e+12 -4.0639e+12 -6.80035e+12 -4.64051e+12 -6.10576e+12 -4.11406e+12 -4.65965e+12 -7.19211e+12 -2.68007e+12 -6.6874e+12 -7.91848e+12 -4.72728e+12 -3.54049e+12 -4.93714e+12 -2.26741e+12 -7.17893e+12 -4.16274e+12 -5.02553e+12 -2.66175e+12 -7.83843e+12 -6.63749e+12 -5.70285e+12 -7.07922e+12 -3.24133e+12 -5.149e+12 -5.14156e+12 -5.45225e+12 -3.75899e+12 -6.05657e+12 -2.73075e+12 -7.36377e+12 -5.87491e+12 -4.55083e+12 -5.71363e+12 -4.53973e+12 -5.17082e+12 -3.51931e+12 -2.17597e+12 -1.9988e+12 -176738000000.0 -138664000000.0 -14013600000.0 -23873000000.0 -28685700000.0 -15608500000.0 -13346200000.0 -12843800000.0 -3.62362e+12 -5.05196e+12 -4.52757e+12 -3.21926e+12 -4.28796e+12 -5.52838e+12 -4.12711e+12 -4.79839e+12 -7.32226e+12 -3.42913e+12 -3.89614e+12 -8.04227e+12 -5.00662e+12 -4.20763e+12 -5.60374e+12 -5.47228e+12 -6.83864e+12 -3.63894e+12 -2.75181e+12 -4.16747e+12 -4.16894e+12 -5.27061e+12 -3.58864e+12 -3.55209e+12 -2.93129e+12 -2.9037e+12 -2.25651e+12 -3.08767e+12 -3.62769e+12 -6.04799e+12 -8.20205e+12 -4.03538e+12 -5.02556e+12 -2.99297e+12 -3.18847e+12 -4.87913e+12 -2.40594e+12 -5.10812e+12 -5.47686e+12 -6.44537e+12 -7.41794e+12 -7.01274e+12 -6.58663e+12 -2.81325e+12 -2.4798e+12 -3.24616e+12 -6.11668e+12 -5.70895e+12 -4.31395e+12 -5.93626e+12 -5.57107e+12 -4.08946e+12 -4.77046e+12 -5.0452e+12 -4.21748e+12 -2.96921e+12 -4.62799e+12 -4.29437e+12 -5.40473e+12 -6.44078e+12 -5.75856e+12 -3.52137e+12 -7.24002e+12 -2.00241e+12 -5.95727e+12 -2.41587e+12 -5.60322e+12 -4.17829e+12 -6.06201e+12 -2.88396e+12 -9.95007e+12 -3.83179e+12 -6.5613e+12 -5.99961e+12 -5.38032e+12 -5.89655e+12 -5.87714e+12 -4.1924e+12 -5.60106e+12 -4.98083e+12 -5.29732e+12 -4.83463e+12 -4.82442e+12 -5.1198e+12 -6.62601e+12 -4.73269e+12 -1.65581e+12 -5.58153e+12 -4.7533e+12 -4.78545e+12 -5.17698e+12 -6.71351e+12 -4.10635e+12 -5.59416e+12 -5.9932e+12 -7.29174e+12 -3.23933e+12 -3.92122e+12 -5.23675e+12 -6.74568e+12 -5.64978e+12 -6.40722e+12 -5.32188e+12 -3.4543e+12 -6.42442e+12 -4.85079e+12 -3.4662e+12 -7.36975e+12 -6.46507e+12 -6.35646e+12 -3.03461e+12 -4.68697e+12 -3.40938e+12 -4.31612e+12 -2.94355e+12 -5.44532e+12 -2.06582e+12 -2.78099e+12 -4.4434e+12 -6.58574e+12 -4.11234e+12 -3.32038e+12 -3.44462e+12 -3.3213e+12 -3.54631e+12 -6.21588e+12 -3.30396e+12 -4.1591e+12 -3.63441e+12 -3.6798e+12 -4.82004e+12 -3.89369e+12 -6.08526e+12 -6.46438e+12 -4.94945e+12 -3.63315e+12 -3.77821e+12 -8.00639e+12 -3.21266e+12 -3.56415e+12 -4.84012e+12 -2.6748e+12 -5.37994e+12 -3.2794e+12 -2.4476e+12 -4.94048e+12 -5.766e+12 -1.86101e+12 -3.54161e+12 -5.65475e+12 -4.26944e+12 -6.15976e+12 -5.60666e+12 -2.18516e+12 -5.80866e+12 -4.97247e+12 -4.21927e+12 -4.14913e+12 -2.57562e+12 -6.57908e+12 -2.24857e+12 -2.71417e+12 -3.85703e+12 -5.6354e+12 -6.22829e+12 -4.61274e+12 -3.32373e+12 -4.95566e+12 -2.91808e+12 -5.13045e+12 -3.85295e+12 -5.46333e+12 -3.17413e+12 -4.62925e+12 -5.39462e+12 -4.01866e+12 -2.68662e+12 -5.00992e+12 -3.10991e+12 -2.74959e+12 -6.11963e+12 -3.9266e+12 -4.24123e+12 -5.64817e+12 -3.75611e+12 -4.6253e+12 -2.96386e+12 -4.54342e+12 -5.25992e+12 -5.73632e+12 -4.26343e+12 -3.43216e+12 -4.12913e+12 -2.98048e+12 -3.29977e+12 -2.76769e+12 -5.80853e+12 -3.89832e+12 -3.77659e+12 -1.50688e+12 -3.05162e+12 -4.22056e+12 -3.43927e+12 -3.04711e+12 -4.19871e+12 -2.79296e+12 -3.61287e+12 -2.89069e+12 -4.79483e+12 -3.83264e+12 -8.40191e+12 -3.6271e+12 -3.09104e+12 -2.62323e+12 -6.2187e+12 -3.01666e+12 -5.31569e+12 -3.90835e+12 -3.69577e+12 -4.20716e+12 -3.7115e+12 -4.3486e+12 -5.72773e+12 -5.02256e+12 -683449000000.0 -2.54371e+12 -5.0233e+12 -4.96394e+12 -3.24093e+12 -4.12536e+12 -4.37666e+12 -4.23535e+12 -6.10906e+12 -2.21022e+12 -1.77203e+12 -4.06739e+12 -5.15825e+12 -5.53315e+12 -6.46635e+12 -4.6803e+12 -4.46565e+12 -3.60808e+12 -4.06257e+12 -3.34721e+12 -2.49124e+12 -2.71608e+12 -3.45501e+12 -6.36288e+12 -5.41571e+12 -5.88599e+12 -2.54556e+12 -6.56555e+12 -5.35091e+12 -4.48452e+12 -4.33516e+12 -2.85535e+12 -3.2469e+12 -3.53903e+12 -2.24424e+12 -3.47877e+12 -3.65264e+12 -4.71428e+12 -2.77517e+12 -5.61062e+12 -2.98553e+12 -3.48392e+12 -2.98457e+12 -1.34698e+12 -4.37229e+12 -4.14075e+12 -4.3745e+12 -1.78525e+12 -3.4271e+12 -3.40745e+12 -2.35102e+12 -3.64961e+12 -4.53846e+12 -1.97259e+12 -4.97905e+12 -2.55147e+12 -1.4144e+12 -3.09625e+12 -3.15493e+12 -3.35718e+12 -6.52235e+12 -4.46186e+12 -3.69131e+12 -4.11997e+12 -3.75699e+12 -6.62511e+12 -2.64315e+12 -2.2894e+12 -4.01199e+12 -1.97999e+12 -4.39873e+12 -2.32447e+12 -1.93323e+12 -3.06809e+12 -3.75247e+12 -2.6222e+12 -4.884e+12 -2.04879e+12 -2.61461e+12 -3.94786e+12 -3.7014e+12 -2.49796e+12 -3.40368e+12 -4.26782e+12 -2.7832e+12 -2.851e+12 -3.44242e+12 -3.71014e+12 -2.80647e+12 -3.2664e+12 -2.18621e+12 -2.80021e+12 -2.38824e+12 -4.0966e+12 -1.85915e+12 -4.51375e+12 -3.30881e+12 -2.28396e+12 -4.1597e+12 -2.52729e+12 -3.39333e+12 -2.63386e+12 -2.65794e+12 -3.7741e+12 -3.29841e+12 -3.05857e+12 -3.03941e+12 -3.14105e+12 -2.69805e+12 -3.76938e+12 -2.75354e+12 -3.60375e+12 -4.30188e+12 -5.21163e+12 -5.12535e+12 -3.36936e+12 -4.47498e+12 -2.80216e+12 -3.16944e+12 -2.62803e+12 -1.82668e+12 -3.98047e+12 -3.13056e+12 -3.21421e+12 -1.57228e+12 -3.72828e+12 -5.2762e+12 -2.46738e+12 -3.45515e+12 -4.35022e+12 -2.33235e+12 -2.57043e+12 -2.88608e+12 -5.11591e+12 -4.5885e+12 -2.11506e+12 -2.78916e+12 -2.06022e+12 -2.45272e+12 -4.30765e+12 -2.22642e+12 -2.44146e+12 -2.06702e+12 -4.08073e+12 -1.04476e+12 -2.04227e+12 -2.98929e+12 -726614000000.0 -4.86428e+12 -3.66067e+12 -4.23151e+12 -2.9465e+12 -4.02838e+12 -5.17123e+12 -3.8248e+12 -2.03532e+12 -3.64148e+12 -3.70316e+12 -3.08535e+12 -2.64951e+12 -3.4196e+12 -3.56099e+12 -2.23657e+12 -2.29241e+12 -3.93438e+12 -3.14698e+12 -2.24906e+12 -2.71348e+12 -4.03481e+12 -4.0068e+12 -3.82176e+12 -3.27983e+12 -2.33928e+12 -1.96844e+12 -2.05038e+12 -2.28874e+12 -2.81394e+12 -4.33254e+12 -231887000000.0 -2.55771e+12 -2.78757e+12 -2.32141e+12 -2.0183e+12 -1.67407e+12 -2.54591e+12 -4.55167e+12 -1.8794e+12 -2.50746e+12 -2.0321e+12 -1.55986e+12 -1.49633e+12 -2.75508e+12 -3.03317e+12 -2.81356e+12 -3.26243e+12 -5.39619e+12 -3.45371e+12 -2.35046e+12 -2.19149e+12 -1.6462e+12 -3.13474e+12 -3.69357e+12 -2.69328e+12 -2.38295e+12 -2.70479e+12 -3.60637e+12 -4.87319e+12 -1.3838e+12 -1.74818e+12 -3.81039e+12 -4.45174e+12 -5.19329e+12 -3.24498e+12 -1.18908e+12 -2.74331e+12 -2.58033e+12 -2.52395e+12 -1.61412e+12 -2.41603e+12 -1.98187e+12 -2.42414e+12 -2.82196e+12 -1.87265e+12 -3.16955e+12 -1.29709e+12 -3.84444e+12 -2.94594e+12 -3.76016e+12 -2.17736e+12 -3.15259e+12 -1.13519e+12 -4.22174e+12 -1.8934e+12 -757220000000.0 -2.67338e+12 -1.5712e+12 -1.53748e+12 -3.68978e+12 -2.82389e+12 -5.37839e+12 -1.79241e+12 -3.76836e+12 -2.01584e+12 -1.79901e+12 -2.71933e+12 -1.42284e+12 -3.36079e+12 -3.13933e+12 -3.30589e+12 -1.46127e+12 -2.01591e+12 -2.25209e+12 -2.5442e+12 -3.15441e+12 -2.94844e+12 -2.34553e+12 -2.85406e+12 -2.16782e+12 -4.48036e+12 -3.07625e+12 -4.13661e+12 -2.45697e+12 -2.85929e+12 -3.3314e+12 -3.40879e+12 -1.97743e+12 -3.28758e+12 -1.50532e+12 -2.75434e+12 -2.18854e+12 -3.12562e+12 -2.78344e+12 -2.88076e+12 -3.91593e+12 -3.42056e+12 -3.1055e+12 -3.13494e+12 -2.53728e+12 -2.20223e+12 -1.12654e+12 -2.20539e+12 -2.87454e+12 -2.18119e+12 -1.34114e+12 -3.28482e+12 -932965000000.0 -2.35765e+12 -1.53513e+12 -2.58609e+12 -1.8864e+12 -2.27196e+12 -1.98325e+12 -1.71101e+12 -1.28338e+12 -3.49522e+12 -1.59477e+12 -2.219e+12 -1.7668e+12 -1.38521e+12 -2.03552e+12 -1.06643e+12 -2.8061e+12 -2.0394e+12 -2.29515e+12 -1.64997e+12 -2.44336e+12 -1.62942e+12 -2.61977e+12 -1.34265e+12 -2.45762e+12 -2.58185e+12 -5.47732e+12 -2.83825e+12 -3.88621e+12 -2.93273e+12 -1.85417e+12 -2.06213e+12 -2.34491e+12 -4.0052e+12 -2.36826e+12 -1.18016e+12 -4.25462e+12 -2.37397e+12 -1.92884e+12 -1.5152e+12 -1.52898e+12 -1.90219e+12 -3.1071e+12 -1.20877e+12 -2.64226e+12 -1.62665e+12 -1.00891e+12 -1.54639e+12 -2.22021e+12 -1.2109e+12 -3.12096e+12 -2.05508e+12 -1.05164e+12 -2.78519e+12 -1.80851e+12 -2.15746e+12 -2.14825e+12 -2.17047e+12 -3.29508e+12 -1.56929e+12 -3.0564e+12 -1.45525e+12 -2.80902e+12 -2.29639e+12 -2.05901e+12 -1.00167e+12 -1.92639e+12 -1.60848e+12 -1.38757e+12 -1.4881e+12 -1.42506e+12 -2.36236e+12 -3.83143e+12 -2.58583e+12 -2.79614e+12 -2.20915e+12 -2.77942e+12 -1.70134e+12 -2.6788e+12 -1.3492e+12 -2.28826e+12 -1.62408e+12 -3.19487e+12 -1.96736e+12 -3.05098e+12 -1.87227e+12 -3.38367e+12 -1.32165e+12 -1.80863e+12 -3.03403e+12 -3.00434e+12 -2.86889e+12 -1.64553e+12 -2.43522e+12 -2.03719e+12 -3.0509e+12 -1.75183e+12 -1.73731e+12 -1.0187e+12 -2.1398e+12 -1.82177e+12 -289448000000.0 -1.1932e+12 -1.14993e+12 -738291000000.0 -1.90459e+12 -1.38356e+12 -1.23981e+12 -2.19443e+12 -1.53858e+12 -947778000000.0 -1.36276e+12 -2.205e+12 -2.43392e+12 -2.27967e+12 -1.63856e+12 -1.58684e+12 -1.32302e+12 -1.25953e+12 -2.43922e+12 -2.04499e+12 -1.00491e+12 -1.37773e+12 -1.32224e+12 -1.82256e+12 -592773000000.0 -1.5475e+12 -1.19325e+12 -983371000000.0 -1.20923e+12 -2.00091e+12 -1.22018e+12 -939240000000.0 -630310000000.0 -1.48424e+12 -305008000000.0 -1.64754e+12 -3.09946e+12 -2.48326e+12 -1.48819e+12 -1.39671e+12 -1.87921e+12 -2.89914e+12 -2.49621e+12 -1.13184e+12 -1.04018e+12 -983443000000.0 -1.13701e+12 -1.852e+12 -629818000000.0 -564203000000.0 -1.21542e+12 -2.30456e+12 -1.65723e+12 -2.33219e+12 -1.52573e+12 -2.89417e+12 -1.57566e+12 -1.4203e+12 -1.41376e+12 -2.00871e+12 -2.24764e+12 -2.22248e+12 -1.76101e+12 -909267000000.0 -933636000000.0 -926034000000.0 -1.55071e+12 -1.81983e+12 -2.22626e+12 -1.68273e+12 -1.36642e+12 -1.23094e+12 -1.81335e+12 -1.01402e+12 -2.24193e+12 -1.72802e+12 -2.16431e+12 -2.42962e+12 -2.80533e+12 -1.34735e+12 -1.13909e+12 -1.75398e+12 -2.07666e+12 -2.03786e+12 -556193000000.0 -1.14383e+12 -886476000000.0 -1.11374e+12 -1.96398e+12 -429255000000.0 -190339000000.0 -1.0724e+12 -391622000000.0 -2.01647e+12 -948588000000.0 -1.01783e+12 -1.20849e+12 -964278000000.0 -1.37839e+12 -304793000000.0 -1.44383e+12 -1.17174e+12 -486665000000.0 -1.07741e+12 -721614000000.0 -1.58785e+12 -635006000000.0 -1.01268e+12 -346815000000.0 -1.09594e+12 -1.08117e+12 -1.13853e+12 -601662000000.0 -865255000000.0 -974368000000.0 -913808000000.0 -831794000000.0 -638412000000.0 -959098000000.0 -819339000000.0 -989498000000.0 -535766000000.0 -949216000000.0 -804699000000.0 -849539000000.0 -433044000000.0 -652189000000.0 -1.21236e+12 -801100000000.0 -1.10724e+12 -1.00354e+12 -2.00961e+12 -466172000000.0 -301104000000.0 -967583000000.0 -472100000000.0 -1.8236e+12 -1.09979e+12 -364894000000.0 -524951000000.0 -1.40723e+12 -408437000000.0 -816121000000.0 -1.99045e+12 -1.63526e+12 -513534000000.0 -1.03639e+12 -721247000000.0 -443761000000.0 -815466000000.0 -1.52992e+12 -907971000000.0 -1.68093e+12 -841384000000.0 -1.40794e+12 -720958000000.0 -1.90132e+12 -999173000000.0 -1.82765e+12 -1.17585e+12 -560607000000.0 -1.14697e+12 -869033000000.0 -206113000000.0 -810215000000.0 -919475000000.0 -642629000000.0 -1.16253e+12 -595652000000.0 -766846000000.0 -1.1905e+12 -737242000000.0 -542641000000.0 -1.18012e+12 -803345000000.0 -850036000000.0 -1.20052e+12 -1.66793e+12 -386404000000.0 -1.20635e+12 -896076000000.0 -849529000000.0 -82026600000.0 -616291000000.0 -751350000000.0 -444579000000.0 -653542000000.0 -420839000000.0 -246013000000.0 -669910000000.0 -249340000000.0 -260070000000.0 -158660000000.0 -206588000000.0 -68226700000.0 -167772000000.0 -236763000000.0 -337026000000.0 -188612000000.0 -274078000000.0 -168400000000.0 -139290000000.0 -133148000000.0 -450151000000.0 -545938000000.0 -385443000000.0 -317541000000.0 -424719000000.0 -164086000000.0 -279080000000.0 -183689000000.0 -231288000000.0 -463780000000.0 -226600000000.0 -616359000000.0 -446314000000.0 -307871000000.0 -165635000000.0 -657973000000.0 -440120000000.0 -308111000000.0 -358988000000.0 -167801000000.0 -359439000000.0 -88664700000.0 -119628000000.0 -171812000000.0 -384643000000.0 -376036000000.0 -349004000000.0 -209677000000.0 -182351000000.0 -251127000000.0 -369497000000.0 -327560000000.0 -351486000000.0 -198647000000.0 -210486000000.0 -225777000000.0 -527872000000.0 -708006000000.0 -295018000000.0 -421830000000.0 -618538000000.0 -304852000000.0 -165715000000.0 -657757000000.0 -239349000000.0 -257179000000.0 -174506000000.0 