# vtk DataFile Version 2.0
Time step 11
ASCII
DATASET UNSTRUCTURED_GRID
POINTS 5000 float
27689.0 210642.0 0
372012.0 210745.0 0
2397.65 213699.0 0
8451.22 213086.0 0
12438.2 212905.0 0
16756.3 212286.0 0
22243.6 213830.0 0
33155.9 213316.0 0
38141.7 213886.0 0
42661.6 213989.0 0
47490.1 213941.0 0
52137.1 213995.0 0
57012.4 212855.0 0
62763.5 213911.0 0
67994.7 214044.0 0
72697.1 213201.0 0
77500.0 213924.0 0
82500.0 213913.0 0
87411.4 213228.0 0
92500.0 213951.0 0
97209.7 213972.0 0
101309.0 213887.0 0
105968.0 213323.0 0
111925.0 213788.0 0
117839.0 213943.0 0
123319.0 214020.0 0
128333.0 214139.0 0
133416.0 213391.0 0
138113.0 214072.0 0
142500.0 213994.0 0
147500.0 213928.0 0
152501.0 213898.0 0
157583.0 213543.0 0
162550.0 213701.0 0
167020.0 213278.0 0
171834.0 212138.0 0
177741.0 212173.0 0
182946.0 211366.0 0
187407.0 213209.0 0
192500.0 214346.0 0
196101.0 213531.0 0
201756.0 212880.0 0
207654.0 213633.0 0
212994.0 213012.0 0
218132.0 214054.0 0
222483.0 214066.0 0
225816.0 213376.0 0
230430.0 213218.0 0
235811.0 214181.0 0
241170.0 212886.0 0
246499.0 214896.0 0
252669.0 212857.0 0
259035.0 213365.0 0
263765.0 214417.0 0
268745.0 213373.0 0
273940.0 213657.0 0
278878.0 212277.0 0
282031.0 215605.0 0
286328.0 213915.0 0
291719.0 214382.0 0
297321.0 212251.0 0
303652.0 213087.0 0
307747.0 215636.0 0
312123.0 213451.0 0
317924.0 214085.0 0
323241.0 214006.0 0
327579.0 214239.0 0
332204.0 213840.0 0
337221.0 213552.0 0
341017.0 214763.0 0
345902.0 213123.0 0
350712.0 214996.0 0
355304.0 214076.0 0
361840.0 212670.0 0
367963.0 214069.0 0
377026.0 212727.0 0
382609.0 213565.0 0
388124.0 212824.0 0
394011.0 212154.0 0
399171.0 213879.0 0
403627.0 211147.0 0
408569.0 212337.0 0
412485.0 213967.0 0
417500.0 213957.0 0
422710.0 212174.0 0
427275.0 213787.0 0
432498.0 211637.0 0
437537.0 213934.0 0
442125.0 212918.0 0
446284.0 212460.0 0
450692.0 213258.0 0
455235.0 213259.0 0
460252.0 213161.0 0
465807.0 213445.0 0
471641.0 212711.0 0
477077.0 211525.0 0
481345.0 214347.0 0
485850.0 211389.0 0
491674.0 212949.0 0
497601.0 211439.0 0
2276.89 218801.0 0
6026.09 216439.0 0
11059.6 217414.0 0
17293.2 218190.0 0
22970.1 219410.0 0
28485.4 216999.0 0
34938.1 218584.0 0
40309.1 218925.0 0
44433.5 219241.0 0
48230.5 217948.0 0
52500.0 218955.0 0
57975.0 218301.0 0
62833.5 219009.0 0
67505.2 218682.0 0
72145.8 218324.0 0
77500.0 219082.0 0
82116.1 218728.0 0
87898.4 217987.0 0
92500.0 219091.0 0
97192.7 218777.0 0
102467.0 218624.0 0
108254.0 217919.0 0
112500.0 219027.0 0
117500.0 219108.0 0
122500.0 219031.0 0
127724.0 218584.0 0
132491.0 218925.0 0
137520.0 218940.0 0
142771.0 218421.0 0
146967.0 218771.0 0
151978.0 218648.0 0
156906.0 217601.0 0
161339.0 218429.0 0
166553.0 217952.0 0
172941.0 217714.0 0
178344.0 217589.0 0
183501.0 216438.0 0
188572.0 217666.0 0
193544.0 218498.0 0
198228.0 217897.0 0
203924.0 218502.0 0
213694.0 217562.0 0
209358.0 218737.0 0
217623.0 219117.0 0
222057.0 218945.0 0
226831.0 217608.0 0
232236.0 218608.0 0
237719.0 219420.0 0
243317.0 219313.0 0
248433.0 218980.0 0
252651.0 219436.0 0
257238.0 218000.0 0
262325.0 218596.0 0
267132.0 218237.0 0
271663.0 217573.0 0
276991.0 217976.0 0
282823.0 219293.0 0
287500.0 219005.0 0
292866.0 218885.0 0
298224.0 217766.0 0
303084.0 218754.0 0
307469.0 218930.0 0
312501.0 219199.0 0
317499.0 218963.0 0
322457.0 218478.0 0
327500.0 218985.0 0
332500.0 219058.0 0
337695.0 218426.0 0
343290.0 217799.0 0
347719.0 218262.0 0
352661.0 218902.0 0
361480.0 217983.0 0
357802.0 218493.0 0
365157.0 217764.0 0
372950.0 217535.0 0
378843.0 217264.0 0
382030.0 218394.0 0
388347.0 217912.0 0
393526.0 218281.0 0
398109.0 218703.0 0
402960.0 217342.0 0
408345.0 216616.0 0
412825.0 217913.0 0
417488.0 218455.0 0
422141.0 216814.0 0
428202.0 218755.0 0
433366.0 216884.0 0
437500.0 218999.0 0
443191.0 217215.0 0
447569.0 216469.0 0
451913.0 217751.0 0
457140.0 218011.0 0
462424.0 219373.0 0
466609.0 218014.0 0
470206.0 219173.0 0
475199.0 217998.0 0
480818.0 219620.0 0
486615.0 217626.0 0
492098.0 219873.0 0
496839.0 216948.0 0
2238.62 224595.0 0
6755.57 221473.0 0
11850.0 223306.0 0
16324.1 223399.0 0
20501.6 223391.0 0
26997.9 223826.0 0
32592.4 223671.0 0
38209.3 223426.0 0
42919.5 223740.0 0
47551.1 222670.0 0
51776.4 224398.0 0
56528.3 223919.0 0
62088.0 223936.0 0
67665.6 223527.0 0
73669.3 223881.0 0
78219.9 224278.0 0
81963.6 223454.0 0
86969.1 223506.0 0
92531.5 223842.0 0
97546.5 223297.0 0
102630.0 224386.0 0
107928.0 222696.0 0
112500.0 223945.0 0
116742.0 223728.0 0
120857.0 223562.0 0
125878.0 222959.0 0
131172.0 224655.0 0
136459.0 224586.0 0
141016.0 222553.0 0
146331.0 223660.0 0
151855.0 225271.0 0
156269.0 222159.0 0
161723.0 224120.0 0
166538.0 225960.0 0
170020.0 222532.0 0
176318.0 223365.0 0
182205.0 221589.0 0
188071.0 223831.0 0
194281.0 223517.0 0
199993.0 222986.0 0
208103.0 223612.0 0
204285.0 224004.0 0
213294.0 222371.0 0
217709.0 224059.0 0
222576.0 223220.0 0
226886.0 222610.0 0
232465.0 224073.0 0
237466.0 223846.0 0
241816.0 224493.0 0
246884.0 223075.0 0
251832.0 224340.0 0
257694.0 222753.0 0
262679.0 223377.0 0
267442.0 222700.0 0
272998.0 222839.0 0
279898.0 221965.0 0
283585.0 224232.0 0
287246.0 224311.0 0
291060.0 223230.0 0
296774.0 222828.0 0
302266.0 223998.0 0
307728.0 223360.0 0
313228.0 224506.0 0
318216.0 223539.0 0
322519.0 222483.0 0
326822.0 224362.0 0
336506.0 223093.0 0
331867.0 224146.0 0
341401.0 222006.0 0
346823.0 222651.0 0
351886.0 223750.0 0
356032.0 222346.0 0
361253.0 222682.0 0
366520.0 221854.0 0
371124.0 223678.0 0
377687.0 223192.0 0
384380.0 221732.0 0
392420.0 223109.0 0
388361.0 224923.0 0
397212.0 223057.0 0
402846.0 223577.0 0
409219.0 222257.0 0
414365.0 224844.0 0
419054.0 223164.0 0
424065.0 221655.0 0
427662.0 224639.0 0
432220.0 222512.0 0
437296.0 223345.0 0
442289.0 222442.0 0
448198.0 221543.0 0
454078.0 223180.0 0
458909.0 224146.0 0
463030.0 223932.0 0
467500.0 224110.0 0
472367.0 222504.0 0
477784.0 223508.0 0
482617.0 224321.0 0
487506.0 225383.0 0
491519.0 223932.0 0
496600.0 223553.0 0
2182.12 229009.0 0
8044.43 227314.0 0
13446.8 227924.0 0
17730.7 227244.0 0
22393.6 227771.0 0
26935.2 229764.0 0
32015.5 227954.0 0
37529.7 228624.0 0
43171.0 228802.0 0
49066.4 227447.0 0
53807.2 229077.0 0
59204.5 228592.0 0
63600.9 228263.0 0
68061.4 229196.0 0
72602.5 228761.0 0
77064.9 228223.0 0
82132.5 228474.0 0
87328.7 228679.0 0
92266.5 229160.0 0
97735.6 228647.0 0
102762.0 229928.0 0
107697.0 228192.0 0
113088.0 228279.0 0
118126.0 228211.0 0
123405.0 227550.0 0
127500.0 229106.0 0
132679.0 229491.0 0
137729.0 228507.0 0
142521.0 228676.0 0
147992.0 228280.0 0
156813.0 227608.0 0
153377.0 229945.0 0
160409.0 228927.0 0
164427.0 229656.0 0
170841.0 228560.0 0
177034.0 229933.0 0
182231.0 227066.0 0
186629.0 229459.0 0
191647.0 228966.0 0
197213.0 228262.0 0
203039.0 228144.0 0
208740.0 229952.0 0
214362.0 228038.0 0
218744.0 229239.0 0
222116.0 227486.0 0
227597.0 228148.0 0
234236.0 228501.0 0
237761.0 227187.0 0
241859.0 229089.0 0
246334.0 228267.0 0
251546.0 229606.0 0
255899.0 227494.0 0
260362.0 227152.0 0
262650.0 230734.0 0
266392.0 227400.0 0
271783.0 229118.0 0
278358.0 227461.0 0
284355.0 228976.0 0
288764.0 227488.0 0
292987.0 229204.0 0
298945.0 229139.0 0
303983.0 229325.0 0
307500.0 229149.0 0
312168.0 228967.0 0
316212.0 228267.0 0
321038.0 227821.0 0
325844.0 229306.0 0
329900.0 227969.0 0
334384.0 229914.0 0
339793.0 227404.0 0
346084.0 228906.0 0
352839.0 229324.0 0
357365.0 226298.0 0
361696.0 228670.0 0
366610.0 226543.0 0
371938.0 229297.0 0
377884.0 230618.0 0
382816.0 227239.0 0
387351.0 229097.0 0
393026.0 229690.0 0
399496.0 228732.0 0
408061.0 227632.0 0
404300.0 228696.0 0
412340.0 229321.0 0
416930.0 228625.0 0
421344.0 229858.0 0
425635.0 228265.0 0
431038.0 228702.0 0
437178.0 227542.0 0
441887.0 228038.0 0
446596.0 226588.0 0
450901.0 227221.0 0
455521.0 228901.0 0
461316.0 228687.0 0
467086.0 228460.0 0
472683.0 227454.0 0
478913.0 229001.0 0
484771.0 229463.0 0
489144.0 230188.0 0
492134.0 227795.0 0
496763.0 230192.0 0
1507.99 233755.0 0
7117.44 233609.0 0
11874.0 231661.0 0
12617.9 236168.0 0
17111.3 232411.0 0
23001.9 233152.0 0
30177.1 232494.0 0
34830.1 233274.0 0
39725.7 232667.0 0
43593.9 234594.0 0
48447.5 232654.0 0
53055.2 234993.0 0
57177.5 232974.0 0
63051.4 233037.0 0
68313.3 234370.0 0
73325.6 232830.0 0
78227.2 233392.0 0
83518.4 233425.0 0
88324.7 233509.0 0
92500.0 234014.0 0
97271.4 234063.0 0
101230.0 234067.0 0
105624.0 233715.0 0
111319.0 232877.0 0
116653.0 233476.0 0
122106.0 232746.0 0
126922.0 233303.0 0
131226.0 233878.0 0
136581.0 233061.0 0
142211.0 234369.0 0
147009.0 232558.0 0
151786.0 234519.0 0
157919.0 233479.0 0
167062.0 232513.0 0
163683.0 234144.0 0
170999.0 234562.0 0
176730.0 236218.0 0
182910.0 233938.0 0
193668.0 233061.0 0
189178.0 233870.0 0
198233.0 234147.0 0
203162.0 233244.0 0
207335.0 235324.0 0
212124.0 234185.0 0
216346.0 232644.0 0
221205.0 232883.0 0
226323.0 234742.0 0
231999.0 233055.0 0
237939.0 231919.0 0
242863.0 233698.0 0
248059.0 233374.0 0
252914.0 233638.0 0
257745.0 232675.0 0
262876.0 236309.0 0
267633.0 233310.0 0
272717.0 234997.0 0
278482.0 234118.0 0
283574.0 233562.0 0
288839.0 232807.0 0
293491.0 233794.0 0
297507.0 235179.0 0
302639.0 233631.0 0
307178.0 233989.0 0
312003.0 233700.0 0
317050.0 232680.0 0
322376.0 233385.0 0
331038.0 233500.0 0
327238.0 234167.0 0
341445.0 232867.0 0
337073.0 233861.0 0
346826.0 234793.0 0
351743.0 235008.0 0
357888.0 232829.0 0
367137.0 231448.0 0
362971.0 233644.0 0
370253.0 234836.0 0
374619.0 234887.0 0
383270.0 233252.0 0
388171.0 233272.0 0
392203.0 235959.0 0
397952.0 234693.0 0
403075.0 232687.0 0
408171.0 232504.0 0
414612.0 232943.0 0
417892.0 234098.0 0
422465.0 234719.0 0
427465.0 232744.0 0
431159.0 234130.0 0
436037.0 232489.0 0
441907.0 233696.0 0
448240.0 232148.0 0
453969.0 234010.0 0
459376.0 234233.0 0
464899.0 233483.0 0
469543.0 234413.0 0
473766.0 232709.0 0
477632.0 235660.0 0
482015.0 233969.0 0
486795.0 233815.0 0
492191.0 234375.0 0
497465.0 235923.0 0
2741.69 237803.0 0
7839.1 240065.0 0
18063.4 238168.0 0
23709.3 238899.0 0
28610.4 236539.0 0
33560.7 238823.0 0
39049.8 237496.0 0
43629.5 238799.0 0
48571.7 238623.0 0
54079.4 239695.0 0
59649.8 238001.0 0
64806.4 239072.0 0
68241.7 238694.0 0
72173.6 236717.0 0
76349.4 238328.0 0
81991.2 238877.0 0
87933.7 238587.0 0
92679.7 239003.0 0
101528.0 238725.0 0
96945.0 238633.0 0
106469.0 239047.0 0
111066.0 237725.0 0
115404.0 238192.0 0
120886.0 238764.0 0
127456.0 238563.0 0
133310.0 238329.0 0
138731.0 238815.0 0
143745.0 238973.0 0
148390.0 238613.0 0
152800.0 239067.0 0
157000.0 239180.0 0
161410.0 237958.0 0
166777.0 237856.0 0
172259.0 240331.0 0
177034.0 240545.0 0
181318.0 240598.0 0
186834.0 238854.0 0
192365.0 238389.0 0
197806.0 239852.0 0
202590.0 237783.0 0
206592.0 239926.0 0
210634.0 238741.0 0
216365.0 238508.0 0
222665.0 238601.0 0
228325.0 240282.0 0
233994.0 241423.0 0
236095.0 236923.0 0
241004.0 239355.0 0
246477.0 239885.0 0
250971.0 237810.0 0
256818.0 238882.0 0
268286.0 238728.0 0
272901.0 239884.0 0
277861.0 240117.0 0
282092.0 237494.0 0
287109.0 238888.0 0
293035.0 238193.0 0
297886.0 240470.0 0
301889.0 237555.0 0
306199.0 239446.0 0
311453.0 239392.0 0
316914.0 237802.0 0
322377.0 239298.0 0
328030.0 238789.0 0
333921.0 237774.0 0
337684.0 241045.0 0
342341.0 238817.0 0
348111.0 239538.0 0
355696.0 237168.0 0
352421.0 239289.0 0
360596.0 238424.0 0
366585.0 238501.0 0
372583.0 239806.0 0
378608.0 238242.0 0
383505.0 237386.0 0
387323.0 237761.0 0
390888.0 240627.0 0
396056.0 240497.0 0
400389.0 238907.0 0
405302.0 237933.0 0
411954.0 237096.0 0
417753.0 238950.0 0
422930.0 239652.0 0
427224.0 236994.0 0
432186.0 238692.0 0
437041.0 237801.0 0
441827.0 239291.0 0
447091.0 238320.0 0
452638.0 239209.0 0
458099.0 239604.0 0
462539.0 239138.0 0
466521.0 238147.0 0
471789.0 238936.0 0
476957.0 240383.0 0
482282.0 239320.0 0
487752.0 238661.0 0
492508.0 240112.0 0
497469.0 241000.0 0
3037.75 243595.0 0
8727.38 245976.0 0
13590.4 242000.0 0
18345.8 245738.0 0
23839.0 244595.0 0
28728.3 241878.0 0
33664.2 244510.0 0
38466.6 242678.0 0
43180.1 243050.0 0
49622.7 243500.0 0
53659.5 244447.0 0
58552.9 243877.0 0
63399.6 243036.0 0
66993.9 243468.0 0
71720.2 242053.0 0
77998.6 243586.0 0
83427.0 244902.0 0
88060.4 243617.0 0
93041.3 243627.0 0
97969.2 243115.0 0
102093.0 244644.0 0
105829.0 243478.0 0
110808.0 243049.0 0
116683.0 242963.0 0
126523.0 243693.0 0
122699.0 244319.0 0
131299.0 243064.0 0
135316.0 244886.0 0
139827.0 244352.0 0
145169.0 243546.0 0
150902.0 243634.0 0
156922.0 244538.0 0
162062.0 242610.0 0
167198.0 242951.0 0
171470.0 245639.0 0
176198.0 244281.0 0
180985.0 246202.0 0
185794.0 244145.0 0
191575.0 244273.0 0
197324.0 245384.0 0
202618.0 243208.0 0
207586.0 243942.0 0
212119.0 243128.0 0
217203.0 244891.0 0
223335.0 244568.0 0
228962.0 246268.0 0
233391.0 245884.0 0
238438.0 245075.0 0
243825.0 244454.0 0
248896.0 244068.0 0
252299.0 242143.0 0
255537.0 244967.0 0
262551.0 243515.0 0
268733.0 243697.0 0
273483.0 244420.0 0
278389.0 245505.0 0
282797.0 242885.0 0
287958.0 244908.0 0
293191.0 243526.0 0
297719.0 245711.0 0
302620.0 243364.0 0
308398.0 244334.0 0
313173.0 243979.0 0
317444.0 243488.0 0
325990.0 243102.0 0
322172.0 244859.0 0
330168.0 243877.0 0
335225.0 244442.0 0
340488.0 244828.0 0
346072.0 245697.0 0
351182.0 243731.0 0
356113.0 241765.0 0
360912.0 244291.0 0
366524.0 244240.0 0
371215.0 244743.0 0
377294.0 245422.0 0
383574.0 241832.0 0
387810.0 245081.0 0
392736.0 245026.0 0
398320.0 246031.0 0
403801.0 243949.0 0
409411.0 242654.0 0
414366.0 243050.0 0
417660.0 243083.0 0
420844.0 243414.0 0
427660.0 243433.0 0
433331.0 243033.0 0
437915.0 242758.0 0
442696.0 244161.0 0
448482.0 244200.0 0
453952.0 244081.0 0
458479.0 244571.0 0
462917.0 244234.0 0
467731.0 243134.0 0
472925.0 244613.0 0
479879.0 244363.0 0
484205.0 244192.0 0
488451.0 243823.0 0
492556.0 244270.0 0
497778.0 245751.0 0
2142.5 249425.0 0
13686.9 249532.0 0
18588.0 250669.0 0
22319.0 249073.0 0
27472.0 249377.0 0
32323.1 248771.0 0
37268.6 249258.0 0
42420.1 250608.0 0
46365.3 247336.0 0
51384.1 249729.0 0
57363.8 249998.0 0
63593.9 248205.0 0
68625.7 246776.0 0
73505.7 249814.0 0
79769.5 249085.0 0
85074.6 249806.0 0
90101.3 248125.0 0
94980.1 250038.0 0
98503.3 247296.0 0
101245.0 250606.0 0
105589.0 247976.0 0
111291.0 249395.0 0
118282.0 248518.0 0
123883.0 248840.0 0
128424.0 247102.0 0
133295.0 249190.0 0
137809.0 248261.0 0
141888.0 249184.0 0
147404.0 248863.0 0
152975.0 248867.0 0
157263.0 250388.0 0
161825.0 248171.0 0
167177.0 247918.0 0
170784.0 249656.0 0
176920.0 249269.0 0
182369.0 251008.0 0
186923.0 249161.0 0
191567.0 249575.0 0
196385.0 250836.0 0
201718.0 248743.0 0
207248.0 248918.0 0
213087.0 248733.0 0
219825.0 250017.0 0
224933.0 249876.0 0
228672.0 250364.0 0
232622.0 249634.0 0
237012.0 250324.0 0
242048.0 248634.0 0
246508.0 248455.0 0
251464.0 247968.0 0
257756.0 250233.0 0
262727.0 249580.0 0
268232.0 249312.0 0
274043.0 249371.0 0
279353.0 251021.0 0
284602.0 249015.0 0
289634.0 249862.0 0
293279.0 248072.0 0
296682.0 250665.0 0
302376.0 249228.0 0
307427.0 249651.0 0
311994.0 248129.0 0
316731.0 248077.0 0
321278.0 249972.0 0
326387.0 248479.0 0
331696.0 248905.0 0
337288.0 250009.0 0
342892.0 250188.0 0
346838.0 250279.0 0
351271.0 248905.0 0
356443.0 247241.0 0
361794.0 250387.0 0
367081.0 249104.0 0
371757.0 249218.0 0
382282.0 249316.0 0
386949.0 249804.0 0
391493.0 249540.0 0
395551.0 250361.0 0
400504.0 251128.0 0
405839.0 249811.0 0
411568.0 248149.0 0
416980.0 246868.0 0
422653.0 248356.0 0
428227.0 249517.0 0
432948.0 247668.0 0
438656.0 248402.0 0
444623.0 249077.0 0
450427.0 250812.0 0
455563.0 248494.0 0
461244.0 249470.0 0
468742.0 248340.0 0
465765.0 250916.0 0
473164.0 250233.0 0
477801.0 248910.0 0
482444.0 249013.0 0
486626.0 248034.0 0
490684.0 248352.0 0
495031.0 249730.0 0
2224.25 253989.0 0
7198.33 252024.0 0
12418.0 255585.0 0
18023.0 255107.0 0
23250.3 253918.0 0
29016.1 255409.0 0
32578.8 252240.0 0
36010.9 255042.0 0
41053.4 254852.0 0
46972.2 253805.0 0
52807.1 254425.0 0
57577.7 256151.0 0
62164.9 253601.0 0
67928.9 253652.0 0
73625.9 256517.0 0
78111.8 253701.0 0
82833.4 254556.0 0
88766.9 254331.0 0
93952.5 254855.0 0
97840.2 253346.0 0
101258.0 254887.0 0
105730.0 253461.0 0
110256.0 254792.0 0
115531.0 254361.0 0
121638.0 253640.0 0
128154.0 253170.0 0
137499.0 252280.0 0
133699.0 254022.0 0
142030.0 254449.0 0
148123.0 255440.0 0
153556.0 253681.0 0
158007.0 254565.0 0
163124.0 254008.0 0
173374.0 252887.0 0
168458.0 253177.0 0
177758.0 253717.0 0
181594.0 255567.0 0
186453.0 254423.0 0
191567.0 254084.0 0
195894.0 256586.0 0
201133.0 254327.0 0
207154.0 254992.0 0
212122.0 253648.0 0
216843.0 254806.0 0
221607.0 255657.0 0
226059.0 254411.0 0
231008.0 253732.0 0
235866.0 254950.0 0
241279.0 253551.0 0
246723.0 253385.0 0
252419.0 253472.0 0
257588.0 255441.0 0
263782.0 255060.0 0
269672.0 254954.0 0
274643.0 254332.0 0
279888.0 256365.0 0
283938.0 253457.0 0
288519.0 254876.0 0
292582.0 253297.0 0
298613.0 255490.0 0
303542.0 254228.0 0
307678.0 254088.0 0
312167.0 253362.0 0
317427.0 252987.0 0
323371.0 254924.0 0
328024.0 253123.0 0
332742.0 254001.0 0
337376.0 255321.0 0
342060.0 254113.0 0
345631.0 254035.0 0
349637.0 253101.0 0
355443.0 253466.0 0
360763.0 255567.0 0
366617.0 253823.0 0
373549.0 254351.0 0
378442.0 252021.0 0
378336.0 256514.0 0
383175.0 254968.0 0
388103.0 254201.0 0
392605.0 253910.0 0
397130.0 254213.0 0
408128.0 254522.0 0
403422.0 255202.0 0
412570.0 253366.0 0
417254.0 251986.0 0
421048.0 254119.0 0
425359.0 253548.0 0
431967.0 253304.0 0
437660.0 254632.0 0
443634.0 254644.0 0
454431.0 253745.0 0
458721.0 254718.0 0
463845.0 254554.0 0
469182.0 253737.0 0
474244.0 254704.0 0
478968.0 253819.0 0
483626.0 255338.0 0
486745.0 252233.0 0
491545.0 254287.0 0
497412.0 254359.0 0
2120.88 258350.0 0
6945.57 257867.0 0
12520.1 260987.0 0
16012.7 258990.0 0
20033.1 259361.0 0
24877.6 259156.0 0
32178.3 259757.0 0
37635.5 260666.0 0
43285.8 259319.0 0
48658.1 259789.0 0
53538.2 258935.0 0
57400.2 261053.0 0
62541.7 258857.0 0
67214.6 258945.0 0
71129.7 261291.0 0
79023.6 259237.0 0
84395.6 259212.0 0
88464.2 259360.0 0
92508.1 258865.0 0
97475.6 257734.0 0
102470.0 259299.0 0
107207.0 258205.0 0
111855.0 258951.0 0
117996.0 259872.0 0
123263.0 258867.0 0
127779.0 258554.0 0
132833.0 259091.0 0
138538.0 258384.0 0
143156.0 259260.0 0
151865.0 259239.0 0
147974.0 261412.0 0
156553.0 259386.0 0
161571.0 258949.0 0
166888.0 258042.0 0
173225.0 259097.0 0
178583.0 259255.0 0
183599.0 260174.0 0
189460.0 259264.0 0
193908.0 260403.0 0
199735.0 259291.0 0
203866.0 259881.0 0
208327.0 260137.0 0
212735.0 258270.0 0
219035.0 259577.0 0
223348.0 259083.0 0
227639.0 259118.0 0
232480.0 258576.0 0
237934.0 259306.0 0
242467.0 259937.0 0
246868.0 258215.0 0
252056.0 259724.0 0
257462.0 259739.0 0
262281.0 261258.0 0
267733.0 259131.0 0
271802.0 258719.0 0
276139.0 259155.0 0
284224.0 257865.0 0
288491.0 260167.0 0
293494.0 257846.0 0
298723.0 260250.0 0
302527.0 259008.0 0
306761.0 258008.0 0
311796.0 259036.0 0
316939.0 257849.0 0
324962.0 258777.0 0
321418.0 259785.0 0
328794.0 257819.0 0
334274.0 259598.0 0
339705.0 259139.0 0
344320.0 258248.0 0
350281.0 258747.0 0
356864.0 260366.0 0
363382.0 260205.0 0
369504.0 258616.0 0
375001.0 259676.0 0
379798.0 260476.0 0
384058.0 260358.0 0
388210.0 258684.0 0
393261.0 258963.0 0
398009.0 258364.0 0
402059.0 259525.0 0
406629.0 259131.0 0
412742.0 259253.0 0
418472.0 257488.0 0
423615.0 258667.0 0
428763.0 257272.0 0
433851.0 259832.0 0
440159.0 260742.0 0
445457.0 259340.0 0
450663.0 257235.0 0
456076.0 258865.0 0
459990.0 259247.0 0
463141.0 258592.0 0
467395.0 259017.0 0
472478.0 259025.0 0
477798.0 259155.0 0
482692.0 259589.0 0
487520.0 258576.0 0
492490.0 259492.0 0
497812.0 259119.0 0
3066.01 263452.0 0
8504.56 262374.0 0
7504.07 266799.0 0
12189.6 265534.0 0
16348.9 263197.0 0
21224.7 264266.0 0
27373.1 264539.0 0
32662.6 263730.0 0
37593.2 266029.0 0
42127.4 264437.0 0
47922.6 265286.0 0
53255.7 263906.0 0
58932.5 264908.0 0
62531.5 263279.0 0
66960.1 263383.0 0
76253.4 264380.0 0
71477.3 265460.0 0
82259.5 262846.0 0
86348.2 263099.0 0
91217.9 263886.0 0
96586.4 262846.0 0
101339.0 263954.0 0
106461.0 263369.0 0
112412.0 264459.0 0
118095.0 265275.0 0
123254.0 264113.0 0
128410.0 263052.0 0
133272.0 264567.0 0
138735.0 264111.0 0
143919.0 263299.0 0
146856.0 265662.0 0
152592.0 263709.0 0
157851.0 263912.0 0
162817.0 263086.0 0
168090.0 263488.0 0
172564.0 264822.0 0
177262.0 264495.0 0
182438.0 265114.0 0
187106.0 264157.0 0
192280.0 264428.0 0
197943.0 264014.0 0
202917.0 263867.0 0
207325.0 264846.0 0
212077.0 263222.0 0
217224.0 264660.0 0
222470.0 263339.0 0
227461.0 264635.0 0
232508.0 263282.0 0
237160.0 263594.0 0
241430.0 264377.0 0
246166.0 263215.0 0
250430.0 264717.0 0
254610.0 264234.0 0
258888.0 264904.0 0
267413.0 264457.0 0
272486.0 262620.0 0
277146.0 264448.0 0
283080.0 263239.0 0
288075.0 264714.0 0
292605.0 263430.0 0
297214.0 264172.0 0
301930.0 264018.0 0
306793.0 262734.0 0
316085.0 262730.0 0
311394.0 264442.0 0
320433.0 264184.0 0
326165.0 263567.0 0
332594.0 265617.0 0
338288.0 264602.0 0
343379.0 263164.0 0
348126.0 264149.0 0
353226.0 264742.0 0
358636.0 265822.0 0
363237.0 265686.0 0
367676.0 264245.0 0
372413.0 263779.0 0
377419.0 265114.0 0
382218.0 263534.0 0
387151.0 263237.0 0
391620.0 263559.0 0
396228.0 263006.0 0
401295.0 264381.0 0
406449.0 263991.0 0
411795.0 265586.0 0
417750.0 263165.0 0
422210.0 266127.0 0
427987.0 263580.0 0
435908.0 265040.0 0
440095.0 265666.0 0
448641.0 261848.0 0
444877.0 264457.0 0
448931.0 264981.0 0
453235.0 263649.0 0
458503.0 262668.0 0
463200.0 262777.0 0
468249.0 264061.0 0
473560.0 264194.0 0
478524.0 264046.0 0
482058.0 264223.0 0
485583.0 263164.0 0
490424.0 263402.0 0
495417.0 263417.0 0
2828.04 269341.0 0
9565.63 270695.0 0
12390.4 269178.0 0
17025.6 268743.0 0
23436.9 269709.0 0
28360.5 269636.0 0
32775.0 267844.0 0
37919.5 271678.0 0
44133.3 269737.0 0
48919.1 271421.0 0
51635.9 268393.0 0
56184.2 268418.0 0
61445.9 268910.0 0
67302.4 268888.0 0
73045.0 269895.0 0
80918.9 267139.0 0
77943.7 270893.0 0
86778.4 268703.0 0
92926.4 269908.0 0
98424.1 268189.0 0
103704.0 268192.0 0
108560.0 268745.0 0
113697.0 269832.0 0
118748.0 270560.0 0
123616.0 269140.0 0
128476.0 268221.0 0
133126.0 269083.0 0
137629.0 269483.0 0
141682.0 271986.0 0
143126.0 267426.0 0
146707.0 269703.0 0
150636.0 267670.0 0
155606.0 267768.0 0
161149.0 267973.0 0
167141.0 269554.0 0
172927.0 269108.0 0
178067.0 270002.0 0
183502.0 269914.0 0
189254.0 268895.0 0
194190.0 268954.0 0
203763.0 268043.0 0
199071.0 269630.0 0
208247.0 269895.0 0
213095.0 268450.0 0
217805.0 269966.0 0
222500.0 269066.0 0
227501.0 269212.0 0
231771.0 267488.0 0
231682.0 271678.0 0
235766.0 267761.0 0
241051.0 268760.0 0
246263.0 269058.0 0
252703.0 269486.0 0
257739.0 268591.0 0
257368.0 271929.0 0
262648.0 267870.0 0
268547.0 269184.0 0
272399.0 267271.0 0
276571.0 269484.0 0
282719.0 269035.0 0
287737.0 269110.0 0
293294.0 268889.0 0
297969.0 268019.0 0
302078.0 270124.0 0
306689.0 267604.0 0
311441.0 269662.0 0
317228.0 268494.0 0
322941.0 268761.0 0
326784.0 268569.0 0
331441.0 270019.0 0
335550.0 270561.0 0
340693.0 269346.0 0
345156.0 267598.0 0
349872.0 268762.0 0
355450.0 270867.0 0
361540.0 270380.0 0
367135.0 269552.0 0
372543.0 268689.0 0
377562.0 270844.0 0
382822.0 268228.0 0
388958.0 268151.0 0
397153.0 268000.0 0
393340.0 270318.0 0
402249.0 270000.0 0
407429.0 268694.0 0
411906.0 270883.0 0
416920.0 268850.0 0
421501.0 270691.0 0
426031.0 269665.0 0
432123.0 268864.0 0
437907.0 269945.0 0
443256.0 269493.0 0
447869.0 268576.0 0
452706.0 269520.0 0
457774.0 267527.0 0
463139.0 267942.0 0
468235.0 269163.0 0
473114.0 269272.0 0
478133.0 268877.0 0
482767.0 269201.0 0
487734.0 268153.0 0
493279.0 268172.0 0
497804.0 267735.0 0
2481.55 274675.0 0
7204.55 274146.0 0
12020.8 274471.0 0
17470.7 275014.0 0
23257.4 275750.0 0
28662.9 274137.0 0
32558.5 272439.0 0
39354.2 276652.0 0
43230.2 275161.0 0
47663.1 275231.0 0
52810.3 274135.0 0
58116.6 273214.0 0
64061.3 274536.0 0
69169.2 275358.0 0
71465.9 273517.0 0
75205.0 275356.0 0
81060.8 274974.0 0
87053.4 275348.0 0
92008.0 274475.0 0
96733.1 274000.0 0
101908.0 272527.0 0
107428.0 274825.0 0
113356.0 274822.0 0
118410.0 275816.0 0
123397.0 274199.0 0
128600.0 273383.0 0
133567.0 273614.0 0
137973.0 275181.0 0
145529.0 274542.0 0
150789.0 273377.0 0
156866.0 272979.0 0
162709.0 274034.0 0
170943.0 273953.0 0
175289.0 275668.0 0
179537.0 274714.0 0
183070.0 273869.0 0
187137.0 273924.0 0
192511.0 273523.0 0
197859.0 275274.0 0
202856.0 273123.0 0
206844.0 275279.0 0
211026.0 273934.0 0
215678.0 274324.0 0
221112.0 274414.0 0
227058.0 274532.0 0
237699.0 273566.0 0
243952.0 274321.0 0
249001.0 274024.0 0
254265.0 275584.0 0
260306.0 273968.0 0
265504.0 273034.0 0
272382.0 273576.0 0
279477.0 274199.0 0
285523.0 273269.0 0
290187.0 272966.0 0
293481.0 276303.0 0
297255.0 273256.0 0
302193.0 275267.0 0
306756.0 273029.0 0
312357.0 275721.0 0
318349.0 274322.0 0
323503.0 273704.0 0
328165.0 272094.0 0
332409.0 274601.0 0
337174.0 275075.0 0
341081.0 273909.0 0
345843.0 272783.0 0
351157.0 274941.0 0
359204.0 275140.0 0
364367.0 274857.0 0
368952.0 274204.0 0
373336.0 273549.0 0
377214.0 275926.0 0
381318.0 274091.0 0
386932.0 274291.0 0
393310.0 275168.0 0
398478.0 273609.0 0
402828.0 274929.0 0
407695.0 274047.0 0
415770.0 274695.0 0
421080.0 275927.0 0
424564.0 273708.0 0
428932.0 274197.0 0
434084.0 273893.0 0
438686.0 275129.0 0
442741.0 273818.0 0
447670.0 273834.0 0
452983.0 274538.0 0
458262.0 273340.0 0
463548.0 272759.0 0
468154.0 274485.0 0
473563.0 273690.0 0
478124.0 274030.0 0
482785.0 273398.0 0
487469.0 273722.0 0
492469.0 273112.0 0
497559.0 272373.0 0
2473.97 279663.0 0
7679.59 279149.0 0
12006.0 278657.0 0
15772.8 280090.0 0
20838.9 280790.0 0
26801.9 279971.0 0
34011.7 277719.0 0
39974.3 280898.0 0
44628.9 279635.0 0
48676.9 278948.0 0
52972.9 279304.0 0
59376.7 278316.0 0
63867.7 279672.0 0
67564.9 278828.0 0
71650.3 278844.0 0
78435.6 278788.0 0
82539.6 279947.0 0
87200.4 280934.0 0
92057.3 279114.0 0
97056.2 279109.0 0
102186.0 278398.0 0
106970.0 280729.0 0
111085.0 279156.0 0
115795.0 280444.0 0
121071.0 280441.0 0
126565.0 278903.0 0
132441.0 278590.0 0
137133.0 279664.0 0
142272.0 278760.0 0
147713.0 278327.0 0
152591.0 279062.0 0
157478.0 278069.0 0
162009.0 279592.0 0
167209.0 278081.0 0
172467.0 279127.0 0
178146.0 279983.0 0
183429.0 277790.0 0
186094.0 282180.0 0
190271.0 278541.0 0
195264.0 279949.0 0
203262.0 278498.0 0
199631.0 280569.0 0
207908.0 279364.0 0
212397.0 278559.0 0
217622.0 279055.0 0
223400.0 279163.0 0
227784.0 279499.0 0
232839.0 278858.0 0
238329.0 279544.0 0
242442.0 278571.0 0
246767.0 278383.0 0
251555.0 280033.0 0
257649.0 279948.0 0
262649.0 278210.0 0
268089.0 278293.0 0
273445.0 280230.0 0
279516.0 280378.0 0
283913.0 277479.0 0
288982.0 278042.0 0
293729.0 280518.0 0
298722.0 279069.0 0
302723.0 278952.0 0
302470.0 282102.0 0
307510.0 278651.0 0
312907.0 281524.0 0
316380.0 279095.0 0
321280.0 279341.0 0
327586.0 277890.0 0
333529.0 279600.0 0
340786.0 278033.0 0
337866.0 280924.0 0
346475.0 279348.0 0
352475.0 279831.0 0
358074.0 280741.0 0
362712.0 278726.0 0
367630.0 279432.0 0
373255.0 278645.0 0
377773.0 280652.0 0
383146.0 279549.0 0
388896.0 280139.0 0
397615.0 278034.0 0
393918.0 280435.0 0
402028.0 279560.0 0
407583.0 279851.0 0
417803.0 278772.0 0
413382.0 279951.0 0
420795.0 280079.0 0
426120.0 279597.0 0
432088.0 278627.0 0
436745.0 278993.0 0
442666.0 278820.0 0
448711.0 280875.0 0
453360.0 278696.0 0
458442.0 279886.0 0
463531.0 277291.0 0
467789.0 279801.0 0
471773.0 277386.0 0
476365.0 279036.0 0
481008.0 277355.0 0
485552.0 278344.0 0
490629.0 279218.0 0
495973.0 277631.0 0
3171.62 284790.0 0
8224.07 284252.0 0
12729.4 283897.0 0
17373.4 284860.0 0
21974.3 285377.0 0
26174.9 284743.0 0
30865.3 283311.0 0
35834.0 283466.0 0
39899.7 286589.0 0
43573.7 283623.0 0
47695.8 282983.0 0
51743.0 283379.0 0
56771.7 283542.0 0
62518.3 283666.0 0
67143.4 284069.0 0
72493.0 284028.0 0
77970.2 282860.0 0
82627.3 284371.0 0
86387.6 285005.0 0
90202.4 284263.0 0
95264.8 284124.0 0
101167.0 284061.0 0
106608.0 285742.0 0
111838.0 283998.0 0
118281.0 285125.0 0
123228.0 284877.0 0
127594.0 284027.0 0
132184.0 283920.0 0
137206.0 284260.0 0
141669.0 285581.0 0
146353.0 283294.0 0
151472.0 285715.0 0
156109.0 283010.0 0
161846.0 285889.0 0
169298.0 284449.0 0
175991.0 285772.0 0
181630.0 284857.0 0
190900.0 283830.0 0
195662.0 284618.0 0
200403.0 285902.0 0
204809.0 283039.0 0
208506.0 284947.0 0
211894.0 283203.0 0
216761.0 284425.0 0
221947.0 283658.0 0
226952.0 284022.0 0
232121.0 283121.0 0
236253.0 284328.0 0
241679.0 283072.0 0
246998.0 283489.0 0
251658.0 284282.0 0
256339.0 285100.0 0
261592.0 283545.0 0
266407.0 282770.0 0
270567.0 285134.0 0
276603.0 285098.0 0
284953.0 282568.0 0
290064.0 282900.0 0
293691.0 285109.0 0
297303.0 283510.0 0
304662.0 286686.0 0
307406.0 282582.0 0
310321.0 284898.0 0
313994.0 286640.0 0
316938.0 283502.0 0
326215.0 283271.0 0
321578.0 285311.0 0
331752.0 284564.0 0
336606.0 284857.0 0
341712.0 283905.0 0
346554.0 285107.0 0
350394.0 283765.0 0
354475.0 284835.0 0
363451.0 284034.0 0
368553.0 284654.0 0
372683.0 283334.0 0
377014.0 285795.0 0
381342.0 284060.0 0
385833.0 284630.0 0
391598.0 285167.0 0
397839.0 284039.0 0
403458.0 284530.0 0
408199.0 284969.0 0
412649.0 285009.0 0
417342.0 283622.0 0
422298.0 283842.0 0
427053.0 286256.0 0
433111.0 284572.0 0
438859.0 283067.0 0
443910.0 284383.0 0
448493.0 286720.0 0
453581.0 283623.0 0
457764.0 285661.0 0
462923.0 284377.0 0
467987.0 284573.0 0
472170.0 282535.0 0
476436.0 284039.0 0
481497.0 282637.0 0
487302.0 283246.0 0
492196.0 285646.0 0
497278.0 283258.0 0
2743.06 290217.0 0
8053.9 289275.0 0
14945.0 289124.0 0
11769.2 291766.0 0
19972.4 289678.0 0
25391.4 289602.0 0
32702.5 290056.0 0
42462.7 291531.0 0
47185.2 288260.0 0
52656.7 287562.0 0
57765.7 289765.0 0
63757.6 289005.0 0
69577.4 289382.0 0
74691.1 289870.0 0
78859.3 287598.0 0
82763.7 289228.0 0
87405.5 289459.0 0
93061.5 289520.0 0
98808.4 289388.0 0
103868.0 289874.0 0
107193.0 289761.0 0
111603.0 289854.0 0
120291.0 289875.0 0
124088.0 289237.0 0
128417.0 288644.0 0
132882.0 288247.0 0
136876.0 288952.0 0
141100.0 289769.0 0
146500.0 289251.0 0
151888.0 291095.0 0
156631.0 289332.0 0
160805.0 291453.0 0
166685.0 290696.0 0
172237.0 289438.0 0
179228.0 289398.0 0
184106.0 290102.0 0
189243.0 288345.0 0
193611.0 289151.0 0
197463.0 289050.0 0
202932.0 289681.0 0
206566.0 287479.0 0
207384.0 292327.0 0
212428.0 288894.0 0
217048.0 288940.0 0
221204.0 288488.0 0
225975.0 289075.0 0
231197.0 287466.0 0
235839.0 289247.0 0
240680.0 288292.0 0
248507.0 288297.0 0
252776.0 287967.0 0
256215.0 290092.0 0
260139.0 288164.0 0
265463.0 288003.0 0
270067.0 291991.0 0
272857.0 288596.0 0
275610.0 289056.0 0
277951.0 292086.0 0
281977.0 288061.0 0
288380.0 287709.0 0
293536.0 289784.0 0
298783.0 287913.0 0
309303.0 288550.0 0
312902.0 291355.0 0
317812.0 288455.0 0
323255.0 290536.0 0
327685.0 287819.0 0
332500.0 289130.0 0
336855.0 289463.0 0
342116.0 289475.0 0
351670.0 288396.0 0
347121.0 289479.0 0
354363.0 292086.0 0
357590.0 288478.0 0
363226.0 290376.0 0
368503.0 288914.0 0
373396.0 290133.0 0
382627.0 288008.0 0
379173.0 290170.0 0
387102.0 290237.0 0
392342.0 291348.0 0
395863.0 288737.0 0
400715.0 289212.0 0
405903.0 288889.0 0
411198.0 290173.0 0
416943.0 289420.0 0
422156.0 288729.0 0
426396.0 291811.0 0
431432.0 290292.0 0
438004.0 288480.0 0
443885.0 290239.0 0
453531.0 288851.0 0
449031.0 291073.0 0
458317.0 289842.0 0
462232.0 289379.0 0
467267.0 289587.0 0
472251.0 287672.0 0
478239.0 288758.0 0
483457.0 287722.0 0
482478.0 292172.0 0
487740.0 287905.0 0
492339.0 290635.0 0
496980.0 288840.0 0
2121.13 295039.0 0
6684.41 294213.0 0
10924.2 295429.0 0
16467.5 294315.0 0
22200.2 294476.0 0
26864.2 294177.0 0
37970.4 295557.0 0
43981.9 296037.0 0
47182.2 293391.0 0
52162.2 292944.0 0
57338.9 295852.0 0
62682.5 294377.0 0
67612.6 294715.0 0
72708.5 294401.0 0
77852.4 293864.0 0
83339.4 293941.0 0
88704.3 294423.0 0
93464.8 294377.0 0
97409.7 294021.0 0
102453.0 295086.0 0
107418.0 293008.0 0
111832.0 296208.0 0
116345.0 292589.0 0
120453.0 295676.0 0
125927.0 293599.0 0
131804.0 292981.0 0
137439.0 293826.0 0
143361.0 294671.0 0
148510.0 294214.0 0
152963.0 295600.0 0
157395.0 294317.0 0
163305.0 293897.0 0
168074.0 296107.0 0
170862.0 292876.0 0
175912.0 293416.0 0
181645.0 295303.0 0
189080.0 293589.0 0
194209.0 294001.0 0
199425.0 293392.0 0
203619.0 295234.0 0
210870.0 295969.0 0
216188.0 294418.0 0
221721.0 292772.0 0
221842.0 297431.0 0
226453.0 294376.0 0
232398.0 293503.0 0
238380.0 293323.0 0
244888.0 292597.0 0
251512.0 293052.0 0
256968.0 294616.0 0
261811.0 292796.0 0
266230.0 296072.0 0
274213.0 294673.0 0
283299.0 294413.0 0
288830.0 293042.0 0
293094.0 295330.0 0
297125.0 292760.0 0
302907.0 293123.0 0
308713.0 293954.0 0
318318.0 293748.0 0
324035.0 295965.0 0
328772.0 293012.0 0
334011.0 294823.0 0
339513.0 294142.0 0
344846.0 293935.0 0
349894.0 293460.0 0
358613.0 295146.0 0
363872.0 295960.0 0
368144.0 293617.0 0
372338.0 294689.0 0
376985.0 294667.0 0
382500.0 293698.0 0
387497.0 294743.0 0
392163.0 295455.0 0
396177.0 294146.0 0
401255.0 294673.0 0
406719.0 294035.0 0
411238.0 295041.0 0
415518.0 294472.0 0
421177.0 294309.0 0
428441.0 295389.0 0
430869.0 294755.0 0
435901.0 294495.0 0
442125.0 296180.0 0
446733.0 294580.0 0
451350.0 295808.0 0
456144.0 293559.0 0
461533.0 294432.0 0
466977.0 294990.0 0
472915.0 292871.0 0
478082.0 294222.0 0
487807.0 293032.0 0
493607.0 294510.0 0
498097.0 293471.0 0
2819.45 299827.0 0
8180.15 299149.0 0
12973.4 298518.0 0
11922.8 302470.0 0
16414.3 299143.0 0
20466.5 299060.0 0
25367.5 300214.0 0
31237.3 297857.0 0
37253.3 300912.0 0
41721.7 299891.0 0
47366.7 300026.0 0
53010.3 299292.0 0
58675.8 301139.0 0
63551.9 299530.0 0
68255.3 299111.0 0
72442.4 299247.0 0
77179.1 298963.0 0
82027.8 299051.0 0
86311.4 298054.0 0
91296.2 298946.0 0
96808.3 298420.0 0
101406.0 300996.0 0
107508.0 301155.0 0
116510.0 298907.0 0
113064.0 301026.0 0
121252.0 300417.0 0
125996.0 299718.0 0
132165.0 299339.0 0
137864.0 299466.0 0
147574.0 298767.0 0
142880.0 300034.0 0
152688.0 300236.0 0
157622.0 299306.0 0
162793.0 298396.0 0
167407.0 301148.0 0
172608.0 298594.0 0
178001.0 298645.0 0
182407.0 300375.0 0
186464.0 298005.0 0
192257.0 298612.0 0
196821.0 299094.0 0
201323.0 298786.0 0
206974.0 298765.0 0
212749.0 299106.0 0
217678.0 300316.0 0
226883.0 299435.0 0
231633.0 299144.0 0
236509.0 298367.0 0
241296.0 297690.0 0
240080.0 301041.0 0
243641.0 302061.0 0
245851.0 297953.0 0
250514.0 298927.0 0
255253.0 298740.0 0
260812.0 298972.0 0
266610.0 301546.0 0
271155.0 298297.0 0
278048.0 298074.0 0
283140.0 301169.0 0
288300.0 298323.0 0
293311.0 300228.0 0
298262.0 297970.0 0
303310.0 298672.0 0
308033.0 298949.0 0
314184.0 298971.0 0
319100.0 298589.0 0
322669.0 301647.0 0
328925.0 298644.0 0
333103.0 299029.0 0
336742.0 298915.0 0
342512.0 299300.0 0
346914.0 302217.0 0
347828.0 298669.0 0
353133.0 298126.0 0
357693.0 300743.0 0
362432.0 300751.0 0
367724.0 299284.0 0
373493.0 299372.0 0
382582.0 298948.0 0
378269.0 299272.0 0
387500.0 299279.0 0
390913.0 299059.0 0
394286.0 298690.0 0
398065.0 298615.0 0
405871.0 300059.0 0
412330.0 299655.0 0
417957.0 299210.0 0
423083.0 299542.0 0
427950.0 299302.0 0
432863.0 299636.0 0
437747.0 300135.0 0
441848.0 300844.0 0
447210.0 298923.0 0
452046.0 300990.0 0
456245.0 298507.0 0
461141.0 300074.0 0
466195.0 299620.0 0
470953.0 297812.0 0
476138.0 299225.0 0
482636.0 298171.0 0
488878.0 298587.0 0
492864.0 301351.0 0
497021.0 298236.0 0
2424.13 304276.0 0
7488.63 303995.0 0
13251.2 306888.0 0
17744.5 303404.0 0
22214.4 304003.0 0
25747.7 304745.0 0
29673.6 306501.0 0
33501.4 303456.0 0
36850.0 305842.0 0
41289.0 305120.0 0
46300.0 305279.0 0
51589.8 304646.0 0
56814.2 305378.0 0
62248.7 304968.0 0
67536.4 303857.0 0
72526.5 303855.0 0
81290.1 304176.0 0
76637.7 304942.0 0
87031.8 303068.0 0
92336.0 304207.0 0
97282.3 304241.0 0
102433.0 306147.0 0
106771.0 306297.0 0
111805.0 304983.0 0
117601.0 304462.0 0
123396.0 304250.0 0
128786.0 304767.0 0
134062.0 304389.0 0
137961.0 304110.0 0
142169.0 304041.0 0
147624.0 304562.0 0
152999.0 305160.0 0
158952.0 303714.0 0
162899.0 303824.0 0
167183.0 305771.0 0
172138.0 302950.0 0
177863.0 304175.0 0
183359.0 305043.0 0
188335.0 302977.0 0
193994.0 303806.0 0
199151.0 303544.0 0
204257.0 303909.0 0
209601.0 303873.0 0
214099.0 302638.0 0
213785.0 306913.0 0
217570.0 304685.0 0
222172.0 302918.0 0
226308.0 303382.0 0
225441.0 307251.0 0
230544.0 304644.0 0
235784.0 303098.0 0
240016.0 305201.0 0
250470.0 304311.0 0
256568.0 304286.0 0
262557.0 304621.0 0
267369.0 307036.0 0
272485.0 303920.0 0
278281.0 303876.0 0
282906.0 306721.0 0
289841.0 303796.0 0
294764.0 304660.0 0
299217.0 303329.0 0
303481.0 302662.0 0
307647.0 304098.0 0
312849.0 305151.0 0
317723.0 303395.0 0
324185.0 306282.0 0
327693.0 303624.0 0
332892.0 303303.0 0
338734.0 304454.0 0
344054.0 304578.0 0
351208.0 304258.0 0
358163.0 305116.0 0
362878.0 305653.0 0
367571.0 304642.0 0
372819.0 304997.0 0
377591.0 303951.0 0
383034.0 304105.0 0
387674.0 303827.0 0
390610.0 304629.0 0
394695.0 303313.0 0
400670.0 303026.0 0
400525.0 307402.0 0
404274.0 306316.0 0
409780.0 305487.0 0
416421.0 305033.0 0
422875.0 305187.0 0
428624.0 304063.0 0
433415.0 304446.0 0
438596.0 305394.0 0
448834.0 303827.0 0
444230.0 304682.0 0
452139.0 304993.0 0
457264.0 304885.0 0
462865.0 304485.0 0
466827.0 305742.0 0
470821.0 302999.0 0
476441.0 305595.0 0
482923.0 304901.0 0
488687.0 303995.0 0
492902.0 305062.0 0
497146.0 304084.0 0
2805.27 308129.0 0
2102.36 312297.0 0
7660.86 308456.0 0
12524.4 312254.0 0
17478.7 308293.0 0
22100.9 308290.0 0
26041.3 308716.0 0
33847.2 309471.0 0
38556.7 309313.0 0
43307.7 310187.0 0
47500.0 309092.0 0
51935.8 310290.0 0
58826.7 309941.0 0
64412.0 310194.0 0
68929.6 308950.0 0
73757.8 308364.0 0
77214.8 308818.0 0
80656.9 309271.0 0
77156.5 312442.0 0
86286.4 309364.0 0
92827.2 309215.0 0
98257.7 309504.0 0
103081.0 310112.0 0
108947.0 309530.0 0
113076.0 309138.0 0
117546.0 310170.0 0
122445.0 309047.0 0
126566.0 309658.0 0
131876.0 309115.0 0
136858.0 308661.0 0
140272.0 310885.0 0
144096.0 309304.0 0
150608.0 309071.0 0
157131.0 308941.0 0
163053.0 308208.0 0
167770.0 310408.0 0
173157.0 308571.0 0
178932.0 310246.0 0
183144.0 309704.0 0
186769.0 308351.0 0
191910.0 308700.0 0
196847.0 307858.0 0
201826.0 308936.0 0
207341.0 308929.0 0
212405.0 312701.0 0
216954.0 309795.0 0
220554.0 307766.0 0
222919.0 312220.0 0
229457.0 309693.0 0
235859.0 308574.0 0
240373.0 310245.0 0
245244.0 308085.0 0
252709.0 309253.0 0
257414.0 309709.0 0
262209.0 309376.0 0
272552.0 310006.0 0
277759.0 308878.0 0
281557.0 312529.0 0
289649.0 308554.0 0
285947.0 310290.0 0
293284.0 308229.0 0
297732.0 309132.0 0
303637.0 307786.0 0
309192.0 309582.0 0
315005.0 310647.0 0
319905.0 307820.0 0
323543.0 311080.0 0
328647.0 309180.0 0
334545.0 308551.0 0
338171.0 310690.0 0
342789.0 309791.0 0
348307.0 309027.0 0
354593.0 308982.0 0
358849.0 309173.0 0
362344.0 309722.0 0
366771.0 309696.0 0
372043.0 310397.0 0
376904.0 307775.0 0
377277.0 312031.0 0
380664.0 308397.0 0
386680.0 308928.0 0
391412.0 308012.0 0
392817.0 312750.0 0
396468.0 309014.0 0
401696.0 312462.0 0
407522.0 310943.0 0
413253.0 310790.0 0
418164.0 310136.0 0
422174.0 310336.0 0
426941.0 308789.0 0
431482.0 308732.0 0
436331.0 310747.0 0
442140.0 310032.0 0
447581.0 308917.0 0
452832.0 309182.0 0
457532.0 310824.0 0
461662.0 308711.0 0
465914.0 309820.0 0
470882.0 308765.0 0
476695.0 311516.0 0
480617.0 309349.0 0
485126.0 309955.0 0
491134.0 309842.0 0
497369.0 309571.0 0
6787.01 313932.0 0
12818.9 317668.0 0
18524.3 313321.0 0
24346.7 313043.0 0
30112.0 313441.0 0
35415.9 314858.0 0
39823.9 313385.0 0
43437.3 315505.0 0
47410.1 313235.0 0
51716.1 315127.0 0
56676.6 314993.0 0
61931.4 315017.0 0
66599.0 314666.0 0
71658.5 313287.0 0
82261.9 314234.0 0
88456.5 315663.0 0
93305.6 313324.0 0
94096.2 317559.0 0
97500.0 314126.0 0
102247.0 313926.0 0
107106.0 313711.0 0
112362.0 313428.0 0
117491.0 314783.0 0
122471.0 313184.0 0
122446.0 317576.0 0
132621.0 313917.0 0
127694.0 314619.0 0
137674.0 313601.0 0
135507.0 317424.0 0
142152.0 313965.0 0
147683.0 313825.0 0
153124.0 313152.0 0
157519.0 314841.0 0
161611.0 313009.0 0
165730.0 314619.0 0
171409.0 314468.0 0
176403.0 314513.0 0
180491.0 314882.0 0
185155.0 313449.0 0
190305.0 312979.0 0
188993.0 317122.0 0
195451.0 313490.0 0
201368.0 314389.0 0
206633.0 314783.0 0
218173.0 314268.0 0
222032.0 317554.0 0
227489.0 314935.0 0
232555.0 313366.0 0
238086.0 314099.0 0
243707.0 314357.0 0
248579.0 313084.0 0
251778.0 316298.0 0
255164.0 313409.0 0
259935.0 313706.0 0
266656.0 314071.0 0
272632.0 314907.0 0
276469.0 313489.0 0
286997.0 314873.0 0
292742.0 313035.0 0
298664.0 314981.0 0
303462.0 313078.0 0
307673.0 314247.0 0
312425.0 315936.0 0
318999.0 314713.0 0
323662.0 315407.0 0
328065.0 314816.0 0
332545.0 313170.0 0
337106.0 314453.0 0
341621.0 315005.0 0
346961.0 314499.0 0
352961.0 314252.0 0
358278.0 312997.0 0
363834.0 314131.0 0
368631.0 313799.0 0
372500.0 314387.0 0
378022.0 317138.0 0
383139.0 313377.0 0
388497.0 314595.0 0
392156.0 317707.0 0
396753.0 314450.0 0
408698.0 315527.0 0
413011.0 315753.0 0
417500.0 314025.0 0
423602.0 314276.0 0
429128.0 313000.0 0
432842.0 314285.0 0
439526.0 314496.0 0
445078.0 314062.0 0
449559.0 313743.0 0
453917.0 314087.0 0
457945.0 315400.0 0
461734.0 313373.0 0
462544.0 317537.0 0
466261.0 314530.0 0
472034.0 314791.0 0
477064.0 316229.0 0
481398.0 313980.0 0
487106.0 315089.0 0
492805.0 315738.0 0
497598.0 314602.0 0
3505.78 319385.0 0
8912.57 319221.0 0
18051.2 319531.0 0
23738.4 318409.0 0
29009.3 319224.0 0
33720.5 319018.0 0
38523.1 319341.0 0
43679.7 320274.0 0
47736.5 317993.0 0
52043.3 319678.0 0
57001.9 320396.0 0
61820.2 319726.0 0
66419.8 319260.0 0
71653.5 319173.0 0
78229.8 319646.0 0
84136.8 318959.0 0
87700.8 320737.0 0
92060.0 322872.0 0
99291.4 318828.0 0
103855.0 320223.0 0
108336.0 318674.0 0
113653.0 318283.0 0
118209.0 319291.0 0
121252.0 322808.0 0
126973.0 319567.0 0
131412.0 318689.0 0
129911.0 322983.0 0
140086.0 318283.0 0
145308.0 318990.0 0
151793.0 319263.0 0
157577.0 319927.0 0
162359.0 318419.0 0
167977.0 318894.0 0
173588.0 320123.0 0
178762.0 318823.0 0
183603.0 318988.0 0
188116.0 322993.0 0
193534.0 319780.0 0
198263.0 318166.0 0
202333.0 319711.0 0
207110.0 319946.0 0
212481.0 319070.0 0
217418.0 318731.0 0
226358.0 319672.0 0
231286.0 318772.0 0
236092.0 319221.0 0
240770.0 319064.0 0
247344.0 318285.0 0
251784.0 320306.0 0
256809.0 318625.0 0
262272.0 318805.0 0
266712.0 321376.0 0
272676.0 319644.0 0
277768.0 318312.0 0
276826.0 322870.0 0
282659.0 318001.0 0
287482.0 320285.0 0
294032.0 319666.0 0
299487.0 319827.0 0
303978.0 318106.0 0
308773.0 319443.0 0
315334.0 320642.0 0
311355.0 322287.0 0
320329.0 319706.0 0
326024.0 320140.0 0
333083.0 319323.0 0
339066.0 319888.0 0
343359.0 319006.0 0
347291.0 319302.0 0
351735.0 319778.0 0
357508.0 318342.0 0
362977.0 319159.0 0
368174.0 318632.0 0
372155.0 322730.0 0
373357.0 318113.0 0
382760.0 319523.0 0
387965.0 320232.0 0
397104.0 318843.0 0
392974.0 322925.0 0
402917.0 319136.0 0
407602.0 319066.0 0
411409.0 320098.0 0
416313.0 318954.0 0
421534.0 318735.0 0
427084.0 318040.0 0
431791.0 320389.0 0
436299.0 318018.0 0
442657.0 319343.0 0
449591.0 319371.0 0
454971.0 318767.0 0
459066.0 319757.0 0
462399.0 321998.0 0
466517.0 319396.0 0
470871.0 319966.0 0
475117.0 319784.0 0
479863.0 320234.0 0
485511.0 320749.0 0
491411.0 319951.0 0
496504.0 320070.0 0
3164.35 326047.0 0
7875.48 323288.0 0
13213.5 323572.0 0
18016.7 325518.0 0
22913.7 324057.0 0
28303.1 324368.0 0
33679.3 323927.0 0
38736.9 324279.0 0
42473.7 324108.0 0
47500.0 323901.0 0
52524.6 324082.0 0
57779.6 325716.0 0
62771.8 324198.0 0
67037.8 324100.0 0
72935.3 325222.0 0
78321.1 325445.0 0
82589.4 324046.0 0
87060.9 324649.0 0
97665.3 324098.0 0
102287.0 323890.0 0
107394.0 324499.0 0
113331.0 323698.0 0
117542.0 325043.0 0
125830.0 325415.0 0
135629.0 323177.0 0
141882.0 323178.0 0
147707.0 325279.0 0
152898.0 324618.0 0
157034.0 324397.0 0
162631.0 324531.0 0
168676.0 324418.0 0
173734.0 325470.0 0
178575.0 323901.0 0
183171.0 325533.0 0
193492.0 324483.0 0
190984.0 327833.0 0
198037.0 323193.0 0
202866.0 323898.0 0
202300.0 327560.0 0
206672.0 324336.0 0
210544.0 323640.0 0
212968.0 327749.0 0
215975.0 323223.0 0
217628.0 327541.0 0
222123.0 323555.0 0
227967.0 324126.0 0
232988.0 323179.0 0
237683.0 323742.0 0
243136.0 323615.0 0
240947.0 327914.0 0
248512.0 323782.0 0
254270.0 324036.0 0
259122.0 323644.0 0
257526.0 327625.0 0
262971.0 324787.0 0
267188.0 327137.0 0
270924.0 323895.0 0
272486.0 328109.0 0
277802.0 327558.0 0
282607.0 324124.0 0
287894.0 325409.0 0
292219.0 325220.0 0
298039.0 324120.0 0
305751.0 323713.0 0
309994.0 325009.0 0
313936.0 325639.0 0
318337.0 324000.0 0
322500.0 324187.0 0
328881.0 324764.0 0
333216.0 325713.0 0
336960.0 323691.0 0
341060.0 323667.0 0
346115.0 323829.0 0
357120.0 323661.0 0
352089.0 325884.0 0
361931.0 324074.0 0
367445.0 325452.0 0
377853.0 323175.0 0
383971.0 325560.0 0
389036.0 325108.0 0
398548.0 324293.0 0
404602.0 324310.0 0
408301.0 324352.0 0
411598.0 324391.0 0
415645.0 323746.0 0
420772.0 324221.0 0
427261.0 324584.0 0
432713.0 324445.0 0
437833.0 324519.0 0
443879.0 325591.0 0
448920.0 325478.0 0
453739.0 323594.0 0
458612.0 323845.0 0
455877.0 327868.0 0
466484.0 324276.0 0
471698.0 324629.0 0
476798.0 324325.0 0
482209.0 325081.0 0
489758.0 324082.0 0
493008.0 326102.0 0
497153.0 326059.0 0
2174.98 331294.0 0
6288.44 330246.0 0
11599.0 329684.0 0
17536.7 329981.0 0
22465.7 329729.0 0
27691.9 329429.0 0
32847.9 329308.0 0
37854.0 328815.0 0
42860.5 328923.0 0
47500.0 328984.0 0
52500.0 328904.0 0
57479.8 330178.0 0
62274.3 329255.0 0
67614.2 328486.0 0
72220.4 330943.0 0
77021.2 329339.0 0
81647.5 328951.0 0
86257.3 328772.0 0
91744.1 329284.0 0
97811.5 329485.0 0
102677.0 328481.0 0
106910.0 330643.0 0
111196.0 328558.0 0
115543.0 329341.0 0
120823.0 328677.0 0
126041.0 330247.0 0
131593.0 328963.0 0
137620.0 329366.0 0
135079.0 332860.0 0
143069.0 329704.0 0
152447.0 328530.0 0
148647.0 331076.0 0
156888.0 329078.0 0
161371.0 330258.0 0
166002.0 328990.0 0
170946.0 329427.0 0
176435.0 329992.0 0
181287.0 329106.0 0
186362.0 330997.0 0
192029.0 332543.0 0
196143.0 328844.0 0
201489.0 332555.0 0
207282.0 329327.0 0
217875.0 332244.0 0
221577.0 329047.0 0
226342.0 329011.0 0
232073.0 328216.0 0
233726.0 333227.0 0
237020.0 330495.0 0
246433.0 329800.0 0
252576.0 329330.0 0
257018.0 332125.0 0
262199.0 330061.0 0
268635.0 333103.0 0
275863.0 331612.0 0
283283.0 331128.0 0
289707.0 329983.0 0
295884.0 329308.0 0
301953.0 328473.0 0
304772.0 332666.0 0
308194.0 329203.0 0
313494.0 330761.0 0
318293.0 328567.0 0
325775.0 328480.0 0
322080.0 331101.0 0
330988.0 330276.0 0
336292.0 329381.0 0
342206.0 329057.0 0
347975.0 329991.0 0
352465.0 331537.0 0
357666.0 329435.0 0
363319.0 329006.0 0
372090.0 328843.0 0
367554.0 331516.0 0
377557.0 329137.0 0
382629.0 331866.0 0
388161.0 329984.0 0
393819.0 328607.0 0
397821.0 332415.0 0
403560.0 330111.0 0
409210.0 330891.0 0
413388.0 328584.0 0
417989.0 329240.0 0
422303.0 329270.0 0
427439.0 331330.0 0
432984.0 328702.0 0
437049.0 329444.0 0
442544.0 331069.0 0
447415.0 328865.0 0
451712.0 329441.0 0
461848.0 329140.0 0
468618.0 329861.0 0
474680.0 329724.0 0
480001.0 329129.0 0
481999.0 333096.0 0
486651.0 329314.0 0
493193.0 330476.0 0
498364.0 330380.0 0
2643.99 335575.0 0
6704.61 334135.0 0
11883.0 336470.0 0
17237.9 334478.0 0
21689.9 334603.0 0
26626.2 334631.0 0
32272.0 334762.0 0
37800.8 333885.0 0
42911.0 334038.0 0
48373.5 333858.0 0
53049.3 334086.0 0
57491.5 334463.0 0
62500.0 334071.0 0
67351.0 334094.0 0
72974.1 335280.0 0
77099.8 334268.0 0
80958.4 334254.0 0
86609.3 333944.0 0
92664.9 335879.0 0
98143.9 334530.0 0
102896.0 333490.0 0
107108.0 335991.0 0
112149.0 333873.0 0
117795.0 333742.0 0
127508.0 333973.0 0
123049.0 335398.0 0
131652.0 335745.0 0
139851.0 335408.0 0
146694.0 336278.0 0
153514.0 334396.0 0
159508.0 334781.0 0
162844.0 337838.0 0
165998.0 334203.0 0
171493.0 334666.0 0
177328.0 336222.0 0
183253.0 336202.0 0
188911.0 336633.0 0
196121.0 336352.0 0
201363.0 337984.0 0
206678.0 335971.0 0
212147.0 333501.0 0
216665.0 337965.0 0
223046.0 333733.0 0
228738.0 334052.0 0
234181.0 338008.0 0
237079.0 334730.0 0
241288.0 333239.0 0
246409.0 336215.0 0
251974.0 334790.0 0
258171.0 337091.0 0
263171.0 335643.0 0
274031.0 335777.0 0
278845.0 334469.0 0
284207.0 337508.0 0
288214.0 334707.0 0
293276.0 334886.0 0
299769.0 334528.0 0
304621.0 336771.0 0
308406.0 334857.0 0
313013.0 335692.0 0
316554.0 333916.0 0
320494.0 335234.0 0
326610.0 334913.0 0
333843.0 335227.0 0
338657.0 333806.0 0
342792.0 334536.0 0
347409.0 334963.0 0
352853.0 336362.0 0
357809.0 335218.0 0
362645.0 333868.0 0
367034.0 335872.0 0
371804.0 334236.0 0
377374.0 335020.0 0
382625.0 336219.0 0
386622.0 335470.0 0
391990.0 334782.0 0
396565.0 336536.0 0
401665.0 336835.0 0
407004.0 335054.0 0
411828.0 334581.0 0
417042.0 333790.0 0
422615.0 334959.0 0
427266.0 337178.0 0
432150.0 335255.0 0
437949.0 334658.0 0
442911.0 336624.0 0
448177.0 333896.0 0
452078.0 337038.0 0
456005.0 333758.0 0
461583.0 335697.0 0
466250.0 334375.0 0
471935.0 336051.0 0
477575.0 334574.0 0
481372.0 336942.0 0
486489.0 336576.0 0
491857.0 335576.0 0
497017.0 335184.0 0
200059.0 343005.0 0
204672.0 340464.0 0
211038.0 339143.0 0
222691.0 339468.0 0
228165.0 339460.0 0
231833.0 342577.0 0
236781.0 341347.0 0
240558.0 339014.0 0
244658.0 342261.0 0
248966.0 340885.0 0
253480.0 339626.0 0
257827.0 342619.0 0
261139.0 339938.0 0
262058.0 343329.0 0
270288.0 338657.0 0
265448.0 340587.0 0
278259.0 339919.0 0
283089.0 342103.0 0
289563.0 339342.0 0
296513.0 339743.0 0
301768.0 340174.0 0
205012.0 344579.0 0
210177.0 344216.0 0
212908.0 348525.0 0
216100.0 344067.0 0
221497.0 344869.0 0
226959.0 344837.0 0
232019.0 347851.0 0
235672.0 344549.0 0
236898.0 348259.0 0
240507.0 345040.0 0
246153.0 347319.0 0
252214.0 344507.0 0
262641.0 347405.0 0
267718.0 348051.0 0
270955.0 343784.0 0
275961.0 345236.0 0
280469.0 345121.0 0
284112.0 346334.0 0
286906.0 343574.0 0
292779.0 344355.0 0
299041.0 345076.0 0
201103.0 349280.0 0
207354.0 349085.0 0
214030.0 353620.0 0
218534.0 349753.0 0
223688.0 348802.0 0
227621.0 350957.0 0
232014.0 353187.0 0
236472.0 352499.0 0
241201.0 350721.0 0
246473.0 353199.0 0
250914.0 348963.0 0
256577.0 348931.0 0
261408.0 352159.0 0
266415.0 353281.0 0
273073.0 350030.0 0
278544.0 349142.0 0
280488.0 353153.0 0
282949.0 350329.0 0
288271.0 348903.0 0
293771.0 349793.0 0
297827.0 349758.0 0
202827.0 355620.0 0
208760.0 354601.0 0
210961.0 358481.0 0
219115.0 355102.0 0
224142.0 355008.0 0
228623.0 355468.0 0
231661.0 357766.0 0
237207.0 357949.0 0
240810.0 354810.0 0
243247.0 357696.0 0
248820.0 358607.0 0
252249.0 353761.0 0
257186.0 354908.0 0
261690.0 357453.0 0
271968.0 354869.0 0
274363.0 358405.0 0
276366.0 354217.0 0
279161.0 356906.0 0
285304.0 354004.0 0
288804.0 358338.0 0
291185.0 353687.0 0
293572.0 357839.0 0
297110.0 354428.0 0
341742.0 356692.0 0
10310.7 359027.0 0
202602.0 362816.0 0
206828.0 360070.0 0
212308.0 363813.0 0
215777.0 359098.0 0
221338.0 359656.0 0
227031.0 360356.0 0
232690.0 362803.0 0
237580.0 363288.0 0
242420.0 363211.0 0
254547.0 358928.0 0
258655.0 362314.0 0
268165.0 359724.0 0
278546.0 361003.0 0
283239.0 359011.0 0
282137.0 363124.0 0
291898.0 363366.0 0
296919.0 360853.0 0
309756.0 360557.0 0
404603.0 363814.0 0
48261.5 366452.0 0
174681.0 365476.0 0
202517.0 367696.0 0
207026.0 365375.0 0
217838.0 364628.0 0
223075.0 364404.0 0
220913.0 368825.0 0
228252.0 364970.0 0
226056.0 368686.0 0
231929.0 368916.0 0
238017.0 368166.0 0
248149.0 364505.0 0
253734.0 364199.0 0
258856.0 367467.0 0
262730.0 364814.0 0
267283.0 365988.0 0
272711.0 364749.0 0
278775.0 366688.0 0
286144.0 365321.0 0
291504.0 368627.0 0
296576.0 367265.0 0
357807.0 368284.0 0
362467.0 366701.0 0
368610.0 366483.0 0
389098.0 365548.0 0
421499.0 365085.0 0
443009.0 364732.0 0
455114.0 365114.0 0
472319.0 365857.0 0
492537.0 366833.0 0
497243.0 364682.0 0
1981.59 375209.0 0
6878.9 368838.0 0
13721.9 375080.0 0
10437.6 375332.0 0
17408.6 375310.0 0
21629.0 375091.0 0
25821.0 375334.0 0
30756.2 375212.0 0
35944.1 375177.0 0
40526.1 375212.0 0
43821.0 376193.0 0
46861.2 375150.0 0
50294.8 375625.0 0
53658.9 375334.0 0
56374.4 370365.0 0
61528.0 375492.0 0
63918.5 370371.0 0
68821.9 371467.0 0
72336.1 375745.0 0
75503.3 375153.0 0
79425.6 374293.0 0
84313.9 374271.0 0
85913.3 376479.0 0
88629.0 375154.0 0
93066.8 375227.0 0
96192.4 370642.0 0
100416.0 370089.0 0
105045.0 375428.0 0
108205.0 372242.0 0
111205.0 375018.0 0
108713.0 376441.0 0
115155.0 373496.0 0
120621.0 373198.0 0
124940.0 370035.0 0
122804.0 377045.0 0
125176.0 375500.0 0
128801.0 375302.0 0
132868.0 375046.0 0
138117.0 375056.0 0
142336.0 375206.0 0
146702.0 375150.0 0
150847.0 375755.0 0
154083.0 373798.0 0
157854.0 371932.0 0
161662.0 375287.0 0
167796.0 368700.0 0
165542.0 375455.0 0
173379.0 375320.0 0
177380.0 369662.0 0
176843.0 376694.0 0
181672.0 375433.0 0
178355.0 375084.0 0
186308.0 375235.0 0
191585.0 370681.0 0
196196.0 371652.0 0
198624.0 375138.0 0
202233.0 372156.0 0
206251.0 370545.0 0
211379.0 369475.0 0
209432.0 373775.0 0
216420.0 369551.0 0
218187.0 373518.0 0
222645.0 373197.0 0
238435.0 374111.0 0
242656.0 371302.0 0
248312.0 370500.0 0
254029.0 369540.0 0
258926.0 371865.0 0
263593.0 369986.0 0
269170.0 371023.0 0
274251.0 370097.0 0
283197.0 370679.0 0
287651.0 369943.0 0
292005.0 373603.0 0
300496.0 376167.0 0
296508.0 372234.0 0
303304.0 375084.0 0
306405.0 375703.0 0
310283.0 373691.0 0
313745.0 376000.0 0
317783.0 368827.0 0
322563.0 370941.0 0
325142.0 375019.0 0
328438.0 375361.0 0
331935.0 375254.0 0
335933.0 375262.0 0
340188.0 375496.0 0
344972.0 375269.0 0
348291.0 375548.0 0
352132.0 375282.0 0
356188.0 375595.0 0
365662.0 375324.0 0
368466.0 376436.0 0
371863.0 375271.0 0
374583.0 369125.0 0
379942.0 375357.0 0
384300.0 375278.0 0
391953.0 373422.0 0
387930.0 375611.0 0
396126.0 375222.0 0
399737.0 375468.0 0
402918.0 375476.0 0
407088.0 375617.0 0
411822.0 375327.0 0
417391.0 375233.0 0
422332.0 375246.0 0
425577.0 375388.0 0
428872.0 375163.0 0
433009.0 375131.0 0
437044.0 368374.0 0
439993.0 375136.0 0
448374.0 375110.0 0
443974.0 375464.0 0
453015.0 375297.0 0
457675.0 375197.0 0
461586.0 368975.0 0
462334.0 375011.0 0
465867.0 375028.0 0
470587.0 375096.0 0
476569.0 369100.0 0
475071.0 375256.0 0
481239.0 370193.0 0
483635.0 375053.0 0
487443.0 375360.0 0
491738.0 375939.0 0
495380.0 375721.0 0
498470.0 375073.0 0
813.191 377614.0 0
2018.92 380148.0 0
5912.99 376566.0 0
9405.76 378426.0 0
9192.55 380947.0 0
15241.8 377251.0 0
12378.1 378588.0 0
16480.0 380130.0 0
19582.5 378424.0 0
23488.3 378492.0 0
24491.6 381190.0 0
20981.1 382027.0 0
27398.8 378454.0 0
34281.1 377735.0 0
31596.7 379916.0 0
35795.9 380352.0 0
38331.6 378023.0 0
39796.8 381118.0 0
42071.8 378925.0 0
43961.5 381531.0 0
46423.7 378810.0 0
49894.6 379160.0 0
53294.6 378381.0 0
55552.0 380699.0 0
57414.5 376437.0 0
59139.9 380798.0 0
61874.7 378964.0 0
65429.8 375960.0 0
65234.3 380276.0 0
68905.8 377260.0 0
68741.4 381265.0 0
72205.5 379911.0 0
76650.8 378784.0 0
82411.6 378202.0 0
85050.7 381702.0 0
87097.1 378925.0 0
90457.1 377930.0 0
89320.4 381419.0 0
95777.5 376806.0 0
93574.4 380202.0 0
98235.2 375335.0 0
101765.0 375864.0 0
97274.9 378742.0 0
100181.0 379224.0 0
103476.0 378869.0 0
106326.0 378309.0 0
105894.0 381291.0 0
109550.0 380833.0 0
113078.0 377833.0 0
118114.0 378159.0 0
124732.0 379693.0 0
121895.0 380584.0 0
127243.0 378633.0 0
131342.0 378465.0 0
129841.0 381730.0 0
135197.0 377432.0 0
134734.0 381306.0 0
138850.0 379199.0 0
142890.0 378377.0 0
147457.0 379156.0 0
143001.0 382604.0 0
151698.0 378759.0 0
153770.0 382313.0 0
155841.0 377793.0 0
157227.0 381330.0 0
159896.0 379206.0 0
158695.0 375843.0 0
162658.0 378208.0 0
165818.0 379222.0 0
169156.0 376472.0 0
169101.0 380306.0 0
172473.0 379922.0 0
176255.0 379614.0 0
183431.0 378339.0 0
179760.0 378240.0 0
181739.0 380602.0 0
187207.0 379587.0 0
190599.0 376226.0 0
194617.0 376613.0 0
199220.0 378501.0 0
199473.0 382459.0 0
205470.0 375277.0 0
213641.0 374460.0 0
209692.0 378316.0 0
220630.0 377365.0 0
227739.0 374050.0 0
233325.0 374679.0 0
236731.0 379103.0 0
242045.0 375864.0 0
245696.0 375017.0 0
251138.0 375408.0 0
255645.0 374073.0 0
257934.0 377949.0 0
261713.0 374232.0 0
262813.0 378413.0 0
267267.0 376036.0 0
272857.0 374263.0 0
271627.0 378665.0 0
277574.0 374120.0 0
280178.0 378858.0 0
282091.0 374857.0 0
284156.0 377287.0 0
286844.0 374118.0 0
287855.0 378856.0 0
296098.0 376356.0 0
292478.0 378702.0 0
300726.0 379841.0 0
304230.0 378035.0 0
303890.0 381345.0 0
306897.0 380156.0 0
308106.0 377551.0 0
311070.0 378592.0 0
317538.0 375464.0 0
314532.0 378350.0 0
314261.0 381405.0 0
321487.0 376170.0 0
318206.0 380031.0 0
325698.0 378498.0 0
322238.0 379439.0 0
325457.0 381877.0 0
329837.0 378445.0 0
328390.0 381280.0 0
335045.0 379088.0 0
331515.0 381726.0 0
339920.0 380084.0 0
343220.0 378195.0 0
343989.0 381123.0 0
346215.0 378596.0 0
349339.0 378514.0 0
347119.0 381651.0 0
350265.0 381919.0 0
353230.0 379242.0 0
356564.0 378881.0 0
361081.0 375951.0 0
364984.0 378961.0 0
369072.0 380316.0 0
375941.0 376319.0 0
372566.0 379196.0 0
380540.0 379703.0 0
376641.0 380707.0 0
383573.0 377863.0 0
386117.0 378814.0 0
391012.0 377077.0 0
392081.0 380159.0 0
388918.0 379146.0 0
388949.0 382129.0 0
393778.0 377240.0 0
396072.0 380678.0 0
397904.0 377889.0 0
400703.0 378749.0 0
399985.0 381768.0 0
403749.0 378923.0 0
403059.0 381852.0 0
406939.0 379793.0 0
410461.0 379043.0 0
414222.0 378272.0 0
418049.0 379861.0 0
413484.0 381304.0 0
422395.0 378548.0 0
421616.0 382107.0 0
426445.0 378348.0 0
428907.0 381640.0 0
431180.0 378078.0 0
434972.0 379627.0 0
436120.0 375960.0 0
439072.0 378784.0 0
442734.0 378944.0 0
446531.0 378199.0 0
449224.0 380711.0 0
451075.0 378000.0 0
455082.0 378696.0 0
459227.0 380043.0 0
463989.0 378426.0 0
460907.0 376870.0 0
462977.0 381712.0 0
468209.0 378289.0 0
471417.0 379209.0 0
473082.0 377643.0 0
471686.0 381657.0 0
479014.0 375730.0 0
476210.0 379725.0 0
481887.0 378085.0 0
479851.0 381154.0 0
484300.0 381576.0 0
485886.0 378308.0 0
488946.0 378721.0 0
491131.0 380739.0 0
498131.0 378117.0 0
494669.0 379909.0 0
498895.0 381084.0 0
1650.55 383732.0 0
4936.69 385417.0 0
5723.5 381655.0 0
9344.56 385292.0 0
12959.2 382445.0 0
14143.1 386461.0 0
17219.3 383970.0 0
20734.5 386201.0 0
24012.9 384518.0 0
28136.1 382879.0 0
26586.0 386970.0 0
30226.5 386101.0 0
33387.6 383690.0 0
37420.8 383614.0 0
35986.6 386287.0 0
39869.1 386740.0 0
41685.3 383655.0 0
44676.0 385187.0 0
47520.9 382612.0 0
49497.6 385921.0 0
51557.5 381932.0 0
57221.9 383350.0 0
54176.2 384434.0 0
59722.7 384745.0 0
62445.5 382664.0 0
66296.5 384564.0 0
62772.2 386776.0 0
75318.8 382604.0 0
71758.6 384233.0 0
76665.7 385392.0 0
80490.3 382957.0 0
86928.3 385472.0 0
82541.3 386347.0 0
92076.5 384656.0 0
97581.6 382826.0 0
100368.0 386107.0 0
102960.0 383152.0 0
111069.0 384491.0 0
107263.0 384949.0 0
114562.0 382121.0 0
115180.0 386127.0 0
118602.0 383158.0 0
122045.0 383743.0 0
120732.0 385619.0 0
118695.0 386725.0 0
125980.0 383243.0 0
132291.0 383890.0 0
129470.0 385356.0 0
134335.0 384475.0 0
136622.0 385361.0 0
133390.0 386830.0 0
138817.0 382852.0 0
140837.0 386823.0 0
146403.0 382319.0 0
146168.0 386269.0 0
149672.0 383104.0 0
156303.0 384651.0 0
159978.0 382724.0 0
163014.0 381443.0 0
163741.0 384834.0 0
160377.0 386451.0 0
166560.0 382982.0 0
170706.0 384815.0 0
175224.0 383145.0 0
175102.0 386590.0 0
178591.0 385657.0 0
179099.0 382104.0 0
184191.0 381524.0 0
182455.0 384258.0 0
186506.0 383430.0 0
185086.0 386250.0 0
191195.0 381237.0 0
189797.0 386269.0 0
195827.0 381282.0 0
194746.0 385036.0 0
198283.0 385000.0 0
204539.0 380331.0 0
208689.0 383434.0 0
215549.0 379913.0 0
222657.0 381600.0 0
226552.0 379090.0 0
227004.0 383922.0 0
231355.0 379581.0 0
241734.0 379631.0 0
242698.0 384291.0 0
247476.0 380456.0 0
253476.0 379899.0 0
257614.0 383361.0 0
262624.0 383084.0 0
267151.0 381370.0 0
275703.0 380759.0 0
284171.0 383170.0 0
290575.0 384005.0 0
295942.0 381714.0 0
305338.0 383307.0 0
301437.0 383966.0 0
305454.0 386098.0 0
309669.0 382958.0 0
314304.0 384986.0 0
318020.0 384203.0 0
321768.0 382922.0 0
325575.0 385342.0 0
328746.0 383702.0 0
332182.0 384402.0 0
336174.0 383674.0 0
339821.0 383475.0 0
342757.0 384002.0 0
345900.0 384267.0 0
344944.0 387047.0 0
349296.0 385673.0 0
354693.0 384004.0 0
359149.0 380898.0 0
359891.0 384820.0 0
362683.0 381602.0 0
366246.0 382992.0 0
363579.0 385534.0 0
370504.0 384422.0 0
367301.0 386203.0 0
372954.0 382362.0 0
375612.0 384993.0 0
379666.0 383704.0 0
381901.0 386328.0 0
384387.0 382723.0 0
385784.0 386733.0 0
389064.0 385452.0 0
392912.0 383919.0 0
397381.0 385322.0 0
401773.0 384946.0 0
405900.0 383517.0 0
409761.0 382878.0 0
412524.0 385178.0 0
409017.0 386436.0 0
416353.0 383931.0 0
419773.0 384235.0 0
424824.0 381977.0 0
426849.0 384774.0 0
423254.0 385644.0 0
432416.0 382396.0 0
430625.0 386089.0 0
438307.0 382246.0 0
435440.0 384883.0 0
441777.0 382863.0 0
445680.0 382117.0 0
444822.0 386422.0 0
449375.0 384837.0 0
452776.0 381708.0 0
453658.0 385632.0 0
456568.0 382708.0 0
457706.0 386244.0 0
460441.0 384129.0 0
464276.0 384305.0 0
467381.0 382137.0 0
467015.0 386320.0 0
474400.0 383310.0 0
470518.0 384826.0 0
477952.0 384865.0 0
481990.0 384056.0 0
487635.0 381730.0 0
485856.0 385976.0 0
489883.0 383894.0 0
493416.0 383750.0 0
497542.0 383555.0 0
1878.25 387286.0 0
2319.83 391138.0 0
6661.12 389185.0 0
11605.6 388426.0 0
17713.3 387481.0 0
15703.2 390833.0 0
23428.1 387805.0 0
20638.0 390652.0 0
25161.5 390542.0 0
29205.7 389488.0 0
33253.9 387966.0 0
32577.5 392046.0 0
36542.2 389526.0 0
40437.0 391186.0 0
43121.6 388600.0 0
46430.9 388364.0 0
49159.0 391255.0 0
52895.0 388419.0 0
57027.8 386932.0 0
59874.4 388830.0 0
56394.9 390426.0 0
65641.7 388564.0 0
63239.1 390682.0 0
69437.6 388146.0 0
74534.6 388094.0 0
76598.1 390985.0 0
79337.2 388254.0 0
81600.5 391153.0 0
79103.7 391868.0 0
83684.5 389076.0 0
91223.4 389045.0 0
87664.9 389974.0 0
95609.9 387281.0 0
99371.8 389725.0 0
107567.0 388121.0 0
104227.0 387912.0 0
111408.0 388375.0 0
116344.0 390071.0 0
120518.0 389356.0 0
123423.0 386954.0 0
127000.0 388062.0 0
124374.0 391785.0 0
130410.0 388471.0 0
129183.0 391809.0 0
136972.0 388837.0 0
133451.0 390985.0 0
139946.0 390845.0 0
143737.0 390153.0 0
148413.0 389552.0 0
151803.0 386722.0 0
156132.0 388888.0 0
161070.0 390162.0 0
164344.0 388025.0 0
166490.0 386169.0 0
168187.0 388911.0 0
165164.0 391442.0 0
172926.0 389708.0 0
170216.0 391402.0 0
177416.0 389543.0 0
181782.0 388515.0 0
186262.0 389434.0 0
190741.0 391314.0 0
198575.0 388642.0 0
194235.0 389022.0 0
203987.0 385809.0 0
207976.0 388914.0 0
213371.0 385836.0 0
218854.0 385013.0 0
223173.0 385502.0 0
221843.0 389359.0 0
226605.0 388788.0 0
232238.0 384824.0 0
237577.0 384502.0 0
242853.0 389320.0 0
247366.0 386790.0 0
252273.0 384824.0 0
255848.0 388602.0 0
261836.0 389144.0 0
265898.0 386851.0 0
272063.0 384636.0 0
278651.0 384254.0 0
281637.0 387749.0 0
286506.0 388783.0 0
295813.0 387372.0 0
301593.0 388203.0 0
306140.0 390089.0 0
309682.0 387419.0 0
313728.0 388824.0 0
317629.0 387740.0 0
319617.0 389989.0 0
321531.0 386958.0 0
326185.0 389015.0 0
322591.0 390336.0 0
329883.0 386931.0 0
330464.0 391249.0 0
334388.0 387764.0 0
334038.0 391186.0 0
337021.0 390735.0 0
340163.0 387647.0 0
344316.0 390613.0 0
347558.0 388858.0 0
352081.0 389426.0 0
357253.0 388560.0 0
361176.0 388441.0 0
365176.0 390001.0 0
370225.0 389240.0 0
372935.0 386933.0 0
375037.0 389611.0 0
378819.0 386995.0 0
378768.0 390492.0 0
383487.0 390187.0 0
392476.0 387548.0 0
388768.0 389031.0 0
395869.0 389290.0 0
400626.0 389043.0 0
404948.0 387513.0 0
412103.0 388960.0 0
408372.0 390412.0 0
415328.0 387263.0 0
415720.0 390915.0 0
419176.0 387980.0 0
423123.0 389272.0 0
426656.0 388204.0 0
429997.0 390709.0 0
434081.0 388885.0 0
436850.0 387789.0 0
438158.0 391037.0 0
439735.0 386520.0 0
442705.0 389569.0 0
447968.0 388548.0 0
446054.0 390805.0 0
450835.0 388158.0 0
449728.0 391155.0 0
454351.0 389918.0 0
459002.0 389473.0 0
462699.0 387465.0 0
466886.0 390399.0 0
470023.0 388432.0 0
473994.0 387509.0 0
478374.0 389573.0 0
474901.0 391178.0 0
481256.0 387113.0 0
483089.0 389799.0 0
487546.0 390772.0 0
490612.0 387480.0 0
494623.0 387295.0 0
498564.0 386783.0 0
497666.0 390954.0 0
1771.61 394739.0 0
6289.37 393907.0 0
10561.3 391865.0 0
10302.0 395713.0 0
14701.9 395167.0 0
19339.5 394951.0 0
23470.3 394077.0 0
26673.6 396410.0 0
27943.3 393059.0 0
30561.5 395810.0 0
33969.3 395617.0 0
36871.1 393241.0 0
40039.6 395153.0 0
44704.5 391914.0 0
42125.9 393606.0 0
43776.6 395753.0 0
47124.4 394851.0 0
53023.3 392076.0 0
51134.9 395334.0 0
59757.6 392906.0 0
55642.2 394698.0 0
63734.1 396015.0 0
67068.8 392079.0 0
68513.4 396103.0 0
71653.1 396257.0 0
72454.6 392407.0 0
77055.7 394270.0 0
81210.7 394845.0 0
85142.1 392737.0 0
86177.6 396775.0 0
90086.7 393618.0 0
94498.8 391749.0 0
94242.5 396390.0 0
98450.9 393931.0 0
102282.0 396097.0 0
103362.0 392245.0 0
106185.0 396012.0 0
108097.0 392090.0 0
110933.0 396467.0 0
112913.0 392649.0 0
116251.0 393327.0 0
114533.0 395733.0 0
119776.0 392776.0 0
118054.0 396049.0 0
122548.0 396008.0 0
127536.0 395772.0 0
137053.0 392853.0 0
132799.0 395528.0 0
141538.0 394312.0 0
137597.0 396685.0 0
146321.0 392795.0 0
144897.0 396557.0 0
151937.0 391941.0 0
149127.0 394722.0 0
153054.0 396279.0 0
157311.0 393749.0 0
162155.0 393716.0 0
168303.0 393298.0 0
165485.0 395570.0 0
172131.0 393749.0 0
175945.0 393401.0 0
174434.0 396739.0 0
179896.0 392756.0 0
183437.0 391665.0 0
182854.0 395254.0 0
187039.0 393425.0 0
191609.0 395751.0 0
199061.0 392635.0 0
195366.0 393012.0 0
195604.0 396526.0 0
198677.0 395567.0 0
203608.0 391412.0 0
208028.0 393826.0 0
212013.0 390593.0 0
216837.0 390708.0 0
228048.0 394461.0 0
231313.0 390127.0 0
237214.0 390424.0 0
247611.0 391194.0 0
249707.0 394540.0 0
251246.0 389853.0 0
259105.0 393421.0 0
270035.0 390510.0 0
265520.0 391679.0 0
276323.0 389951.0 0
282259.0 392669.0 0
287491.0 394464.0 0
291630.0 391065.0 0
296736.0 392577.0 0
300825.0 396376.0 0
302149.0 392595.0 0
304827.0 396128.0 0
310695.0 391915.0 0
306631.0 393295.0 0
309162.0 395467.0 0
316267.0 392001.0 0
313495.0 395172.0 0
320708.0 392731.0 0
318403.0 395941.0 0
325612.0 393294.0 0
322407.0 395609.0 0
329849.0 395421.0 0
335360.0 395025.0 0
340358.0 392829.0 0
340628.0 396495.0 0
344405.0 394895.0 0
348251.0 392283.0 0
352083.0 393678.0 0
356076.0 392857.0 0
360657.0 392331.0 0
359115.0 396220.0 0
364694.0 395280.0 0
368726.0 393084.0 0
372867.0 393043.0 0
376671.0 393554.0 0
380193.0 393557.0 0
384229.0 395690.0 0
387806.0 392606.0 0
392323.0 392000.0 0
389841.0 396084.0 0
397798.0 393407.0 0
394064.0 395800.0 0
401386.0 392676.0 0
402457.0 396658.0 0
404354.0 391990.0 0
407597.0 394937.0 0
411631.0 393115.0 0
415215.0 394752.0 0
420377.0 392619.0 0
419064.0 396333.0 0
425569.0 392480.0 0
424010.0 396717.0 0
429079.0 395226.0 0
433628.0 393581.0 0
438033.0 396374.0 0
442707.0 393623.0 0
447493.0 394746.0 0
452475.0 394031.0 0
457857.0 393915.0 0
462807.0 392310.0 0
462243.0 396049.0 0
467063.0 395154.0 0
471271.0 392174.0 0
471279.0 395980.0 0
476250.0 394883.0 0
480467.0 392775.0 0
484261.0 393828.0 0
488882.0 395337.0 0
492747.0 392245.0 0
497638.0 395593.0 0
4622.08 396678.0 0
1602.86 397994.0 0
1675.9 401491.0 0
4732.98 399946.0 0
7969.29 398574.0 0
12679.2 398925.0 0
17372.0 398891.0 0
22982.0 399238.0 0
28832.7 399404.0 0
32926.0 398942.0 0
36919.8 397287.0 0
36331.8 401295.0 0
41212.0 399295.0 0
48834.0 397339.0 0
46158.6 399215.0 0
50557.2 399584.0 0
53941.1 398445.0 0
56045.4 400590.0 0
58689.9 398126.0 0
62371.9 401237.0 0
71148.2 399535.0 0
66965.7 400182.0 0
74959.0 397177.0 0
78585.4 398103.0 0
82794.0 398450.0 0
85821.3 401360.0 0
90167.3 398846.0 0
94714.5 401809.0 0
98606.3 398421.0 0
103587.0 399916.0 0
107952.0 399222.0 0
111736.0 401197.0 0
114951.0 399007.0 0
119575.0 399901.0 0
125312.0 400449.0 0
130574.0 399183.0 0
134529.0 399537.0 0
132623.0 401726.0 0
137998.0 400262.0 0
141290.0 398626.0 0
144663.0 400612.0 0
149256.0 398649.0 0
156642.0 398338.0 0
153599.0 400870.0 0
158763.0 400635.0 0
161245.0 397450.0 0
161586.0 401276.0 0
165460.0 399361.0 0
170004.0 397547.0 0
178534.0 397140.0 0
174852.0 401408.0 0
182949.0 399203.0 0
187186.0 397526.0 0
193938.0 399440.0 0
190482.0 399624.0 0
198204.0 399118.0 0
203172.0 397022.0 0
208578.0 399206.0 0
212704.0 395309.0 0
217763.0 396498.0 0
222635.0 394503.0 0
222956.0 399320.0 0
229232.0 399542.0 0
233394.0 394992.0 0
238677.0 396680.0 0
244350.0 394688.0 0
247983.0 399283.0 0
254066.0 395607.0 0
252287.0 399031.0 0
263975.0 395382.0 0
261080.0 398787.0 0
268101.0 394928.0 0
265623.0 399236.0 0
270056.0 398957.0 0
272717.0 394943.0 0
277881.0 396269.0 0
282694.0 398539.0 0
292455.0 396225.0 0
296774.0 397009.0 0
302343.0 400054.0 0
307505.0 398923.0 0
311262.0 397933.0 0
315676.0 399298.0 0
321526.0 398466.0 0
319912.0 401288.0 0
325853.0 397945.0 0
323376.0 401185.0 0
330953.0 399419.0 0
334919.0 399028.0 0
338650.0 399066.0 0
343723.0 399717.0 0
349090.0 397165.0 0
354783.0 397079.0 0
352918.0 400496.0 0
361805.0 399050.0 0
357541.0 400960.0 0
367105.0 400565.0 0
370181.0 396601.0 0
372719.0 400458.0 0
374752.0 396637.0 0
377326.0 400549.0 0
379047.0 396598.0 0
382250.0 400090.0 0
387510.0 400162.0 0
397470.0 397681.0 0
393138.0 400225.0 0
399227.0 401193.0 0
407540.0 398952.0 0
403953.0 400582.0 0
411369.0 397040.0 0
411419.0 401056.0 0
415239.0 398787.0 0
420017.0 399719.0 0
424682.0 401219.0 0
428482.0 399068.0 0
433003.0 397684.0 0
431904.0 401337.0 0
436171.0 400430.0 0
443116.0 397811.0 0
440162.0 400033.0 0
446881.0 398974.0 0
451024.0 397922.0 0
455038.0 397084.0 0
454647.0 400489.0 0
459225.0 398558.0 0
462019.0 401493.0 0
464462.0 398780.0 0
469248.0 399774.0 0
473667.0 398652.0 0
477946.0 399785.0 0
480960.0 396778.0 0
483124.0 401075.0 0
485275.0 397320.0 0
488657.0 399882.0 0
493232.0 397398.0 0
497786.0 399779.0 0
1423.02 404309.0 0
10150.5 401797.0 0
6015.52 403982.0 0
14377.9 402688.0 0
10841.3 405791.0 0
19116.7 403311.0 0
24058.4 404850.0 0
27097.2 402231.0 0
28503.4 405461.0 0
31567.7 403029.0 0
40307.8 403564.0 0
35773.0 406062.0 0
39907.6 406307.0 0
44384.7 402965.0 0
43094.2 406444.0 0
48713.9 402867.0 0
46704.7 405630.0 0
53382.0 402916.0 0
58126.2 402851.0 0
61264.6 405855.0 0
65641.8 404412.0 0
70256.9 403386.0 0
75365.2 402009.0 0
80881.2 402035.0 0
78628.1 405999.0 0
84160.7 405645.0 0
89664.5 403457.0 0
93365.2 406869.0 0
99650.9 402108.0 0
98227.2 405267.0 0
107292.0 403175.0 0
102881.0 404310.0 0
111208.0 405515.0 0
116136.0 403707.0 0
121472.0 404187.0 0
126713.0 406024.0 0
129383.0 402540.0 0
131622.0 404947.0 0
136042.0 403779.0 0
140708.0 402552.0 0
144665.0 404878.0 0
149162.0 403071.0 0
157399.0 403055.0 0
153807.0 405774.0 0
160624.0 404535.0 0
164834.0 403495.0 0
167940.0 406692.0 0
169313.0 402165.0 0
171788.0 405264.0 0
175172.0 406783.0 0
179567.0 401080.0 0
182857.0 402890.0 0
179560.0 405578.0 0
187233.0 401862.0 0
185210.0 406107.0 0
191724.0 402559.0 0
189461.0 405026.0 0
193275.0 406651.0 0
195447.0 402620.0 0
199024.0 402342.0 0
198246.0 406121.0 0
202577.0 401489.0 0
208203.0 404607.0 0
214151.0 400403.0 0
219440.0 400440.0 0
217772.0 404576.0 0
223000.0 404295.0 0
226906.0 402949.0 0
234336.0 400129.0 0
231120.0 404250.0 0
238661.0 401658.0 0
242848.0 400126.0 0
245908.0 404731.0 0
252106.0 403340.0 0
256284.0 399902.0 0
262136.0 403756.0 0
267615.0 403813.0 0
274779.0 400961.0 0
281728.0 403002.0 0
288004.0 400183.0 0
293620.0 400980.0 0
297797.0 400577.0 0
301574.0 404865.0 0
306397.0 402950.0 0
311443.0 401852.0 0
316574.0 405016.0 0
324408.0 403639.0 0
321861.0 404592.0 0
327231.0 401985.0 0
330662.0 403998.0 0
335081.0 402831.0 0
340130.0 402654.0 0
338074.0 406444.0 0
343907.0 405987.0 0
348471.0 402649.0 0
353903.0 405089.0 0
362230.0 403598.0 0
358551.0 405591.0 0
366659.0 406119.0 0
370759.0 403657.0 0
375375.0 405121.0 0
380542.0 404179.0 0
384847.0 403317.0 0
389466.0 405119.0 0
395358.0 404456.0 0
402681.0 403721.0 0
399817.0 405490.0 0
407248.0 403626.0 0
411812.0 405505.0 0
416152.0 403217.0 0
421098.0 403373.0 0
428332.0 403684.0 0
424496.0 405708.0 0
432580.0 405571.0 0
434387.0 402671.0 0
436004.0 403947.0 0
439282.0 403278.0 0
441746.0 405854.0 0
443994.0 402384.0 0
449714.0 402672.0 0
458305.0 402793.0 0
454316.0 404256.0 0
461997.0 404872.0 0
465672.0 402873.0 0
473938.0 402701.0 0
469562.0 403824.0 0
478918.0 403740.0 0
476133.0 406049.0 0
482996.0 405467.0 0
487846.0 404749.0 0
493064.0 401957.0 0
497686.0 403832.0 0
2330.38 407616.0 0
7097.78 409410.0 0
11816.2 409781.0 0
15630.8 407226.0 0
20590.8 407677.0 0
23319.6 410927.0 0
26529.2 408567.0 0
31275.9 408939.0 0
35739.7 410621.0 0
39800.9 409590.0 0
43080.4 409560.0 0
51023.3 407012.0 0
46406.9 409438.0 0
50344.4 411530.0 0
56272.5 406901.0 0
54227.7 410607.0 0
59920.5 409950.0 0
64866.4 409369.0 0
68829.8 406964.0 0
69753.6 410600.0 0
73495.7 406987.0 0
73845.1 411711.0 0
77171.2 409581.0 0
81316.4 409366.0 0
85501.4 409753.0 0
88267.2 406946.0 0
90077.9 411187.0 0
101869.0 408118.0 0
97565.4 409034.0 0
106559.0 407727.0 0
110820.0 409807.0 0
114579.0 407596.0 0
119115.0 408229.0 0
122856.0 407208.0 0
124108.0 410248.0 0
130164.0 407703.0 0
129193.0 411068.0 0
134225.0 408921.0 0
139893.0 407886.0 0
144988.0 408921.0 0
148846.0 407275.0 0
148313.0 411383.0 0
152187.0 409870.0 0
155933.0 410526.0 0
158436.0 407383.0 0
163115.0 407622.0 0
160679.0 411515.0 0
166265.0 411074.0 0
171774.0 410065.0 0
177562.0 410801.0 0
182585.0 409845.0 0
188608.0 408474.0 0
191882.0 411282.0 0
197350.0 411193.0 0
203680.0 406718.0 0
212765.0 405048.0 0
219639.0 409379.0 0
226910.0 407735.0 0
231852.0 409558.0 0
235985.0 404975.0 0
240689.0 405302.0 0
242901.0 408951.0 0
252094.0 407913.0 0
257103.0 404898.0 0
260593.0 408256.0 0
265315.0 408797.0 0
269897.0 409516.0 0
272605.0 405881.0 0
277780.0 405522.0 0
285380.0 405509.0 0
290616.0 405497.0 0
296105.0 405497.0 0
305339.0 406866.0 0
302210.0 409983.0 0
310394.0 406718.0 0
306593.0 409626.0 0
309478.0 410997.0 0
314223.0 408275.0 0
313082.0 410962.0 0
321124.0 408461.0 0
316814.0 409922.0 0
326760.0 407520.0 0
333042.0 407813.0 0
340320.0 408627.0 0
337118.0 410863.0 0
342236.0 411069.0 0
346415.0 410632.0 0
349128.0 407615.0 0
350116.0 411540.0 0
352847.0 409699.0 0
357261.0 410119.0 0
361863.0 408209.0 0
365558.0 410337.0 0
371234.0 407106.0 0
369270.0 409979.0 0
374399.0 411102.0 0
379425.0 408427.0 0
384294.0 407015.0 0
382929.0 410746.0 0
387670.0 410860.0 0
397917.0 407498.0 0
393615.0 409302.0 0
399314.0 410454.0 0
403642.0 407920.0 0
407267.0 411297.0 0
408432.0 407784.0 0
412103.0 410492.0 0
415505.0 407667.0 0
418179.0 411002.0 0
419837.0 406973.0 0
423352.0 409968.0 0
428201.0 408303.0 0
433041.0 409685.0 0
437397.0 407285.0 0
442035.0 409935.0 0
446445.0 407085.0 0
451870.0 407387.0 0
449266.0 410872.0 0
453781.0 411350.0 0
457600.0 407625.0 0
462779.0 407872.0 0
460973.0 410556.0 0
466766.0 406945.0 0
469073.0 410074.0 0
471800.0 407126.0 0
472633.0 411516.0 0
475506.0 409172.0 0
479979.0 408243.0 0
482449.0 411678.0 0
484941.0 408786.0 0
488681.0 409158.0 0
492934.0 407001.0 0
497845.0 408192.0 0
2296.06 411646.0 0
1709.38 415371.0 0
9862.09 412626.0 0
6315.89 414536.0 0
13329.1 412982.0 0
10948.6 415891.0 0
14933.8 416588.0 0
18056.3 412068.0 0
18762.7 416366.0 0
23089.5 415764.0 0
27703.4 412790.0 0
33247.6 414641.0 0
38761.9 413889.0 0
42949.0 412478.0 0
42423.2 416588.0 0
46754.3 414077.0 0
52793.5 416535.0 0
57322.8 412923.0 0
62568.9 413424.0 0
66904.0 413925.0 0
70704.7 414214.0 0
73909.2 415812.0 0
78536.3 413806.0 0
83412.1 412842.0 0
86833.4 414945.0 0
95374.5 412841.0 0
101095.0 412662.0 0
106729.0 412660.0 0
111049.0 413916.0 0
115383.0 411953.0 0
113724.0 416659.0 0
117755.0 415719.0 0
120586.0 412753.0 0
125940.0 414294.0 0
130010.0 415979.0 0
137362.0 412908.0 0
133052.0 413302.0 0
143109.0 413173.0 0
152406.0 413367.0 0
148362.0 415610.0 0
156560.0 414621.0 0
161000.0 416525.0 0
164409.0 414203.0 0
169435.0 415058.0 0
174200.0 413749.0 0
177629.0 414899.0 0
181947.0 414663.0 0
186824.0 412480.0 0
190512.0 415690.0 0
194334.0 414795.0 0
198936.0 415552.0 0
203235.0 412755.0 0
208125.0 409860.0 0
208614.0 414845.0 0
214169.0 410283.0 0
218168.0 414126.0 0
223541.0 411160.0 0
227904.0 413575.0 0
233002.0 414031.0 0
237242.0 410003.0 0
241452.0 413077.0 0
247878.0 410593.0 0
256134.0 409965.0 0
260952.0 414045.0 0
267649.0 414043.0 0
275401.0 410579.0 0
281786.0 410131.0 0
282918.0 415035.0 0
287927.0 411310.0 0
293591.0 410532.0 0
296890.0 414806.0 0
301850.0 414561.0 0
306351.0 413227.0 0
310863.0 414108.0 0
315645.0 414597.0 0
319660.0 412424.0 0
320410.0 416592.0 0
324481.0 413001.0 0
330683.0 412466.0 0
327601.0 416337.0 0
335384.0 414887.0 0
340153.0 415068.0 0
344704.0 413384.0 0
344429.0 416311.0 0
348287.0 414742.0 0
353402.0 413182.0 0
357028.0 415125.0 0
361931.0 413364.0 0
368516.0 414649.0 0
373320.0 415753.0 0
376992.0 415626.0 0
379830.0 413049.0 0
381229.0 416404.0 0
383971.0 414364.0 0
387355.0 415961.0 0
391840.0 414896.0 0
396296.0 413044.0 0
396260.0 416261.0 0
399803.0 414974.0 0
403228.0 412600.0 0
405946.0 414546.0 0
409754.0 415459.0 0
415287.0 414776.0 0
421502.0 414679.0 0
426027.0 413079.0 0
429438.0 412081.0 0
428744.0 415742.0 0
432936.0 414174.0 0
437189.0 411778.0 0
440906.0 414137.0 0
445796.0 413787.0 0
450765.0 415143.0 0
457844.0 412408.0 0
455466.0 415629.0 0
461266.0 414062.0 0
464997.0 411454.0 0
468733.0 414026.0 0
473222.0 416042.0 0
477827.0 413122.0 0
482374.0 415844.0 0
486664.0 413024.0 0
492142.0 412066.0 0
494970.0 416340.0 0
497538.0 412375.0 0
498705.0 416096.0 0
3241.96 419664.0 0
8384.47 418545.0 0
12438.9 419832.0 0
18211.5 421332.0 0
24000.4 420654.0 0
28153.6 417862.0 0
33273.7 420608.0 0
38002.3 418189.0 0
40294.9 420099.0 0
43609.0 421333.0 0
46832.8 417949.0 0
48846.3 420922.0 0
59532.9 416715.0 0
57313.8 420749.0 0
64496.8 417390.0 0
61770.0 420918.0 0
69535.5 417975.0 0
66444.4 421384.0 0
73169.2 418794.0 0
77245.6 419182.0 0
82614.8 417447.0 0
91548.1 416559.0 0
87161.0 419267.0 0
94620.1 419164.0 0
98058.8 417347.0 0
103918.0 417238.0 0
106618.0 421862.0 0
109117.0 417316.0 0
112349.0 421407.0 0
119917.0 417749.0 0
116975.0 419658.0 0
122680.0 416361.0 0
122205.0 421323.0 0
126649.0 418848.0 0
130358.0 420174.0 0
134628.0 417909.0 0
139673.0 416958.0 0
144449.0 419061.0 0
152903.0 417440.0 0
149226.0 419347.0 0
157285.0 419600.0 0
162737.0 421477.0 0
165516.0 417335.0 0
168628.0 420630.0 0
174149.0 418539.0 0
179304.0 418495.0 0
182956.0 419346.0 0
186203.0 417099.0 0
186010.0 421416.0 0
190029.0 420138.0 0
196365.0 416670.0 0
193898.0 418402.0 0
198038.0 419580.0 0
202158.0 419441.0 0
204921.0 417180.0 0
208559.0 419442.0 0
213233.0 416019.0 0
217472.0 418963.0 0
222762.0 415639.0 0
227100.0 419180.0 0
232005.0 418447.0 0
237368.0 415407.0 0
241440.0 418396.0 0
245377.0 415476.0 0
249723.0 415391.0 0
254574.0 415246.0 0
251448.0 419360.0 0
268602.0 419140.0 0
273167.0 415730.0 0
278636.0 415564.0 0
282545.0 419629.0 0
286431.0 415959.0 0
286829.0 419562.0 0
291103.0 415327.0 0
294783.0 419206.0 0
298047.0 419799.0 0
305501.0 417149.0 0
302065.0 419800.0 0
308846.0 416880.0 0
312410.0 417993.0 0
313632.0 421602.0 0
316846.0 419089.0 0
320807.0 420802.0 0
324087.0 418129.0 0
327484.0 420043.0 0
332078.0 418347.0 0
337328.0 419084.0 0
341995.0 419628.0 0
347248.0 419657.0 0
352400.0 417751.0 0
360433.0 417794.0 0
357188.0 419267.0 0
364060.0 417348.0 0
362659.0 421035.0 0
367253.0 419832.0 0
371732.0 418866.0 0
375360.0 418133.0 0
379061.0 418719.0 0
384308.0 419318.0 0
389473.0 419580.0 0
394079.0 419251.0 0
396822.0 421527.0 0
398569.0 418929.0 0
401574.0 421104.0 0
403731.0 417492.0 0
407623.0 420074.0 0
412869.0 419660.0 0
418542.0 419019.0 0
423113.0 418930.0 0
425243.0 416397.0 0
427169.0 419833.0 0
432016.0 418550.0 0
437128.0 416749.0 0
442769.0 417958.0 0
439465.0 419689.0 0
447820.0 418537.0 0
453156.0 419744.0 0
459298.0 417446.0 0
462041.0 419962.0 0
464587.0 416520.0 0
468771.0 418466.0 0
465429.0 420708.0 0
472586.0 420705.0 0
477984.0 418953.0 0
483021.0 420927.0 0
490046.0 417139.0 0
485856.0 417864.0 0
493628.0 420978.0 0
498072.0 419519.0 0
3276.59 425734.0 0
8683.85 422813.0 0
13393.2 425291.0 0
23280.9 425227.0 0
28134.1 423311.0 0
33010.4 426425.0 0
38241.4 423183.0 0
42627.6 426331.0 0
47847.3 425412.0 0
52897.5 422852.0 0
57579.9 425644.0 0
63083.6 425636.0 0
68857.5 425876.0 0
72690.9 422298.0 0
81560.2 422115.0 0
77289.1 423967.0 0
86252.8 423854.0 0
81861.8 426750.0 0
91495.0 421923.0 0
90691.2 426492.0 0
96239.1 421875.0 0
101070.0 422082.0 0
97683.4 425767.0 0
103747.0 426329.0 0
114547.0 425751.0 0
117829.0 423931.0 0
127525.0 424342.0 0
133620.0 423792.0 0
139142.0 421887.0 0
144142.0 424296.0 0
147968.0 422412.0 0
152712.0 422369.0 0
149012.0 426591.0 0
153517.0 426688.0 0
158073.0 424986.0 0
166257.0 423932.0 0
169614.0 426255.0 0
172689.0 422982.0 0
178050.0 422759.0 0
175051.0 426344.0 0
182648.0 423584.0 0
188620.0 424977.0 0
194185.0 423309.0 0
198813.0 423377.0 0
203395.0 423722.0 0
213011.0 420826.0 0
209310.0 424824.0 0
214528.0 425147.0 0
218494.0 423531.0 0
222090.0 420353.0 0
222463.0 424586.0 0
226672.0 424062.0 0
232017.0 424076.0 0
236614.0 420502.0 0
237906.0 424733.0 0
241943.0 423455.0 0
246460.0 420564.0 0
252009.0 423872.0 0
256813.0 421022.0 0
263410.0 420589.0 0
268544.0 424277.0 0
272777.0 420873.0 0
277512.0 420725.0 0
279745.0 425022.0 0
284538.0 424469.0 0
288768.0 424855.0 0
290396.0 420887.0 0
293480.0 424490.0 0
297813.0 423001.0 0
302736.0 424764.0 0
308143.0 421789.0 0
312770.0 425729.0 0
317490.0 423346.0 0
324545.0 422081.0 0
321659.0 425058.0 0
330110.0 423001.0 0
326656.0 426151.0 0
334711.0 422741.0 0
336718.0 426257.0 0
339321.0 423122.0 0
344161.0 423742.0 0
349595.0 424192.0 0
354260.0 422586.0 0
358800.0 422682.0 0
361887.0 425261.0 0
366031.0 424078.0 0
370552.0 422859.0 0
375620.0 421951.0 0
373356.0 426467.0 0
380461.0 422500.0 0
377967.0 426132.0 0
384206.0 423672.0 0
382106.0 426536.0 0
388001.0 423787.0 0
393172.0 423882.0 0
398898.0 424843.0 0
404678.0 424303.0 0
410343.0 424581.0 0
416227.0 423614.0 0
421834.0 423373.0 0
426725.0 424348.0 0
430785.0 422435.0 0
429867.0 425213.0 0
432761.0 426107.0 0
436001.0 422223.0 0
440926.0 421966.0 0
440598.0 425883.0 0
444696.0 422148.0 0
449529.0 423346.0 0
458028.0 421913.0 0
454341.0 424872.0 0
462723.0 424255.0 0
468563.0 422828.0 0
472606.0 426234.0 0
475756.0 422868.0 0
479343.0 424594.0 0
484456.0 425836.0 0
487927.0 421825.0 0
488302.0 425643.0 0
491646.0 424747.0 0
497588.0 423614.0 0
8890.58 428089.0 0
13882.0 431114.0 0
18525.5 427534.0 0
23201.8 430237.0 0
27723.0 428230.0 0
34097.4 431373.0 0
38196.4 428809.0 0
48824.7 430281.0 0
52677.5 427844.0 0
56327.2 429937.0 0
60244.3 429659.0 0
65689.2 429318.0 0
74062.4 427598.0 0
77759.8 430655.0 0
78097.0 427304.0 0
86362.7 428696.0 0
82519.5 431473.0 0
90310.3 430447.0 0
94883.2 429373.0 0
100339.0 430020.0 0
105446.0 430886.0 0
109443.0 426919.0 0
114254.0 429675.0 0
122027.0 426689.0 0
117704.0 427816.0 0
120082.0 430860.0 0
126078.0 430911.0 0
130891.0 428208.0 0
135589.0 429000.0 0
139962.0 426734.0 0
140302.0 431359.0 0
144473.0 429027.0 0
148540.0 431328.0 0
153587.0 430667.0 0
159068.0 430515.0 0
163779.0 427152.0 0
167695.0 430145.0 0
172783.0 430453.0 0
177015.0 430240.0 0
179944.0 427205.0 0
184792.0 427984.0 0
192275.0 429033.0 0
197896.0 427029.0 0
201700.0 430052.0 0
205322.0 428446.0 0
212478.0 429511.0 0
216837.0 429048.0 0
221120.0 428923.0 0
226565.0 429237.0 0
231497.0 429172.0 0
236775.0 429597.0 0
243022.0 428875.0 0
247104.0 425578.0 0
247845.0 429614.0 0
251842.0 428414.0 0
257507.0 425899.0 0
256389.0 429819.0 0
261049.0 425335.0 0
261136.0 429621.0 0
266095.0 429390.0 0
273517.0 425315.0 0
271344.0 429013.0 0
276464.0 429128.0 0
282760.0 428987.0 0
287500.0 428977.0 0
292275.0 429365.0 0
297022.0 427339.0 0
302346.0 429892.0 0
307582.0 427873.0 0
312365.0 431068.0 0
317701.0 428271.0 0
323014.0 429740.0 0
328730.0 430654.0 0
332213.0 427128.0 0
333040.0 431311.0 0
337107.0 430311.0 0
340930.0 427347.0 0
346055.0 428465.0 0
351180.0 429003.0 0
356644.0 427550.0 0
361155.0 428631.0 0
365350.0 429071.0 0
369124.0 426622.0 0
370777.0 430844.0 0
376026.0 430147.0 0
380063.0 429817.0 0
386101.0 428389.0 0
390548.0 427924.0 0
391959.0 431541.0 0
395398.0 428863.0 0
402073.0 428779.0 0
407147.0 429607.0 0
411542.0 429184.0 0
414447.0 427249.0 0
414788.0 430456.0 0
418857.0 428384.0 0
424138.0 428344.0 0
429152.0 428642.0 0
433747.0 430632.0 0
436489.0 427178.0 0
438611.0 430413.0 0
442339.0 429510.0 0
445495.0 426677.0 0
445893.0 431084.0 0
450790.0 428985.0 0
458521.0 426641.0 0
455311.0 428561.0 0
458132.0 431256.0 0
462310.0 429015.0 0
466994.0 427215.0 0
470633.0 431223.0 0
475986.0 430837.0 0
480701.0 428813.0 0
484482.0 430567.0 0
494750.0 426959.0 0
490146.0 430382.0 0
498333.0 427394.0 0
496681.0 431258.0 0
3112.36 431785.0 0
1805.05 436464.0 0
8557.32 432720.0 0
5934.4 436098.0 0
11700.8 436176.0 0
18880.5 432015.0 0
17156.0 436385.0 0
21413.2 434136.0 0
25461.4 434595.0 0
29613.8 432249.0 0
34157.4 435125.0 0
38948.3 434267.0 0
43968.0 431346.0 0
43665.7 435882.0 0
48133.6 434773.0 0
52926.7 432557.0 0
58198.3 433434.0 0
63655.2 433338.0 0
69915.3 431722.0 0
74713.9 433147.0 0
72224.2 436192.0 0
79025.9 434773.0 0
83388.7 435636.0 0
87405.3 433692.0 0
92746.9 433841.0 0
97236.7 433171.0 0
102653.0 434426.0 0
106723.0 434816.0 0
110439.0 432689.0 0
116100.0 434326.0 0
121520.0 434704.0 0
131949.0 432914.0 0
136658.0 433482.0 0
140498.0 435700.0 0
144583.0 433790.0 0
151216.0 434782.0 0
156055.0 435116.0 0
160729.0 435088.0 0
164229.0 432256.0 0
165149.0 436742.0 0
169739.0 434262.0 0
176100.0 434511.0 0
181439.0 432316.0 0
187458.0 432628.0 0
192867.0 434685.0 0
197501.0 431691.0 0
202102.0 434270.0 0
207907.0 433982.0 0
215897.0 433250.0 0
220436.0 433919.0 0
225551.0 434749.0 0
230857.0 433848.0 0
235690.0 435034.0 0
240327.0 434691.0 0
246136.0 434630.0 0
253100.0 434862.0 0
259503.0 434492.0 0
264315.0 434949.0 0
269197.0 434146.0 0
273597.0 433710.0 0
278650.0 434224.0 0
283522.0 433515.0 0
287353.0 433697.0 0
292067.0 434855.0 0
297098.0 432228.0 0
302252.0 434801.0 0
306361.0 432721.0 0
309485.0 434618.0 0
313272.0 435773.0 0
317182.0 433323.0 0
325605.0 432891.0 0
321936.0 434729.0 0
330892.0 435310.0 0
335711.0 434533.0 0
342076.0 432767.0 0
348336.0 433674.0 0
354245.0 433178.0 0
360530.0 433109.0 0
366541.0 434474.0 0
371211.0 435514.0 0
374469.0 433672.0 0
379004.0 434146.0 0
383245.0 432072.0 0
387976.0 433517.0 0
394783.0 433273.0 0
398857.0 432281.0 0
400701.0 435264.0 0
403595.0 433383.0 0
408003.0 433093.0 0
411614.0 433335.0 0
417271.0 433975.0 0
421835.0 432271.0 0
426846.0 433274.0 0
431540.0 434092.0 0
436606.0 434826.0 0
441965.0 433961.0 0
448806.0 433895.0 0
453768.0 433866.0 0
458664.0 435919.0 0
462093.0 433492.0 0
466122.0 431878.0 0
472823.0 434355.0 0
476848.0 435728.0 0
480835.0 433200.0 0
485692.0 435418.0 0
493387.0 435109.0 0
497760.0 435988.0 0
3821.25 440366.0 0
8420.72 439146.0 0
12400.9 440839.0 0
19686.1 439634.0 0
22117.8 437694.0 0
25417.3 439963.0 0
29956.9 437460.0 0
28289.1 441306.0 0
35893.7 439509.0 0
41121.6 439008.0 0
46116.1 438465.0 0
49237.3 440197.0 0
52428.4 437181.0 0
57265.6 437755.0 0
61633.8 437741.0 0
67679.6 436862.0 0
76001.4 438291.0 0
81030.2 439581.0 0
86839.0 439178.0 0
91780.2 438199.0 0
96136.2 437003.0 0
100476.0 438224.0 0
105395.0 438587.0 0
111020.0 438039.0 0
116707.0 440040.0 0
121762.0 439017.0 0
125521.0 436523.0 0
130282.0 438035.0 0
135259.0 437034.0 0
139130.0 439686.0 0
143635.0 437200.0 0
147524.0 437753.0 0
143695.0 440718.0 0
152710.0 438817.0 0
157104.0 439403.0 0
161440.0 439280.0 0
168628.0 438760.0 0
173129.0 438871.0 0
180073.0 437142.0 0
184212.0 436404.0 0
188837.0 438111.0 0
193414.0 438884.0 0
197664.0 436769.0 0
202987.0 438953.0 0
213085.0 435751.0 0
213653.0 439172.0 0
217428.0 438964.0 0
222055.0 439132.0 0
227182.0 439697.0 0
232639.0 439227.0 0
238301.0 439375.0 0
242790.0 439064.0 0
248109.0 440266.0 0
252075.0 439901.0 0
256112.0 440259.0 0
261185.0 439552.0 0
266313.0 439044.0 0
272218.0 439631.0 0
277333.0 438761.0 0
282527.0 438865.0 0
288001.0 437954.0 0
292160.0 440326.0 0
297034.0 437858.0 0
302217.0 439133.0 0
306258.0 436880.0 0
310225.0 438360.0 0
317766.0 439076.0 0
323449.0 439580.0 0
326388.0 436547.0 0
333919.0 439546.0 0
339310.0 438039.0 0
344591.0 436869.0 0
343766.0 441056.0 0
348258.0 439012.0 0
352271.0 437417.0 0
357084.0 438246.0 0
362998.0 438646.0 0
368959.0 438299.0 0
371844.0 440896.0 0
375142.0 437807.0 0
379502.0 438571.0 0
383504.0 436676.0 0
392166.0 435946.0 0
387926.0 438606.0 0
397110.0 437244.0 0
402092.0 438154.0 0
407467.0 437312.0 0
413456.0 438247.0 0
418691.0 439105.0 0
422687.0 436472.0 0
427564.0 438419.0 0
432603.0 438314.0 0
437001.0 439080.0 0
440262.0 438212.0 0
444830.0 438374.0 0
450211.0 438309.0 0
455227.0 438776.0 0
462742.0 437609.0 0
468129.0 436762.0 0
473334.0 438261.0 0
477062.0 439304.0 0
480859.0 437774.0 0
483794.0 440762.0 0
490062.0 438225.0 0
494410.0 439055.0 0
498122.0 440062.0 0
2764.37 445505.0 0
8069.2 443699.0 0
13751.5 445267.0 0
17030.5 441766.0 0
21764.2 442330.0 0
26612.2 445114.0 0
31482.5 442606.0 0
35394.6 444515.0 0
39738.7 443384.0 0
44475.9 442239.0 0
49859.0 443685.0 0
46944.8 446190.0 0
54296.3 442158.0 0
59910.8 441822.0 0
64911.6 440934.0 0
63141.9 445700.0 0
67503.7 446247.0 0
71116.9 441963.0 0
77076.5 443006.0 0
80659.7 443701.0 0
84090.6 443339.0 0
91352.3 443468.0 0
96787.4 441554.0 0
102274.0 443480.0 0
108236.0 442868.0 0
112635.0 442582.0 0
115815.0 445144.0 0
120897.0 443916.0 0
126034.0 441700.0 0
134323.0 442665.0 0
140363.0 444763.0 0
145473.0 444892.0 0
149463.0 442380.0 0
154554.0 443267.0 0
159385.0 442970.0 0
162363.0 446382.0 0
163933.0 442591.0 0
167584.0 442144.0 0
171418.0 443551.0 0
178050.0 441910.0 0
174694.0 445090.0 0
181651.0 445818.0 0
184075.0 441380.0 0
188845.0 442719.0 0
192125.0 441582.0 0
192204.0 446172.0 0
196848.0 442177.0 0
201989.0 443790.0 0
208915.0 440961.0 0
214252.0 443529.0 0
218640.0 444206.0 0
222500.0 444296.0 0
226840.0 445375.0 0
232446.0 444328.0 0
237222.0 444563.0 0
242447.0 443853.0 0
247220.0 445083.0 0
252500.0 444300.0 0
256322.0 444986.0 0
261156.0 444785.0 0
266833.0 444635.0 0
272318.0 445494.0 0
277137.0 443357.0 0
286488.0 443503.0 0
296536.0 443994.0 0
301695.0 443111.0 0
306767.0 442333.0 0
312601.0 442357.0 0
317256.0 445010.0 0
322361.0 443912.0 0
328533.0 441557.0 0
334983.0 443848.0 0
339397.0 443112.0 0
343291.0 445898.0 0
347787.0 443776.0 0
352525.0 442000.0 0
357899.0 444008.0 0
363052.0 443385.0 0
365984.0 446403.0 0
367423.0 442103.0 0
371486.0 445673.0 0
376568.0 442571.0 0
382181.0 441763.0 0
379861.0 445703.0 0
387075.0 443824.0 0
392828.0 441447.0 0
396617.0 445832.0 0
399055.0 441937.0 0
404320.0 443020.0 0
410230.0 442636.0 0
415681.0 443240.0 0
421403.0 446272.0 0
423620.0 441957.0 0
429715.0 443377.0 0
435197.0 442622.0 0
441421.0 442303.0 0
447416.0 443079.0 0
452717.0 442758.0 0
459532.0 441540.0 0
462287.0 446237.0 0
465118.0 441670.0 0
467552.0 446195.0 0
470261.0 441966.0 0
472493.0 446302.0 0
474976.0 442468.0 0
479585.0 442242.0 0
477435.0 446147.0 0
483404.0 445493.0 0
487740.0 442491.0 0
492270.0 442352.0 0
493060.0 446014.0 0
496594.0 443981.0 0
1132.15 449107.0 0
6271.64 448522.0 0
10234.0 447888.0 0
13757.3 451092.0 0
18364.7 446449.0 0
18301.6 450820.0 0
22268.2 446138.0 0
22611.5 450206.0 0
27985.3 450994.0 0
31805.2 447198.0 0
38227.3 448564.0 0
42732.9 446357.0 0
47796.7 451029.0 0
52397.2 447717.0 0
58023.1 446543.0 0
61939.2 450513.0 0
67409.5 451116.0 0
71359.1 447817.0 0
76392.7 448007.0 0
81572.2 447102.0 0
86675.8 446951.0 0
91241.0 449217.0 0
96788.8 447201.0 0
101852.0 448613.0 0
106354.0 447635.0 0
111400.0 447059.0 0
109277.0 451151.0 0
113642.0 451049.0 0
118810.0 448820.0 0
123752.0 448220.0 0
129259.0 446934.0 0
135994.0 449098.0 0
140512.0 448805.0 0
144318.0 449724.0 0
148816.0 447260.0 0
153291.0 448388.0 0
157923.0 446854.0 0
163517.0 450778.0 0
167532.0 446775.0 0
172825.0 449029.0 0
177654.0 447322.0 0
182587.0 450578.0 0
186440.0 446664.0 0
188965.0 450572.0 0
193307.0 451335.0 0
197660.0 447600.0 0
202500.0 449173.0 0
206205.0 446526.0 0
212785.0 448973.0 0
217500.0 449129.0 0
222500.0 448998.0 0
232689.0 449030.0 0
237840.0 449460.0 0
242662.0 448401.0 0
247486.0 449476.0 0
251894.0 448668.0 0
256244.0 449218.0 0
260649.0 449812.0 0
265427.0 449866.0 0
270647.0 450642.0 0
276746.0 449534.0 0
281660.0 446079.0 0
286202.0 449416.0 0
291220.0 445852.0 0
297823.0 450525.0 0
302997.0 447392.0 0
307932.0 447651.0 0
312596.0 447349.0 0
316564.0 449445.0 0
321097.0 448536.0 0
326514.0 447183.0 0
331866.0 447099.0 0
337861.0 448148.0 0
343178.0 451317.0 0
348026.0 448564.0 0
353231.0 447368.0 0
357870.0 449353.0 0
361875.0 447347.0 0
368475.0 450236.0 0
375990.0 446937.0 0
378944.0 450273.0 0
383812.0 448212.0 0
391574.0 447676.0 0
397517.0 450914.0 0
401067.0 447395.0 0
407590.0 447958.0 0
412421.0 447062.0 0
417361.0 448374.0 0
422306.0 450543.0 0
425791.0 447095.0 0
433528.0 446496.0 0
430045.0 448560.0 0
438238.0 446579.0 0
443558.0 446925.0 0
448488.0 448267.0 0
452308.0 446515.0 0
453465.0 451385.0 0
456456.0 446112.0 0
465022.0 450121.0 0
469868.0 451131.0 0
475372.0 450324.0 0
480330.0 449692.0 0
484798.0 449995.0 0
489022.0 447533.0 0
493620.0 449870.0 0
497840.0 448275.0 0
3384.36 452264.0 0
1322.97 455818.0 0
8621.51 452134.0 0
11699.9 455916.0 0
17508.3 455907.0 0
23344.1 455317.0 0
28206.9 456321.0 0
33542.0 451934.0 0
37996.5 453967.0 0
42615.0 452164.0 0
46607.6 455901.0 0
52238.7 452846.0 0
56833.9 451671.0 0
61889.0 455662.0 0
66484.5 455933.0 0
73039.9 452314.0 0
78210.3 453015.0 0
84093.4 452224.0 0
89501.4 453565.0 0
94826.4 452613.0 0
99472.7 452004.0 0
104490.0 452540.0 0
108755.0 456103.0 0
117059.0 452693.0 0
113972.0 455556.0 0
121871.0 452538.0 0
127925.0 453920.0 0
133684.0 453594.0 0
140280.0 451917.0 0
142426.0 455434.0 0
137633.0 455647.0 0
145613.0 453729.0 0
147500.0 456035.0 0
149310.0 451937.0 0
158010.0 452206.0 0
162884.0 455708.0 0
168217.0 452080.0 0
173151.0 455279.0 0
177601.0 451826.0 0
181264.0 455761.0 0
186449.0 454574.0 0
197853.0 452158.0 0
198044.0 456354.0 0
202520.0 453941.0 0
208177.0 451042.0 0
207157.0 455326.0 0
212278.0 454364.0 0
217524.0 453898.0 0
222414.0 454017.0 0
228085.0 450671.0 0
226509.0 455155.0 0
231540.0 453863.0 0
236489.0 454152.0 0
241715.0 453051.0 0
247385.0 454626.0 0
253564.0 454081.0 0
258779.0 454239.0 0
262772.0 453968.0 0
267147.0 454678.0 0
273556.0 454822.0 0
277999.0 454955.0 0
281685.0 451017.0 0
282587.0 454446.0 0
287656.0 454571.0 0
291725.0 451043.0 0
292179.0 455783.0 0
304028.0 451901.0 0
301837.0 455245.0 0
308306.0 451899.0 0
306202.0 455981.0 0
310567.0 456300.0 0
313078.0 452489.0 0
319009.0 453563.0 0
323866.0 452131.0 0
328412.0 452250.0 0
333598.0 452169.0 0
338363.0 453436.0 0
351578.0 452287.0 0
347344.0 454723.0 0
356780.0 454596.0 0
362915.0 452477.0 0
373702.0 452654.0 0
382983.0 453031.0 0
388173.0 452473.0 0
393125.0 452413.0 0
395005.0 456403.0 0
400201.0 455691.0 0
403626.0 451527.0 0
408198.0 452853.0 0
404274.0 455366.0 0
413143.0 452036.0 0
418232.0 453269.0 0
422614.0 455374.0 0
427122.0 452036.0 0
431487.0 455241.0 0
434675.0 451356.0 0
440821.0 451678.0 0
446522.0 453271.0 0
460000.0 451563.0 0
473744.0 455994.0 0
484256.0 453992.0 0
479720.0 455026.0 0
488391.0 452565.0 0
493031.0 455359.0 0
497668.0 452651.0 0
2230.69 459248.0 0
6515.35 456784.0 0
21750.7 459932.0 0
26726.9 461333.0 0
33165.3 457207.0 0
37823.5 458424.0 0
42156.5 457226.0 0
47149.3 461610.0 0
51332.1 457344.0 0
56662.8 457115.0 0
63662.5 460777.0 0
70749.6 456753.0 0
68474.1 460627.0 0
75540.3 457079.0 0
72905.9 461005.0 0
81245.5 458365.0 0
86917.6 456984.0 0
88033.4 461184.0 0
92596.5 457148.0 0
97962.7 456706.0 0
103347.0 458035.0 0
107542.0 461260.0 0
112020.0 459582.0 0
116072.0 460775.0 0
119094.0 456755.0 0
123851.0 458769.0 0
128183.0 459852.0 0
133023.0 457984.0 0
137252.0 460755.0 0
142708.0 460598.0 0
147760.0 459987.0 0
151907.0 457005.0 0
157671.0 458355.0 0
163250.0 460601.0 0
167722.0 456969.0 0
167625.0 461471.0 0
172428.0 461173.0 0
177560.0 456366.0 0
177593.0 460017.0 0
182732.0 460474.0 0
186823.0 459208.0 0
192139.0 456995.0 0
202854.0 458887.0 0
207848.0 459871.0 0
212886.0 459547.0 0
217756.0 458984.0 0
221888.0 458978.0 0
225708.0 459410.0 0
230704.0 459326.0 0
236499.0 459372.0 0
242350.0 458999.0 0
248007.0 460192.0 0
252305.0 459221.0 0
256783.0 458861.0 0
261664.0 459019.0 0
267034.0 460477.0 0
272656.0 459457.0 0
278128.0 460201.0 0
283595.0 458695.0 0
289036.0 459575.0 0
293819.0 460907.0 0
297149.0 456985.0 0
302661.0 459803.0 0
308820.0 461537.0 0
315015.0 457639.0 0
319984.0 458540.0 0
325321.0 457265.0 0
330950.0 456610.0 0
335716.0 456932.0 0
332461.0 461276.0 0
342022.0 457731.0 0
351654.0 457602.0 0
347267.0 459129.0 0
356364.0 460362.0 0
361477.0 458442.0 0
368272.0 456272.0 0
368990.0 461275.0 0
373086.0 459655.0 0
378834.0 457223.0 0
385313.0 457201.0 0
382943.0 460486.0 0
390221.0 457487.0 0
397827.0 460582.0 0
402738.0 460145.0 0
407471.0 457735.0 0
411395.0 461614.0 0
413869.0 457161.0 0
418593.0 457841.0 0
422914.0 460384.0 0
427316.0 457260.0 0
432250.0 459978.0 0
436176.0 456562.0 0
437595.0 461381.0 0
441149.0 457302.0 0
445970.0 458278.0 0
451338.0 457646.0 0
456945.0 456420.0 0
456989.0 461024.0 0
462054.0 456683.0 0
467389.0 456598.0 0
477574.0 460628.0 0
482592.0 460371.0 0
487396.0 457924.0 0
492183.0 460673.0 0
497948.0 457093.0 0
496746.0 460891.0 0
5256.48 461617.0 0
10283.5 461594.0 0
16814.4 462289.0 0
32243.7 462538.0 0
37610.3 463212.0 0
42055.2 462875.0 0
53290.0 462068.0 0
58474.5 462179.0 0
77271.7 462424.0 0
83347.1 462886.0 0
92819.1 462267.0 0
98490.9 462147.0 0
103135.0 462708.0 0
120411.0 461361.0 0
125537.0 462856.0 0
131793.0 463560.0 0
153702.0 462399.0 0
159435.0 463453.0 0
189806.0 462590.0 0
196970.0 461336.0 0
298099.0 462127.0 0
314702.0 462745.0 0
319713.0 463432.0 0
324108.0 462217.0 0
328178.0 463844.0 0
337675.0 462529.0 0
342873.0 463606.0 0
347251.0 463067.0 0
351882.0 462984.0 0
360216.0 463358.0 0
364999.0 462297.0 0
371855.0 463964.0 0
376739.0 462329.0 0
387454.0 461846.0 0
392790.0 461836.0 0
406522.0 462719.0 0
417008.0 462933.0 0
427561.0 462446.0 0
443305.0 462134.0 0
448142.0 461985.0 0
452816.0 463324.0 0
461831.0 461715.0 0
466843.0 461859.0 0
472050.0 462014.0 0
488254.0 462950.0 0
POINT_DATA 5000
SCALARS Radius float 1
LOOKUP_TABLE default
5782.6 5529.52 4796.58 3979.26 3471.03 5253.55 5820.48 4862.21 5113.21 3929.19 4107.03 4478.15 5379.87 5925.6 4501.51 4792.73 4736.58 4931.38 3485.26 4329.05 4151.94 4049.23 5337.48 6124.89 5708.81 5252.48 4780.03 5495.39 3996.0 3856.1 4665.12 3383.4 4133.88 4834.9 3850.77 6044.04 5415.48 5120.0 3863.18 2356.98 4998.37 6182.6 5492.18 5258.36 5061.3 3642.12 3163.97 5812.43 5122.66 5906.14 5484.19 7513.1 5254.28 4436.4 5733.48 4672.91 5580.89 3588.44 5645.7 5176.86 6810.52 5840.26 3672.51 6110.27 5561.06 5073.35 3615.22 5670.04 4380.59 3589.27 6716.79 3607.45 5759.91 7613.27 4951.03 5255.32 6037.08 5096.78 6756.95 4129.43 6324.23 3843.58 3320.52 4194.5 4270.53 5344.25 5191.63 4593.7 4150.99 4216.92 4742.68 4344.58 5634.83 5495.84 6268.1 4861.06 5374.51 5320.28 6739.08 4797.52 4569.12 4298.67 5960.66 6608.73 5011.84 7034.11 6261.42 4502.5 3771.48 4043.57 4271.69 5681.38 4138.42 3708.04 5513.6 3240.09 4556.36 6082.81 3191.99 4685.34 5601.05 4929.8 3586.91 3103.0 3554.9 4015.92 5542.21 4487.31 3936.02 4044.71 5980.74 4094.62 4927.02 5546.39 5325.36 5484.83 5085.53 5351.6 4730.36 4715.55 5867.73 3951.75 5013.56 4499.64 4375.68 5542.27 5054.98 6030.06 5170.02 3557.27 4927.31 4688.68 4402.52 4517.56 4182.53 5903.42 3955.56 3761.32 4118.05 4366.19 5553.16 2938.66 4940.78 4231.61 4008.92 3942.53 3379.84 4827.82 3997.1 3260.67 5123.52 3038.33 4392.68 4333.2 7199.21 4523.7 2240.39 5091.39 5293.9 3912.37 6142.94 4727.24 4602.25 4790.08 5082.47 4763.45 5445.87 3815.26 4704.72 4177.94 4571.7 5896.46 5022.8 3784.5 3780.23 6481.79 5224.12 7042.12 4819.73 6326.39 4471.58 5873.69 4962.09 3999.48 4359.62 6946.21 2586.12 5433.8 4011.77 5499.11 3633.87 5922.5 5198.77 5987.17 6013.14 2765.2 4901.41 5110.37 5664.98 4382.74 5927.43 4651.28 4384.42 3693.63 4516.43 5481.78 5637.59 4937.14 5043.05 5816.2 5693.81 5109.54 6483.19 3829.13 5945.65 6759.9 5538.89 7021.47 5416.38 6059.59 4955.55 2720.68 5701.86 3563.63 4238.81 4468.59 5885.03 2837.58 5325.02 5200.76 5017.13 4862.64 5185.34 4432.58 6684.56 3968.64 4688.67 2635.86 5292.64 6166.5 5065.13 5936.02 5305.17 4861.08 4003.05 5390.22 4805.87 4712.33 5227.21 5697.78 4667.36 4091.31 6372.62 4295.38 5615.42 7565.34 5923.5 4612.68 4281.49 4973.83 6342.25 6691.39 4840.84 5135.69 5344.0 4020.32 6045.46 4245.72 5908.1 6048.7 6133.92 3719.84 4178.4 3095.48 4166.08 4123.6 4850.14 5163.55 3382.7 6817.32 4319.79 6098.14 4472.17 4203.26 5188.81 4730.41 6057.22 5062.71 6125.34 4527.08 5347.48 4850.01 3970.25 5147.67 3979.82 5011.31 5138.31 5264.06 4659.59 6327.9 4048.37 6355.42 4362.19 5690.56 4948.92 3115.91 4493.48 3307.12 5924.89 4002.16 4174.52 4138.16 3486.22 4684.5 6230.49 6458.82 5418.62 4601.27 5493.32 5740.68 5926.61 6051.14 5836.15 3261.21 4345.55 6704.06 3653.41 3871.88 3856.01 5246.2 4390.66 5279.39 3673.74 4827.23 5205.43 6116.18 7447.37 4924.6 4385.06 4733.32 7184.19 2899.43 2924.37 3867.67 4290.3 5399.73 4660.72 3888.21 5891.05 6038.78 6902.81 6644.76 4254.17 5629.19 5090.24 5740.84 6445.94 5530.87 4310.18 7134.64 5978.9 4187.56 3629.62 4997.27 4301.06 4877.67 4290.14 6562.18 4156.38 5316.75 4541.21 4164.68 5669.65 5934.22 5624.49 5762.59 7092.87 4666.81 3703.1 3954.91 6471.55 2965.01 6643.85 3637.61 5501.93 6222.42 5654.31 3745.84 5690.26 4156.2 4497.59 5965.78 4374.35 4810.12 5643.58 5215.05 4292.06 5577.04 5006.58 4602.86 3688.8 4548.16 3369.23 5449.18 5492.26 5244.78 5762.84 3937.74 4749.8 6084.86 5478.92 4778.34 5551.36 6894.71 3091.3 4414.54 5789.98 6138.47 7054.71 3641.64 5489.43 5747.75 4277.89 5054.25 4796.33 4195.44 5539.32 5360.19 6496.85 5600.93 4874.39 5541.59 4124.71 5728.85 6337.56 4911.47 5803.39 5863.59 4381.97 6257.19 3255.82 5242.73 2812.98 4065.69 5603.15 4695.45 6052.7 3921.18 3798.62 5308.1 3666.57 4907.89 4937.02 5655.21 4786.6 4645.41 4433.59 4320.28 5542.14 4218.06 5480.13 6308.71 4716.19 5514.76 3456.98 3498.2 5105.16 3066.13 4302.5 6006.16 6009.88 7055.53 5013.67 5826.04 5339.78 4143.78 4970.88 4763.66 4636.5 4940.42 5923.4 5085.71 5499.39 5644.82 5463.38 5945.21 4938.74 5696.88 5607.14 3923.03 5975.63 5252.34 6396.74 4138.46 2775.04 3821.72 4986.77 6318.18 5586.81 3948.17 4551.24 4621.75 5358.59 4220.88 4515.71 6519.71 6640.13 5082.6 5810.84 4230.54 5094.44 3748.24 4655.49 4467.94 4850.81 6038.14 2540.31 6029.66 5527.54 5573.7 5697.4 4727.62 4270.95 4055.8 7325.81 5280.17 6425.26 5143.58 4794.96 6186.19 4839.34 5083.08 6834.49 5525.39 3998.5 5938.34 4024.3 6394.38 5555.28 5169.36 4737.14 4686.65 5834.74 5556.96 5788.23 5581.75 6392.01 3599.45 6730.19 4907.06 4073.93 3735.44 6043.3 5952.75 6332.36 6122.55 2739.94 4931.53 4223.33 5911.67 3323.28 6695.82 6405.76 5794.24 4678.38 5448.61 5050.65 4827.33 5206.48 5513.57 5729.23 5226.0 3365.82 4538.95 5965.15 4780.2 6090.91 4946.42 5019.93 5081.78 6116.33 6263.44 6343.14 5774.97 5462.21 5750.71 5470.77 4831.47 4643.85 4004.04 4289.17 5564.02 4274.61 2965.79 6898.19 6035.6 5137.34 4481.53 5330.45 4581.13 4219.07 3610.4 6387.01 5367.52 3092.35 4322.15 5210.03 3629.96 5478.47 5351.39 6142.37 6061.47 4933.21 5375.47 4723.12 5120.49 5201.36 5262.61 6302.8 5409.61 6038.2 4005.44 5206.78 5555.88 6732.43 5028.96 3866.16 6362.12 4484.76 4840.01 2980.99 5611.2 7933.0 4455.12 5173.87 4894.16 5380.13 5711.87 5118.27 4941.22 5932.23 5791.61 3369.13 4479.66 3043.85 5367.2 5461.13 4726.76 5839.13 5495.68 5489.34 5163.9 5708.14 5537.72 3920.42 8332.24 6155.31 4553.56 5329.64 6049.55 5709.62 5835.78 4127.74 2476.04 3942.07 7443.72 3937.08 5260.34 4709.35 6586.45 4373.3 4750.78 4163.5 5724.64 5078.86 5100.1 3561.29 4963.34 3295.83 4459.28 4260.92 5960.56 4118.84 4020.95 6313.06 3474.39 6470.3 4200.03 6062.05 5082.74 6915.83 6072.45 4410.55 7099.43 5526.14 5198.29 5423.0 5077.33 3856.59 4746.52 5413.79 6338.89 6202.55 5025.39 4714.54 5893.5 3320.11 5030.91 6022.17 5119.37 3982.23 6163.38 4566.18 3459.9 4964.09 4809.42 5024.9 4306.53 5659.17 5094.81 5972.06 5713.22 5861.71 4359.04 3183.98 3794.63 4524.28 3778.1 5152.36 4511.82 5826.64 4220.65 6820.42 4816.2 6321.41 4896.52 4751.02 3372.79 5184.56 5282.64 4715.72 4669.66 4808.52 5046.33 5607.24 5053.92 6352.26 3847.38 3818.59 4863.72 5002.48 6623.85 4262.82 5102.36 4342.9 5069.84 4051.44 4241.89 5054.74 5941.72 5991.09 5133.97 6600.94 4788.58 5371.02 6155.1 5876.71 6262.72 5029.78 6515.84 4888.6 2990.77 4739.14 4918.77 4371.99 4219.78 3885.86 5235.29 4479.94 6250.23 6413.02 4863.27 5862.86 6049.79 3493.7 5374.98 4719.7 6939.12 4735.33 5411.85 5092.37 6444.77 6314.07 4287.63 5315.4 6449.45 3975.31 3689.45 3824.16 5572.95 3868.18 6723.16 5584.06 7111.16 4547.19 3817.13 5507.24 6851.54 4583.31 4503.89 5806.08 4853.39 4997.27 4093.08 4449.22 5543.27 4717.05 5287.2 6135.57 5998.38 4312.67 5423.8 4270.24 4989.15 5017.78 5015.69 6175.81 4727.24 6677.09 4305.57 6959.81 4829.35 5201.67 4424.7 4089.76 5526.55 3192.41 5215.15 4987.87 3315.57 5804.71 4764.96 5727.3 4242.52 5356.51 4277.88 3057.03 4087.15 4143.08 7500.97 3948.23 5228.18 5787.31 5065.11 3927.99 5868.82 4050.9 4978.31 4099.77 4537.32 4981.9 4656.78 5126.91 3600.43 5131.24 5196.67 6496.67 5474.8 3664.11 5117.47 4925.63 5882.65 4434.19 5187.7 4623.61 4188.3 6261.75 5177.64 4255.31 5453.3 4407.9 3492.19 4584.5 5122.63 4703.08 6345.13 5274.19 5516.95 4406.4 4413.85 4844.57 4027.46 4470.98 5776.37 4516.28 3627.82 4044.45 5125.78 5344.43 4373.47 5045.38 5350.88 5372.61 3686.21 6480.17 5023.15 4377.07 3813.22 5101.59 5570.3 4336.42 5243.29 7589.94 3130.65 5628.24 5856.11 3327.49 4109.88 4234.94 4562.29 5013.13 5080.66 3417.33 4926.42 4164.13 4642.34 4520.1 4947.52 5874.89 4293.03 5813.4 4389.21 3791.79 4925.44 4754.05 4951.47 6084.93 4307.28 3697.96 4739.42 5538.93 5020.12 2631.9 4745.45 5281.28 6255.18 4668.71 4758.21 7228.46 6362.14 6719.88 5978.82 5266.5 4523.88 4066.38 4948.98 5227.52 4414.48 4092.24 5163.02 7144.24 4906.82 5687.83 5004.23 6442.69 6320.71 4648.04 6607.87 4721.32 3163.78 3293.56 5274.14 4903.82 5746.28 4082.47 5511.6 4338.08 4378.3 6134.99 4094.73 4989.56 4718.54 4440.57 5548.29 6766.43 2315.64 4390.41 5226.56 5599.49 5313.22 3905.51 3999.94 4864.22 5759.46 3901.8 3921.08 4190.31 5678.96 5262.19 4244.9 6070.58 6034.41 5452.83 5130.91 5402.24 4519.22 6445.22 3844.9 3695.36 3963.86 3848.93 4306.11 5935.47 3402.32 5903.66 4528.49 5004.67 5365.89 5992.26 3960.8 5070.39 4980.85 5714.58 5110.45 5208.32 5248.77 4083.97 4607.02 5153.74 3895.51 4528.09 4165.81 6291.51 4128.98 5882.89 6246.22 4188.32 5246.61 4100.38 5344.77 4723.48 4899.11 5097.87 4278.07 7267.18 6256.02 5320.92 5269.18 4406.1 5034.59 4942.77 4263.33 5080.18 4454.63 5912.61 3279.1 4403.98 4560.84 4729.43 5776.57 4562.74 5683.26 5598.74 5139.5 7493.3 4814.55 3527.05 3464.83 5698.77 2477.07 6413.11 4305.16 5092.28 4965.89 5659.95 4152.85 2908.7 4453.64 4517.73 5469.47 5660.16 3838.47 2588.37 6736.03 6235.57 3623.87 5916.16 6934.37 6113.95 4050.08 4097.57 5017.5 5563.79 6171.13 5511.88 5083.41 4512.11 7055.42 5486.68 6048.86 4285.32 5490.43 5022.28 5197.52 4959.34 4948.5 4527.02 4531.14 5013.42 4564.34 3838.56 4871.44 5076.35 6020.48 6375.99 5200.05 5234.29 5313.66 5419.37 4466.03 4511.54 5409.33 5196.0 4923.9 4973.78 3329.99 3947.47 3296.27 5091.68 4713.25 4204.84 6243.0 6673.96 3556.85 3161.47 5441.96 3435.9 5174.89 4288.3 5370.52 4652.29 5774.81 3746.31 5498.32 5027.98 5346.27 6475.1 4969.21 2691.29 2845.98 5289.52 5314.85 4305.43 5450.44 6510.17 5742.65 5592.32 5381.16 5565.13 6193.35 6086.96 5233.78 3701.27 5653.9 5046.21 4929.14 5894.61 3979.54 5304.13 5944.09 5833.06 4923.41 4497.31 5384.76 5529.42 5257.12 5243.43 4537.14 5551.9 3757.34 6415.61 4687.64 4419.71 5037.06 4541.8 5175.29 5842.56 5887.15 5412.31 3087.09 3423.15 4890.5 3981.07 5452.42 5328.22 6853.85 3497.9 2395.5 5941.61 5782.48 6248.6 3836.45 5683.61 5100.25 6894.26 4986.51 5339.38 5178.99 5383.07 4591.87 4790.78 4247.15 6552.22 5651.07 6248.81 5273.35 4091.8 4645.58 2651.49 5512.23 5275.32 5985.29 4898.94 4178.15 4613.31 4733.04 6119.09 5788.66 7531.29 5069.25 5048.89 5935.03 3991.03 6390.78 7435.25 6826.57 4788.87 4495.87 3702.37 6022.72 4643.31 5527.33 6917.52 5402.21 4989.09 4880.14 4982.31 4307.48 3848.54 5941.4 5331.02 4871.96 4863.23 4402.67 4470.61 4631.83 4384.88 6887.27 6008.49 4806.34 4287.53 5612.21 5945.08 4968.03 3306.14 5490.58 4863.79 4702.06 3830.46 6031.67 4689.15 6138.12 4428.78 5409.66 4345.67 4765.72 4642.66 4752.14 5329.59 4888.12 4950.97 5512.16 3197.63 4863.96 5191.08 5203.08 7480.41 5163.77 4488.85 3731.84 4901.07 5186.3 3436.15 4151.76 4020.4 3493.47 4596.75 4933.65 5443.58 4558.46 5805.86 4049.02 4470.4 5311.03 5255.12 6169.11 5615.35 4027.09 6422.84 4502.18 5379.09 4602.85 4962.77 5872.05 4853.02 6259.23 5181.4 5088.44 5670.2 4711.62 4247.23 4114.24 4268.65 4694.83 5509.42 4354.08 4256.43 5936.36 4520.62 3903.75 4755.47 4485.99 5127.16 5475.8 5314.69 6050.81 5543.46 4249.46 5965.81 4750.17 5660.85 2330.66 3990.25 4177.19 4752.51 3587.05 6229.37 6718.19 5282.91 4425.84 3797.33 7256.35 4800.69 6566.1 3555.86 6386.78 4996.99 4896.39 6081.14 5480.83 4220.46 4607.85 5128.57 6000.7 3169.67 5604.21 3361.92 6710.88 5395.14 3967.48 6213.04 6622.11 3685.13 6790.73 4655.16 5251.4 3867.19 5857.79 4039.91 5276.7 5036.58 6119.63 5411.02 4752.9 4287.16 5199.44 4062.5 4435.51 5374.07 4588.7 5683.95 3766.55 4579.69 3554.48 6496.52 5005.85 4216.17 6484.17 4721.02 4254.37 3374.08 4031.78 6098.1 5708.99 5687.85 5346.68 5296.29 4611.53 4285.66 4896.11 5172.53 4135.62 5801.99 5534.94 5210.48 7644.38 7552.94 6101.92 5323.3 4998.21 4662.56 5166.79 5349.31 2976.22 4649.22 5394.55 5094.52 4946.74 2682.24 5928.32 5229.48 5475.7 4016.18 5526.75 5435.74 4244.99 5327.45 5560.26 6185.89 3997.96 4439.35 3460.94 6184.4 3691.0 3758.07 4373.45 4236.14 4407.87 5733.62 5282.51 4460.92 5945.89 4042.28 4105.55 4340.76 6065.22 4221.28 4456.39 5514.84 3633.79 5421.53 5937.08 6070.3 5233.29 4312.56 4612.06 5204.04 4750.58 5926.11 6667.68 5235.11 5211.38 5089.62 4590.55 4741.26 5920.32 4255.85 5097.69 3988.3 6543.13 5149.72 5776.96 5464.25 5486.48 5301.47 4617.55 3645.12 5424.88 5415.85 8659.64 5469.13 6027.62 5010.2 6123.03 5966.61 5711.11 4575.94 4938.72 3546.71 5768.57 5564.23 5950.04 4231.83 2435.33 6401.43 5020.71 2681.29 5094.48 3872.61 4238.4 4318.48 6132.95 5266.22 4860.33 3685.13 6004.68 4051.34 3627.55 6239.84 4635.6 4256.67 3457.48 3931.07 3405.98 6430.39 5417.15 3688.16 4681.72 4945.39 5996.33 3950.63 5415.19 4612.62 3619.07 4467.04 4275.57 6385.23 5817.25 2983.99 2614.4 5061.98 6363.92 6205.93 4923.24 5830.72 3828.81 5309.98 4082.57 5255.18 5169.9 3004.16 4767.78 5235.17 4421.12 4779.5 4435.36 5254.49 6649.96 4303.19 5784.3 3914.2 4256.57 6088.68 4643.56 4135.08 5620.74 4778.82 6124.08 5467.84 5053.95 5266.01 5253.37 5767.9 6515.8 5869.4 3685.65 3701.16 4186.6 5895.77 4732.09 6136.49 4356.25 4757.74 4216.95 4209.49 5742.74 4244.21 4947.24 3875.05 6200.54 5148.58 4199.45 6599.66 4055.54 4233.8 5765.42 6098.95 4997.83 4893.49 5325.44 5021.88 5956.65 4498.25 4188.87 3735.24 6574.95 4074.48 6333.29 4558.47 5731.57 5997.88 5839.71 5576.92 6408.83 3930.79 4004.35 5226.97 3312.06 5180.76 3361.26 6799.4 5278.36 5865.39 4427.28 6079.11 3082.32 3658.37 7440.72 3949.6 5376.71 5703.6 6326.18 5661.62 6631.19 6648.68 4713.74 5626.61 5407.78 4084.49 6632.99 4537.6 5147.36 4419.61 7177.44 4563.46 6553.94 5726.66 5460.65 5652.0 5463.41 5225.33 4929.75 6045.22 4614.3 5134.39 3532.3 5769.98 5442.32 2221.99 3580.58 4863.01 5356.79 5657.36 3619.79 5029.47 6306.21 2978.76 2040.66 7016.27 5884.9 3876.21 5689.26 4916.22 6022.7 4940.84 5750.07 4809.67 6045.67 3946.28 3821.94 5439.9 5367.73 3540.11 4640.06 3456.47 4652.01 5421.64 7234.66 4207.54 4886.12 6419.12 4976.12 4817.16 5453.98 3991.42 4388.63 5102.75 4597.29 4200.09 5931.77 5151.21 5398.64 6817.57 4477.04 3614.96 3886.68 5703.74 5662.55 5737.92 5365.24 4360.23 5293.51 4763.96 5754.18 5008.63 3418.99 4480.95 4993.35 4409.63 5521.25 3661.9 5370.85 5949.46 3178.54 4765.02 4448.13 5070.29 4807.28 4867.08 2261.36 5075.55 4266.03 5280.69 4220.03 6923.84 5227.59 5449.46 6179.96 5703.07 6113.54 4662.43 6260.79 3963.76 5528.53 6799.88 3062.43 5990.52 5426.78 2967.38 4159.35 6477.91 3091.67 4237.98 6439.37 4081.97 5401.99 5580.92 5973.33 5067.46 3583.21 2511.46 4011.37 2775.69 4785.25 6519.43 5876.64 5424.46 4857.84 4908.49 4962.21 4858.44 3468.42 4673.35 4771.13 4992.42 5297.19 4351.38 4833.46 5933.7 7248.4 5280.12 4444.97 5984.81 3498.16 4409.27 4588.99 5471.74 3548.39 3673.28 4928.27 4858.51 3375.28 5625.65 4301.61 6107.89 4446.84 5660.55 5148.08 4834.87 5760.22 3672.21 5938.17 4795.43 5097.95 5108.06 3573.73 4693.52 6853.04 4745.43 5831.96 4747.55 3056.7 3755.95 6234.32 4586.19 4446.06 3450.93 4270.74 5132.68 6595.03 4558.15 6218.95 5222.16 5107.23 5136.08 5558.68 3776.94 4802.32 4010.57 5629.39 2684.03 5246.47 6157.04 4768.61 4522.21 5506.19 6719.94 4950.67 5832.37 6166.29 5453.6 5409.63 5294.77 4709.05 4630.82 4043.66 4813.08 5860.67 4540.86 3764.1 4835.83 5604.35 6316.56 4332.87 6420.81 4715.58 4450.7 5151.52 5369.08 4347.74 5291.9 4009.62 2081.58 6505.78 5461.55 3298.2 4270.15 6865.76 6449.64 6464.8 4684.44 4749.59 5799.69 3809.69 5571.72 3208.96 7051.9 4184.23 4144.57 5550.75 6834.41 6226.14 5466.33 3000.29 5721.05 4247.69 4209.31 4514.39 6242.79 4321.21 4344.34 3583.49 5052.84 4366.74 5297.16 3184.64 5206.33 5530.49 5653.03 3718.69 4514.79 2216.82 4509.89 4940.28 6752.75 5269.38 5607.3 2928.82 4222.4 4000.43 4568.41 3420.08 4912.04 4539.07 5464.68 2685.81 5591.76 4585.31 6625.18 5323.91 5097.45 6293.89 5737.75 2761.07 4983.39 5366.52 4690.55 5533.72 5533.42 7132.12 3678.08 4599.38 5518.57 4187.31 6191.29 3240.51 7422.36 5161.01 4298.15 4628.4 6051.83 4642.93 5941.9 4263.16 3973.12 3077.84 6024.75 6109.49 5567.93 5987.42 5332.65 4442.22 6451.33 5413.31 3012.99 6400.08 4743.59 5208.14 3317.83 3763.05 5092.24 5549.49 3101.75 5423.42 4518.04 4766.06 4874.18 5012.5 5435.19 7093.13 4953.1 5818.95 4093.99 3940.49 4406.05 4680.94 5828.35 5876.72 5236.43 5285.07 4680.14 4608.41 4187.94 5980.59 5021.77 3796.15 4801.8 7216.98 5271.02 5718.28 4601.74 5950.45 5713.03 5849.65 5134.67 4165.21 4215.0 4936.96 4481.76 5452.78 5065.26 4304.41 6192.0 5885.28 6579.31 3004.34 5323.55 3022.6 4811.76 4914.45 4698.87 4661.03 3624.7 5160.59 4691.91 5262.35 4475.83 4255.34 4510.8 5889.35 5010.04 4394.56 4570.98 4275.07 5825.38 4185.61 4047.87 5742.47 3778.02 4917.99 6552.21 5417.8 5146.37 4836.16 5300.96 5151.11 5463.48 5730.33 5545.46 4527.99 4543.1 4376.7 5190.61 8325.01 3764.06 4440.81 5434.47 6642.76 5829.22 4497.78 4243.79 5811.18 5433.65 4008.15 4887.76 4669.06 4811.32 4286.49 6184.88 5829.32 4396.25 5551.95 3918.87 2275.45 4901.2 6605.86 4383.56 4990.79 3562.79 4516.53 4122.92 3604.14 4452.54 5089.1 2711.19 4028.32 4099.92 4884.59 3858.06 4511.7 4083.79 4304.63 5263.27 6300.92 4173.54 5599.29 6038.68 5046.12 4807.4 7013.17 3805.67 6506.86 5088.57 5580.34 3852.6 5775.31 4706.5 4603.5 4647.67 5375.12 4356.36 4892.44 5578.94 7610.49 4286.17 3684.56 6028.09 5375.1 4172.6 5313.12 5351.56 3984.88 5318.53 4732.09 4320.42 4281.98 5064.79 5480.3 7509.24 4146.81 5896.26 5388.78 6101.13 4573.72 5099.21 6969.28 5636.4 4367.78 4350.12 5227.02 5670.0 4232.16 4344.51 5680.94 3781.77 5581.55 5193.01 3474.5 6550.44 3860.83 6348.03 5732.27 4523.39 4792.39 5278.56 5146.37 6917.62 4013.38 5631.14 4343.78 5263.3 3352.35 4909.65 6523.86 7693.4 4326.48 4437.07 3449.37 5491.9 6405.0 4659.16 5789.55 4909.31 4633.05 5711.62 4798.17 5166.79 5425.98 6479.39 2895.63 4997.91 5079.22 5381.54 5810.77 4714.83 5474.15 7519.2 6355.68 4478.6 3953.55 4063.9 4469.54 4314.56 3928.53 5606.51 5740.65 3834.47 6349.67 6329.53 4590.01 6101.86 4227.41 5993.0 4803.57 5966.42 4110.59 3332.49 5354.66 4214.44 5378.23 4787.97 3746.36 6789.23 3989.7 4777.03 4246.61 5452.36 3804.5 6486.37 5498.42 3344.57 5220.76 7165.9 5344.83 7046.11 3427.63 4863.97 6342.48 5756.75 4587.67 5599.7 4163.74 3665.95 4296.69 5698.96 4095.75 3319.67 3603.51 4298.45 5283.8 5222.51 4076.59 6609.84 5135.96 3834.43 5658.37 4707.06 4972.17 6074.94 5491.37 4250.88 4222.77 3783.54 5268.38 3475.67 5527.23 4805.33 7038.89 3863.67 4814.12 5067.56 6137.8 2735.53 5116.6 3747.03 2783.85 4356.49 4526.81 3994.07 4219.94 5907.46 4264.91 6740.71 5399.29 5971.22 6522.59 6602.43 3568.28 5996.66 4405.42 2995.67 3598.08 4599.81 5698.23 7300.58 3608.06 6633.61 5217.95 4867.7 5484.36 4277.24 4075.28 5291.05 5161.1 4619.2 5166.41 5067.56 2596.96 5701.75 4350.15 4139.3 6541.45 4750.49 5078.31 5391.48 4923.43 5131.15 4847.14 3950.27 5116.66 3566.79 5374.67 4981.43 4741.28 4215.2 5069.89 4157.29 6813.72 5327.75 4609.02 4896.65 4638.18 4196.37 6448.66 4453.97 6945.98 5138.2 3503.41 5783.48 4449.98 4701.5 4504.35 4771.65 4840.44 5093.82 5951.81 3924.14 6918.35 4834.3 6238.32 6804.79 6471.42 5369.5 4428.14 5164.1 6464.15 4124.49 4479.11 6685.4 5699.53 4850.06 6332.01 7044.29 4234.18 7085.01 5980.95 6193.08 6069.3 3862.77 5887.01 5168.35 5388.39 5335.47 3728.18 5633.61 5048.19 6799.23 4888.27 4592.15 6487.56 4854.11 5533.19 4998.22 5417.21 6104.26 5583.61 6063.64 4986.71 7382.3 4022.56 5522.21 3772.3 4855.01 6208.9 4923.57 3340.09 6061.63 2279.05 4829.35 8137.11 5484.32 6650.77 4067.96 4824.12 7104.73 6162.3 3272.75 4264.54 3516.27 7043.44 4263.78 4643.9 5228.75 6047.14 5009.83 5210.38 5717.8 3629.44 5003.78 3299.24 6246.56 4061.6 2603.64 5107.0 6212.15 6502.97 4783.07 4946.23 4852.58 6083.28 5211.6 3556.79 5806.31 5456.71 7317.04 6412.67 7001.83 5012.97 4036.91 5589.37 5439.49 6639.64 5212.43 5454.12 6348.54 4066.57 5642.35 6372.13 6357.47 5404.01 6016.19 5535.91 3230.13 5714.25 6176.67 5325.96 5412.24 5016.02 4920.21 4049.16 5851.61 3936.95 6153.94 6836.82 3858.17 4631.99 4740.98 3185.39 5128.77 7122.87 5797.36 4243.26 4153.84 5119.86 5089.26 5084.17 4901.44 3776.8 5096.43 6156.21 2460.79 4653.83 6171.71 3628.89 6589.82 4668.88 5027.43 5522.75 5867.64 4438.58 6059.93 5602.53 5073.02 6545.43 3472.91 6760.92 4989.2 4711.04 7144.05 4506.18 2970.9 6542.5 4383.47 5971.21 6318.23 4206.98 5156.76 6101.57 4891.38 4793.65 2949.12 5955.86 4532.89 4533.37 4848.46 5742.09 2779.99 2884.65 4581.37 5887.38 6942.34 3658.05 5478.11 5526.31 5030.15 4058.87 5174.75 5048.55 5932.07 4984.46 5948.71 5844.72 3856.53 3992.97 5460.89 6040.74 5260.85 5393.65 4961.99 5807.46 4648.21 4393.16 3311.29 4549.69 6423.81 6192.77 6413.15 6103.11 5416.45 6459.51 4024.31 4955.16 4904.51 4147.31 5989.05 5751.15 4054.22 7228.94 4441.22 5853.89 6551.93 4595.12 4386.8 3110.13 6484.43 4625.67 3485.54 6735.97 5305.59 3636.15 4330.58 5754.6 3288.01 4355.83 6870.97 2202.77 5351.86 6056.87 5950.88 4149.55 6201.86 3380.69 5166.89 4140.4 3639.44 5446.4 5725.37 4725.01 3868.62 5966.75 4729.42 3104.96 4844.83 5244.78 5652.87 6114.89 5135.63 6384.7 5952.38 3896.27 5807.52 5474.01 5307.35 7554.58 4731.21 5491.63 3124.7 6102.98 5138.33 3477.1 5769.14 4811.22 5216.26 4749.96 5377.37 5483.7 5018.69 4899.73 3152.86 5457.66 6394.19 5973.89 5963.36 5230.02 5087.14 4342.18 5169.48 6016.08 6776.22 6064.71 4467.13 6060.17 5415.45 4385.81 6592.93 5096.24 3381.82 4831.93 4023.93 5494.28 4834.39 5493.89 5262.47 5261.19 3831.52 4991.35 4263.65 6106.43 4807.35 6761.81 5467.63 5666.95 4642.2 4127.53 5210.75 3683.86 4918.76 5293.75 4208.41 5826.78 5473.72 2856.55 6214.73 4553.68 2205.51 5175.89 5361.87 3758.22 4268.19 4757.2 4532.7 3205.68 4504.86 5561.74 6100.73 4788.08 4473.29 4198.94 4745.79 4908.75 6556.26 3971.08 6204.65 4482.9 4593.7 4349.13 5110.11 6379.14 4891.67 6818.91 3687.65 3503.65 4887.52 3634.5 6631.28 5478.95 3851.85 4392.65 4019.34 4658.24 5869.67 3623.19 4311.48 4387.39 4564.1 4848.14 5366.22 6193.73 5518.11 3742.11 5712.35 5701.52 4743.9 5321.17 3719.11 5545.21 4458.64 3877.8 4312.15 3644.78 6418.11 4078.93 5934.82 4501.78 4922.49 3572.94 5001.58 4820.17 6456.58 5244.98 3886.72 5792.98 4983.3 4034.05 5127.82 5690.96 6350.71 6436.74 4456.11 5039.12 5366.11 4824.81 3908.98 5113.6 5944.3 6328.42 7307.21 5135.5 3619.72 4646.51 4565.93 7107.63 5615.84 5788.97 4464.73 4928.85 6440.38 5868.89 3274.85 5007.21 5545.59 4099.26 4954.81 5206.47 4580.06 4835.97 6419.64 3926.11 4057.17 2781.96 5414.58 7066.96 3512.94 4431.23 4587.7 4467.0 4994.65 5196.92 4258.98 3787.08 5601.55 5644.81 3903.91 5334.36 4728.55 4568.64 4929.6 3919.62 4368.28 5750.35 4489.99 4474.83 4548.45 6555.44 4658.11 4551.26 5658.14 5114.07 5730.61 4385.49 4508.18 7124.45 6358.93 4559.74 5064.67 3894.64 4383.68 3703.49 6618.21 5232.85 4374.74 2617.39 5144.44 4062.56 3717.47 4051.18 6200.63 5975.23 6816.66 3217.67 5034.69 5079.64 5470.04 4509.46 4211.82 6163.54 5212.37 6003.78 5684.25 6500.49 5438.92 5058.51 6550.4 3352.34 4244.49 3766.69 4050.03 5036.98 5513.8 4120.07 5188.53 4882.66 4027.63 4521.75 3429.57 5569.2 5350.88 6571.31 5420.67 4642.74 4869.48 4906.11 5510.96 4745.16 5825.55 5509.51 5719.79 3199.4 4316.5 5254.24 4192.21 4914.03 3597.43 5086.29 5144.56 4158.91 5139.18 5311.55 5551.43 3360.86 3034.16 4869.25 5049.99 4333.87 4201.03 5510.9 4583.52 3743.76 4505.28 3657.69 4883.63 6015.02 3492.83 4971.29 5244.22 6280.13 5832.29 3684.15 4730.14 5585.14 2606.51 7039.98 4438.76 6006.89 3814.65 4128.1 4159.81 4960.64 3965.3 4446.58 5372.82 4402.17 7778.01 5053.15 5910.86 5798.38 5124.17 5805.1 6239.68 3862.91 4125.9 3419.87 4234.88 4064.58 4834.44 4384.28 5782.43 4456.26 4027.33 4708.31 4810.98 3873.92 5026.76 5091.22 3563.14 6282.38 5023.41 5640.72 4092.07 5347.9 5657.55 5851.63 5727.79 4504.52 5212.92 5188.82 5043.14 4732.37 4717.73 5072.5 5713.36 5556.0 3904.07 4749.18 5748.9 3663.0 3742.31 4546.96 5610.53 6304.49 5755.15 5134.72 4921.1 4608.34 3814.16 4420.6 5464.83 5695.79 3622.8 4770.51 4184.47 5577.41 6511.37 5917.34 3999.5 5740.98 4346.07 4462.87 6545.99 4177.47 4218.16 5630.9 4554.68 2918.64 6139.64 4140.92 4512.07 4692.32 5984.8 4945.0 3127.83 5236.24 4585.04 4212.15 5678.58 5260.52 4263.18 6570.35 4242.63 7142.95 7407.91 3269.54 5836.26 6666.67 4454.74 6063.44 4583.94 4826.52 5969.37 5046.31 4928.35 3844.54 1937.5 4337.32 5849.53 3538.53 4651.99 996.652 4420.11 4788.7 4680.69 5863.0 2628.22 6127.39 5965.58 4972.18 4901.29 4124.76 4607.18 5329.76 4775.04 7200.89 4813.33 4147.49 4802.98 4952.52 3840.21 4833.55 4081.34 3646.95 6746.66 7224.99 5410.33 4954.76 3908.56 5429.3 4944.51 6653.07 4697.91 4584.81 5179.17 5071.98 4371.08 5148.1 7261.51 4968.14 5949.73 4312.48 5527.13 4278.57 6318.25 6864.06 5001.87 3425.69 5153.18 4763.4 6711.21 5454.11 4236.86 5510.45 4941.02 3994.39 3864.92 6119.99 2955.36 4618.73 4009.24 3668.93 5906.57 7541.76 5401.4 4932.29 4775.49 4681.29 4990.23 5499.59 3784.94 3220.29 5749.6 3845.9 4141.21 7320.78 4174.44 4439.71 5667.51 6331.74 4198.9 5431.29 4833.67 4659.88 4252.18 5325.91 4213.05 4546.44 4224.3 5157.38 4184.21 5702.4 4700.07 6203.03 5235.87 5273.37 6089.45 5810.17 4985.3 5265.21 4966.07 4657.24 4400.14 3669.32 5553.94 4762.1 4316.0 4704.92 5424.55 4392.75 4271.07 6219.34 4191.01 4475.38 5287.25 4920.88 5995.4 5890.25 4216.44 4012.92 6710.14 4013.86 5759.79 4598.54 5218.42 4933.49 5345.73 4770.63 4841.23 3990.94 4896.43 5477.8 5463.06 4639.8 3986.41 4462.35 3185.09 4241.68 6102.49 5114.23 3469.18 5495.0 2945.34 3372.95 4489.29 5064.23 4301.93 6015.22 6061.85 2904.46 5512.44 6449.06 5120.92 4685.4 5241.75 4731.53 6240.42 3763.9 5146.0 4577.73 5721.14 4288.45 5084.5 4918.64 5640.12 6638.25 5078.59 3899.7 2403.72 5134.33 4759.99 5419.57 2646.13 5162.67 5760.98 4705.68 5469.35 6334.53 5384.86 5603.68 4526.34 5610.95 5532.72 3220.8 5042.75 4598.92 5579.39 5270.51 4979.52 5490.75 5224.64 5214.63 3495.68 5783.94 6370.33 5081.08 4202.77 5836.14 6008.81 6273.6 5136.87 5902.67 5024.32 4708.17 2741.2 5393.76 5806.61 3779.45 4983.1 5784.37 6010.59 3142.09 3682.35 7123.04 5182.13 3756.96 6110.48 6245.52 3954.77 6793.1 6016.87 3125.13 5077.29 4506.66 5515.73 6715.73 4564.41 5209.55 5426.4 5763.05 5951.86 5076.84 5357.39 3791.41 5247.01 5853.12 4208.37 4841.7 5685.74 5069.9 952.938 6740.35 5473.89 4678.7 3450.07 3673.6 3306.84 4550.92 6215.87 5191.26 5866.42 5544.27 3987.69 6502.99 5308.33 3484.81 4287.25 4666.12 6023.07 5674.63 5340.05 4589.06 6506.63 4140.04 5322.11 5700.79 4697.49 5735.08 4726.2 5034.05 4426.02 4816.51 4711.15 3825.48 5188.22 3810.68 4756.8 2804.54 4196.62 4357.11 4176.32 5005.6 6069.78 5486.89 7208.19 5532.75 4549.51 3587.93 6949.65 4095.83 5695.25 5676.61 5323.95 5846.95 5268.15 5716.42 5701.63 4603.04 5819.0 4620.95 6347.72 5368.93 4924.07 3200.6 3460.93 4629.02 5124.86 4927.73 5914.5 4608.62 6006.16 5407.96 5710.33 4987.28 5344.44 6206.98 4071.75 4626.72 6562.03 4815.47 4368.12 4410.82 4365.58 5214.4 3889.98 4636.53 3629.49 5399.43 5766.05 5695.44 3835.81 5117.64 3422.21 3916.42 5635.32 4827.61 4316.45 5409.08 5673.75 5241.22 6647.08 3422.29 4501.05 4407.79 6548.29 5352.24 3990.96 7362.42 5793.12 5469.17 5473.05 4373.2 4493.79 5684.05 4932.56 5638.7 3667.93 4279.44 5813.79 4899.19 4644.88 5058.34 5790.42 4028.22 5293.13 7350.26 5591.77 3768.46 5167.53 5003.3 4168.52 5800.81 5106.46 4795.08 6562.92 4068.31 5166.05 3671.06 3612.44 7035.54 4850.5 5866.91 5233.76 6405.69 4683.28 2820.07 6549.8 5129.68 5679.74 4825.73 5288.33 6296.54 4871.77 5797.21 5811.26 5062.77 6019.35 6075.99 6028.63 5927.2 5146.1 6485.77 6060.06 3869.39 5960.5 5393.43 4117.9 6896.55 4685.65 5377.01 5330.26 6470.23 5939.22 3495.3 4668.8 4215.05 4271.93 5125.17 4859.01 5524.45 7133.44 4750.81 4474.39 4658.59 5459.92 6478.35 2809.19 5453.77 4104.04 4916.7 2638.82 5589.53 5593.79 5196.08 5025.42 4975.85 4517.29 4495.75 4849.5 6171.01 6229.83 5796.26 5578.18 4870.94 5271.88 4488.39 6121.56 7168.2 4602.57 3565.32 3419.07 4096.86 3622.48 5001.51 6432.8 5131.77 5115.42 3186.07 5549.71 4369.86 4967.51 6443.99 5193.58 7212.97 5490.64 5034.34 4507.46 3769.2 5036.14 5661.6 6099.28 5285.75 5385.03 5481.64 4169.15 4778.37 5360.67 5968.54 6263.3 5592.54 4537.03 3247.97 4114.2 4904.37 4326.06 4358.81 4651.64 5034.46 5757.29 5016.46 5061.75 3769.24 5537.34 5192.49 3487.31 6643.4 3918.94 4674.9 5575.11 3392.26 5487.63 3852.82 4507.36 6224.85 7145.73 5403.97 4556.19 5648.78 5368.66 6875.73 5501.73 5226.42 4697.24 6081.3 4983.43 5117.52 6311.89 4217.36 6734.39 5942.45 4851.18 4150.76 4165.36 5005.72 5368.52 5155.28 5388.73 5205.38 4884.93 4764.83 4600.71 5262.79 3957.38 4494.15 5035.71 4419.79 4710.88 5407.69 4057.4 5152.78 5534.23 4753.76 4781.9 4638.09 6815.96 4441.91 5339.6 5828.25 4725.11 3626.86 4604.1 6371.96 5076.11 5322.07 5990.75 5600.21 3953.26 4282.11 5467.51 4625.53 6589.13 2347.41 4096.47 4542.16 5114.67 3543.37 5353.66 5030.33 5104.39 5234.2 4965.24 6379.38 6257.79 5327.05 5438.55 5353.23 5977.66 4468.26 4523.81 5293.37 5106.33 5198.94 5933.54 5559.79 5879.24 3763.85 4571.74 5740.78 4796.12 5997.91 5385.86 4082.4 6791.86 4209.0 5482.76 5728.58 5173.82 3745.02 4887.73 3720.7 4211.36 6297.99 5698.53 5378.24 3604.31 3856.73 5817.74 4450.49 3468.45 5887.71 3242.31 4898.29 5372.25 3234.26 5730.2 4830.13 3494.16 5134.17 5370.9 4074.16 4904.35 6172.27 5390.33 5124.34 5278.54 5729.0 5729.92 4179.87 6224.13 4761.84 3661.67 6022.78 5884.99 5726.42 7025.09 2549.95 4433.12 5461.72 4361.24 6599.28 5138.93 5099.9 6945.69 6406.8 7086.69 6170.9 4304.64 5833.78 4436.48 5758.98 5615.35 3967.76 6213.24 5987.88 4228.53 3579.59 6123.46 5057.59 6142.88 5111.26 4949.55 4574.54 5490.54 1969.87 3132.34 4841.28 4047.95 5507.38 6889.5 5300.17 4416.87 4052.43 4896.67 6025.77 3934.11 4466.22 3886.56 4496.51 6153.71 5917.08 5483.37 5418.12 5934.05 4714.66 5770.07 5101.6 4984.17 4656.01 5781.62 4037.86 5602.62 2030.03 5628.97 5714.51 4938.33 5527.27 4484.78 5157.73 5847.91 4612.13 4934.66 5846.6 4984.01 4109.44 4903.84 4290.49 4434.65 6688.53 5065.74 5209.5 5791.25 4873.23 4028.35 5464.05 2980.31 5410.6 3148.79 5453.2 6348.93 6824.53 4332.64 4742.82 5232.16 4422.23 3989.26 4820.68 4930.72 6031.22 5485.84 6424.77 5453.69 5918.95 4538.89 5689.56 6556.86 5265.63 4431.06 4645.86 5620.88 4941.52 4529.77 4325.13 4262.74 3783.79 5078.73 4248.14 5279.19 4016.6 5192.92 5275.57 4786.66 5891.25 5370.1 4087.32 5517.65 6647.85 4009.68 3303.49 2569.12 4622.73 5161.74 4161.32 7336.37 5932.28 2960.5 5560.23 4975.32 4298.7 5118.86 3902.48 4183.4 6030.39 4733.79 4905.53 4823.06 3799.01 7392.65 5254.49 5288.64 3757.23 6828.8 3350.99 6883.86 4979.5 6161.94 4745.37 4065.28 5939.29 4461.14 5418.98 5285.6 5575.11 5615.06 5061.74 5203.54 6189.67 6142.94 5001.69 4948.96 5256.82 6581.56 3980.46 4061.87 5383.9 3798.09 5158.44 4585.37 4288.5 5715.51 3721.69 4511.05 3456.3 6561.94 5259.21 5092.93 4256.08 2803.01 5881.93 4444.0 4399.52 4554.24 6771.18 3939.96 6182.19 5327.39 7415.84 4981.81 4138.59 5141.03 4970.55 8123.59 4621.33 4541.22 4946.08 3539.68 4696.03 6217.33 4557.1 4605.39 5927.1 6175.27 5876.51 4103.76 6731.89 4094.63 4286.61 4733.41 5264.83 4969.68 5136.51 3901.53 6815.51 4457.05 5313.86 5189.91 5777.26 3618.64 5703.84 4335.79 3530.82 5797.32 5432.04 5159.67 3921.27 3702.45 5764.52 5684.88 4390.64 6523.78 4608.01 4045.67 6005.95 4308.49 5900.0 4581.1 6241.77 5317.19 7360.12 6223.98 5821.49 7050.08 3035.06 5580.44 5998.13 5095.52 5129.4 5114.51 4655.37 5585.25 5256.75 5023.61 6351.89 6530.78 4672.86 5059.37 5783.38 3043.77 4139.39 5237.55 3909.94 5088.64 6589.8 6920.92 3729.16 3783.36 5319.1 3038.91 4181.93 3922.28 6570.43 3820.19 3445.92 5236.69 4586.82 3133.28 6026.04 6200.05 5859.17 4034.41 4052.49 4150.44 5522.34 5326.03 4420.35 5717.45 5117.83 4013.86 5268.27 4645.93 5165.31 5448.64 5901.8 6417.61 5395.12 5783.69 6074.39 5350.9 5317.83 3483.61 6738.9 4460.89 4157.1 8052.53 4867.12 5910.66 6520.19 4637.3 1458.87 5734.07 4840.44 3997.68 5765.14 4819.83 4767.54 4801.16 5121.08 5071.38 2927.84 5688.77 6177.68 6270.59 4698.7 2848.44 6045.26 6500.45 5743.8 4907.55 6666.34 2932.52 5084.76 4603.66 6605.11 4757.87 3557.46 6636.43 5431.14 6298.8 5178.07 3689.24 5151.19 6509.54 4171.02 6119.0 7012.36 5028.06 4002.99 4886.99 4293.3 5587.3 3161.1 3572.73 4864.38 3402.44 3770.22 4848.98 5150.84 5184.98 5087.97 5339.82 4519.03 4930.17 5110.27 4745.44 4085.96 5762.82 4612.68 4232.33 5462.6 5617.29 5770.92 4262.19 3093.38 4597.88 4878.93 2002.78 4746.15 6275.25 3720.38 4758.84 4505.3 4731.37 4452.36 3976.0 4068.41 6463.71 4742.35 5394.79 5645.54 6264.03 3562.8 4526.87 4151.74 4691.01 5192.82 4174.22 3573.84 4067.89 6294.09 4571.57 5131.07 2970.24 4121.07 4197.87 5524.28 5105.54 5731.43 6353.81 3414.67 3518.14 5444.36 5044.68 5771.98 5899.78 2649.69 5000.74 5772.57 4813.81 3882.37 5244.95 4634.25 4095.4 5188.57 6351.48 5357.33 6210.0 3830.7 5432.4 4262.52 7430.48 5992.06 5545.68 4970.12 6044.01 6369.66 5973.57 5922.62 6241.48 6033.28 5957.82 6286.27 6327.54 5616.66 5368.28 4802.36 5466.13 5327.71 6229.64 5257.38 4220.43 6263.87 5075.23 4975.56 3826.01 4645.91 6834.92 6379.33 5971.95 5652.73 3979.46 6321.97 5402.45 3985.93 6412.84 2589.19 6079.55 3792.06 5128.59 5485.61 4993.49 5310.33 6583.37 3688.83 5537.61 4491.96 6084.88 4397.06 4199.44 4467.51 4053.12 4479.5 6261.67 5460.57 3435.13 5065.78 5703.34 4521.42 6668.98 6649.52 6043.34 4939.56 4747.68 4959.72 4712.17 3808.04 4845.91 4723.71 4461.67 5631.32 6892.33 5793.14 4491.26 4511.34 4609.65 4832.21 5704.61 5009.21 4379.91 4574.03 5290.37 5850.38 5264.08 4227.66 4730.97 4594.89 5245.95 5821.42 5214.71 4515.02 4677.84 3463.53 4811.11 4924.52 6126.03 6044.69 5658.05 6593.1 5462.1 6032.45 5011.37 4026.03 2827.92 4441.44 6908.32 3467.11 5336.61 4817.75 6153.26 5637.53 4848.15 5523.81 4718.61 6697.45 3873.79 5717.67 5515.59 5252.37 3224.81 4499.54 5037.58 5640.67 6572.17 6080.69 5555.89 4967.93 4871.1 5678.08 4414.09 5125.45 3784.68 4188.16 3717.22 5507.07 4654.92 2943.17 4880.78 5286.55 4322.56 5509.09 5625.02 5212.05 7282.36 4829.77 5581.01 3928.99 4444.92 6959.88 4125.75 5749.53 5130.57 5247.73 5090.48 5034.02 5582.28 5945.25 6071.59 3856.4 4696.06 4137.16 4937.36 5308.4 6581.13 4569.32 3228.27 4721.98 5252.82 3543.98 5056.26 5878.55 4014.44 6604.72 6002.77 4431.46 3794.47 4610.55 3207.84 4967.02 3977.98 4614.49 5400.69 4128.93 4462.5 5573.31 5004.68 4023.88 5348.11 4405.61 6126.5 6322.0 6007.1 6345.2 5488.96 5128.03 5410.73 3720.92 5087.3 4942.63 6139.74 4975.57 7066.26 3057.3 6150.31 3677.85 5873.62 4996.91 3920.44 5379.52 4866.8 3768.62 5314.67 5563.47 5651.46 4066.36 4000.51 3162.27 6033.93 5516.37 5092.44 5432.2 4232.44 4612.4 3312.3 5563.09 4746.19 6381.58 4439.09 3282.57 5212.2 4798.13 5648.59 4630.5 6296.36 4432.32 4451.76 3775.38 7885.41 4046.22 5782.25 6457.89 4104.97 4844.2 4575.72 5114.61 3751.73 6118.13 3374.62 4926.62 4766.47 3917.09 6009.93 5872.45 4083.1 5270.1 5191.29 4947.64 6305.9 6649.21 3470.69 4542.62 4859.95 4132.08 5522.18 5223.1 3873.72 4592.49 3625.98 5479.86 6474.5 4702.32 5971.9 3746.62 4532.67 4876.37 4769.62 5260.13 4649.5 5181.31 4810.74 5985.75 5475.83 6189.29 5984.55 5672.46 5803.3 3956.24 7558.99 4142.1 5043.14 5333.04 5445.91 4521.99 4812.59 6842.54 7115.67 5675.45 3361.11 6038.56 2807.46 5599.16 4179.8 3488.34 5658.35 5428.24 5108.84 4034.88 3511.5 4520.14 5067.92 3188.21 5357.14 5919.27 4793.06 6637.38 6188.33 6111.23 6916.18 5786.06 4137.41 3868.69 5447.74 4450.51 6033.72 3851.47 4966.74 2329.93 4959.94 1635.31 5639.4 6185.73 4083.24 6520.96 3771.91 5217.62 6178.19 4616.81 5715.25 4362.94 4611.21 5108.42 3354.94 4404.87 5237.27 5767.65 4750.76 4907.03 5497.27 4081.77 4948.21 2181.29 4420.3 4202.12 6332.64 2694.25 6492.44 4613.32 3482.73 3996.93 5130.56 4957.99 4063.26 4997.89 5093.28 6131.52 6009.88 4699.77 4850.49 4981.55 5144.23 6188.62 6153.07 4414.06 4763.04 5944.52 4413.56 5050.2 2513.38 5316.05 4821.41 4908.32 3995.08 5019.84 3900.93 5784.38 4149.17 4329.8 5728.27 3074.49 5202.33 5580.95 3393.59 3549.92 4032.06 5246.81 5089.1 5888.95 5394.78 3463.34 5122.38 2853.68 5262.85 4998.37 5329.84 6559.82 3879.83 6565.95 4577.98 5043.34 5886.81 4487.51 4582.12 4295.25 7394.47 4729.45 4850.95 5374.09 6271.22 3421.81 5244.47 5378.75 3920.64 6186.24 5822.7 3780.07 4159.89 5466.49 4038.17 5007.41 3692.99 4907.48 6213.74 4369.87 6938.87 5412.07 5512.57 4806.99 4813.55 5856.43 3465.03 3839.0 5349.85 5799.86 5172.1 4469.82 6545.78 4870.14 2932.2 5105.72 4082.01 5003.49 3964.03 4216.33 5832.72 5617.91 4721.2 4987.01 4706.31 6265.48 4735.99 4203.68 4739.56 5145.39 3352.46 4701.03 6351.95 5195.09 5345.05 5200.1 3997.52 7679.2 4881.51 2626.41 4311.92 6729.99 5093.41 6842.35 5464.34 3621.63 4777.96 5801.89 5908.57 7296.47 5742.39 4780.16 4924.53 5616.11 4499.52 4813.24 3874.12 4028.13 4457.73 6476.35 3113.64 4304.75 6260.58 4067.24 3053.19 6139.9 6571.26 4313.38 6598.99 5250.56 3633.58 2468.16 6294.14 4339.97 5203.75 5169.09 4691.15 2459.88 4210.24 5470.67 5901.71 5225.11 5342.9 5733.12 6436.29 4246.24 6805.02 5354.48 5640.63 4900.26 6261.13 4167.55 4720.34 4865.11 4731.16 5510.89 6470.87 4495.33 4131.08 5282.67 5747.9 5178.55 5146.69 4287.93 6203.24 6818.23 5081.65 4488.41 6679.12 5652.19 5806.74 3878.8 6578.62 6284.12 4796.04 5229.56 6011.4 4672.34 6052.22 5533.52 5376.41 5410.33 5003.63 4747.24 4695.7 4944.08 4380.86 5576.16 5269.39 4305.35 3308.75 5210.22 2451.27 3903.9 4444.95 5606.22 5161.02 3943.77 3124.49 5242.38 6081.35 5003.81 6262.18 3818.37 5663.36 6225.05 5434.04 5125.53 5994.21 4444.54 5779.9 4909.74 5310.33 5299.03 6664.54 3922.98 5161.73 5259.48 4025.08 4008.67 5254.93 4803.4 6833.5 6608.94 2613.78 5417.07 3834.01 5738.37 4433.23 4739.41 5759.19 5847.27 4490.2 5734.84 5480.86 3982.31 4950.07 4720.22 2832.83 5827.3 6036.99 3010.1 3825.98 5087.03 4667.84 3906.41 4123.08 4512.6 4260.38 4636.45 4932.27 5638.51 6793.49 5252.22 6060.19 4962.35 6786.37 5402.81 4600.81 4919.13 4124.33 5168.97 5783.88 5002.38 6705.93 6201.49 5449.09 5502.14 4605.61 4465.56 5386.95 3864.19 5332.11 5315.71 6158.93 5373.78 4823.14 5438.5 4621.32 5699.4 5237.76 4698.94 3948.21 4286.84 5669.15 5296.05 5263.86 3330.85 6988.4 5056.32 4060.17 6051.35 5302.53 4909.13 4287.61 5648.02 4604.34 4439.17 5677.42 2701.42 4929.35 5051.39 6673.92 5151.68 4884.94 5459.52 4609.98 5566.5 4752.31 4276.59 5579.04 5405.6 3929.35 5403.81 5082.25 6964.78 4374.05 5036.84 4565.36 5813.68 5732.11 3618.53 5040.9 4770.21 8013.28 3846.55 3796.73 4644.68 5283.65 3082.16 2892.36 5656.84 6789.66 5416.41 5312.2 6760.64 4706.59 5177.88 5551.79 4582.24 3916.15 4474.96 4084.87 4758.76 4790.63 5259.29 3584.05 4589.22 4916.75 4818.53 5097.85 5584.64 6189.04 6224.64 4221.03 3799.55 5082.66 4550.77 4337.93 3563.33 3550.88 4345.51 5536.0 4048.73 4333.23 3860.8 4328.76 5145.13 3747.96 5561.63 5940.5 4358.06 5093.51 5647.93 4280.92 5154.74 4696.92 6437.99 6898.8 6540.57 4893.72 6004.72 4072.4 4983.56 5699.51 5345.65 4489.18 2489.44 5863.36 4632.75 4752.94 4994.98 3950.53 6423.96 6058.13 5894.69 6635.51 6779.82 3999.81 5543.67 4867.13 6377.45 4863.27 4502.12 5442.79 4633.59 5733.59 5362.15 4455.61 4738.72 6874.6 5240.97 5569.85 5523.96 4884.93 4223.53 4759.38 4733.37 6960.97 4287.15 4523.9 5282.51 5504.65 5669.41 4951.02 3919.47 4602.7 5596.68 4868.66 4004.39 5159.9 4987.48 5943.61 4248.58 5981.54 5911.29 4542.25 4694.27 4414.23 5233.88 2515.5 4849.21 4785.55 3793.83 6981.47 5367.05 4449.73 5647.11 4088.72 3945.62 3743.85 6236.46 5342.17 6379.3 5015.67 3795.63 5189.4 4576.71 6538.04 4894.15 6157.59 5201.3 5848.41 4090.28 6223.33 5438.6 7370.52 5611.29 4521.88 6568.45 5004.22 4601.54 4963.88 7263.57 5705.96 3832.09 5267.65 5739.69 6632.04 3509.34 5360.88 7360.62 4977.64 3166.37 4985.45 5205.53 4714.52 5499.37 5543.05 4883.13 4836.76 5333.16 5551.09 5755.98 4501.1 5392.85 5581.47 4384.91 6550.61 4987.01 4277.54 4713.56 6094.34 5448.68 4739.5 6210.48 4491.62 4182.05 3865.5 3255.93 6853.07 6327.61 5575.8 5268.93 3695.72 5106.9 5306.31 4535.94 3037.72 5126.08 5604.0 3760.4 3783.35 4037.16 6395.63 5479.17 5020.37 5245.4 6189.81 4246.83 4726.5 5467.05 3724.23 5103.3 5888.94 4727.98 4122.2 5175.88 4516.26 4790.16 3647.26 3731.58 5369.42 5207.08 4587.19 6028.89 4888.17 5077.2 4274.05 5275.27 5529.09 4531.46 5925.82 4072.95 
SCALARS Velocity float 1
LOOKUP_TABLE default
1.19686 1.19745 1.19408 1.19551 1.19406 1.20103 1.19178 1.19613 1.19497 1.19175 1.19481 1.19178 1.19332 1.19178 1.19178 1.19344 1.19178 1.19178 1.1934 1.19178 1.19176 1.19164 1.19488 1.19388 1.19175 1.19178 1.19162 1.1919 1.19172 1.19178 1.19178 1.19178 1.19294 1.19323 1.19573 1.1937 1.19373 1.19423 1.19354 1.19178 1.19352 1.19258 1.19176 1.19498 1.19178 1.19169 1.19729 1.19536 1.19299 1.19288 1.19339 1.1919 1.19417 1.19169 1.19459 1.19242 1.19202 1.19157 1.19185 1.19266 1.19259 1.19517 1.19306 1.19187 1.19176 1.19356 1.19161 1.19179 1.19213 1.19153 1.19369 1.18972 1.19603 1.19405 1.19908 1.19755 1.19532 1.19342 1.19413 1.19848 1.19884 1.19705 1.19614 1.19178 1.20236 1.19239 1.19508 1.19178 1.19549 1.19213 1.19424 1.19905 1.20301 1.19575 1.19635 1.19661 1.19361 1.19184 1.19374 1.19324 1.20031 1.19751 1.19346 1.20119 1.19551 1.19709 1.19579 1.19775 1.19489 1.19556 1.19178 1.19366 1.19169 1.19178 1.19366 1.19178 1.19178 1.19351 1.19178 1.19571 1.19178 1.19521 1.19178 1.19178 1.19178 1.19269 1.19177 1.19178 1.19201 1.19224 1.19188 1.1935 1.19412 1.19592 1.19416 1.19401 1.19451 1.19439 1.19226 1.19515 1.19263 1.19499 1.1943 1.19121 1.19552 1.19709 1.19287 1.19222 1.19641 1.19409 1.1931 1.19402 1.19178 1.19603 1.19665 1.19594 1.19172 1.19178 1.19359 1.19285 1.19494 1.19306 1.19178 1.19176 1.1937 1.19178 1.19178 1.19342 1.1925 1.19527 1.19121 1.19401 1.1961 1.19982 1.19581 1.19666 1.19725 1.19348 1.19244 1.19166 1.19854 1.19691 1.19639 1.19077 1.20274 1.1942 1.19583 1.19178 1.19662 1.19243 1.19523 1.20063 1.19094 1.19559 1.19536 1.19616 1.19342 1.19533 1.19463 1.19325 1.19178 1.19653 1.19695 1.20115 1.19597 1.19664 1.19576 1.19679 1.1907 1.19561 1.19334 1.19359 1.19617 1.19185 1.19519 1.19169 1.19181 1.19371 1.19178 1.1957 1.19178 1.19501 1.19241 1.19305 1.19183 1.19316 1.19318 1.19137 1.19266 1.19206 1.1927 1.19329 1.19412 1.19535 1.19658 1.19539 1.19548 1.19467 1.19167 1.1938 1.19181 1.19554 1.19485 1.19178 1.19552 1.19684 1.19287 1.1922 1.19157 1.1957 1.19387 1.19408 1.1917 1.19636 1.19791 1.19226 1.19306 1.19112 1.19535 1.19344 1.19509 1.19309 1.19071 1.2 1.19363 1.18919 1.19387 1.19574 1.19314 1.19554 1.19142 1.1951 1.19393 1.19985 1.19621 1.19643 1.19739 1.19296 1.19714 1.19216 1.19794 1.19668 1.19689 1.19181 1.20402 1.19873 1.1963 1.20384 1.19618 1.19261 1.19727 1.19125 1.19217 1.19178 1.19547 1.1956 1.19292 1.19279 1.19447 1.19492 1.19178 1.1964 1.1968 1.20139 1.19656 1.19503 1.19559 1.19645 1.19051 1.19468 1.19178 1.19331 1.19587 1.19118 1.19589 1.19234 1.19173 1.19367 1.19116 1.19556 1.19839 1.1948 1.1926 1.19342 1.19228 1.19178 1.19366 1.19183 1.19331 1.19296 1.19612 1.19371 1.19371 1.19493 1.19658 1.19534 1.1954 1.19407 1.19584 1.19315 1.19526 1.19056 1.19439 1.18767 1.19593 1.19594 1.19589 1.19307 1.19114 1.19606 1.19474 1.1956 1.19404 1.19474 1.19715 1.19846 1.19213 1.19312 1.19438 1.19463 1.19396 1.19176 1.19178 1.191 1.19966 1.19937 1.1974 1.19587 1.19503 1.19341 1.19555 1.19129 1.19466 1.19311 1.19964 1.19647 1.19481 1.19678 1.19634 1.18284 1.19655 1.1919 1.19161 1.1953 1.19829 1.18536 1.19946 1.19658 1.20384 1.19656 1.19539 1.20421 1.19368 1.1982 1.19867 1.19465 1.19497 1.19424 1.19308 1.19399 1.1947 1.19356 1.19567 1.19868 1.19912 1.20075 1.19584 1.19542 1.1961 1.19538 1.20146 1.19335 1.18607 1.19259 1.19565 1.1912 1.19662 1.19262 1.19391 1.19456 1.19178 1.19556 1.19144 1.19554 1.19376 1.19393 1.19268 1.20274 1.19419 1.1921 1.19328 1.19318 1.19414 1.19278 1.19421 1.19509 1.19616 1.19485 1.19141 1.19722 1.19386 1.19198 1.19514 1.19036 1.18988 1.19398 1.18776 1.19206 1.19926 1.19271 1.18803 1.19792 1.19512 1.19556 1.1945 1.19468 1.19827 1.19466 1.19298 1.19427 1.19282 1.19365 1.19178 1.19168 1.19085 1.1993 1.19863 1.19807 1.19446 1.19169 1.19692 1.19193 1.19225 1.19083 1.19958 1.19367 1.19618 1.19671 1.19375 1.19485 1.19252 1.19734 1.19276 1.20079 1.19524 1.19153 1.18322 1.19907 1.19652 1.20148 1.1961 1.1983 1.19005 1.19372 1.19256 1.20211 1.19785 1.18324 1.19559 1.1946 1.19578 1.19432 1.19408 1.19178 1.19993 1.19518 1.19551 1.1956 1.19452 1.20099 1.19321 1.18628 1.19361 1.19161 1.20045 1.19654 1.19352 1.1967 1.19514 1.19605 1.19262 1.19538 1.19512 1.19368 1.19396 1.1928 1.2024 1.19371 1.19367 1.19282 1.19502 1.19226 1.19284 1.19325 1.19358 1.19516 1.1949 1.19543 1.1931 1.19403 1.19179 1.19225 1.1899 1.19206 1.19092 1.19122 1.19155 1.18947 1.1924 1.19373 1.19295 1.19611 1.19532 1.1942 1.1977 1.19174 1.19331 1.19424 1.19264 1.19073 1.19188 1.18892 1.19038 1.19922 1.19817 1.19484 1.19967 1.19341 1.19031 1.19055 1.19331 1.19219 1.1953 1.19373 1.19562 1.19752 1.19348 1.19467 1.19282 1.19568 1.19445 1.19353 1.19824 1.18853 1.20185 1.19898 1.19571 1.19993 1.19484 1.19892 1.19103 1.19507 1.19178 1.19088 1.19727 1.18346 1.19546 1.19423 1.18787 1.19371 1.19356 1.19327 1.1981 1.19731 1.19494 1.19541 1.19391 1.19402 1.20024 1.19198 1.1867 1.19421 1.19283 1.19173 1.19654 1.19251 1.18967 1.19492 1.19653 1.19672 1.18544 1.19458 1.19196 1.19351 1.19289 1.19693 1.19636 1.19682 1.19275 1.19159 1.19358 1.19277 1.19257 1.19348 1.19391 1.19558 1.19557 1.19376 1.19405 1.19193 1.19009 1.18971 1.19224 1.19064 1.19097 1.19279 1.18906 1.19098 1.19742 1.19662 1.19739 1.19419 1.19559 1.19459 1.19708 1.19173 1.19267 1.19312 1.19278 1.18957 1.18815 1.18889 1.19178 1.19355 1.21285 1.19743 1.19098 1.19129 1.19029 1.19868 1.19137 1.19372 1.19481 1.19337 1.1959 1.19308 1.19347 1.19613 1.19494 1.1967 1.193 1.19463 1.20678 1.18817 1.19569 1.19663 1.19396 1.19818 1.19266 1.1991 1.1919 1.19531 1.18615 1.19195 1.19104 1.19003 1.19177 1.19923 1.18796 1.19288 1.19178 1.18874 1.19641 1.19463 1.18928 1.19488 1.18812 1.19312 1.19354 1.19237 1.1937 1.19285 1.19298 1.18986 1.19339 1.1901 1.19675 1.20045 1.19699 1.19325 1.19368 1.19227 1.19233 1.19623 1.19199 1.19367 1.19052 1.19524 1.19186 1.19511 1.18937 1.1916 1.19318 1.19266 1.19525 1.19475 1.19324 1.19376 1.19212 1.19417 1.19005 1.19601 1.19318 1.18996 1.19293 1.18829 1.19188 1.19146 1.19813 1.19386 1.19251 1.19487 1.19514 1.19626 1.19121 1.19611 1.19365 1.19848 1.1906 1.197 1.19178 1.19063 1.19264 1.19557 1.20106 1.19546 1.18217 1.19178 1.19985 1.19101 1.19116 1.19411 1.19269 1.19536 1.19183 1.19615 1.19583 1.20163 1.19795 1.19845 1.19462 1.20473 1.19189 1.19636 1.19298 1.19811 1.19535 1.19236 1.19288 1.19777 1.19051 1.18376 1.1951 1.19176 1.1905 1.20194 1.19224 1.193 1.19017 1.19131 1.18827 1.19529 1.19417 1.19092 1.19423 1.18834 1.1944 1.19313 1.19179 1.19303 1.19317 1.19188 1.18951 1.19538 1.19278 1.19197 1.19392 1.19447 1.19292 1.19311 1.19046 1.1893 1.1936 1.19501 1.19652 1.19344 1.19502 1.19212 1.19481 1.18936 1.1914 1.19127 1.19155 1.19568 1.19376 1.19285 1.19355 1.19023 1.19362 1.18911 1.19506 1.1936 1.17801 1.18932 1.19141 1.1916 1.19214 1.19761 1.19252 1.19188 1.19373 1.19525 1.19533 1.19129 1.19523 1.19305 1.19276 1.19595 1.1992 1.19988 1.19069 1.18581 1.19276 1.19929 1.19414 1.18191 1.1917 1.20283 1.1913 1.18963 1.19325 1.19245 1.19472 1.19238 1.19176 1.19178 1.1967 1.1963 1.20409 1.19372 1.19015 1.19209 1.20371 1.2101 1.19298 1.19319 1.19777 1.19431 1.19236 1.19547 1.197 1.18716 1.18953 1.19321 1.1837 1.20145 1.19797 1.19426 1.1897 1.19075 1.18769 1.18542 1.1929 1.19286 1.19054 1.18967 1.19691 1.19298 1.19166 1.19221 1.19435 1.19354 1.19007 1.19285 1.19724 1.19125 1.19178 1.19407 1.19187 1.1926 1.18998 1.18959 1.1933 1.19465 1.1932 1.19536 1.19464 1.19351 1.19189 1.18846 1.19204 1.19088 1.19035 1.19175 1.19073 1.19238 1.18988 1.19131 1.19205 1.19063 1.19603 1.19698 1.18348 1.19178 1.19889 1.18788 1.19662 1.19709 1.19191 1.19192 1.19223 1.19571 1.19212 1.19493 1.19485 1.19965 1.19392 1.19722 1.19242 1.20345 1.19022 1.18757 1.18992 1.19401 1.19819 1.19228 1.18088 1.20246 1.19052 1.19578 1.19188 1.19336 1.19503 1.19062 1.18121 1.1958 1.19501 1.20346 1.18953 1.19249 1.19152 1.20794 1.19375 1.18968 1.19143 1.19228 1.19389 1.19163 1.1933 1.19071 1.19676 1.18731 1.19011 1.19367 1.18364 1.18152 1.19875 1.19413 1.18913 1.19012 1.18947 1.18754 1.18972 1.19294 1.19464 1.19651 1.18904 1.19492 1.19254 1.19178 1.18907 1.19433 1.19378 1.19373 1.18915 1.1986 1.18918 1.1894 1.19417 1.19121 1.19228 1.18974 1.188 1.19293 1.19425 1.19261 1.19509 1.19473 1.19255 1.19398 1.19133 1.19229 1.19017 1.19392 1.18838 1.18951 1.1929 1.18963 1.19169 1.19227 1.19188 1.19684 1.19871 1.19388 1.18762 1.19881 1.18614 1.19461 1.19602 1.1871 1.19284 1.19268 1.1963 1.19205 1.19432 1.19516 1.20008 1.19333 1.19697 1.18872 1.20309 1.1864 1.18609 1.19263 1.19024 1.18964 1.18973 1.20061 1.18785 1.19059 1.19173 1.19194 1.19308 1.19351 1.1907 1.18554 1.1924 1.18904 1.19857 1.18721 1.19521 1.18881 1.18988 1.19137 1.19384 1.1879 1.19178 1.19272 1.19162 1.1915 1.19478 1.19166 1.19667 1.18632 1.18895 1.19482 1.1896 1.19035 1.19955 1.19627 1.18883 1.19101 1.18768 1.19004 1.19317 1.19484 1.19675 1.18798 1.19167 1.19162 1.19252 1.18596 1.19052 1.19408 1.19366 1.20147 1.19536 1.18886 1.18971 1.19352 1.19709 1.19107 1.18909 1.18767 1.19247 1.19382 1.19213 1.19469 1.19411 1.19503 1.19178 1.19475 1.1976 1.19235 1.18912 1.19372 1.18789 1.19103 1.19289 1.18989 1.19012 1.18823 1.19227 1.19403 1.19884 1.19178 1.18756 1.20183 1.20118 1.19156 1.19393 1.19184 1.18968 1.19108 1.19118 1.19687 1.19608 1.19232 1.19316 1.19489 1.19954 1.19258 1.19682 1.19821 1.20255 1.18602 1.19238 1.19102 1.19813 1.18971 1.19165 1.19219 1.20233 1.18782 1.17981 1.19117 1.19194 1.19296 1.19048 1.18662 1.19009 1.18893 1.18772 1.18703 1.19548 1.18756 1.18977 1.19113 1.19236 1.1894 1.18509 1.19163 1.18687 1.19465 1.19187 1.19648 1.18611 1.18907 1.19594 1.19533 1.19656 1.20101 1.19765 1.18836 1.19139 1.19039 1.18955 1.19245 1.19441 1.19348 1.18795 1.19144 1.19156 1.19403 1.18745 1.19198 1.18335 1.19737 1.19961 1.18895 1.18887 1.18867 1.19256 1.19636 1.19034 1.18865 1.18727 1.19194 1.19369 1.1922 1.1874 1.1893 1.19455 1.19651 1.19058 1.19216 1.19191 1.18967 1.19102 1.1898 1.18747 1.18965 1.19353 1.18363 1.19033 1.19989 1.19851 1.19015 1.19646 1.19059 1.19391 1.18717 1.19175 1.19558 1.19191 1.19283 1.19901 1.19563 1.18935 1.19403 1.19451 1.19831 1.18601 1.19221 1.19107 1.1986 1.19709 1.18771 1.19096 1.19688 1.19406 1.18728 1.19072 1.19062 1.19256 1.19034 1.18838 1.18942 1.18735 1.19231 1.1861 1.19078 1.18797 1.18554 1.1924 1.1911 1.19122 1.18466 1.18899 1.18664 1.19393 1.19198 1.19619 1.18595 1.18913 1.19586 1.19534 1.19554 1.19992 1.19694 1.18789 1.1909 1.19028 1.19086 1.19178 1.18423 1.18653 1.18782 1.19174 1.19185 1.19365 1.18817 1.19185 1.18466 1.19294 1.19371 1.18821 1.18853 1.18854 1.19211 1.19488 1.19178 1.19262 1.18568 1.18713 1.19192 1.19257 1.18962 1.1842 1.19217 1.19695 1.19729 1.18937 1.19462 1.19447 1.19031 1.19235 1.19162 1.19227 1.18827 1.19681 1.18795 1.18789 1.1966 1.19974 1.19367 1.18993 1.19201 1.19377 1.20008 1.19724 1.18864 1.19454 1.19349 1.19178 1.19161 1.19212 1.1982 1.19294 1.18882 1.19859 1.20705 1.20653 1.20092 1.18482 1.18269 1.19099 1.1904 1.19786 1.19056 1.18816 1.19712 1.19744 1.1893 1.19096 1.19015 1.18955 1.1898 1.19132 1.18705 1.19371 1.18623 1.18751 1.19071 1.18054 1.19322 1.18592 1.19409 1.18727 1.18713 1.187 1.18092 1.19311 1.18905 1.1956 1.18606 1.18855 1.19606 1.19545 1.19478 1.18374 1.19578 1.18776 1.19094 1.19287 1.1909 1.19018 1.18365 1.18579 1.18669 1.19046 1.19041 1.19076 1.19612 1.19146 1.19078 1.19176 1.1916 1.19241 1.18814 1.18902 1.18905 1.19169 1.19444 1.19079 1.19083 1.18586 1.18728 1.192 1.19542 1.18948 1.19147 1.18977 1.18761 1.19716 1.18877 1.19409 1.19074 1.19177 1.19093 1.18761 1.19655 1.19714 1.17821 1.19803 1.20127 1.19745 1.19243 1.19313 1.18876 1.20003 1.19687 1.1885 1.19772 1.19575 1.19639 1.20139 1.18935 1.19607 1.19207 1.18847 1.19719 1.20114 1.20084 1.18665 1.20039 1.19787 1.19062 1.19019 1.19688 1.18612 1.19203 1.18919 1.19791 1.19111 1.1892 1.18983 1.18937 1.18923 1.19211 1.18862 1.18672 1.18448 1.18958 1.19143 1.19025 1.20025 1.18837 1.18736 1.19227 1.18936 1.18447 1.18064 1.1905 1.18153 1.19195 1.18361 1.19588 1.19037 1.1949 1.19424 1.18682 1.19439 1.1876 1.19088 1.1913 1.1917 1.19295 1.18469 1.1835 1.18725 1.19146 1.19417 1.1902 1.18947 1.18899 1.18843 1.19237 1.19214 1.19052 1.18969 1.19198 1.18669 1.19166 1.18947 1.18758 1.19231 1.19234 1.1953 1.18947 1.19176 1.18869 1.18664 1.18953 1.18983 1.192 1.19413 1.18943 1.19612 1.19118 1.18604 1.20065 1.18749 1.19058 1.19303 1.19178 1.20044 1.19767 1.19244 1.19074 1.18851 1.19838 1.19881 1.1932 1.1973 1.19643 1.19425 1.20415 1.20745 1.18986 1.19121 1.19572 1.19365 1.18831 1.19797 1.18524 1.19834 1.19382 1.19231 1.19307 1.19178 1.186 1.19178 1.19178 1.18999 1.19843 1.19827 1.18855 1.18939 1.18751 1.18433 1.18701 1.18953 1.18366 1.1831 1.18852 1.19062 1.19006 1.19289 1.18775 1.18716 1.19257 1.18874 1.18378 1.19037 1.18097 1.18054 1.19223 1.18403 1.19178 1.18876 1.19231 1.19072 1.1936 1.1869 1.19323 1.18732 1.19193 1.1926 1.19069 1.1923 1.18521 1.18633 1.18674 1.19148 1.19178 1.18944 1.18882 1.19065 1.18715 1.19271 1.19204 1.19072 1.18956 1.19172 1.1868 1.19153 1.18853 1.19173 1.18386 1.19701 1.19626 1.18892 1.19043 1.19114 1.18488 1.18855 1.19634 1.1912 1.19525 1.19051 1.19631 1.19103 1.19045 1.20041 1.1913 1.19332 1.19803 1.19917 1.19907 1.19357 1.19306 1.19615 1.19865 1.19783 1.19697 1.19962 1.20137 1.19411 1.1961 1.19398 1.19244 1.1963 1.19902 1.19598 1.19466 1.19104 1.19173 1.19545 1.19211 1.19077 1.18976 1.19538 1.18799 1.18904 1.18213 1.18387 1.19057 1.19178 1.18381 1.17914 1.18819 1.18986 1.18975 1.19347 1.18757 1.19232 1.19286 1.18858 1.18416 1.18203 1.18572 1.18556 1.19271 1.18399 1.19178 1.18836 1.19359 1.18523 1.19044 1.18728 1.19331 1.19225 1.19129 1.19068 1.19309 1.18861 1.18354 1.18682 1.18593 1.18757 1.18389 1.18903 1.18867 1.19051 1.18695 1.19194 1.19215 1.19131 1.18997 1.19165 1.18925 1.18636 1.18583 1.18778 1.18426 1.19227 1.19179 1.18909 1.1908 1.19024 1.18445 1.18856 1.19637 1.19191 1.19178 1.18927 1.19574 1.19326 1.19808 1.18795 1.19583 1.20221 1.19178 1.19783 1.19165 1.19359 1.20054 1.19198 1.19085 1.19494 1.19833 1.19711 1.19584 1.19964 1.19541 1.18946 1.19988 1.19419 1.19366 1.19241 1.19638 1.19886 1.19517 1.18817 1.19214 1.18693 1.19199 1.1953 1.19178 1.19109 1.20312 1.20356 1.189 1.18716 1.18677 1.18828 1.18072 1.19044 1.19155 1.19178 1.19157 1.19312 1.18996 1.18973 1.18832 1.19037 1.18551 1.19394 1.18713 1.18861 1.18374 1.18913 1.18662 1.18555 1.1919 1.19178 1.18845 1.18713 1.19029 1.19256 1.18854 1.18944 1.18783 1.19178 1.19223 1.19176 1.19203 1.18891 1.18747 1.18471 1.18252 1.18592 1.18848 1.1847 1.18833 1.18822 1.19283 1.18671 1.19226 1.18737 1.19094 1.18955 1.1904 1.18931 1.18621 1.18625 1.18658 1.19126 1.19177 1.19237 1.19178 1.19178 1.19034 1.18375 1.18951 1.19788 1.19108 1.18816 1.18907 1.19493 1.19251 1.19152 1.19224 1.19101 1.20472 1.2005 1.20079 1.19721 1.19875 1.19781 1.19821 1.19223 1.19977 1.19846 1.19648 1.2013 1.20113 1.19223 1.18856 1.19947 1.19439 1.1921 1.19131 1.19636 1.1983 1.1949 1.1885 1.18862 1.18805 1.18878 1.19423 1.18301 1.19035 1.19097 1.18679 1.18653 1.18779 1.18031 1.19178 1.19002 1.19607 1.1921 1.19327 1.19109 1.191 1.19141 1.18739 1.19202 1.1851 1.19178 1.18677 1.18902 1.1909 1.18632 1.19044 1.19332 1.189 1.18956 1.18834 1.1866 1.18997 1.18771 1.18802 1.18901 1.18875 1.18938 1.19178 1.19246 1.19156 1.19211 1.19337 1.19222 1.18281 1.18634 1.19178 1.18463 1.18953 1.19015 1.19228 1.18907 1.19178 1.19175 1.19169 1.19024 1.18957 1.19052 1.18942 1.18968 1.18899 1.18642 1.19178 1.19172 1.19174 1.19199 1.18666 1.18899 1.18648 1.18994 1.19777 1.18977 1.18834 1.18912 1.19674 1.19304 1.1917 1.19165 1.18958 1.20329 1.19947 1.1956 1.19858 1.19732 1.19243 1.19938 1.21205 1.19259 1.19263 1.19851 1.20074 1.18648 1.19958 1.19728 1.19029 1.19481 1.18999 1.19027 1.19848 1.19144 1.19104 1.19093 1.18188 1.18673 1.19059 1.18475 1.19339 1.18925 1.19092 1.19468 1.18707 1.18831 1.18088 1.19178 1.18918 1.19013 1.19264 1.19212 1.19246 1.19346 1.1903 1.18609 1.18813 1.19466 1.18482 1.1862 1.18699 1.18967 1.18781 1.18527 1.19049 1.18525 1.18969 1.19106 1.18792 1.18627 1.19408 1.19003 1.18753 1.18865 1.19049 1.1924 1.1911 1.19096 1.1928 1.19119 1.1837 1.18766 1.19015 1.18459 1.19064 1.19126 1.1889 1.19164 1.19052 1.18943 1.18973 1.19114 1.19178 1.19176 1.19224 1.19108 1.18632 1.19498 1.19497 1.19178 1.19174 1.19184 1.19657 1.18747 1.19182 1.19138 1.1917 1.192 1.18773 1.18671 1.19146 1.18766 1.19434 1.19148 1.19373 1.19268 1.18946 1.19505 1.1981 1.19754 1.19918 1.1953 1.2014 1.18953 1.19742 1.19151 1.19095 1.20517 1.19258 1.18505 1.18242 1.19501 1.18853 1.19022 1.19784 1.19163 1.1938 1.18072 1.18078 1.18639 1.18953 1.18401 1.19217 1.19171 1.19065 1.193 1.18728 1.19062 1.19178 1.18919 1.19081 1.19036 1.19273 1.18793 1.18557 1.18806 1.19178 1.18718 1.18626 1.19178 1.19424 1.19008 1.19187 1.19173 1.18585 1.19615 1.19247 1.19106 1.18802 1.19076 1.19522 1.18821 1.18773 1.18838 1.19075 1.19212 1.1911 1.19095 1.19164 1.19101 1.19144 1.18993 1.18985 1.18424 1.19043 1.19131 1.18894 1.19161 1.19135 1.18977 1.1894 1.19104 1.19195 1.18978 1.19231 1.19212 1.19091 1.19211 1.19126 1.19052 1.19165 1.18958 1.19437 1.19125 1.18803 1.19113 1.1852 1.18924 1.18579 1.19333 1.19282 1.19752 1.19104 1.19201 1.19466 1.19804 1.19783 1.19719 1.19497 1.19168 1.19415 1.18471 1.19136 1.20157 1.19178 1.19192 1.18324 1.21034 1.20881 1.1973 1.19178 1.18735 1.19164 1.19817 1.19472 1.18462 1.17987 1.17833 1.18871 1.18856 1.1922 1.19007 1.1918 1.18997 1.19288 1.18681 1.1909 1.19212 1.19232 1.19072 1.18603 1.19056 1.19224 1.19024 1.18529 1.18947 1.18978 1.18886 1.18435 1.18933 1.1954 1.19123 1.19199 1.19172 1.1904 1.19214 1.19134 1.18843 1.19188 1.18844 1.1875 1.18804 1.18806 1.19074 1.19233 1.19151 1.19178 1.19178 1.19162 1.19096 1.19146 1.19022 1.19178 1.18458 1.19066 1.19158 1.19178 1.19177 1.19136 1.19178 1.18922 1.19097 1.18975 1.19196 1.19203 1.19242 1.18827 1.19257 1.19223 1.19 1.19089 1.18758 1.19115 1.18569 1.18895 1.18536 1.18417 1.19178 1.18988 1.19141 1.19125 1.1899 1.19477 1.19963 1.19278 1.1971 1.18949 1.19265 1.1967 1.18924 1.1943 1.1983 1.19895 1.18631 1.19608 1.1974 1.20996 1.17053 1.19479 1.18516 1.19921 1.20601 1.19668 1.17779 1.18799 1.19033 1.19783 1.17632 1.18292 1.19167 1.19178 1.18894 1.18932 1.18941 1.19275 1.19159 1.19287 1.18985 1.18656 1.19108 1.19198 1.19041 1.19178 1.19178 1.19101 1.19178 1.18947 1.18961 1.18872 1.18396 1.18855 1.19035 1.19116 1.19131 1.19178 1.1903 1.19191 1.19133 1.18853 1.18928 1.18785 1.18828 1.18918 1.18789 1.19073 1.19071 1.19125 1.19177 1.19177 1.19162 1.19099 1.19156 1.19178 1.19178 1.19178 1.19072 1.19159 1.19178 1.19177 1.19172 1.19177 1.18929 1.19105 1.19095 1.19193 1.19178 1.19114 1.19008 1.19136 1.18826 1.19179 1.19295 1.19253 1.18713 1.1905 1.18961 1.18768 1.18936 1.18813 1.192 1.18604 1.18707 1.18566 1.18675 1.19071 1.19138 1.1939 1.1887 1.19323 1.20075 1.18772 1.19209 1.20143 1.18866 1.19831 1.21099 1.19442 1.19449 1.19353 1.19706 1.18139 1.19259 1.20509 1.19719 1.20186 1.18199 1.19178 1.18862 1.18219 1.18989 1.18899 1.19196 1.191 1.18966 1.18915 1.18684 1.19173 1.18905 1.19191 1.19208 1.19207 1.19255 1.19017 1.19098 1.19191 1.19001 1.1926 1.18927 1.18373 1.18856 1.19019 1.19056 1.19178 1.19151 1.19016 1.191 1.18909 1.18545 1.18478 1.18892 1.18897 1.18793 1.19075 1.19178 1.19124 1.19178 1.19178 1.19159 1.19098 1.19157 1.19178 1.19178 1.19178 1.1907 1.19178 1.19178 1.19177 1.19178 1.19175 1.18924 1.19106 1.19094 1.19132 1.1914 1.19187 1.19199 1.18877 1.19137 1.19012 1.18795 1.18832 1.19184 1.18758 1.1885 1.18805 1.19207 1.18655 1.1831 1.18619 1.18679 1.1911 1.18968 1.19051 1.1888 1.19363 1.20597 1.18979 1.22865 1.19758 1.18725 1.20095 1.20915 1.19342 1.19196 1.18316 1.19964 1.17489 1.18707 1.20156 1.19629 1.19296 1.18158 1.20886 1.18389 1.18925 1.19057 1.192 1.19173 1.19101 1.18961 1.18907 1.19178 1.18949 1.18812 1.18995 1.19178 1.18968 1.19248 1.19046 1.19102 1.19063 1.19133 1.19315 1.18654 1.19155 1.18628 1.18931 1.19065 1.19019 1.1889 1.19098 1.19012 1.19102 1.18939 1.19128 1.18499 1.18569 1.18856 1.19002 1.19282 1.18803 1.18848 1.19154 1.20642 1.20534 1.17061 1.19745 1.1964 1.18704 1.20315 1.20808 1.19353 1.21305 1.19434 1.19175 1.18033 1.19957 1.19346 1.19588 1.18498 1.1874 1.18911 1.19061 1.1877 1.18983 1.20396 1.20172 1.17954 1.18175 1.1964 1.19758 1.19888 1.21441 1.21237 1.19755 1.16712 1.1902 1.17889 1.1898 1.20375 1.18964 1.19089 1.18542 1.18921 1.18606 1.18949 1.19943 1.19694 1.2314 1.19686 1.19676 1.20391 1.2011 1.21054 1.20959 1.17672 1.20385 1.22054 1.21641 1.19417 1.19372 1.19441 1.19141 1.1858 1.17413 1.18139 1.2081 1.2028 1.19365 1.23104 1.19289 1.19214 1.20178 1.20692 1.21575 1.20559 1.18896 1.21509 1.19829 1.21347 1.19483 1.17965 1.18198 1.18023 1.19209 1.19178 1.19178 1.18338 1.17364 1.19505 1.1832 1.21301 1.18276 1.19367 1.22573 1.19326 1.20945 1.19559 1.19956 1.2179 1.20478 1.20646 1.19316 1.20214 1.19178 1.19178 1.19178 1.19178 1.21731 1.17463 1.19136 1.20162 1.19349 1.1921 1.20884 1.19442 1.21787 1.20198 1.21353 1.19265 1.19938 1.1939 1.21681 1.2116 1.23563 1.19011 1.20281 1.19178 1.19178 1.19178 1.19178 1.19178 1.19178 1.19178 1.19178 1.19178 1.19178 0.0167691 1.19178 0.268455 0.257341 0.244646 0.104776 0.087125 0.185065 0.165974 0.258301 0.774045 0.890053 0.669654 0.490904 1.19178 0.164424 1.19183 1.7802 0.877718 0.567148 4.28534 4.83944 1.98927 0.275268 0.11066 1.19332 1.19177 1.40677 2.79246 0.572374 1.06985 3.82696 3.62548 1.26092 1.44114 0.867732 0.265093 0.283227 0.350472 0.254657 0.498616 1.11203 4.44873 2.19582 0.642228 1.19178 0.306876 0.163129 1.19178 0.292841 0.0900754 0.315894 0.149863 1.18882 1.56036 0.50269 1.16998 1.15956 1.21567 1.17937 1.17301 1.19765 1.19899 1.17526 1.20578 1.19955 1.21549 1.18976 1.19233 1.18828 1.23363 1.23756 1.24563 1.18899 0.174029 1.20285 0.487234 1.05113 3.94548 1.54035 1.19171 1.20206 0.580244 0.310404 0.248383 0.32548 0.219183 0.116225 0.134461 0.0533869 0.0913189 0.353935 0.262058 0.315299 1.19178 0.399759 0.786298 4.0176 0.857533 0.641901 0.132332 0.141162 0.235733 0.294549 0.33629 0.625383 0.412753 0.223507 0.230402 1.19178 0.308194 0.516373 0.454062 0.645553 0.500006 1.19178 0.466636 0.762799 0.564919 1.19177 0.25689 1.19178 0.361263 0.313383 0.346398 0.203612 0.104044 0.0887844 0.203731 0.343993 0.47499 0.214545 0.415761 0.220012 0.373108 0.0198067 0.142757 0.199455 0.22229 0.12804 0.233658 0.0871777 0.217868 0.133495 0.334049 0.401959 0.0307169 0.18447 0.702894 0.57286 0.540732 0.325936 0.556968 0.352259 0.872678 1.04276 1.26882 1.32719 0.834868 1.08447 1.77031 0.493755 0.819125 0.387843 0.469676 0.594771 0.373729 0.521738 0.949436 0.228339 0.268004 0.727411 0.774134 0.992791 1.46689 1.77739 2.13107 1.27658 0.563997 1.22024 0.546946 0.784882 0.227176 0.464722 0.388318 0.537102 0.528465 0.188552 0.568976 0.146374 1.47186 0.623081 1.22569 1.73027 0.311418 0.286055 0.426691 0.444626 0.374861 0.476455 0.232966 0.384315 0.713491 0.647814 0.385687 1.20374 0.591169 0.104449 1.22468 1.19901 1.18198 1.19702 1.22153 1.19553 1.18256 1.17192 1.20116 1.1975 1.21453 1.2109 1.18944 1.17756 1.20404 1.21964 1.23342 1.27478 1.24931 1.26285 1.28507 1.24633 1.21325 1.17108 1.23582 0.378878 0.650434 0.120684 1.0281 2.15492 1.53736 1.01198 0.450423 0.278439 0.473243 0.716453 0.551457 0.626023 0.372117 0.231015 0.199131 0.0784397 0.0450517 0.206154 0.219533 0.227193 0.170884 0.195876 0.176045 0.207691 0.153977 0.276752 0.192675 0.129955 0.199702 0.482909 0.265776 0.229447 0.469332 0.195023 0.431145 2.86749 0.98138 1.45696 0.129751 1.977 1.07243 0.501534 0.312955 0.273301 0.167182 0.104693 0.304178 0.30676 0.288959 0.164015 0.418111 0.216937 0.729998 0.195374 0.593081 0.108833 0.36302 0.355378 0.222111 0.444363 0.425229 0.349164 0.469782 0.477308 0.307914 0.372681 0.930718 0.187764 0.745387 0.477768 1.00963 0.328511 0.0265738 0.528676 0.486819 0.46308 0.0463515 0.0843254 0.220985 0.390272 0.234525 0.326615 0.329954 0.3219 0.481266 0.452289 0.148136 0.309202 0.298656 0.352604 0.192559 0.168536 0.107766 0.168861 0.19307 0.188054 0.352758 0.267141 0.229116 0.0322514 0.16814 0.277085 0.24917 0.573168 0.337951 0.629493 0.824621 0.858984 0.859655 0.74195 0.516286 0.736637 0.490445 0.464806 0.319698 0.448976 0.485478 0.318028 0.417621 0.58189 0.804487 0.572583 1.0491 0.701968 1.06077 0.259517 0.722101 0.726541 0.302452 0.645553 0.50813 0.392975 0.319531 0.33692 0.261643 0.353768 0.335213 0.464451 0.540637 0.474062 0.830515 0.49771 0.501825 0.762767 0.41552 0.357358 0.395903 0.332027 0.30468 0.624076 1.04001 0.467581 0.646025 0.58935 0.920307 0.665672 1.14092 0.866016 0.47787 1.20585 1.17852 1.19466 1.20557 1.21851 1.2159 1.19944 1.17269 1.17751 1.1942 1.19795 1.20876 1.17822 1.19608 1.24455 1.20597 1.18917 1.12715 0.507047 0.25714 0.460198 0.985128 0.726922 0.989418 0.532927 0.485683 0.18877 0.147302 0.212134 0.250157 0.265947 0.17334 0.231528 0.216622 0.245885 0.401397 0.360005 0.203879 0.206522 0.277673 0.247036 0.292934 0.261301 0.508353 0.254932 0.335913 0.308672 0.328696 0.213579 0.396566 0.422539 0.134884 0.182253 0.286103 0.437262 0.180199 0.802684 0.843632 0.544546 0.118825 0.340248 0.625538 0.212113 0.178632 0.0711865 0.282855 0.301617 0.376853 0.356073 0.374667 0.225367 0.0465345 0.178876 0.19969 0.437324 0.516628 0.455063 0.452747 0.176638 0.16602 0.292886 0.128676 0.295813 0.361967 0.380368 0.414915 0.373149 0.396762 0.378023 0.312241 0.282074 0.305016 0.245789 0.253436 0.231795 0.188142 0.190368 0.235688 0.247374 0.307711 0.307906 0.0825806 0.379426 0.527807 0.706136 0.659377 0.553977 0.718016 0.479661 0.393887 0.589669 0.507533 0.415765 0.44972 0.417456 0.425418 0.444953 0.380435 0.454232 0.511212 0.655283 0.52758 0.501573 0.557035 0.383187 0.132787 0.258612 0.291427 0.220955 0.23601 0.362671 0.341975 0.457168 0.522928 0.401594 0.241901 0.561705 0.595313 0.502251 0.38157 0.403684 0.546348 0.483529 0.483043 0.386405 0.484945 0.653327 0.591433 0.467576 0.714031 1.18754 1.38067 1.21444 1.20011 1.21047 1.20801 1.21298 1.19946 1.18344 1.1802 1.18514 1.19619 1.20307 1.19178 1.18575 1.21853 1.19156 1.19857 1.1747 1.29482 0.32135 0.318381 0.529841 0.346318 0.486352 0.465527 0.751467 0.485541 0.727677 0.322075 0.285622 0.251394 0.334048 0.325906 0.279465 0.252905 0.298198 0.289795 0.302069 0.300784 0.356017 0.346493 0.264512 0.379227 0.534644 0.539574 0.358017 0.282595 0.293766 0.27958 0.23318 0.206109 0.0676283 0.160875 0.240112 0.16223 0.488914 0.242167 0.279606 0.323504 0.163311 0.186088 0.346999 0.276219 0.386697 0.350113 0.385727 0.263339 0.327394 0.303608 0.403218 0.369359 0.361523 0.273609 0.332458 0.239131 0.361414 0.271466 0.349487 0.296466 0.343307 0.412749 0.434934 0.422893 0.439975 0.406645 0.401736 0.400637 0.403923 0.316914 0.290904 0.313543 0.252029 0.316748 0.274398 0.331707 0.385567 0.317933 0.436844 0.37334 0.420077 0.483205 0.385107 0.549658 0.550496 0.427412 0.360009 0.451762 0.496252 0.432594 0.485343 0.416786 0.381681 0.352106 0.425738 0.45734 0.428805 0.47979 0.483605 0.484869 0.466032 0.520568 0.450387 0.440342 0.423962 0.389748 0.40436 0.414356 0.3903 0.322644 0.424231 0.352617 0.457824 0.40001 0.48367 0.542155 0.558941 0.6832 0.47669 0.309657 0.628352 0.506212 0.580065 0.522227 0.490155 0.495796 0.535567 0.56964 0.51736 0.549098 0.521015 0.500819 0.528545 0.471859 0.512483 1.12118 1.23442 1.18566 1.14694 1.19067 1.19376 1.18355 1.17957 1.17179 1.18672 1.20436 1.16716 1.17743 1.17769 1.19787 1.18864 1.14963 1.19178 0.355989 0.330686 0.398352 0.316677 0.354436 0.402181 0.379895 0.510156 0.55174 0.357914 0.47287 0.410266 0.372956 0.364616 0.289802 0.35671 0.350806 0.337759 0.340565 0.34469 0.319968 0.387457 0.428276 0.404793 0.45281 0.484259 0.441638 0.406583 0.322837 0.309523 0.351402 0.299574 0.347509 0.270456 0.351427 0.242759 0.27313 0.170623 0.19595 0.33557 0.351225 0.270224 0.35178 0.364184 0.344932 0.423393 0.379681 0.378315 0.34726 0.390539 0.281296 0.315666 0.359658 0.329021 0.388282 0.384383 0.389685 0.373839 0.360456 0.373272 0.430695 0.461798 0.486496 0.489425 0.510195 0.372941 0.446184 0.422727 0.375027 0.341965 0.349419 0.347471 0.427029 0.436455 0.464995 0.421606 0.479355 0.476774 0.484626 0.484 0.470524 0.51276 0.505173 0.469749 0.477795 0.4199 0.323288 0.437352 0.438615 0.469567 0.471248 0.458924 0.464486 0.417675 0.40229 0.358289 0.387749 0.384937 0.474208 0.433917 0.506852 0.496218 0.638473 0.406138 0.600027 0.978526 0.597208 1.02987 0.682625 0.552865 0.514935 0.482218 0.518585 0.519462 0.442123 0.508216 0.498515 1.11529 1.21605 1.1847 1.08115 1.21183 1.21578 1.20939 1.1881 1.17285 1.18124 1.17368 1.2078 1.22059 1.1707 1.18935 1.1687 1.1639 1.1658 1.16828 1.16571 1.27915 1.10015 1.13338 0.406308 0.431635 0.503072 0.503615 0.392517 0.579455 0.444101 0.375116 0.433526 0.395782 0.423265 0.418116 0.390496 0.40036 0.466274 0.501134 0.481701 0.525084 0.482542 0.528255 0.51665 0.494463 0.449646 0.439294 0.407861 0.380778 0.379188 0.459442 0.37921 0.448335 0.288957 0.387153 0.305618 0.3817 0.434635 0.431191 0.410337 0.472902 0.468701 0.401576 0.459273 0.408855 0.386167 0.408598 0.422604 0.406213 0.471096 0.403289 0.407103 0.424337 0.431057 0.413632 0.452831 0.418244 0.42221 0.418077 0.467565 0.517181 0.458146 0.555834 0.459068 0.493724 0.453566 0.395952 0.436766 0.493524 0.338866 0.506813 0.488376 0.566634 0.488196 0.504523 0.548795 0.60277 0.486904 0.423219 0.471522 0.545293 0.553786 0.502657 0.561157 0.54134 0.532461 0.535488 0.331437 0.476979 0.495005 0.502043 0.470724 0.507269 0.453141 0.411391 0.418328 0.407143 0.540982 0.439679 0.462281 0.497909 0.529253 0.815921 0.493194 0.890431 0.404066 0.462119 0.484128 0.496338 0.455243 0.521188 0.513354 0.516424 0.528267 0.561396 0.468736 0.511053 0.465399 0.455612 0.370501 0.299802 1.19178 1.19612 1.14253 1.13484 1.17873 1.2129 1.24979 1.18198 1.1733 1.17315 1.16456 1.1725 1.22061 1.18008 1.18829 1.15413 1.15228 1.32961 1.1901 1.10715 1.14396 0.415201 0.446869 0.465542 0.522247 0.405513 0.529866 0.453228 0.457471 0.448499 0.467248 0.509126 0.500486 0.446734 0.536089 0.550419 0.547155 0.593182 0.552859 0.523112 0.471767 0.440233 0.435777 0.421309 0.507541 0.556063 0.455878 0.461074 0.395003 0.434171 0.470991 0.491758 0.513368 0.500782 0.507021 0.494635 0.514338 0.446214 0.420052 0.453745 0.446467 0.507507 0.431725 0.464056 0.47761 0.47724 0.506109 0.479768 0.474896 0.469218 0.518826 0.553472 0.548081 0.515066 0.485096 0.483469 0.52704 0.462877 0.557449 0.542334 0.558052 0.502825 0.57708 0.597683 0.607029 0.404436 0.663446 0.48671 0.548999 0.574053 0.545259 0.561314 0.564843 0.572346 0.468903 0.646724 0.689468 0.638371 0.479842 0.66217 0.570636 0.495708 0.491233 0.478159 0.420586 0.420435 0.589046 0.566943 0.519681 0.51659 0.538512 0.534203 0.559202 0.525493 0.572345 0.655089 0.647619 0.591123 0.595931 0.512184 0.480003 0.619144 0.54202 0.594996 0.320734 1.03728 1.1318 1.17624 1.1705 1.2035 1.16987 1.18057 1.17661 1.22145 1.17771 1.20428 1.17354 1.18893 1.15562 1.13515 1.28794 1.07215 1.29604 0.451761 0.454945 0.498954 0.467394 0.525128 0.548912 0.562969 0.549698 0.554445 0.503455 0.481913 0.5386 0.566694 0.535194 0.585491 0.520225 0.534162 0.575813 0.60185 0.602095 0.633291 0.567967 0.612614 0.568319 0.465448 0.463034 0.460573 0.509349 0.478149 0.488757 0.355816 0.521869 0.626437 0.547599 0.524037 0.40995 0.480534 0.4673 0.570121 0.503644 0.550386 0.540983 0.561487 0.44219 0.466532 0.539628 0.477572 0.463549 0.583335 0.621106 0.526042 0.564828 0.525149 0.552163 0.536729 0.510872 0.537505 0.499137 0.501242 0.507909 0.56572 0.568822 0.586698 0.535917 0.570291 0.54864 0.550474 0.550761 0.532401 0.601826 0.535445 0.533546 0.568568 0.581882 0.538132 0.539152 0.60105 0.638982 0.821684 0.601796 0.476558 0.536105 0.597036 0.556706 0.544671 0.493341 0.881631 0.500168 0.590494 0.543244 0.53819 0.583652 0.551326 0.506971 0.569542 0.617533 0.573075 0.611839 0.576633 0.5737 0.594173 0.578905 0.597565 0.585938 0.599326 0.566432 0.504522 0.63711 0.622212 0.619856 0.710197 0.593661 1.16082 1.18056 1.18078 1.12701 1.18514 1.15686 1.18248 1.2071 1.1696 1.1779 1.17356 1.18387 1.20575 1.18039 1.15336 1.14612 1.13854 1.24069 1.16896 1.07957 0.517486 0.462579 0.587986 0.574738 0.566387 0.57862 0.557919 0.551648 0.552073 0.621093 0.60136 0.621005 0.655791 0.607345 0.631803 0.629008 0.675384 0.637354 0.621278 0.58493 0.426591 0.465086 0.477601 0.526736 0.55672 0.411054 0.451161 0.311357 0.544117 0.772245 0.531695 0.612246 0.630448 0.656524 0.555259 0.588016 0.555814 0.570721 0.590978 0.630399 0.593319 0.427696 0.437911 0.727933 0.621794 0.592523 0.575004 0.550431 0.577084 0.499827 0.553525 0.608034 0.605268 0.630761 0.604928 0.582021 0.543487 0.6338 0.565048 0.594545 0.613895 0.596672 0.595018 0.559368 0.604656 0.559763 0.817087 0.815328 0.634258 0.69472 0.51253 0.737984 0.625341 0.602116 0.568184 0.647127 0.583231 0.569516 0.712481 0.586781 0.641129 0.634611 0.673679 0.683089 0.58802 0.640484 0.675111 0.625619 0.657365 0.642151 0.607197 0.618995 0.594986 0.609715 0.596591 0.602509 0.584352 0.58702 0.622648 0.508888 0.659826 0.610811 0.536747 0.677828 1.09204 0.680791 0.704062 1.21205 1.15594 1.18468 1.12923 1.19601 1.15078 1.18263 1.19178 1.16902 1.17938 1.1769 1.17442 1.1696 1.1747 1.18025 1.16889 1.16729 1.15398 1.26225 1.27209 1.19178 1.11173 1.22774 0.509297 0.599832 0.702318 0.622451 0.638155 0.609243 0.614493 0.583034 0.547472 0.588062 0.632006 0.650739 0.687608 0.692908 0.728759 0.680314 0.685431 0.728352 0.686092 0.645366 0.62632 0.63551 0.457756 0.580995 0.568762 0.523149 0.365386 0.719006 0.705677 0.506194 0.599128 0.703747 0.688872 0.659721 0.585529 0.591171 0.603911 0.631793 0.649921 0.613394 0.647103 0.828003 0.683269 0.615389 0.619329 0.640547 0.584549 0.554776 0.656513 0.57632 0.702479 0.616949 0.642485 0.632508 0.613152 0.695479 0.565727 0.652879 0.664685 0.644813 0.637648 0.489688 0.652228 0.824371 0.680569 0.798696 0.641363 0.58448 0.640866 0.593799 0.602994 0.618228 0.625937 0.642769 0.637918 0.693393 0.691229 0.722309 0.650349 0.677572 0.690092 0.650597 0.664723 0.624475 0.616334 0.63859 0.621118 0.606664 0.60514 0.614896 0.586429 0.63148 0.526302 0.807027 0.656859 0.788206 0.697058 1.23128 1.12259 1.16421 1.16773 1.18987 1.15877 1.16168 1.18263 1.16922 1.17089 1.16839 1.17812 1.17424 1.17412 1.16127 1.20011 1.17864 1.17551 1.14417 1.18098 1.18003 0.881649 0.947096 1.14802 1.1239 0.628258 0.621866 0.638155 0.60842 0.656819 0.659453 0.599083 0.70729 0.625802 0.634497 0.663731 0.704259 0.767705 0.720883 0.731758 0.734181 0.715505 0.692462 0.658883 0.697431 0.642339 0.699437 0.436984 0.621282 0.704083 0.609035 0.680284 0.64491 0.585318 0.68839 0.731656 0.603461 0.600142 0.591297 0.627444 0.638686 0.678069 0.70586 0.618301 0.622932 0.848131 0.708313 0.75945 0.686338 0.624993 0.474985 0.651079 0.678857 0.66504 0.671578 0.67199 0.670754 0.640361 0.694328 0.698752 0.577715 0.756248 0.719015 0.701128 0.594995 0.682461 0.836497 0.779875 0.773504 0.677982 0.7082 0.676769 0.625305 0.643954 0.646263 0.622275 0.752206 0.728597 0.687513 0.720678 0.675463 0.704437 0.7212 0.703381 0.705343 0.739057 0.707677 0.765485 0.698565 0.645566 0.636109 0.624405 0.623169 0.656292 0.573995 0.572581 0.68149 0.875815 0.840278 0.719389 1.17032 1.17081 1.16745 1.20107 1.16277 1.18198 1.1679 1.16588 1.18216 1.17791 1.17524 1.17221 1.16685 1.17057 1.17809 1.17838 1.15233 1.18638 1.1613 1.20653 1.1846 1.19178 1.17549 1.1526 0.703039 0.63575 0.638788 0.621729 0.721987 0.718444 0.639642 0.653686 0.626792 0.708904 0.772821 0.798165 0.76649 0.735554 0.715074 0.712829 0.707088 0.710598 0.688553 0.816089 0.621541 0.636726 0.744681 0.708 0.657947 0.655254 0.682233 0.684904 0.725636 0.707373 0.575637 0.682428 0.685129 0.716565 0.6868 0.642356 0.661342 0.672758 0.782056 0.713825 0.745938 0.772711 0.784079 0.507768 0.852231 0.707717 0.689836 0.698759 0.681864 0.708407 0.731383 0.670917 0.692302 0.654297 0.685803 0.685662 0.731439 0.774181 0.554333 0.602689 0.816569 0.783573 0.793281 0.786412 0.741977 0.686498 0.655795 0.796282 0.837353 0.788964 0.77003 0.800636 0.719656 0.668328 0.621342 0.716079 0.659231 0.771644 0.763306 0.727161 0.719608 0.756332 0.734811 0.747839 0.804759 0.738347 0.673154 0.617543 0.642261 0.627816 0.632248 0.677591 0.557645 0.777086 0.947182 0.83858 0.737635 1.20693 1.17587 1.21559 1.16601 1.18378 1.16685 1.16835 1.1975 1.17439 1.16968 1.17978 1.19178 1.18343 1.19317 1.20824 1.18718 1.19178 1.17284 1.15185 0.750069 0.676519 0.719159 0.614863 0.639826 0.773041 0.76267 0.696192 0.617969 0.802651 0.785419 0.825191 0.738783 0.696326 0.711496 0.723519 0.711899 0.784753 0.835921 0.781195 0.85341 0.846523 0.673724 0.782225 0.706651 0.675514 0.754103 0.677047 0.859126 0.741215 0.701873 0.673051 0.716711 0.728792 0.8283 0.777932 0.76163 0.83971 0.740969 0.68996 0.781333 0.724448 0.701036 0.717929 0.694086 0.896326 0.575307 0.905843 0.87074 0.860491 0.790203 0.775565 0.715032 0.476304 0.622696 0.825903 0.942088 0.866629 0.80629 0.721164 0.648574 0.807862 0.700291 0.819928 0.815133 0.756334 0.747018 0.770199 0.752268 0.80158 0.821753 0.834498 0.784958 0.788165 0.809122 0.685122 0.594979 0.647286 0.707073 0.698346 0.777445 0.922763 0.879755 0.84172 0.752392 1.21152 1.19709 1.19537 1.19773 1.19471 1.18798 1.16783 1.19174 1.19178 1.1795 1.20382 1.17731 1.18628 1.20083 1.1655 1.20682 1.20786 1.24951 1.21923 1.1185 0.768099 0.709015 0.781658 0.690618 0.69604 0.803077 0.918675 0.869873 0.710234 0.686184 0.804116 0.938693 0.795044 0.73654 0.700835 0.727519 0.753243 0.71325 0.777951 0.906605 0.82428 0.829146 0.901572 0.778739 0.706798 0.630987 0.757068 0.759206 0.872031 0.801709 0.704281 0.80459 0.719433 0.745479 0.92684 0.900139 0.754559 0.828321 0.761219 0.869859 0.85918 0.803268 0.737763 0.707259 0.723947 0.733448 0.767698 1.07534 0.858885 0.843322 0.794238 0.816924 0.754038 0.57495 0.710277 0.709729 0.870894 0.99678 0.967933 0.728168 0.835647 0.827587 0.711751 0.73149 0.790999 0.765484 0.821575 0.817731 0.751012 0.779023 0.780065 0.787973 0.826081 0.857099 0.796772 0.798938 0.675558 0.788465 0.819162 0.704503 0.755358 0.681439 0.887808 0.905052 0.936442 0.931506 0.892451 0.857913 0.857414 0.773459 1.19596 1.17202 1.19681 1.19008 1.19178 1.18858 1.16872 1.19168 1.19271 1.18138 1.19178 1.17681 1.18682 1.19835 1.16687 1.20683 1.19124 1.14139 0.77484 0.712659 0.896997 0.80464 0.884127 0.913054 0.822364 0.872303 0.769822 0.813396 0.956052 0.824721 0.733616 0.687094 0.670049 0.721386 0.782842 0.92207 0.939487 0.79947 0.919175 0.962916 0.899789 0.864751 0.719113 0.715194 0.866658 0.76883 0.837613 0.87053 0.789075 0.748671 0.756048 0.952746 0.922466 0.915347 0.902612 0.838576 0.810658 0.813341 0.754465 0.801698 0.852447 0.892194 0.815409 0.810467 0.752427 0.749059 0.8479 0.809171 0.879348 0.81469 0.848576 1.15992 1.18761 0.843177 0.858767 0.814697 0.821539 0.760666 0.698061 0.82298 0.982604 0.740508 0.815807 0.83662 0.706443 0.823739 0.810533 0.798367 0.835348 0.82865 0.845217 0.839185 0.942831 0.824227 0.765805 0.83141 0.829884 0.876584 0.857143 0.874502 0.620837 0.758041 0.855539 0.799078 0.950181 0.889638 0.963658 0.926184 1.03471 0.892724 0.778189 1.19178 1.12698 1.19039 1.19178 1.19178 1.16963 1.19169 1.19212 1.18188 1.19325 1.17665 1.18571 1.19569 1.1651 1.17302 1.19942 1.20901 1.11223 1.16495 0.907656 0.849327 0.829174 0.701004 0.836032 1.01206 0.918031 0.879542 0.804178 0.805435 0.934446 0.852385 0.774331 0.731929 0.768014 0.898661 0.88109 0.883808 0.952321 0.884011 0.921245 0.720288 0.763154 0.883397 0.798523 0.915822 0.852438 0.899078 0.724312 0.745683 0.798139 0.871035 1.03578 0.916166 0.95577 0.794941 0.880029 0.819794 0.867573 0.813701 0.764307 0.861162 0.919787 0.837402 0.859339 0.890788 1.15591 0.83913 0.918072 0.840478 0.761821 0.85001 0.775761 0.83552 1.004 0.801998 0.817815 0.885581 0.778882 0.796229 0.809952 0.827799 0.853852 0.932768 0.815318 0.927137 0.801393 0.885146 0.966654 0.858184 0.729573 1.10105 0.8482 1.10583 0.843887 0.774725 0.84669 0.828416 0.931484 0.903661 0.946244 1.08064 0.780457 0.781398 1.19178 1.11243 1.14206 1.19178 1.19178 1.19186 1.1896 1.1902 1.19085 1.19125 1.19348 1.18145 1.19313 1.18759 1.20652 1.1665 1.18822 1.18105 1.1715 1.17825 1.19178 1.12604 1.13436 0.850853 0.881253 0.806549 0.850809 0.893677 0.875458 0.706525 1.02356 1.04626 0.915436 0.871148 0.883134 0.892856 0.8338 0.808108 0.99066 0.866837 0.963788 0.854271 0.901309 0.99199 0.933603 0.929776 0.927743 0.741713 0.809666 0.873912 0.93928 1.04173 0.945858 0.84084 0.812162 0.922964 0.834967 0.828994 1.15534 0.847366 0.833749 0.783262 0.927149 0.858455 1.17945 0.888787 0.947798 0.854641 0.776013 0.848905 0.873918 0.85126 1.04264 0.928905 0.853136 1.03019 0.967226 0.894414 0.78717 0.853683 0.791531 0.833571 0.855207 0.922035 0.926714 0.793271 0.771927 0.839148 0.891387 0.951746 1.08387 0.725607 1.16848 1.0094 0.786671 0.841338 0.828322 0.831436 0.9359 1.04419 1.03942 0.955072 1.08752 0.918781 1.19178 1.14947 1.1919 1.19178 1.19179 1.19009 1.1911 1.19141 1.19177 1.18394 1.19178 1.19178 1.19178 1.166 1.19328 1.18426 1.1707 1.13428 1.12684 1.14671 0.875657 0.880521 0.869327 0.683139 0.980034 0.978225 0.923342 0.996167 0.844691 0.871583 0.919054 0.841234 0.830576 1.00939 0.999028 0.909357 0.881911 0.854292 0.873254 0.984785 0.949847 1.05808 0.929753 0.836879 0.762628 0.807639 0.860122 0.932559 1.04868 0.952979 0.894383 0.868757 0.810426 0.956777 1.06651 1.06104 0.834846 1.05814 0.842546 1.01031 0.847092 0.865653 0.786288 0.884436 0.915428 0.857602 0.930156 0.976666 0.871239 1.1389 0.93745 0.895682 0.807073 1.03638 0.80324 0.844932 0.858684 1.11388 0.865567 0.945554 0.932361 0.787301 0.956499 1.00724 1.15343 0.872092 0.701946 0.974901 1.04873 0.869187 0.853647 0.920123 0.872776 0.833926 1.00705 0.979119 0.86193 0.921797 1.00483 0.860849 0.847469 0.937179 0.849682 0.868505 0.97857 0.837996 1.05835 0.848926 0.875323 
SCALARS Stress float 1
LOOKUP_TABLE default
-15152000000.0 -16756600000.0 -13508400000.0 -13309400000.0 -13008700000.0 -16272900000.0 -12549700000.0 -14337000000.0 -14122600000.0 -12760000000.0 -13092200000.0 -12549700000.0 -13151100000.0 -12549700000.0 -12549700000.0 -13032400000.0 -12549700000.0 -12549700000.0 -12797000000.0 -12549700000.0 -12646100000.0 -12859900000.0 -13949500000.0 -14611800000.0 -13765000000.0 -13374800000.0 -13094600000.0 -12844100000.0 -12617800000.0 -12549700000.0 -12549700000.0 -12549700000.0 -12762500000.0 -12967100000.0 -13408700000.0 -13604200000.0 -13305900000.0 -13351900000.0 -12869600000.0 -12549700000.0 -13117500000.0 -13014400000.0 -12603400000.0 -13601700000.0 -12587200000.0 -12630400000.0 -13252600000.0 -15436900000.0 -15247300000.0 -14227800000.0 -14667000000.0 -12882100000.0 -13462900000.0 -12629800000.0 -14024100000.0 -13248900000.0 -12742600000.0 -12700100000.0 -12700000000.0 -12994500000.0 -13087000000.0 -14125100000.0 -12798300000.0 -12702000000.0 -12707200000.0 -13275100000.0 -12851800000.0 -12907800000.0 -12926100000.0 -12974500000.0 -14380100000.0 -14329800000.0 -16164100000.0 -16736500000.0 -22875100000.0 -17887700000.0 -19516000000.0 -19428700000.0 -18999400000.0 -19319300000.0 -16799500000.0 -13479000000.0 -13071600000.0 -12549700000.0 -14830300000.0 -12765400000.0 -13706700000.0 -12549700000.0 -13372200000.0 -12939700000.0 -13939300000.0 -14789300000.0 -21137300000.0 -20326600000.0 -20327200000.0 -16067500000.0 -17716700000.0 -12646100000.0 -14831000000.0 -13009100000.0 -23790800000.0 -20560700000.0 -22781200000.0 -34011800000.0 -28427000000.0 -30305100000.0 -26411600000.0 -14819700000.0 -13802200000.0 -14339200000.0 -12549700000.0 -14689600000.0 -12664900000.0 -12550400000.0 -14328900000.0 -12549700000.0 -12550400000.0 -13875500000.0 -12549700000.0 -13522300000.0 -12549700000.0 -17730200000.0 -12549700000.0 -12549700000.0 -12549700000.0 -12776700000.0 -12589400000.0 -12549700000.0 -12595100000.0 -12915800000.0 -13738200000.0 -14466100000.0 -16443900000.0 -17376700000.0 -16303700000.0 -17166000000.0 -16572100000.0 -16198100000.0 -14018900000.0 -15023300000.0 -14884400000.0 -15210700000.0 -14638200000.0 -13195900000.0 -14381800000.0 -19023400000.0 -13180200000.0 -15654500000.0 -15750600000.0 -15186300000.0 -14413100000.0 -15028300000.0 -12549700000.0 -15567600000.0 -13737400000.0 -15763100000.0 -12625000000.0 -12549700000.0 -13514700000.0 -13820700000.0 -16827900000.0 -13039000000.0 -12549700000.0 -12552600000.0 -13744900000.0 -12549700000.0 -12549700000.0 -13017400000.0 -14267100000.0 -13005200000.0 -12702200000.0 -18479500000.0 -19070500000.0 -20847100000.0 -23126400000.0 -24833500000.0 -13205700000.0 -14989700000.0 -13576700000.0 -12742400000.0 -32693300000.0 -18397200000.0 -18958200000.0 -17392500000.0 -22100500000.0 -14240300000.0 -16501100000.0 -12549700000.0 -15712900000.0 -12894600000.0 -16850700000.0 -36818600000.0 -21887800000.0 -20780300000.0 -20663600000.0 -27305000000.0 -28651100000.0 -29292200000.0 -30367200000.0 -17357700000.0 -12549700000.0 -34067000000.0 -28460400000.0 -36645100000.0 -20029900000.0 -33292700000.0 -12893600000.0 -30533900000.0 -17970700000.0 -20558300000.0 -18183400000.0 -19880000000.0 -15710700000.0 -13008300000.0 -16467200000.0 -12574300000.0 -12724500000.0 -15396700000.0 -12549700000.0 -15484200000.0 -12549700000.0 -19262800000.0 -12684400000.0 -12767100000.0 -12563100000.0 -13779800000.0 -13988100000.0 -13360800000.0 -13679400000.0 -14333100000.0 -15519600000.0 -15335800000.0 -19730600000.0 -18269800000.0 -25211900000.0 -20604200000.0 -16804000000.0 -19599700000.0 -16231900000.0 -20271400000.0 -12617200000.0 -12985100000.0 -19130400000.0 -12549700000.0 -15321100000.0 -21714900000.0 -13597300000.0 -14052600000.0 -12809300000.0 -21265000000.0 -18035000000.0 -15856900000.0 -12943700000.0 -18032900000.0 -23913000000.0 -13864900000.0 -13612700000.0 -12842900000.0 -16558100000.0 -16726700000.0 -24491700000.0 -18974900000.0 -19333900000.0 -19853900000.0 -16652900000.0 -16313400000.0 -19612500000.0 -19178500000.0 -18939300000.0 -19972500000.0 -18449500000.0 -19901500000.0 -20916500000.0 -27426100000.0 -40950000000.0 -65782200000.0 -18786100000.0 -15006200000.0 -16308000000.0 -14783400000.0 -56620600000.0 -39414500000.0 -40952600000.0 -31476000000.0 -38857200000.0 -38750000000.0 -24554400000.0 -21106100000.0 -23572900000.0 -18681500000.0 -37706100000.0 -12956700000.0 -16453900000.0 -12549700000.0 -22571600000.0 -13479600000.0 -25726700000.0 -27394600000.0 -26996000000.0 -30703900000.0 -12549700000.0 -36566000000.0 -13731100000.0 -35432100000.0 -35495200000.0 -15378300000.0 -33009200000.0 -37321500000.0 -13068400000.0 -19879400000.0 -12549700000.0 -18490500000.0 -19169300000.0 -17359500000.0 -20929500000.0 -14971600000.0 -15022300000.0 -18311600000.0 -14220300000.0 -20220800000.0 -15805900000.0 -23230600000.0 -13022300000.0 -13925300000.0 -14115000000.0 -12549700000.0 -14460900000.0 -12671400000.0 -13281600000.0 -12932800000.0 -14124600000.0 -16566200000.0 -19320100000.0 -16087700000.0 -33724000000.0 -34452600000.0 -22970300000.0 -35358900000.0 -31661100000.0 -31315800000.0 -38834600000.0 -37335000000.0 -30262300000.0 -25217800000.0 -22605700000.0 -35670300000.0 -15550400000.0 -14623800000.0 -13081500000.0 -21560900000.0 -13192600000.0 -22793000000.0 -13103700000.0 -26187400000.0 -25233300000.0 -37702900000.0 -15829700000.0 -16903800000.0 -17862100000.0 -15101900000.0 -28947400000.0 -12591900000.0 -12549700000.0 -13863600000.0 -14227800000.0 -21159900000.0 -20278200000.0 -20148600000.0 -23270800000.0 -21989100000.0 -37129700000.0 -40052100000.0 -30501600000.0 -31298900000.0 -38054800000.0 -19747900000.0 -42104200000.0 -79056800000.0 -71873200000.0 -62789200000.0 -76957900000.0 -12624600000.0 -12773000000.0 -40935900000.0 -29890300000.0 -30764500000.0 -28475000000.0 -58425000000.0 -23035100000.0 -27316400000.0 -20189900000.0 -41641600000.0 -23366300000.0 -32306800000.0 -35059800000.0 -43865700000.0 -47319600000.0 -26632900000.0 -13282100000.0 -13262100000.0 -25468300000.0 -12745500000.0 -51914400000.0 -16256800000.0 -46125600000.0 -45089300000.0 -38555300000.0 -22260100000.0 -14638100000.0 -35164800000.0 -30373100000.0 -26763900000.0 -19054900000.0 -18685800000.0 -19199400000.0 -15587600000.0 -19794000000.0 -14778200000.0 -13850400000.0 -17517700000.0 -12549700000.0 -20099800000.0 -13298200000.0 -25856100000.0 -19407200000.0 -19493300000.0 -18354300000.0 -18813200000.0 -18254500000.0 -16070200000.0 -17871100000.0 -14709300000.0 -24496000000.0 -22450100000.0 -17044000000.0 -15143800000.0 -37151900000.0 -59946300000.0 -45670100000.0 -19155800000.0 -27036600000.0 -20233700000.0 -19930700000.0 -20477600000.0 -31451700000.0 -19123100000.0 -25639700000.0 -34739100000.0 -57124600000.0 -19112400000.0 -17682000000.0 -28421200000.0 -15691600000.0 -32655900000.0 -32444800000.0 -14670500000.0 -40564400000.0 -17106800000.0 -17805900000.0 -22702900000.0 -14500800000.0 -35902500000.0 -12549700000.0 -12829200000.0 -14835800000.0 -20322200000.0 -36981500000.0 -17922800000.0 -16524300000.0 -28040900000.0 -26333000000.0 -13414800000.0 -19676200000.0 -29467000000.0 -38631700000.0 -35704100000.0 -42412400000.0 -50798700000.0 -13163400000.0 -34019000000.0 -36642800000.0 -45236300000.0 -75562800000.0 -64240200000.0 -13212100000.0 -12615900000.0 -17622000000.0 -13363600000.0 -38056100000.0 -84760900000.0 -81171400000.0 -76586100000.0 -48752600000.0 -51090600000.0 -37570300000.0 -29694000000.0 -22399200000.0 -19748700000.0 -42421900000.0 -39818500000.0 -33203500000.0 -38843600000.0 -40247600000.0 -12549700000.0 -59810300000.0 -70377200000.0 -25500800000.0 -30714700000.0 -36549400000.0 -37117600000.0 -22975800000.0 -21558400000.0 -27134300000.0 -14619900000.0 -14223600000.0 -22964600000.0 -14501500000.0 -22525600000.0 -27122000000.0 -21876300000.0 -20067100000.0 -27777400000.0 -39134600000.0 -28422900000.0 -30600600000.0 -34664400000.0 -41090400000.0 -25914800000.0 -24470200000.0 -26843800000.0 -27722600000.0 -12667200000.0 -13492500000.0 -20674300000.0 -13079700000.0 -76968200000.0 -16655800000.0 -14802100000.0 -19628300000.0 -19321800000.0 -18508900000.0 -12899600000.0 -15799200000.0 -12604700000.0 -28129500000.0 -24000200000.0 -19005700000.0 -22687700000.0 -51066700000.0 -56847000000.0 -54933700000.0 -57119600000.0 -79844800000.0 -26884600000.0 -48522000000.0 -22988900000.0 -23380800000.0 -44388900000.0 -38237000000.0 -20521200000.0 -25789300000.0 -30241300000.0 -37043700000.0 -39930400000.0 -68151000000.0 -43835800000.0 -46782300000.0 -39603500000.0 -24511300000.0 -23286900000.0 -24225500000.0 -26452800000.0 -52984200000.0 -49424300000.0 -34347500000.0 -46021900000.0 -14047600000.0 -41346000000.0 -25598100000.0 -31187300000.0 -16076700000.0 -38900900000.0 -60663100000.0 -46068100000.0 -62066100000.0 -50323600000.0 -28838500000.0 -49700500000.0 -66737100000.0 -48409800000.0 -32706600000.0 -31820300000.0 -12549700000.0 -14805800000.0 -35199700000.0 -30778800000.0 -52644900000.0 -43412000000.0 -39678200000.0 -46804200000.0 -58687600000.0 -124297000000.0 -97203400000.0 -51721900000.0 -66124400000.0 -86438500000.0 -71327900000.0 -44207700000.0 -50540200000.0 -14187900000.0 -13799300000.0 -23510800000.0 -13576400000.0 -12572300000.0 -37542600000.0 -31308300000.0 -15067300000.0 -21407900000.0 -19936200000.0 -24387300000.0 -15686800000.0 -32639600000.0 -16323100000.0 -26785400000.0 -12679800000.0 -13713900000.0 -42615300000.0 -43620600000.0 -45376200000.0 -50257300000.0 -62369700000.0 -60677700000.0 -36968300000.0 -40537800000.0 -53613500000.0 -25514300000.0 -25127100000.0 -21451700000.0 -19379800000.0 -17118200000.0 -15028200000.0 -14478400000.0 -13376800000.0 -28925300000.0 -29816400000.0 -19743800000.0 -23153100000.0 -32240700000.0 -14970500000.0 -32863000000.0 -13480400000.0 -28492000000.0 -63954900000.0 -41842500000.0 -66477800000.0 -51206100000.0 -40275600000.0 -22288800000.0 -20724300000.0 -21829700000.0 -27549800000.0 -24257300000.0 -12549700000.0 -13183800000.0 -19287200000.0 -55006500000.0 -28508900000.0 -26853000000.0 -65142000000.0 -72974100000.0 -64128500000.0 -78365000000.0 -55786900000.0 -54940500000.0 -49874200000.0 -73468400000.0 -84106600000.0 -65878900000.0 -76290400000.0 -79161300000.0 -62176700000.0 -86271100000.0 -37033900000.0 -26258600000.0 -39818500000.0 -37972100000.0 -36580900000.0 -66165200000.0 -46758400000.0 -55155800000.0 -45381200000.0 -52495200000.0 -27183900000.0 -35292300000.0 -13392900000.0 -40917100000.0 -13911300000.0 -15442800000.0 -13122000000.0 -38422500000.0 -12549700000.0 -41336400000.0 -66547000000.0 -55804600000.0 -25064000000.0 -32654000000.0 -48203300000.0 -44269600000.0 -59761100000.0 -58739200000.0 -70462000000.0 -46107000000.0 -47302600000.0 -40512200000.0 -43165300000.0 -43333000000.0 -47577300000.0 -39682800000.0 -23798000000.0 -23775300000.0 -34495900000.0 -14789900000.0 -31210100000.0 -35668300000.0 -34828700000.0 -38820700000.0 -12678600000.0 -18144800000.0 -13605700000.0 -20263300000.0 -14638500000.0 -46670000000.0 -35657000000.0 -63656200000.0 -18484000000.0 -26973300000.0 -23657300000.0 -25963200000.0 -24480600000.0 -14255700000.0 -16117800000.0 -25651400000.0 -14161900000.0 -18441300000.0 -16263000000.0 -16971900000.0 -22803400000.0 -15675600000.0 -22955500000.0 -35499300000.0 -44887900000.0 -63950000000.0 -39486900000.0 -65650600000.0 -62382700000.0 -15432700000.0 -17753300000.0 -14055000000.0 -18287000000.0 -14406000000.0 -12549700000.0 -19602200000.0 -15821400000.0 -72602200000.0 -25420300000.0 -28992300000.0 -29668100000.0 -12549700000.0 -39051100000.0 -17070500000.0 -12881400000.0 -46195400000.0 -33524600000.0 -40642800000.0 -53064500000.0 -69222400000.0 -45246700000.0 -34891600000.0 -41026600000.0 -20247300000.0 -45711300000.0 -30046800000.0 -46055700000.0 -50101000000.0 -40026500000.0 -89787600000.0 -115031000000.0 -58791900000.0 -48431800000.0 -58566700000.0 -24080500000.0 -29463300000.0 -33953400000.0 -44986100000.0 -14767500000.0 -18889200000.0 -12798300000.0 -45157600000.0 -41605200000.0 -90168400000.0 -72974200000.0 -75423700000.0 -37601300000.0 -23522700000.0 -25946800000.0 -32854200000.0 -19711000000.0 -50859500000.0 -17686400000.0 -42567800000.0 -26991900000.0 -26310200000.0 -35281000000.0 -25049200000.0 -28405800000.0 -13015500000.0 -13611900000.0 -35549300000.0 -40245900000.0 -37402100000.0 -21750100000.0 -36575200000.0 -32461000000.0 -17120000000.0 -23035600000.0 -30760500000.0 -36858600000.0 -36193900000.0 -32202300000.0 -31631100000.0 -44861900000.0 -57944400000.0 -37251800000.0 -41738000000.0 -55686300000.0 -27002100000.0 -26067900000.0 -32744900000.0 -42014200000.0 -40794500000.0 -39198300000.0 -33954200000.0 -29710300000.0 -31832600000.0 -36740800000.0 -43511100000.0 -27276000000.0 -39150200000.0 -66901300000.0 -12569500000.0 -47883100000.0 -32209700000.0 -58378200000.0 -19791300000.0 -52253100000.0 -46648000000.0 -12835700000.0 -54265500000.0 -45427500000.0 -43715700000.0 -45013100000.0 -52977200000.0 -38210400000.0 -16809200000.0 -21038500000.0 -16356200000.0 -12853200000.0 -33844600000.0 -34227100000.0 -34918000000.0 -34665800000.0 -33909100000.0 -48971300000.0 -33124400000.0 -18512600000.0 -12549700000.0 -49347700000.0 -36732100000.0 -47020300000.0 -32926200000.0 -32829200000.0 -63353300000.0 -42628400000.0 -57012000000.0 -92923000000.0 -13680600000.0 -96922500000.0 -90316600000.0 -13144500000.0 -13900400000.0 -44737100000.0 -46670000000.0 -26368800000.0 -41644000000.0 -30486000000.0 -25960100000.0 -53530300000.0 -16550100000.0 -33728600000.0 -36302200000.0 -34119900000.0 -14711300000.0 -64620900000.0 -50123900000.0 -12928900000.0 -29295000000.0 -25529400000.0 -59917700000.0 -33793700000.0 -39281200000.0 -13209200000.0 -12877300000.0 -25792200000.0 -15841800000.0 -26661200000.0 -13262400000.0 -12549700000.0 -26691500000.0 -39762300000.0 -27104000000.0 -27534300000.0 -13636700000.0 -28998800000.0 -21686300000.0 -40818000000.0 -27434500000.0 -14774900000.0 -15487100000.0 -21964000000.0 -17281700000.0 -12605400000.0 -49172500000.0 -50033900000.0 -12659800000.0 -48914300000.0 -15377000000.0 -23261400000.0 -13037600000.0 -12739000000.0 -19170000000.0 -15072400000.0 -19287900000.0 -13301200000.0 -12549700000.0 -14017100000.0 -33710100000.0 -32697600000.0 -41218800000.0 -68037700000.0 -12739100000.0 -46005600000.0 -25944300000.0 -12909800000.0 -55210500000.0 -31076500000.0 -26439000000.0 -71431800000.0 -14492300000.0 -12812200000.0 -21342300000.0 -15117900000.0 -31727100000.0 -47087100000.0 -23839100000.0 -32413800000.0 -54948900000.0 -43849800000.0 -67858100000.0 -63837300000.0 -84133900000.0 -113340000000.0 -104024000000.0 -108841000000.0 -100041000000.0 -94917600000.0 -104175000000.0 -119539000000.0 -112816000000.0 -129859000000.0 -125552000000.0 -178535000000.0 -98128000000.0 -80094800000.0 -97438800000.0 -159618000000.0 -36751500000.0 -99698300000.0 -59261800000.0 -44357200000.0 -34226000000.0 -49872800000.0 -39829200000.0 -27459800000.0 -31460400000.0 -14643300000.0 -26237000000.0 -41097500000.0 -17910000000.0 -30046500000.0 -27224200000.0 -34377100000.0 -20826600000.0 -20570900000.0 -74229600000.0 -57795300000.0 -12890000000.0 -34264800000.0 -24884500000.0 -54062300000.0 -12549700000.0 -41161200000.0 -17715200000.0 -21282100000.0 -14148300000.0 -18924200000.0 -22883500000.0 -21609300000.0 -17637300000.0 -30555000000.0 -27611400000.0 -49064500000.0 -31396400000.0 -20162600000.0 -34013400000.0 -31256200000.0 -27057700000.0 -26909100000.0 -16308600000.0 -24047800000.0 -12982100000.0 -14816900000.0 -12790300000.0 -64752000000.0 -13063700000.0 -33388200000.0 -29768900000.0 -46158500000.0 -28844500000.0 -14236800000.0 -13894200000.0 -27676600000.0 -24302400000.0 -31447500000.0 -21591200000.0 -21321300000.0 -24402200000.0 -32119100000.0 -34783600000.0 -23987800000.0 -22701600000.0 -77628600000.0 -60823800000.0 -49086300000.0 -12757600000.0 -75953800000.0 -47391800000.0 -52610700000.0 -58411800000.0 -28195200000.0 -21949000000.0 -33634700000.0 -27670300000.0 -24459400000.0 -39849100000.0 -67534000000.0 -72169400000.0 -26493800000.0 -42298300000.0 -13547500000.0 -32350500000.0 -12937000000.0 -44770300000.0 -35772000000.0 -45293400000.0 -33810300000.0 -21563000000.0 -40876000000.0 -58493500000.0 -21989600000.0 -69584700000.0 -14214400000.0 -45490300000.0 -61035900000.0 -55416500000.0 -81546500000.0 -88368100000.0 -12549700000.0 -23911100000.0 -89302400000.0 -12662300000.0 -31285700000.0 -24160900000.0 -33245300000.0 -21475300000.0 -14336500000.0 -25913100000.0 -13041100000.0 -19401900000.0 -30473000000.0 -40132100000.0 -24938300000.0 -37424000000.0 -28928400000.0 -34841400000.0 -80257900000.0 -39681400000.0 -54783900000.0 -82182900000.0 -72936200000.0 -41406700000.0 -37281000000.0 -37014900000.0 -60508300000.0 -49197900000.0 -50919600000.0 -36528800000.0 -53298100000.0 -34530400000.0 -35945600000.0 -52982100000.0 -14295800000.0 -45805200000.0 -37468400000.0 -33541700000.0 -45953600000.0 -42621900000.0 -45028400000.0 -36221400000.0 -51129500000.0 -29141600000.0 -12549700000.0 -23504200000.0 -22402600000.0 -17216300000.0 -70052300000.0 -14223800000.0 -21933300000.0 -22860600000.0 -45885500000.0 -41451000000.0 -30382600000.0 -37637300000.0 -19861900000.0 -14709300000.0 -32455600000.0 -12549700000.0 -13136500000.0 -18310900000.0 -33120700000.0 -24350900000.0 -37383300000.0 -24021000000.0 -61807600000.0 -12852700000.0 -12581500000.0 -60809700000.0 -29158400000.0 -47242300000.0 -78155500000.0 -18719600000.0 -41681000000.0 -46791500000.0 -28184500000.0 -53714900000.0 -40453700000.0 -41886300000.0 -41583200000.0 -30667600000.0 -13112900000.0 -12682600000.0 -77611800000.0 -58877600000.0 -69748800000.0 -79161200000.0 -73156300000.0 -85656100000.0 -49312900000.0 -51519300000.0 -62558700000.0 -28277700000.0 -92132600000.0 -25200300000.0 -29801700000.0 -69634200000.0 -36022500000.0 -46237300000.0 -15542200000.0 -12846700000.0 -68936800000.0 -41866600000.0 -102170000000.0 -86522800000.0 -48691800000.0 -63844800000.0 -51516200000.0 -63787700000.0 -46501000000.0 -38245200000.0 -49991200000.0 -39245900000.0 -59194900000.0 -34808500000.0 -46202400000.0 -69267800000.0 -104587000000.0 -97063500000.0 -107352000000.0 -144993000000.0 -47578100000.0 -12971700000.0 -26636900000.0 -27449400000.0 -22435900000.0 -33495900000.0 -31980400000.0 -33694900000.0 -19142900000.0 -19627100000.0 -19950000000.0 -55683000000.0 -50123500000.0 -45293800000.0 -43514500000.0 -71035000000.0 -98727500000.0 -49580700000.0 -66135500000.0 -64579400000.0 -52552700000.0 -58284400000.0 -56131100000.0 -55673000000.0 -52824400000.0 -53491900000.0 -66269400000.0 -48540200000.0 -51209800000.0 -51143500000.0 -46271600000.0 -62181400000.0 -25867200000.0 -21062500000.0 -25346600000.0 -23211100000.0 -23922100000.0 -31039200000.0 -38852500000.0 -34028500000.0 -64797900000.0 -17110800000.0 -29064500000.0 -43937100000.0 -12554200000.0 -99430700000.0 -69043600000.0 -94292500000.0 -37936900000.0 -49374300000.0 -43169100000.0 -46787700000.0 -23202900000.0 -38005300000.0 -52804700000.0 -40253000000.0 -36092300000.0 -18534400000.0 -70505100000.0 -13818500000.0 -20511600000.0 -26220000000.0 -17851500000.0 -30555600000.0 -34748600000.0 -24821700000.0 -22882000000.0 -56542500000.0 -65363800000.0 -120130000000.0 -54373500000.0 -45408400000.0 -37764900000.0 -24659300000.0 -37458900000.0 -29888100000.0 -27176400000.0 -83407100000.0 -62849900000.0 -123530000000.0 -66015300000.0 -19134200000.0 -42421200000.0 -13531500000.0 -34286800000.0 -20504900000.0 -13433200000.0 -28830700000.0 -22435500000.0 -44196200000.0 -29186900000.0 -39704700000.0 -29576000000.0 -16474300000.0 -14398200000.0 -15468100000.0 -12549700000.0 -102080000000.0 -78785800000.0 -23777000000.0 -26224700000.0 -29329300000.0 -37017300000.0 -20358300000.0 -26084900000.0 -16171400000.0 -14870100000.0 -35643700000.0 -16476900000.0 -23006800000.0 -19127500000.0 -26864100000.0 -32863800000.0 -12549700000.0 -51770600000.0 -60937800000.0 -33705800000.0 -39247300000.0 -35709200000.0 -33888000000.0 -72833200000.0 -37352700000.0 -37678000000.0 -21045600000.0 -32091200000.0 -56334400000.0 -37056100000.0 -22721100000.0 -12974700000.0 -12642700000.0 -42796500000.0 -21425000000.0 -14012800000.0 -14943900000.0 -16428900000.0 -13784500000.0 -50293100000.0 -12995800000.0 -20027700000.0 -13311700000.0 -58245700000.0 -15219300000.0 -25186300000.0 -15252100000.0 -50001500000.0 -78711000000.0 -12549700000.0 -29133800000.0 -34119400000.0 -95858500000.0 -88300400000.0 -38015900000.0 -30683900000.0 -13466300000.0 -26722400000.0 -14165100000.0 -29064200000.0 -16469100000.0 -30950200000.0 -60292000000.0 -45280700000.0 -20538900000.0 -27428800000.0 -50532700000.0 -47525200000.0 -61297300000.0 -22719900000.0 -60783400000.0 -51432200000.0 -36534200000.0 -31271800000.0 -73904500000.0 -31010300000.0 -64458200000.0 -42219200000.0 -23185000000.0 -15247600000.0 -25174400000.0 -20168300000.0 -69344400000.0 -39917300000.0 -48005400000.0 -174989000000.0 -120277000000.0 -73920500000.0 -69216200000.0 -51194800000.0 -42029700000.0 -13150900000.0 -53695800000.0 -40313400000.0 -58795800000.0 -23369500000.0 -64058400000.0 -28216600000.0 -16321000000.0 -14144200000.0 -16447900000.0 -14627200000.0 -25501600000.0 -125426000000.0 -49957600000.0 -41756300000.0 -20731300000.0 -19979200000.0 -13841100000.0 -45055900000.0 -30033500000.0 -13160700000.0 -18824800000.0 -36344700000.0 -13894500000.0 -18584400000.0 -13836700000.0 -23537300000.0 -30553400000.0 -26298200000.0 -61365100000.0 -18971400000.0 -14930200000.0 -15666700000.0 -14292700000.0 -18276400000.0 -12749500000.0 -56930600000.0 -32843400000.0 -41650100000.0 -69075300000.0 -96702800000.0 -30971800000.0 -12650800000.0 -36592100000.0 -20940200000.0 -27409900000.0 -22400200000.0 -17861800000.0 -21127800000.0 -58533600000.0 -20667100000.0 -26020500000.0 -12921700000.0 -57304200000.0 -71857900000.0 -70741500000.0 -58316700000.0 -82547000000.0 -64492200000.0 -14437200000.0 -27378600000.0 -30865800000.0 -142719000000.0 -30784900000.0 -21606500000.0 -13398500000.0 -46459800000.0 -17977100000.0 -20634400000.0 -18438800000.0 -24677800000.0 -43459900000.0 -41474700000.0 -58670200000.0 -36711600000.0 -60573700000.0 -28606400000.0 -25631300000.0 -26386600000.0 -66090300000.0 -24579600000.0 -24875500000.0 -36296200000.0 -12914500000.0 -58860400000.0 -14876700000.0 -54103000000.0 -66297700000.0 -44418700000.0 -48846800000.0 -55113300000.0 -87391800000.0 -44395100000.0 -41490300000.0 -102453000000.0 -52843000000.0 -51697100000.0 -49372400000.0 -56433600000.0 -79782600000.0 -78781900000.0 -97302700000.0 -66609100000.0 -53127400000.0 -58509700000.0 -52106400000.0 -62674300000.0 -24476600000.0 -14273800000.0 -14309300000.0 -14271600000.0 -14265400000.0 -21104600000.0 -103152000000.0 -42567900000.0 -24464300000.0 -22193800000.0 -49374300000.0 -41621000000.0 -32769300000.0 -38970300000.0 -47389500000.0 -41148000000.0 -44486500000.0 -46541600000.0 -44527100000.0 -33089000000.0 -26481800000.0 -62814600000.0 -15126900000.0 -12758400000.0 -15029000000.0 -15701400000.0 -17362100000.0 -12551500000.0 -42439600000.0 -33751000000.0 -23178200000.0 -24616100000.0 -43903200000.0 -45439400000.0 -29031000000.0 -37440700000.0 -42752200000.0 -21614700000.0 -25519900000.0 -16427700000.0 -14697100000.0 -19564200000.0 -12549700000.0 -64442600000.0 -27403200000.0 -33160500000.0 -57540900000.0 -21954400000.0 -37068100000.0 -28689200000.0 -13025300000.0 -23274900000.0 -90516900000.0 -44495500000.0 -66782200000.0 -30792800000.0 -33281000000.0 -104357000000.0 -101441000000.0 -83853000000.0 -35974600000.0 -19056000000.0 -29555700000.0 -47543100000.0 -17256800000.0 -71899300000.0 -78052000000.0 -12549700000.0 -13803700000.0 -32899400000.0 -12549700000.0 -21873900000.0 -30964800000.0 -30836400000.0 -58796300000.0 -19406500000.0 -15649900000.0 -37816200000.0 -47752100000.0 -48877600000.0 -39677000000.0 -29844500000.0 -20415200000.0 -42991800000.0 -29647000000.0 -17736000000.0 -58437900000.0 -17167800000.0 -13010800000.0 -80482000000.0 -48212200000.0 -45519400000.0 -13779400000.0 -21632600000.0 -25452800000.0 -37006700000.0 -12549700000.0 -40574700000.0 -13103100000.0 -26458500000.0 -23547700000.0 -17624500000.0 -64009100000.0 -21152500000.0 -13196400000.0 -14667400000.0 -13475900000.0 -13192800000.0 -17770000000.0 -57179500000.0 -31719800000.0 -12607800000.0 -12549700000.0 -50324600000.0 -30275600000.0 -22730100000.0 -30352600000.0 -17337200000.0 -25837900000.0 -18863500000.0 -19742200000.0 -21093500000.0 -15735900000.0 -12574600000.0 -44129800000.0 -29905900000.0 -43604400000.0 -43172100000.0 -43242500000.0 -46836600000.0 -56308000000.0 -13882900000.0 -24694900000.0 -19938100000.0 -24802200000.0 -38213500000.0 -21596900000.0 -50325700000.0 -34820300000.0 -24784200000.0 -15737200000.0 -28429700000.0 -12618900000.0 -39750600000.0 -85473300000.0 -16460800000.0 -46499100000.0 -37954800000.0 -53817600000.0 -56284700000.0 -29669900000.0 -37927500000.0 -39491400000.0 -97196900000.0 -113745000000.0 -98164700000.0 -100552000000.0 -66579400000.0 -22596500000.0 -47057600000.0 -62224900000.0 -35862800000.0 -90920700000.0 -72898200000.0 -61047100000.0 -56147300000.0 -55187900000.0 -35021200000.0 -39447800000.0 -35737300000.0 -60800900000.0 -25883500000.0 -21860100000.0 -59260000000.0 -37030500000.0 -12549700000.0 -13496500000.0 -25617300000.0 -28972700000.0 -48970100000.0 -42543800000.0 -29779700000.0 -63831200000.0 -14218700000.0 -12668100000.0 -79450400000.0 -31624100000.0 -27735800000.0 -32128500000.0 -55222200000.0 -49273700000.0 -49806800000.0 -12549700000.0 -29758800000.0 -32082600000.0 -13398600000.0 -56847700000.0 -19283700000.0 -13863000000.0 -15237100000.0 -15162600000.0 -15046900000.0 -16116300000.0 -19117300000.0 -48958600000.0 -13523500000.0 -50820000000.0 -44748300000.0 -36858400000.0 -24516800000.0 -15316600000.0 -14395800000.0 -21087600000.0 -13723800000.0 -16174400000.0 -25446100000.0 -34091000000.0 -27654500000.0 -27449700000.0 -31559400000.0 -33824000000.0 -17643400000.0 -13684000000.0 -12825800000.0 -12829000000.0 -14576600000.0 -47704900000.0 -13910700000.0 -46242000000.0 -35342600000.0 -41691400000.0 -61048900000.0 -12549700000.0 -39053000000.0 -44344700000.0 -24871200000.0 -18453500000.0 -18718700000.0 -49915300000.0 -50313500000.0 -12549700000.0 -79703700000.0 -13011000000.0 -32746100000.0 -19575800000.0 -51144900000.0 -12568500000.0 -61324800000.0 -44725100000.0 -54245900000.0 -34034600000.0 -170173000000.0 -14515800000.0 -117686000000.0 -44121200000.0 -57874600000.0 -160934000000.0 -107456000000.0 -82885700000.0 -69537200000.0 -66582200000.0 -78706600000.0 -13020500000.0 -80847900000.0 -16609000000.0 -29197700000.0 -12549700000.0 -38451700000.0 -19802800000.0 -28399800000.0 -41683900000.0 -21113000000.0 -27835600000.0 -44635800000.0 -51323100000.0 -21621200000.0 -13981800000.0 -12549700000.0 -12784000000.0 -13285200000.0 -14653500000.0 -30680800000.0 -37878100000.0 -27840400000.0 -65711700000.0 -39208700000.0 -70115100000.0 -21541100000.0 -22892700000.0 -13627500000.0 -25049800000.0 -27066800000.0 -29784100000.0 -12549700000.0 -44275200000.0 -53998800000.0 -46911900000.0 -48910700000.0 -82677700000.0 -68684500000.0 -16325400000.0 -12549700000.0 -15383100000.0 -13238900000.0 -13055700000.0 -13777000000.0 -17524200000.0 -31082400000.0 -24457700000.0 -37501400000.0 -13234800000.0 -29586400000.0 -20180400000.0 -18062700000.0 -15966000000.0 -20173500000.0 -19399900000.0 -15328600000.0 -33781400000.0 -15480600000.0 -13909600000.0 -15196700000.0 -15053300000.0 -17902700000.0 -22025700000.0 -13171100000.0 -12685600000.0 -12809900000.0 -12549700000.0 -12549700000.0 -29107600000.0 -30783200000.0 -13055200000.0 -13473500000.0 -39945900000.0 -36719100000.0 -62157200000.0 -68104400000.0 -26359500000.0 -16878400000.0 -37833400000.0 -19109000000.0 -57298400000.0 -24724500000.0 -67696400000.0 -64671200000.0 -45781200000.0 -13096300000.0 -57022800000.0 -31141100000.0 -20097300000.0 -22527400000.0 -77725900000.0 -100426000000.0 -86905900000.0 -51169000000.0 -122990000000.0 -96444300000.0 -18295800000.0 -65000300000.0 -97246300000.0 -64483400000.0 -69405100000.0 -103237000000.0 -119712000000.0 -75533500000.0 -14482500000.0 -54846400000.0 -52267600000.0 -43472400000.0 -22156200000.0 -24125800000.0 -13555300000.0 -21528700000.0 -27441200000.0 -27015500000.0 -12549700000.0 -22501600000.0 -16278700000.0 -16898900000.0 -17901300000.0 -22203100000.0 -16383800000.0 -13114000000.0 -42334900000.0 -16491300000.0 -45372800000.0 -12549700000.0 -55391400000.0 -39974900000.0 -30701800000.0 -40018000000.0 -23440900000.0 -24632800000.0 -34199500000.0 -29451000000.0 -23810400000.0 -61348800000.0 -50279800000.0 -49307200000.0 -43659400000.0 -32997300000.0 -15248700000.0 -16462000000.0 -12549700000.0 -22112600000.0 -13285300000.0 -13075300000.0 -15928900000.0 -12753500000.0 -17685800000.0 -34721500000.0 -12549700000.0 -18368400000.0 -17720100000.0 -15493700000.0 -12838500000.0 -15213800000.0 -12549700000.0 -17911900000.0 -22541000000.0 -31826400000.0 -13844800000.0 -13449200000.0 -12684300000.0 -13310900000.0 -15401900000.0 -16632800000.0 -12553700000.0 -12598500000.0 -12640400000.0 -13137700000.0 -13195500000.0 -18757000000.0 -21287500000.0 -36617700000.0 -34448300000.0 -59498600000.0 -29696200000.0 -25955900000.0 -20196000000.0 -93361300000.0 -74392100000.0 -71755300000.0 -64031000000.0 -77493100000.0 -142174000000.0 -28959700000.0 -72481600000.0 -72901300000.0 -66168100000.0 -37066000000.0 -20325600000.0 -113089000000.0 -14920700000.0 -72888700000.0 -78522100000.0 -136493000000.0 -93955700000.0 -138765000000.0 -93632000000.0 -83447500000.0 -102672000000.0 -49376600000.0 -58845300000.0 -12999900000.0 -84028700000.0 -25286000000.0 -16304600000.0 -29366600000.0 -43290000000.0 -19633300000.0 -22912100000.0 -14102400000.0 -22409400000.0 -17579500000.0 -23286600000.0 -28395400000.0 -23843400000.0 -12549700000.0 -22027800000.0 -20420100000.0 -13477000000.0 -15887400000.0 -16968800000.0 -16102400000.0 -22434500000.0 -25365700000.0 -22852200000.0 -18143000000.0 -29739600000.0 -22924300000.0 -48652900000.0 -23617200000.0 -18458900000.0 -22873800000.0 -23655800000.0 -24710300000.0 -27507400000.0 -25921100000.0 -48904000000.0 -16127200000.0 -14992200000.0 -13398700000.0 -66750300000.0 -28046300000.0 -21634100000.0 -12965800000.0 -21534100000.0 -21660700000.0 -19201600000.0 -20079700000.0 -19872000000.0 -13886800000.0 -29597300000.0 -29711400000.0 -26837500000.0 -23030700000.0 -24133600000.0 -24470300000.0 -20441500000.0 -23789900000.0 -12679300000.0 -16867600000.0 -12549700000.0 -12631800000.0 -13202600000.0 -14986500000.0 -13667300000.0 -13035800000.0 -16569100000.0 -12550500000.0 -12562600000.0 -12699300000.0 -16450200000.0 -14983500000.0 -12570700000.0 -32157700000.0 -12584400000.0 -12678600000.0 -30652900000.0 -48455200000.0 -40156700000.0 -53888600000.0 -78314400000.0 -18142900000.0 -70136400000.0 -22626300000.0 -24477900000.0 -21890900000.0 -43582200000.0 -28599100000.0 -67346400000.0 -102823000000.0 -78192900000.0 -114415000000.0 -15146400000.0 -40394100000.0 -33131600000.0 -167878000000.0 -211188000000.0 -61503500000.0 -48416600000.0 -36269600000.0 -109207000000.0 -32304300000.0 -38111700000.0 -12646200000.0 -56323400000.0 -40924800000.0 -25307400000.0 -37223400000.0 -39204900000.0 -16259800000.0 -13877800000.0 -21195500000.0 -21414900000.0 -12865000000.0 -27261000000.0 -13389900000.0 -12549700000.0 -19527800000.0 -15744200000.0 -13543700000.0 -18587500000.0 -13871900000.0 -17843300000.0 -18491200000.0 -12549700000.0 -26307300000.0 -43751700000.0 -12549700000.0 -20784000000.0 -13408000000.0 -12858100000.0 -12631200000.0 -17793800000.0 -14654100000.0 -20223100000.0 -24457900000.0 -37260100000.0 -28472700000.0 -25934600000.0 -53730900000.0 -23189200000.0 -20594400000.0 -15986700000.0 -13025200000.0 -16176500000.0 -15472700000.0 -14745300000.0 -15978000000.0 -14743300000.0 -14525200000.0 -15743300000.0 -18797700000.0 -17064400000.0 -15666000000.0 -16370400000.0 -16755100000.0 -17303800000.0 -19737600000.0 -22733900000.0 -19695200000.0 -16112200000.0 -16652100000.0 -16955800000.0 -18935900000.0 -17607700000.0 -16004800000.0 -17020100000.0 -15469100000.0 -18238300000.0 -18463600000.0 -23494300000.0 -47328800000.0 -33763600000.0 -37382300000.0 -38963900000.0 -17554100000.0 -29699500000.0 -13422400000.0 -49385800000.0 -69401600000.0 -35761700000.0 -27021400000.0 -34070700000.0 -126760000000.0 -41422800000.0 -29251700000.0 -107801000000.0 -13040700000.0 -90908400000.0 -66056000000.0 -14782000000.0 -144472000000.0 -12549700000.0 -118548000000.0 -39368700000.0 -17997600000.0 -37899800000.0 -118576000000.0 -12549700000.0 -102780000000.0 -57949500000.0 -57724300000.0 -62152400000.0 -28140000000.0 -25959900000.0 -31755000000.0 -35945200000.0 -28553700000.0 -12814300000.0 -12921900000.0 -17670200000.0 -14270300000.0 -20151000000.0 -28268400000.0 -16926200000.0 -14432300000.0 -16916400000.0 -19687900000.0 -16986900000.0 -17906500000.0 -12741200000.0 -22706000000.0 -19043000000.0 -18898500000.0 -24055000000.0 -27506500000.0 -56082100000.0 -18246000000.0 -16850600000.0 -30903900000.0 -24624900000.0 -22376300000.0 -20711300000.0 -12686400000.0 -14251000000.0 -20257200000.0 -12738700000.0 -23192400000.0 -45979700000.0 -16674500000.0 -19342300000.0 -14912100000.0 -13683800000.0 -15102800000.0 -12551600000.0 -12556000000.0 -12819000000.0 -13994500000.0 -12844200000.0 -12680800000.0 -12549700000.0 -13686000000.0 -13825400000.0 -12718300000.0 -12559000000.0 -12560100000.0 -12628000000.0 -12549700000.0 -15800700000.0 -19048400000.0 -18311300000.0 -18086600000.0 -16719600000.0 -15853700000.0 -16143100000.0 -21288800000.0 -23490200000.0 -39894600000.0 -23821600000.0 -26671300000.0 -28830200000.0 -36093900000.0 -29908700000.0 -30863700000.0 -32581900000.0 -12549700000.0 -45441800000.0 -71806500000.0 -55397500000.0 -16975500000.0 -63827700000.0 -79227500000.0 -80069900000.0 -79061900000.0 -104691000000.0 -14117100000.0 -28568600000.0 -111660000000.0 -78945900000.0 -67994700000.0 -135817000000.0 -99496700000.0 -175186000000.0 -18689100000.0 -45088800000.0 -18325000000.0 -119709000000.0 -32034300000.0 -53667200000.0 -78405700000.0 -150160000000.0 -38811400000.0 -91479600000.0 -42716600000.0 -59022900000.0 -13670800000.0 -23211000000.0 -13532800000.0 -12549700000.0 -25857300000.0 -26080800000.0 -29594700000.0 -27608900000.0 -32482700000.0 -23323100000.0 -33522400000.0 -27425600000.0 -16663500000.0 -14235200000.0 -13575700000.0 -12562500000.0 -12549700000.0 -15827800000.0 -13481700000.0 -14706800000.0 -13940700000.0 -15664000000.0 -38386800000.0 -15465600000.0 -15094800000.0 -19796400000.0 -15538200000.0 -17534500000.0 -19922500000.0 -15260900000.0 -13184200000.0 -18690100000.0 -13266700000.0 -30924100000.0 -28122900000.0 -24442100000.0 -19601900000.0 -13194400000.0 -12966800000.0 -13876000000.0 -12550000000.0 -12568900000.0 -12774800000.0 -13535900000.0 -12723300000.0 -12549700000.0 -12549700000.0 -12549700000.0 -13196700000.0 -12606600000.0 -12549700000.0 -12554800000.0 -12667000000.0 -12955500000.0 -15563700000.0 -13313200000.0 -13302600000.0 -12641100000.0 -13657000000.0 -14998900000.0 -14684500000.0 -17256500000.0 -18065800000.0 -18000700000.0 -17922300000.0 -13628500000.0 -25537100000.0 -18215200000.0 -17332400000.0 -19158500000.0 -21339200000.0 -29372400000.0 -24107500000.0 -33552700000.0 -32226300000.0 -36476000000.0 -23120600000.0 -66494800000.0 -75371900000.0 -52347700000.0 -79022300000.0 -93717600000.0 -104886000000.0 -155002000000.0 -114348000000.0 -130277000000.0 -164642000000.0 -174766000000.0 -118759000000.0 -79040000000.0 -71454100000.0 -103474000000.0 -121070000000.0 -54739900000.0 -91060000000.0 -66803200000.0 -40623900000.0 -31125200000.0 -20559600000.0 -20044000000.0 -18461800000.0 -18743200000.0 -18731100000.0 -14107800000.0 -13678700000.0 -13830800000.0 -14396900000.0 -20888100000.0 -22798100000.0 -16152900000.0 -20045100000.0 -15803700000.0 -17154500000.0 -14764100000.0 -14091100000.0 -13485900000.0 -15038700000.0 -12580700000.0 -13209200000.0 -12784000000.0 -13236700000.0 -29642100000.0 -13288500000.0 -12750200000.0 -18955300000.0 -12549700000.0 -14456700000.0 -24992500000.0 -23421800000.0 -29331200000.0 -31405600000.0 -22673800000.0 -14858300000.0 -17866200000.0 -12900000000.0 -12711500000.0 -12549700000.0 -12952300000.0 -12552400000.0 -12559100000.0 -12613400000.0 -12897300000.0 -12606300000.0 -12549700000.0 -12549700000.0 -12549700000.0 -12788100000.0 -12549700000.0 -12549700000.0 -12550800000.0 -12549700000.0 -12705100000.0 -14468000000.0 -13730900000.0 -13757300000.0 -13610100000.0 -12771400000.0 -12855700000.0 -12966000000.0 -13959600000.0 -13051900000.0 -13506700000.0 -16060400000.0 -14362900000.0 -13157800000.0 -14802700000.0 -13265100000.0 -15306900000.0 -13708800000.0 -17799400000.0 -17723500000.0 -14906600000.0 -17120300000.0 -27563800000.0 -53813600000.0 -117599000000.0 -124517000000.0 -48950200000.0 -77339400000.0 -102163000000.0 -32212100000.0 -129551000000.0 -121600000000.0 -77341800000.0 -119395000000.0 -53878900000.0 -94745200000.0 -61434700000.0 -89796700000.0 -24551200000.0 -70889600000.0 -120471000000.0 -23326400000.0 -25433700000.0 -19968500000.0 -16930300000.0 -17428200000.0 -16928300000.0 -13204700000.0 -12737400000.0 -12666900000.0 -12806900000.0 -13138900000.0 -13439900000.0 -12549700000.0 -12826700000.0 -16751400000.0 -15682100000.0 -12549700000.0 -13787900000.0 -13776600000.0 -13899700000.0 -14447500000.0 -15824000000.0 -15710600000.0 -16539100000.0 -17990000000.0 -12679700000.0 -19078300000.0 -17735500000.0 -13112500000.0 -14749800000.0 -13113600000.0 -14364600000.0 -13196300000.0 -13079900000.0 -14675600000.0 -12874300000.0 -12937700000.0 -20218300000.0 -19895000000.0 -16842200000.0 -26154300000.0 -22499800000.0 -81093800000.0 -98111800000.0 -99218700000.0 -149410000000.0 -49991300000.0 -66495800000.0 -62309600000.0 -110031000000.0 -84223100000.0 -198018000000.0 -12807600000.0 -89591000000.0 -133016000000.0 -83151700000.0 -77878500000.0 -86504800000.0 -61745100000.0 -137934000000.0 -26754500000.0 -20656700000.0 -67511700000.0 -56218300000.0 -67115000000.0 -53375200000.0 -29629700000.0 -178913000000.0 -51781700000.0 -99139200000.0 -17811800000.0 -62928500000.0 -134612000000.0 -211787000000.0 -221091000000.0 -102524000000.0 -52780500000.0 -129807000000.0 -38882500000.0 -72200000000.0 -162982000000.0 -24988000000.0 -33419300000.0 -54694300000.0 -57878800000.0 -65202300000.0 -23231200000.0 -62264500000.0 -137402000000.0 -64193500000.0 -152947000000.0 -193972000000.0 -71723400000.0 -438894000000.0 -103586000000.0 -106029000000.0 -156627000000.0 -132673000000.0 -123968000000.0 -15710700000.0 -226178000000.0 -13187400000.0 -16871800000.0 -30395600000.0 -42007400000.0 -62032900000.0 -72074300000.0 -92853900000.0 -53726900000.0 -259484000000.0 -257701000000.0 -12746900000.0 -221814000000.0 -359455000000.0 -458789000000.0 -19720400000.0 -104349000000.0 -18822900000.0 -97843600000.0 -68985900000.0 -99788000000.0 -231515000000.0 -57183800000.0 -18050500000.0 -19809200000.0 -18158000000.0 -12549700000.0 -12549700000.0 -18490900000.0 -43776900000.0 -99522200000.0 -175976000000.0 -149267000000.0 -196906000000.0 -66169900000.0 -127365000000.0 -47357800000.0 -254591000000.0 -240778000000.0 -199288000000.0 -194933000000.0 -157389000000.0 -156744000000.0 -58474200000.0 -20540900000.0 -12549700000.0 -12549700000.0 -12549700000.0 -12549700000.0 -22338000000.0 -25522700000.0 -24718600000.0 -185328000000.0 -199154000000.0 -12556500000.0 -182549000000.0 -213193000000.0 -234565000000.0 -266996000000.0 -74999400000.0 -216119000000.0 -150684000000.0 -247288000000.0 -110927000000.0 -487710000000.0 -89545000000.0 -69219300000.0 -29205000000.0 -12549700000.0 -12549700000.0 -12549700000.0 -12549700000.0 -12549700000.0 -12549700000.0 -12549700000.0 -12549700000.0 -12549700000.0 -12549700000.0 -3.47896e+12 -12549700000.0 -2.65013e+12 -4.18858e+12 -3.32832e+12 -5.30138e+12 -4.47474e+12 -6.63957e+12 -4.78803e+12 -4.76318e+12 -4.65116e+12 -3.1446e+12 -4.469e+12 -2.86092e+12 -12549700000.0 -4.56766e+12 -12550800000.0 -343174000000.0 -4.86547e+12 -2.41043e+12 -4.80841e+12 -2.95358e+12 -1.9792e+12 -4.00936e+12 -4.2357e+12 -12582200000.0 -12549500000.0 -3.46897e+12 -550261000000.0 -1.8915e+12 -4.36731e+12 -2.84971e+12 -2.98975e+12 -136097000000.0 -4.5774e+12 -2.7264e+12 -3.73204e+12 -3.777e+12 -5.6992e+12 -3.31139e+12 -5.28911e+12 -3.87557e+12 -2.48554e+12 -377539000000.0 -3.71945e+12 -12549700000.0 -4.04783e+12 -6.02446e+12 -12549700000.0 -3.58025e+12 -4.08069e+12 -2.36817e+12 -6.04558e+12 -12487500000.0 -27998700000.0 -2.57005e+12 -22611700000.0 -65005400000.0 -172655000000.0 -74697600000.0 -143328000000.0 -41405300000.0 -121050000000.0 -129714000000.0 -304590000000.0 -446686000000.0 -247668000000.0 -54443200000.0 -119688000000.0 -323257000000.0 -288644000000.0 -281176000000.0 -124364000000.0 -59661400000.0 -2.59645e+12 -18941100000.0 -2.73065e+12 -2.83184e+12 -3.51628e+12 -3.8308e+12 -12548300000.0 -12767200000.0 -3.60844e+12 -3.03377e+12 -4.34844e+12 -4.34674e+12 -6.4569e+12 -4.27493e+12 -3.29481e+12 -4.98877e+12 -4.86448e+12 -3.44227e+12 -5.45165e+12 -4.71465e+12 -12549700000.0 -6.04368e+12 -3.6481e+12 -2.23215e+12 -4.6493e+12 -3.43742e+12 -3.07329e+12 -4.34e+12 -6.08356e+12 -6.21381e+12 -7.65358e+12 -4.34105e+12 -2.84669e+12 -3.58835e+12 -3.3492e+12 -12549700000.0 -4.52192e+12 -4.53751e+12 -3.82352e+12 -4.2869e+12 -5.60026e+12 -12549700000.0 -2.08468e+12 -3.92452e+12 -4.56171e+12 -12549600000.0 -4.29648e+12 -12549700000.0 -3.43486e+12 -3.99986e+12 -6.04092e+12 -3.6024e+12 -1.95888e+12 -1.80769e+12 -5.49406e+12 -8.17583e+12 -3.79447e+12 -5.42485e+12 -4.96116e+12 -5.21566e+12 -6.29646e+12 -6.69321e+12 -5.15179e+12 -4.32091e+12 -7.05043e+12 -8.00975e+12 -4.48751e+12 -7.4745e+12 -5.64188e+12 -5.32546e+12 -5.59056e+12 -4.2669e+12 -4.81199e+12 -7.60204e+12 -5.06478e+12 -5.30163e+12 -5.04363e+12 -6.74214e+12 -4.86372e+12 -5.1059e+12 -5.19939e+12 -6.06162e+12 -6.37768e+12 -5.01947e+12 -5.46356e+12 -1.08487e+13 -9.05618e+12 -5.75417e+12 -6.03337e+12 -4.46079e+12 -5.29714e+12 -3.80864e+12 -9.55416e+12 -3.67081e+12 -3.77799e+12 -2.6619e+12 -6.21953e+12 -4.39119e+12 -3.93579e+12 -4.43051e+12 -8.44642e+12 -7.97508e+12 -9.00863e+12 -3.03298e+12 -6.01432e+12 -5.80419e+12 -7.26636e+12 -5.08437e+12 -5.31245e+12 -8.07551e+12 -7.02453e+12 -8.56107e+12 -7.83383e+12 -9.37533e+12 -6.93131e+12 -6.12917e+12 -8.13968e+12 -3.39755e+12 -4.47189e+12 -3.01374e+12 -4.21766e+12 -6.06039e+12 -5.96451e+12 -4.72651e+12 -6.56403e+12 -5.9988e+12 -4.60952e+12 -5.1617e+12 -3.25093e+12 -7.36729e+12 -5.77332e+12 -7.23792e+12 -4.73153e+12 -3.23209e+12 -36477800000.0 -21583700000.0 -66625900000.0 -104093000000.0 -181246000000.0 -211609000000.0 -127409000000.0 -37582100000.0 -212524000000.0 -220065000000.0 -162609000000.0 -297696000000.0 -58036500000.0 -342274000000.0 -244222000000.0 -213511000000.0 -446794000000.0 -66773900000.0 -235618000000.0 -64507500000.0 -62120800000.0 -328050000000.0 -385885000000.0 -20154500000.0 -26754300000.0 -4.62733e+12 -5.11307e+12 -3.87007e+12 -4.8694e+12 -3.39317e+12 -5.45811e+12 -5.177e+12 -3.79401e+12 -5.78675e+12 -5.50925e+12 -8.57572e+12 -7.68452e+12 -4.03137e+12 -5.26436e+12 -7.38785e+12 -2.37918e+12 -1.10334e+13 -4.92374e+12 -8.40296e+12 -4.54484e+12 -4.30237e+12 -4.53296e+12 -6.13425e+12 -4.02347e+12 -5.38366e+12 -7.31366e+12 -5.41988e+12 -8.36356e+12 -6.64137e+12 -7.61087e+12 -6.6957e+12 -6.71191e+12 -7.97447e+12 -8.57389e+12 -4.63077e+12 -4.74194e+12 -3.17097e+12 -4.76667e+12 -4.24573e+12 -5.76775e+12 -4.51732e+12 -7.5134e+12 -4.92455e+12 -4.11978e+12 -5.32899e+12 -5.54313e+12 -3.7479e+12 -6.17512e+12 -6.61548e+12 -4.42685e+12 -9.13811e+12 -6.15539e+12 -7.71626e+12 -4.68217e+12 -7.06157e+12 -7.4761e+12 -7.89003e+12 -7.65805e+12 -4.16196e+12 -6.75007e+12 -6.65886e+12 -6.42648e+12 -5.68574e+12 -5.71979e+12 -6.47793e+12 -7.72562e+12 -7.45779e+12 -4.32853e+12 -5.3215e+12 -7.74298e+12 -3.58976e+12 -3.93358e+12 -4.83655e+12 -4.93918e+12 -8.33762e+12 -7.42842e+12 -6.21854e+12 -5.99184e+12 -5.43392e+12 -4.09143e+12 -4.90172e+12 -5.02829e+12 -7.25743e+12 -2.5872e+12 -3.8988e+12 -4.55112e+12 -7.21536e+12 -8.86231e+12 -7.84383e+12 -3.92229e+12 -7.42166e+12 -4.63262e+12 -5.00716e+12 -9.30856e+12 -4.35152e+12 -4.80058e+12 -7.12365e+12 -5.08271e+12 -2.72721e+12 -7.2917e+12 -4.27039e+12 -4.45604e+12 -5.33193e+12 -7.43402e+12 -5.70917e+12 -2.85641e+12 -6.17369e+12 -4.52499e+12 -4.28205e+12 -6.71606e+12 -5.61675e+12 -4.9849e+12 -8.76593e+12 -4.66777e+12 -1.05465e+13 -1.0414e+13 -3.49207e+12 -7.97123e+12 -9.51429e+12 -5.25061e+12 -7.73338e+12 -5.38092e+12 -5.09112e+12 -8.16149e+12 -5.9206e+12 -5.64039e+12 -3.92439e+12 -1.40871e+12 -4.20325e+12 -6.99384e+12 -3.38095e+12 -5.05186e+12 -766759000000.0 -4.65981e+12 -5.00176e+12 -5.72431e+12 -7.32002e+12 -2.8706e+12 -7.64876e+12 -7.9897e+12 -5.65811e+12 -5.31357e+12 -4.25696e+12 -4.68115e+12 -6.26838e+12 -5.37374e+12 -9.83252e+12 -5.72004e+12 -4.55777e+12 -5.30864e+12 -5.68641e+12 -3.82958e+12 -5.0738e+12 -4.24033e+12 -3.5526e+12 -9.694e+12 -1.02606e+13 -6.84041e+12 -5.8157e+12 -3.39174e+12 -47262800000.0 -64367000000.0 -78234000000.0 -94771800000.0 -93432000000.0 -216191000000.0 -35429300000.0 -59882900000.0 -314828000000.0 -482472000000.0 -418803000000.0 -393969000000.0 -350488000000.0 -439391000000.0 -355741000000.0 -467904000000.0 -1.00627e+12 -318975000000.0 -3.12051e+12 -4.33016e+12 -5.15509e+12 -9.0153e+12 -6.49024e+12 -4.24347e+12 -6.82086e+12 -5.64159e+12 -3.86397e+12 -4.06152e+12 -8.55677e+12 -3.22421e+12 -4.99492e+12 -3.90714e+12 -3.13556e+12 -7.27879e+12 -1.14961e+13 -6.95213e+12 -5.95681e+12 -5.51979e+12 -5.36392e+12 -5.64529e+12 -6.43157e+12 -3.93056e+12 -3.29847e+12 -6.73995e+12 -4.21196e+12 -4.43338e+12 -1.07321e+13 -4.75141e+12 -4.96308e+12 -7.21696e+12 -8.3855e+12 -4.5294e+12 -6.41534e+12 -5.76905e+12 -5.18846e+12 -4.51339e+12 -6.65321e+12 -4.78568e+12 -5.49003e+12 -4.74648e+12 -6.05237e+12 -5.02134e+12 -7.25785e+12 -5.72467e+12 -8.10109e+12 -6.50589e+12 -7.04693e+12 -7.61389e+12 -7.31841e+12 -6.07764e+12 -6.29574e+12 -5.92357e+12 -4.81919e+12 -4.58659e+12 -3.70403e+12 -6.75347e+12 -5.26678e+12 -4.87335e+12 -5.29804e+12 -6.57369e+12 -4.94052e+12 -4.49847e+12 -7.59846e+12 -4.27338e+12 -4.73445e+12 -4.90464e+12 -3.8785e+12 -5.2295e+12 -6.75981e+12 -4.30501e+12 -4.22756e+12 -8.23481e+12 -4.00897e+12 -6.42832e+12 -4.66382e+12 -5.86067e+12 -5.51098e+12 -5.40626e+12 -4.967e+12 -4.79251e+12 -3.92575e+12 -5.4716e+12 -5.81009e+12 -6.44481e+12 -4.72242e+12 -3.53078e+12 -4.56346e+12 -2.83307e+12 -3.8551e+12 -7.92564e+12 -5.75618e+12 -3.05467e+12 -5.8173e+12 -2.41788e+12 -2.87449e+12 -4.66077e+12 -5.73709e+12 -4.65323e+12 -7.77172e+12 -7.58811e+12 -2.68439e+12 -6.03474e+12 -8.0294e+12 -5.17391e+12 -4.92847e+12 -5.8867e+12 -4.9646e+12 -7.41053e+12 -3.80372e+12 -5.53042e+12 -4.80583e+12 -6.75284e+12 -4.34904e+12 -5.35938e+12 -5.27383e+12 -6.51764e+12 -9.13342e+12 -5.51485e+12 -3.25979e+12 -1.74105e+12 -5.138e+12 -4.63984e+12 -5.77552e+12 -2.12444e+12 -5.72398e+12 -6.34181e+12 -4.84915e+12 -6.2412e+12 -5.31212e+12 -6.66148e+12 -54218500000.0 -145401000000.0 -93457000000.0 -131126000000.0 -179899000000.0 -241465000000.0 -81803300000.0 -254390000000.0 -301107000000.0 -295081000000.0 -342308000000.0 -233301000000.0 -252960000000.0 -12549700000.0 -246575000000.0 -188922000000.0 -394321000000.0 -244489000000.0 -328732000000.0 -1.00606e+12 -5.91703e+12 -5.43057e+12 -7.46102e+12 -5.8691e+12 -4.95614e+12 -2.0848e+12 -5.78272e+12 -7.10093e+12 -3.52947e+12 -5.58515e+12 -6.60738e+12 -7.5994e+12 -3.274e+12 -4.0076e+12 -9.64541e+12 -5.58308e+12 -3.43902e+12 -7.21003e+12 -8.2187e+12 -4.14779e+12 -8.97958e+12 -7.33367e+12 -3.14301e+12 -5.16178e+12 -4.40514e+12 -6.18634e+12 -8.44889e+12 -4.78259e+12 -5.90328e+12 -6.72799e+12 -7.10406e+12 -7.50488e+12 -5.50623e+12 -6.28072e+12 -3.95966e+12 -5.82421e+12 -7.42017e+12 -4.61316e+12 -5.50961e+12 -6.8074e+12 -6.04032e+12 -656253000000.0 -8.96257e+12 -6.68866e+12 -5.35315e+12 -3.04969e+12 -2.90547e+12 -3.06931e+12 -4.29824e+12 -7.5149e+12 -6.33084e+12 -6.81036e+12 -6.35531e+12 -4.19687e+12 -8.38419e+12 -5.52821e+12 -3.55941e+12 -4.35994e+12 -4.62684e+12 -7.32107e+12 -6.9661e+12 -6.44162e+12 -3.66597e+12 -6.37351e+12 -2.70981e+12 -5.04614e+12 -6.51718e+12 -4.74054e+12 -6.38088e+12 -3.75222e+12 -4.94623e+12 -4.45538e+12 -4.69677e+12 -4.47778e+12 -3.46216e+12 -5.32957e+12 -3.08051e+12 -4.48549e+12 -2.17949e+12 -3.67614e+12 -3.79099e+12 -4.28022e+12 -4.7663e+12 -7.28961e+12 -6.18291e+12 -9.11863e+12 -6.29206e+12 -4.38218e+12 -3.66424e+12 -8.49171e+12 -3.31106e+12 -5.82178e+12 -6.39467e+12 -5.37365e+12 -6.19389e+12 -5.67711e+12 -6.25298e+12 -6.78656e+12 -4.72003e+12 -6.96518e+12 -4.25889e+12 -7.3382e+12 -4.61048e+12 -5.13466e+12 -2.61486e+12 -2.80193e+12 -4.37957e+12 -5.18241e+12 -4.65401e+12 -6.58657e+12 -4.46615e+12 -5.92581e+12 -4.85691e+12 -5.64928e+12 -4.62895e+12 -5.35281e+12 -7.14495e+12 -3.67748e+12 -4.21224e+12 -7.9274e+12 -5.17871e+12 -3.92316e+12 -3.78235e+12 -4.05234e+12 -5.15016e+12 -3.34391e+12 -4.3025e+12 -3.4108e+12 -5.63112e+12 -6.59025e+12 -5.57714e+12 -2.48894e+12 -4.60817e+12 -2.54296e+12 -2.27037e+12 -728505000000.0 -519067000000.0 -173800000000.0 -110383000000.0 -482740000000.0 -188805000000.0 -273642000000.0 -190711000000.0 -92532800000.0 -109785000000.0 -294511000000.0 -188603000000.0 -125134000000.0 -550383000000.0 -515353000000.0 -455468000000.0 -507771000000.0 -12549700000.0 -2.85339e+12 -4.75337e+12 -4.54636e+12 -5.71594e+12 -2.81044e+12 -3.48571e+12 -5.92714e+12 -4.39176e+12 -4.32505e+12 -4.62455e+12 -6.31191e+12 -3.70519e+12 -5.56757e+12 -8.27991e+12 -6.42511e+12 -2.73982e+12 -5.03321e+12 -4.99235e+12 -4.08889e+12 -6.72941e+12 -5.26913e+12 -3.84964e+12 -7.21234e+12 -4.05966e+12 -5.10481e+12 -2.54807e+12 -3.35684e+12 -8.91727e+12 -5.63379e+12 -6.88079e+12 -5.60361e+12 -7.72134e+12 -5.03009e+12 -2.69555e+12 -6.35897e+12 -5.81875e+12 -5.94897e+12 -4.7356e+12 -5.28343e+12 -7.35219e+12 -5.01858e+12 -6.78549e+12 -5.29874e+12 -4.63047e+12 -7.21641e+12 -6.05042e+12 -7.01488e+12 -5.84987e+12 -5.16256e+12 -7.7717e+12 -7.51063e+12 -3.07449e+12 -5.84465e+12 -5.23296e+12 -3.55845e+12 -7.41069e+12 -4.80488e+12 -5.70386e+12 -5.47605e+12 -7.68939e+12 -4.78395e+12 -2.86744e+12 -3.131e+12 -2.66276e+12 -4.11611e+12 -4.20394e+12 -4.5159e+12 -5.33304e+12 -6.87488e+12 -3.71123e+12 -3.57889e+12 -4.30716e+12 -5.2967e+12 -6.94391e+12 -2.22966e+12 -5.08286e+12 -3.16024e+12 -4.64365e+12 -2.02589e+12 -5.65784e+12 -5.55174e+12 -5.30435e+12 -4.44447e+12 -4.97983e+12 -3.82866e+12 -4.34269e+12 -3.80226e+12 -6.80671e+12 -5.7002e+12 -6.45301e+12 -5.26248e+12 -4.89141e+12 -4.60037e+12 -3.42784e+12 -6.7763e+12 -8.2236e+12 -3.80171e+12 -1.89182e+12 -2.36311e+12 -3.2949e+12 -1.8613e+12 -4.36517e+12 -7.39313e+12 -4.89655e+12 -4.42343e+12 -2.38303e+12 -5.47403e+12 -3.83094e+12 -4.40914e+12 -6.75544e+12 -4.00147e+12 -6.81839e+12 -5.3352e+12 -4.8484e+12 -3.49668e+12 -2.95195e+12 -2.93215e+12 -190149000000.0 -351149000000.0 -488820000000.0 -519952000000.0 -532299000000.0 -23340400000.0 -39561700000.0 -487638000000.0 -429735000000.0 -445783000000.0 -368366000000.0 -149151000000.0 -267831000000.0 -323212000000.0 -271017000000.0 -199083000000.0 -269923000000.0 -204614000000.0 -282654000000.0 -590305000000.0 -223489000000.0 -113387000000.0 -74758800000.0 -3.86431e+12 -4.66821e+12 -2.72041e+12 -7.64755e+12 -2.78767e+12 -4.23724e+12 -5.16444e+12 -2.06906e+12 -4.9573e+12 -4.03848e+12 -3.79073e+12 -5.74908e+12 -8.49661e+12 -5.17598e+12 -4.3997e+12 -6.44183e+12 -3.83594e+12 -7.69184e+12 -5.3931e+12 -4.54812e+12 -4.09202e+12 -6.55017e+12 -4.55969e+12 -4.73754e+12 -6.97217e+12 -3.71573e+12 -6.78553e+12 -5.14387e+12 -3.73595e+12 -3.50777e+12 -2.85503e+12 -3.8974e+12 -5.21232e+12 -4.68852e+12 -5.17311e+12 -4.61303e+12 -4.03176e+12 -4.12783e+12 -3.31022e+12 -4.97707e+12 -3.08224e+12 -4.25042e+12 -4.76758e+12 -4.22414e+12 -3.5943e+12 -4.52586e+12 -3.42458e+12 -4.38106e+12 -4.20196e+12 -4.59512e+12 -3.43981e+12 -3.94539e+12 -6.68174e+12 -4.2544e+12 -4.58851e+12 -5.68269e+12 -2.59742e+12 -2.16633e+12 -4.2464e+12 -5.59894e+12 -4.31553e+12 -4.56595e+12 -6.14577e+12 -4.73561e+12 -2.92221e+12 -3.35208e+12 -4.08811e+12 -3.7073e+12 -6.44255e+12 -1.60673e+12 -2.54327e+12 -3.12782e+12 -4.19954e+12 -2.18369e+12 -4.2431e+12 -4.35122e+12 -3.86343e+12 -4.35021e+12 -4.10647e+12 -6.163e+12 -6.68973e+12 -4.47166e+12 -3.65194e+12 -4.59637e+12 -4.49128e+12 -4.0816e+12 -2.88493e+12 -4.79286e+12 -4.32952e+12 -4.03624e+12 -4.42418e+12 -5.21217e+12 -4.02999e+12 -2.97992e+12 -3.59181e+12 -4.58745e+12 -3.60107e+12 -6.14297e+12 -4.97981e+12 -2.4166e+12 -6.72538e+12 -3.27309e+12 -5.48917e+12 -5.60668e+12 -4.64652e+12 -2.7261e+12 -4.32665e+12 -2.75471e+12 -3.66038e+12 -5.33716e+12 -5.09204e+12 -4.35911e+12 -1.71072e+12 -2.74485e+12 -4.23568e+12 -3.18586e+12 -1.89515e+12 -4.15869e+12 -12549700000.0 -383391000000.0 -288760000000.0 -73949800000.0 -241354000000.0 -125764000000.0 -81578500000.0 -106488000000.0 -154191000000.0 -191898000000.0 -153106000000.0 -183655000000.0 -37415700000.0 -270887000000.0 -89980500000.0 -210674000000.0 -424951000000.0 -161542000000.0 -450809000000.0 -46856300000.0 -58184900000.0 -3.99576e+12 -6.1561e+12 -5.7404e+12 -6.51402e+12 -1.79253e+12 -3.05024e+12 -5.59756e+12 -3.86459e+12 -7.36404e+12 -5.29175e+12 -4.4915e+12 -6.05007e+12 -6.99785e+12 -7.47904e+12 -6.39564e+12 -3.26736e+12 -4.78101e+12 -3.78631e+12 -4.1797e+12 -5.2853e+12 -2.89682e+12 -4.26918e+12 -5.87187e+12 -3.64642e+12 -2.01975e+12 -5.57567e+12 -3.92831e+12 -5.63742e+12 -5.27951e+12 -3.8873e+12 -3.25666e+12 -4.30923e+12 -1.21097e+12 -2.08852e+12 -3.83564e+12 -2.84537e+12 -4.19624e+12 -7.05115e+12 -4.98085e+12 -4.01128e+12 -2.22026e+12 -3.62924e+12 -4.76532e+12 -2.66404e+12 -2.68953e+12 -2.65639e+12 -3.62845e+12 -4.35368e+12 -5.14339e+12 -3.49849e+12 -3.84724e+12 -4.20741e+12 -3.56999e+12 -4.8356e+12 -4.57632e+12 -3.71056e+12 -3.51366e+12 -3.74252e+12 -2.93235e+12 -4.85274e+12 -1.14675e+12 -3.8424e+12 -4.70569e+12 -4.44899e+12 -3.78001e+12 -2.80776e+12 -3.69122e+12 -4.12978e+12 -4.06563e+12 -3.49468e+12 -4.45774e+12 -3.75753e+12 -3.12692e+12 -3.32908e+12 -2.90009e+12 -3.39651e+12 -6.32624e+12 -4.15337e+12 -4.92639e+12 -4.71853e+12 -3.40792e+12 -2.81699e+12 -3.44917e+12 -2.26759e+12 -3.8316e+12 -2.46914e+12 -3.13862e+12 -5.4849e+12 -5.72849e+12 -3.72314e+12 -3.92464e+12 -4.39643e+12 -3.59552e+12 -1.67404e+12 -3.40604e+12 -3.80429e+12 -4.24217e+12 -3.88828e+12 -5.15808e+12 -2.73838e+12 -5.18577e+12 -3.15393e+12 -4.8332e+12 -3.71939e+12 -316019000000.0 -312505000000.0 -174203000000.0 -130375000000.0 -54805400000.0 -136588000000.0 -71822900000.0 -155913000000.0 -72289400000.0 -135688000000.0 -47958700000.0 -69958100000.0 -187396000000.0 -400702000000.0 -267784000000.0 -301186000000.0 -681659000000.0 -550862000000.0 -3.37659e+12 -2.53265e+12 -6.20847e+12 -3.05397e+12 -2.19459e+12 -1.99613e+12 -3.57957e+12 -3.485e+12 -2.62867e+12 -6.30157e+12 -5.01348e+12 -2.27834e+12 -3.93099e+12 -3.64436e+12 -2.4831e+12 -4.20531e+12 -2.39145e+12 -3.30751e+12 -4.18557e+12 -3.08527e+12 -4.38175e+12 -4.57346e+12 -2.68709e+12 -6.18636e+12 -3.73406e+12 -4.05525e+12 -2.3663e+12 -5.87387e+12 -2.43685e+12 -6.53689e+12 -3.01629e+12 -4.58697e+12 -3.28994e+12 -2.86976e+12 -4.17998e+12 -3.52421e+12 -4.19004e+12 -4.59551e+12 -4.1162e+12 -3.755e+12 -3.54587e+12 -3.04612e+12 -5.27722e+12 -4.75452e+12 -3.47264e+12 -3.77507e+12 -3.85747e+12 -4.94214e+12 -2.45434e+12 -3.19852e+12 -3.56921e+12 -2.33053e+12 -3.18408e+12 -2.76937e+12 -3.29473e+12 -4.12448e+12 -1.8498e+12 -2.38394e+12 -1.41622e+12 -5.9532e+12 -3.33301e+12 -3.04039e+12 -2.37862e+12 -977962000000.0 -3.99263e+12 -3.16422e+12 -2.32858e+12 -2.65367e+12 -5.55978e+12 -3.49171e+12 -3.8409e+12 -3.33729e+12 -6.27791e+12 -3.13416e+12 -2.24299e+12 -2.48462e+12 -2.96048e+12 -5.30858e+12 -3.32054e+12 -2.59074e+12 -2.86747e+12 -1.9942e+12 -2.90009e+12 -4.44592e+12 -3.22744e+12 -2.92345e+12 -4.81045e+12 -5.0147e+12 -4.00343e+12 -2.56324e+12 -6.20994e+12 -1.566e+12 -2.80409e+12 -2.7745e+12 -4.17198e+12 -3.01344e+12 -2.87227e+12 -1.99756e+12 -5.56556e+12 -2.71865e+12 -3.6412e+12 -3.19134e+12 -4.88328e+12 -2.16244e+12 -3.08395e+12 -2.98658e+12 -1.66621e+12 -3.4956e+12 -3.42743e+12 -3.62888e+12 -2.44244e+12 -1.17479e+12 -219200000000.0 -268952000000.0 -80774700000.0 -279261000000.0 -65495700000.0 -179083000000.0 -134111000000.0 -117895000000.0 -119935000000.0 -238280000000.0 -123142000000.0 -179997000000.0 -358542000000.0 -428677000000.0 -162257000000.0 -441018000000.0 -51660100000.0 -260062000000.0 -534742000000.0 -525132000000.0 -2.64482e+12 -3.04165e+12 -3.16035e+12 -3.48625e+12 -4.99991e+12 -3.11593e+12 -4.45253e+12 -4.80712e+12 -3.68962e+12 -3.95187e+12 -4.21272e+12 -1.65602e+12 -2.83162e+12 -3.29955e+12 -1.60328e+12 -3.0667e+12 -5.08092e+12 -4.41216e+12 -2.30871e+12 -1.95724e+12 -3.87577e+12 -1.41658e+12 -1.95138e+12 -2.07162e+12 -5.77617e+12 -2.59052e+12 -2.0862e+12 -3.86864e+12 -2.97807e+12 -2.05827e+12 -4.18722e+12 -4.93042e+12 -3.66884e+12 -1.92159e+12 -2.6142e+12 -2.03358e+12 -4.49517e+12 -4.14325e+12 -3.3059e+12 -3.32227e+12 -2.85904e+12 -2.57495e+12 -3.74792e+12 -3.28399e+12 -3.03376e+12 -4.17755e+12 -4.67098e+12 -4.80126e+12 -3.37847e+12 -3.29128e+12 -4.36249e+12 -4.18164e+12 -2.75381e+12 -1.46428e+12 -3.67585e+12 -2.94649e+12 -944381000000.0 -5.55282e+12 -3.088e+12 -4.19615e+12 -4.94678e+12 -1.63167e+12 -113759000000.0 -2.78126e+12 -3.44258e+12 -2.17175e+12 -3.72097e+12 -2.89155e+12 -2.15859e+12 -2.45101e+12 -1.54037e+12 -2.4994e+12 -1.71984e+12 -2.89421e+12 -4.66175e+12 -5.00352e+12 -2.39408e+12 -1.76399e+12 -3.93067e+12 -5.75094e+12 -3.60091e+12 -2.37557e+12 -4.71497e+12 -2.00174e+12 -3.49187e+12 -2.85278e+12 -5.1504e+12 -2.25329e+12 -910244000000.0 -4.46631e+12 -4.93934e+12 -4.13219e+12 -3.46915e+12 -2.07793e+12 -2.36931e+12 -4.19056e+12 -2.51467e+12 -3.76553e+12 -5.49489e+12 -3.73151e+12 -2.03024e+12 -2.88608e+12 -2.54828e+12 -4.19819e+12 -1.80433e+12 -964526000000.0 -1.60204e+12 -54565800000.0 -91764100000.0 -119720000000.0 -74263000000.0 -54858200000.0 -74824400000.0 -37207700000.0 -12549700000.0 -193561000000.0 -76524000000.0 -231213000000.0 -226368000000.0 -319848000000.0 -154595000000.0 -211845000000.0 -306557000000.0 -280160000000.0 -395413000000.0 -122756000000.0 -377259000000.0 -12549700000.0 -439783000000.0 -254986000000.0 -4.08769e+12 -3.54183e+12 -2.29399e+12 -2.73672e+12 -2.88233e+12 -2.54423e+12 -1.87608e+12 -1.30143e+12 -2.31545e+12 -5.05467e+12 -2.18968e+12 -3.73483e+12 -3.34409e+12 -3.64859e+12 -1.27852e+12 -2.67569e+12 -2.68351e+12 -1.73284e+12 -3.30222e+12 -1.61421e+12 -1.98469e+12 -1.09149e+12 -2.86576e+12 -1.41283e+12 -3.63095e+12 -1.56515e+12 -1.66342e+12 -2.23543e+12 -3.04057e+12 -2.63955e+12 -3.64142e+12 -5.1836e+12 -994533000000.0 -1.81208e+12 -2.66072e+12 -2.73055e+12 -3.7675e+12 -4.04608e+12 -1.70062e+12 -2.12206e+12 -2.93245e+12 -2.91003e+12 -2.05881e+12 -2.71755e+12 -2.51947e+12 -2.20117e+12 -3.36178e+12 -3.99058e+12 -2.62025e+12 -5.1022e+12 -1.93043e+12 -2.95228e+12 -1.49243e+12 -4.44129e+12 -3.64817e+12 -2.47589e+12 -1.53794e+12 -3.76877e+12 -2.81275e+12 -2.60533e+12 -4.5522e+12 -3.28545e+12 -4.59431e+12 -3.17306e+12 -3.69937e+12 -4.29915e+12 -2.32463e+12 -3.42433e+12 -2.18068e+12 -2.19594e+12 -2.20166e+12 -4.27782e+12 -2.9869e+12 -2.18682e+12 -4.53979e+12 -2.60323e+12 -2.0249e+12 -1.81983e+12 -2.19075e+12 -3.27929e+12 -2.9318e+12 -3.17436e+12 -3.52305e+12 -2.25923e+12 -4.25048e+12 -1.83708e+12 -2.2593e+12 -3.38286e+12 -1.10239e+12 -2.89037e+12 -2.20296e+12 -2.60974e+12 -3.01187e+12 -2.186e+12 -2.34553e+12 -3.84677e+12 -1.34396e+12 -85394600000.0 -35762000000.0 -112208000000.0 -49458800000.0 -62671600000.0 -46971000000.0 -86615500000.0 -87564600000.0 -121850000000.0 -178829000000.0 -87955000000.0 -73590800000.0 -120174000000.0 -72195600000.0 -186531000000.0 -242129000000.0 -218353000000.0 -384226000000.0 -290238000000.0 -55047300000.0 -51778500000.0 -61512100000.0 -447660000000.0 -112655000000.0 -128677000000.0 -2.58489e+12 -3.12312e+12 -3.46693e+12 -1.56797e+12 -2.45876e+12 -1.44007e+12 -2.86326e+12 -2.53871e+12 -2.6247e+12 -2.42973e+12 -1.75549e+12 -2.61109e+12 -2.81209e+12 -3.18779e+12 -1.97057e+12 -2.30399e+12 -1.8548e+12 -3.37083e+12 -3.13413e+12 -3.1698e+12 -1.7457e+12 -2.22691e+12 -1.53273e+12 -2.70946e+12 -1.42308e+12 -3.33743e+12 -3.06907e+12 -2.09114e+12 -3.80676e+12 -2.90297e+12 -2.68041e+12 -2.77245e+12 -1.57344e+12 -1.76727e+12 -2.50008e+12 -4.8457e+12 -1.66847e+12 -2.28605e+12 -2.68357e+12 -4.42233e+12 -2.89399e+12 -1.84985e+12 -2.36131e+12 -2.56039e+12 -4.11359e+12 -2.94136e+12 -2.77709e+12 -2.00429e+12 -1.90099e+12 -1.83378e+12 -2.11367e+12 -1.80033e+12 -2.86884e+12 -2.37401e+12 -3.66413e+12 -1.8679e+12 -1.6849e+12 -2.12661e+12 -2.64627e+12 -1.37359e+12 -2.3489e+12 -1.37751e+12 -1.3386e+12 -1.9219e+12 -1.93745e+12 -1.48715e+12 -1.24032e+12 -1.7418e+12 -2.07894e+12 -2.61528e+12 -2.3284e+12 -1.70953e+12 -2.24884e+12 -5.54205e+12 -2.71702e+12 -2.84102e+12 -1.5786e+12 -1.51139e+12 -1.65605e+12 -1.04833e+12 -2.68915e+12 -2.7908e+12 -2.46999e+12 -2.11723e+12 -2.20652e+12 -2.39691e+12 -2.31956e+12 -2.49642e+12 -1.57106e+12 -1.39406e+12 -1.83443e+12 -1.96607e+12 -1.87987e+12 -3.01724e+12 -1.36384e+12 -34198400000.0 -130403000000.0 -68093100000.0 -45319000000.0 -70874100000.0 -53489000000.0 -81910100000.0 -113729000000.0 -70244600000.0 -37192000000.0 -101793000000.0 -102656000000.0 -44288600000.0 -136217000000.0 -44998600000.0 -131684000000.0 -199799000000.0 -100893000000.0 -18899600000.0 -121436000000.0 -17108100000.0 -12549700000.0 -42480900000.0 -92416100000.0 -2.93274e+12 -3.37648e+12 -2.62708e+12 -3.39728e+12 -2.06605e+12 -1.83512e+12 -1.8365e+12 -1.01637e+12 -2.10893e+12 -1.89341e+12 -3.78296e+12 -2.11077e+12 -3.67898e+12 -1.81243e+12 -3.09441e+12 -1.54029e+12 -2.46283e+12 -2.51301e+12 -1.49597e+12 -2.34508e+12 -2.20209e+12 -1.54413e+12 -1.70045e+12 -3.21412e+12 -1.54599e+12 -2.48768e+12 -2.47658e+12 -959364000000.0 -2.56119e+12 -2.85054e+12 -2.43375e+12 -2.15723e+12 -2.69938e+12 -1.59131e+12 -1.08585e+12 -3.41019e+12 -2.62796e+12 -2.62708e+12 -1.14515e+12 -1.02446e+12 -1.88601e+12 -1.66962e+12 -2.81238e+12 -1.05221e+12 -2.64987e+12 -2.00752e+12 -1.82663e+12 -819631000000.0 -3.38388e+12 -1.68849e+12 -2.07741e+12 -2.50825e+12 -1.16925e+12 -1.90062e+12 -1.85187e+12 -1.59925e+12 -1.07531e+12 -1.15342e+12 -728790000000.0 -1.1104e+12 -1.2836e+12 -1.68483e+12 -1.25881e+12 -2.05779e+12 -1.17379e+12 -1.18362e+12 -1.45541e+12 -1.5152e+12 -1.93194e+12 -2.64891e+12 -270854000000.0 -1.87301e+12 -1.62796e+12 -1.72258e+12 -1.58819e+12 -2.20714e+12 -999094000000.0 -1.08118e+12 -1.00065e+12 -2.20206e+12 -2.26585e+12 -1.32716e+12 -2.28049e+12 -851435000000.0 -1.46527e+12 -1.33623e+12 -2.22908e+12 -1.45162e+12 -1.95546e+12 -2.21537e+12 -1.5384e+12 -1.77415e+12 -1.09168e+12 -1.79486e+12 -1.466e+12 -1.96219e+12 -1.93051e+12 -15637000000.0 -131423000000.0 -22331100000.0 -33346700000.0 -34365600000.0 -45333100000.0 -94207500000.0 -59696700000.0 -101785000000.0 -74956000000.0 -26860100000.0 -12549700000.0 -131211000000.0 -13601800000.0 -141744000000.0 -13293500000.0 -12549700000.0 -32817600000.0 -130952000000.0 -1.75376e+12 -698235000000.0 -572724000000.0 -1.77204e+12 -2.2645e+12 -1.00771e+12 -1.78738e+12 -2.81118e+12 -1.84447e+12 -2.71506e+12 -1.89716e+12 -2.77332e+12 -2.94967e+12 -2.20197e+12 -1.45376e+12 -1.67627e+12 -1.51984e+12 -1.34993e+12 -1.7842e+12 -1.31258e+12 -1.85356e+12 -586817000000.0 -1.54754e+12 -106552000000.0 -2.33243e+12 -2.26664e+12 -1.22157e+12 -3.23723e+12 -1.47192e+12 -1.14587e+12 -3.18082e+12 -1.83558e+12 -1.71788e+12 -751113000000.0 -1.92104e+12 -2.62045e+12 -451790000000.0 -1.29479e+12 -2.40576e+12 -863384000000.0 -2.16005e+12 -1.49485e+12 -1.57821e+12 -1.14967e+12 -1.22991e+12 -373420000000.0 -1.01101e+12 -752840000000.0 -2.09177e+12 -1.12622e+12 -2.37986e+12 -1.20526e+12 -737068000000.0 -459947000000.0 -1.90255e+12 -1.69083e+12 -942071000000.0 -1.51403e+12 -2.08463e+12 -2.96709e+12 -1.70669e+12 -1.81867e+12 -2.02601e+12 -1.65354e+12 -1.06328e+12 -1.36493e+12 -2.05557e+12 -826435000000.0 -1.39785e+12 -2.52676e+12 -641104000000.0 -1.917e+12 -313887000000.0 -967634000000.0 -1.06237e+12 -1.37297e+12 -661488000000.0 -2.15904e+12 -1.45705e+12 -1.76214e+12 -464087000000.0 -1.17811e+12 -1.60999e+12 -286176000000.0 -1.38233e+12 -25862600000.0 -26150700000.0 -41322400000.0 -33442700000.0 -37047900000.0 -46456900000.0 -67222500000.0 -12930600000.0 -12549700000.0 -44027400000.0 -22894100000.0 -47684300000.0 -45700900000.0 -44038200000.0 -168740000000.0 -120030000000.0 -211575000000.0 -80461400000.0 -85187900000.0 -60764200000.0 -983025000000.0 -1.15138e+12 -1.29254e+12 -3.44856e+12 -1.55606e+12 -2.19864e+12 -1.36929e+12 -2.74606e+12 -499851000000.0 -1.62355e+12 -2.21314e+12 -1.11268e+12 -2.12489e+12 -1.53423e+12 -1.15935e+12 -778914000000.0 -2.1008e+12 -1.23635e+12 -551840000000.0 -60368600000.0 -1.28601e+12 -2.51555e+12 -931478000000.0 -2.80283e+12 -1.1664e+12 -2.55571e+12 -1.35079e+12 -1.71236e+12 -2.12722e+12 -687931000000.0 -1.05741e+12 -1.48652e+12 -2.27778e+12 -2.2024e+12 -964480000000.0 -1.70191e+12 -1.37986e+12 -196752000000.0 -1.91732e+12 -981151000000.0 -1.02342e+12 -790182000000.0 -1.25438e+12 -1.18863e+12 -1.20372e+12 -740335000000.0 -1.09025e+12 -319928000000.0 -886459000000.0 -1.22737e+12 -1.0278e+12 -606908000000.0 -870631000000.0 -512349000000.0 -865936000000.0 -2.22911e+12 -1.43377e+12 -1.29159e+12 -1.07853e+12 -768938000000.0 -2.38195e+12 -1.35046e+12 -583753000000.0 -1.19622e+12 -1.83296e+12 -1.28459e+12 -2.00497e+12 -1.3466e+12 -477837000000.0 -1.14606e+12 -1.44345e+12 -1.47774e+12 -3.1194e+12 -843681000000.0 -1.03478e+12 -545060000000.0 -1.79949e+12 -1.32075e+12 -968854000000.0 -814854000000.0 -1.09672e+12 -563126000000.0 -1.54147e+12 -575061000000.0 -770796000000.0 -1.86825e+12 -1.20126e+12 -207354000000.0 -1.09605e+12 -1.36266e+12 -151223000000.0 -113771000000.0 -27982000000.0 -13947300000.0 -12549700000.0 -18235600000.0 -29911300000.0 -12865300000.0 -13674100000.0 -30338200000.0 -12549700000.0 -24533300000.0 -29131800000.0 -39662900000.0 -135207000000.0 -66354500000.0 -201741000000.0 -298433000000.0 -1.39966e+12 -2.00581e+12 -1.32721e+12 -1.86852e+12 -820760000000.0 -372930000000.0 -812614000000.0 -1.32319e+12 -393892000000.0 -921219000000.0 -1.02552e+12 -2.44435e+12 -1.7313e+12 -611611000000.0 -1.32442e+12 -632125000000.0 -783423000000.0 -1.10112e+12 -716024000000.0 -2.06966e+12 -1.94237e+12 -1.15003e+12 -850577000000.0 -1.96157e+12 -1.5083e+12 -1.94829e+12 -939964000000.0 -2.02392e+12 -1.30337e+12 -1.00961e+12 -795364000000.0 -1.71708e+12 -675696000000.0 -1.58877e+12 -1.33762e+12 -1.2214e+12 -1.46527e+12 -777033000000.0 -446880000000.0 -994664000000.0 -1.33666e+12 -649415000000.0 -914620000000.0 -1.56148e+12 -710681000000.0 -484412000000.0 -1.27703e+12 -371111000000.0 -640868000000.0 -1.23517e+12 -774250000000.0 -888832000000.0 -923554000000.0 -667638000000.0 -732920000000.0 -1.12631e+12 -953433000000.0 -1.04271e+12 -155384000000.0 -1.58365e+12 -1.30321e+12 -1.10159e+12 -640122000000.0 -400417000000.0 -700308000000.0 -892911000000.0 -760494000000.0 -1.35279e+12 -1.23113e+12 -1.16534e+12 -622390000000.0 -1.01539e+12 -670214000000.0 -68379900000.0 -101033000000.0 -1.09392e+12 -566462000000.0 -1.86478e+12 -954367000000.0 -401024000000.0 -427187000000.0 -470129000000.0 -1.76331e+12 -1.23513e+12 -692760000000.0 -838463000000.0 -415972000000.0 -473389000000.0 -738596000000.0 -627208000000.0 -211839000000.0 -859579000000.0 -329018000000.0 -12549700000.0 -138051000000.0 -32253500000.0 -12549700000.0 -12549700000.0 -18226400000.0 -12784500000.0 -12626900000.0 -25168300000.0 -14798200000.0 -21762200000.0 -24822900000.0 -31122700000.0 -103268000000.0 -115035000000.0 -117706000000.0 -122715000000.0 -235384000000.0 -160944000000.0 -823803000000.0 -746402000000.0 -512445000000.0 -1.05162e+12 -976779000000.0 -243127000000.0 -153494000000.0 -2.05101e+12 -1.35774e+12 -1.08882e+12 -840315000000.0 -561403000000.0 -1.45804e+12 -873375000000.0 -455164000000.0 -917594000000.0 -859072000000.0 -1.39755e+12 -392626000000.0 -1.08989e+12 -468684000000.0 -966545000000.0 -1.41546e+12 -713267000000.0 -285891000000.0 -829974000000.0 -307979000000.0 -1.12474e+12 -1.18514e+12 -1.4182e+12 -534482000000.0 -1.27847e+12 -96012600000.0 -431393000000.0 -1.08819e+12 -818006000000.0 -403163000000.0 -781938000000.0 -848445000000.0 -75814400000.0 -710031000000.0 -514950000000.0 -137801000000.0 -649737000000.0 -480214000000.0 -545138000000.0 -202566000000.0 -491414000000.0 -897468000000.0 -456650000000.0 -1.00669e+12 -549759000000.0 -778737000000.0 -871878000000.0 -386844000000.0 -218939000000.0 -557140000000.0 -379069000000.0 -1.44378e+12 -480869000000.0 -841515000000.0 -702608000000.0 -1.14557e+12 -614404000000.0 -424827000000.0 -409108000000.0 -785345000000.0 -1.45807e+12 -657882000000.0 -284268000000.0 -691480000000.0 -424067000000.0 -547773000000.0 -16582600000.0 -1.09001e+12 -1.20087e+12 -450406000000.0 -849566000000.0 -708215000000.0 -357853000000.0 -355649000000.0 -394898000000.0 -326880000000.0 -56339200000.0 -12549700000.0 -77793700000.0 -40117300000.0 -12549600000.0 -12549700000.0 -12590800000.0 -16028900000.0 -13493500000.0 -14226600000.0 -14308200000.0 -16457000000.0 -28850300000.0 -25644400000.0 -28020900000.0 -30477700000.0 -60895400000.0 -15259000000.0 -15268900000.0 -72662000000.0 -32550400000.0 -12549700000.0 -212536000000.0 -105160000000.0 -576131000000.0 -262720000000.0 -607023000000.0 -751924000000.0 -280897000000.0 -738958000000.0 -856459000000.0 -745870000000.0 -494240000000.0 -952823000000.0 -534174000000.0 -741179000000.0 -173518000000.0 -989418000000.0 -1.71297e+12 -797002000000.0 -1.3695e+12 -817532000000.0 -502265000000.0 -425711000000.0 -523560000000.0 -744583000000.0 -510103000000.0 -54921400000.0 -1.02588e+12 -475523000000.0 -424906000000.0 -272672000000.0 -413448000000.0 -774497000000.0 -959899000000.0 -491656000000.0 -1.35637e+12 -1.07882e+12 -413220000000.0 -313047000000.0 -882535000000.0 -938396000000.0 -718434000000.0 -127259000000.0 -288353000000.0 -56845000000.0 -144557000000.0 -474139000000.0 -398384000000.0 -326757000000.0 -291788000000.0 -566280000000.0 -439345000000.0 -204946000000.0 -406974000000.0 -181628000000.0 -143843000000.0 -164660000000.0 -465759000000.0 -245085000000.0 -70649300000.0 -365394000000.0 -462316000000.0 -313358000000.0 -91066500000.0 -117863000000.0 -133494000000.0 -500576000000.0 -318461000000.0 -162481000000.0 -374887000000.0 -60469200000.0 -182111000000.0 -29743400000.0 -299447000000.0 -477595000000.0 -135976000000.0 -302217000000.0 -97537000000.0 -110135000000.0 -235665000000.0 -37391600000.0 -72177000000.0 -57179100000.0 -629450000000.0 -12549700000.0 -21040700000.0 -13255500000.0 -12549700000.0 -12564100000.0 -12765100000.0 -12870500000.0 -12672700000.0 -12549600000.0 -14993100000.0 -12549700000.0 -12549700000.0 -12549700000.0 -28785700000.0 -21553600000.0 -29500900000.0 -52581800000.0 -63183500000.0 -31681400000.0 -131050000000.0 -144087000000.0 -315334000000.0 -351826000000.0 -423712000000.0 -487206000000.0 -512023000000.0 -99957200000.0 -241629000000.0 -955408000000.0 -631383000000.0 -352291000000.0 -256312000000.0 -493473000000.0 -623093000000.0 -93513300000.0 -437842000000.0 -724871000000.0 -372519000000.0 -49842000000.0 -367955000000.0 -149589000000.0 -234110000000.0 -99560700000.0 -277779000000.0 -515418000000.0 -593699000000.0 -219459000000.0 -435513000000.0 -201618000000.0 -84408200000.0 -178706000000.0 -520423000000.0 -385227000000.0 -492695000000.0 -187663000000.0 -72222400000.0 -420484000000.0 -323957000000.0 -246915000000.0 -209047000000.0 -545376000000.0 -79197700000.0 -210653000000.0 -47016400000.0 -76911600000.0 -282381000000.0 -188711000000.0 -116536000000.0 -135801000000.0 -86566500000.0 -111395000000.0 -169607000000.0 -152313000000.0 -25844200000.0 -108288000000.0 -130241000000.0 -55323500000.0 -31700400000.0 -60271700000.0 -136044000000.0 -113460000000.0 -124780000000.0 -96730800000.0 -155151000000.0 -19112100000.0 -190368000000.0 -211503000000.0 -143790000000.0 -93432700000.0 -257056000000.0 -110339000000.0 -80992400000.0 -138045000000.0 -86845100000.0 -96422200000.0 -33834700000.0 -64585100000.0 -100700000000.0 -86646200000.0 -177246000000.0 -168794000000.0 -109086000000.0 -108038000000.0 -74170200000.0 -89060700000.0 -148677000000.0 -86596900000.0 -185434000000.0 -62106300000.0 