# vtk DataFile Version 2.0
Time step 19
ASCII
DATASET UNSTRUCTURED_GRID
POINTS 5000 float
8510.39 184891.0 0
12438.4 184721.0 0
16747.6 184042.0 0
27674.7 182431.0 0
33185.7 185114.0 0
57006.3 184684.0 0
72701.0 185028.0 0
87408.2 185058.0 0
105951.0 185134.0 0
133425.0 185235.0 0
157587.0 185375.0 0
167013.0 185080.0 0
171832.0 183961.0 0
177736.0 183998.0 0
182940.0 183183.0 0
187396.0 185034.0 0
196084.0 185359.0 0
201750.0 184717.0 0
212987.0 184824.0 0
225800.0 185161.0 0
230433.0 185025.0 0
241170.0 184719.0 0
252677.0 184701.0 0
259049.0 185183.0 0
268742.0 185185.0 0
278880.0 184120.0 0
297320.0 184087.0 0
303661.0 184886.0 0
312125.0 185294.0 0
337221.0 185395.0 0
345897.0 184947.0 0
361817.0 184491.0 0
372010.0 182527.0 0
377028.0 184502.0 0
382608.0 185366.0 0
388129.0 184656.0 0
394016.0 183974.0 0
403644.0 182917.0 0
408583.0 184124.0 0
422734.0 183927.0 0
432485.0 183443.0 0
442096.0 184726.0 0
446258.0 184301.0 0
450670.0 185076.0 0
455214.0 185030.0 0
460243.0 184888.0 0
465796.0 185252.0 0
471631.0 184511.0 0
477065.0 183316.0 0
485845.0 183233.0 0
491674.0 184777.0 0
497601.0 183269.0 0
2398.12 185511.0 0
6050.75 188219.0 0
11078.1 189236.0 0
17321.9 189945.0 0
22243.6 185675.0 0
28505.5 188785.0 0
34956.7 190386.0 0
38172.7 185696.0 0
42691.7 185834.0 0
47477.3 185753.0 0
48265.9 189751.0 0
52137.1 185840.0 0
57991.5 190126.0 0
62763.5 185756.0 0
67994.7 185889.0 0
72124.1 190149.0 0
77500.0 185769.0 0
82500.0 185758.0 0
87906.7 189816.0 0
92500.0 185796.0 0
97196.5 185817.0 0
101296.0 185734.0 0
102467.0 190469.0 0
111934.0 185610.0 0
108245.0 189727.0 0
117848.0 185788.0 0
123328.0 185865.0 0
128342.0 185985.0 0
127727.0 190422.0 0
138121.0 185918.0 0
142500.0 185839.0 0
142773.0 190263.0 0
147500.0 185773.0 0
152501.0 185743.0 0
151947.0 190489.0 0
156872.0 189427.0 0
162558.0 185531.0 0
161307.0 190249.0 0
166520.0 189752.0 0
172968.0 189531.0 0
178372.0 189411.0 0
183528.0 188251.0 0
188600.0 189481.0 0
192500.0 186191.0 0
193567.0 190337.0 0
198248.0 189707.0 0
203920.0 190338.0 0
207651.0 185478.0 0
213693.0 189374.0 0
218129.0 185899.0 0
222480.0 185912.0 0
226809.0 189395.0 0
232213.0 190442.0 0
235810.0 186014.0 0
246501.0 186723.0 0
257256.0 189820.0 0
263773.0 186263.0 0
262325.0 190441.0 0
267082.0 190034.0 0
273937.0 185480.0 0
271629.0 189353.0 0
277047.0 189756.0 0
282030.0 187451.0 0
286326.0 185760.0 0
291718.0 186218.0 0
298243.0 189598.0 0
307736.0 187452.0 0
317926.0 185930.0 0
323243.0 185825.0 0
322440.0 190295.0 0
327579.0 186085.0 0
332204.0 185685.0 0
341018.0 186606.0 0
337708.0 190246.0 0
343303.0 189634.0 0
350692.0 186858.0 0
347741.0 190052.0 0
355270.0 185868.0 0
361451.0 189804.0 0
357768.0 190287.0 0
365126.0 189524.0 0
367952.0 185842.0 0
372927.0 189329.0 0
378824.0 189049.0 0
382010.0 190184.0 0
388368.0 189744.0 0
393547.0 190117.0 0
399192.0 185656.0 0
402988.0 189116.0 0
412476.0 185768.0 0
408376.0 188404.0 0
412853.0 189711.0 0
417500.0 185802.0 0
417511.0 190313.0 0
422126.0 188564.0 0
427273.0 185626.0 0
433411.0 188680.0 0
437537.0 185779.0 0
443212.0 189011.0 0
447597.0 188310.0 0
451937.0 189558.0 0
457167.0 189763.0 0
466601.0 189821.0 0
475185.0 189802.0 0
481312.0 186172.0 0
486594.0 189432.0 0
496837.0 188778.0 0
2283.01 190556.0 0
6745.1 193265.0 0
11846.9 195087.0 0
16326.1 195154.0 0
22992.5 191208.0 0
20504.9 195178.0 0
32608.2 195457.0 0
40329.0 190707.0 0
38248.4 195218.0 0
44451.6 191050.0 0
42955.9 195593.0 0
47577.2 194473.0 0
52500.0 190800.0 0
62847.0 190855.0 0
67505.2 190527.0 0
67687.3 195371.0 0
77500.0 190927.0 0
82116.1 190573.0 0
81955.7 195299.0 0
86961.4 195332.0 0
92500.0 190936.0 0
97185.8 190579.0 0
97547.9 195098.0 0
107924.0 194506.0 0
112500.0 190872.0 0
116734.0 195560.0 0
117500.0 190953.0 0
120857.0 195407.0 0
122500.0 190876.0 0
125867.0 194791.0 0
132493.0 190770.0 0
137520.0 190785.0 0
140999.0 194387.0 0
146936.0 190611.0 0
146313.0 195502.0 0
156251.0 193986.0 0
170002.0 194322.0 0
176298.0 195171.0 0
182185.0 193391.0 0
194264.0 195362.0 0
199975.0 194810.0 0
208109.0 195457.0 0
209356.0 190557.0 0
213298.0 194185.0 0
217606.0 190968.0 0
222038.0 190750.0 0
222566.0 195024.0 0
226875.0 194400.0 0
237695.0 191262.0 0
243293.0 191106.0 0
248454.0 190800.0 0
246853.0 194875.0 0
252671.0 191267.0 0
257726.0 194572.0 0
262708.0 195221.0 0
267474.0 194492.0 0
273031.0 194602.0 0
279886.0 193794.0 0
282827.0 191138.0 0
287500.0 190850.0 0
292902.0 190712.0 0
291031.0 195030.0 0
296748.0 194648.0 0
303109.0 190556.0 0
307450.0 190745.0 0
307709.0 195175.0 0
312501.0 191044.0 0
317499.0 190808.0 0
318199.0 195305.0 0
322515.0 194300.0 0
327500.0 190830.0 0
332500.0 190903.0 0
336508.0 194910.0 0
341408.0 193839.0 0
346837.0 194439.0 0
351889.0 195592.0 0
352666.0 190752.0 0
356025.0 194154.0 0
361254.0 194505.0 0
366512.0 193609.0 0
371103.0 195471.0 0
377674.0 194982.0 0
384360.0 193522.0 0
392422.0 194941.0 0
397215.0 194898.0 0
398130.0 190549.0 0
402854.0 195356.0 0
409237.0 194048.0 0
419120.0 195008.0 0
428300.0 190575.0 0
424102.0 193388.0 0
432238.0 194304.0 0
437504.0 190845.0 0
437327.0 195063.0 0
442337.0 194244.0 0
448253.0 193381.0 0
454151.0 194967.0 0
462427.0 191223.0 0
470196.0 190997.0 0
472371.0 194321.0 0
477758.0 195291.0 0
480802.0 191446.0 0
492081.0 191682.0 0
496593.0 195355.0 0
2238.62 196440.0 0
8049.55 199106.0 0
13471.2 199706.0 0
17750.8 199000.0 0
22413.7 199553.0 0
27030.3 195617.0 0
32054.0 199743.0 0
37571.5 200422.0 0
43185.3 200656.0 0
49062.5 199260.0 0
51792.6 196228.0 0
56545.9 195745.0 0
59217.8 200421.0 0
62106.3 195736.0 0
63613.4 200065.0 0
73697.9 195693.0 0
72602.9 200568.0 0
78212.2 196124.0 0
77068.9 200054.0 0
82136.7 200320.0 0
87334.4 200506.0 0
92531.5 195687.0 0
97734.9 200450.0 0
102630.0 196231.0 0
107688.0 200004.0 0
112496.0 195778.0 0
113107.0 200109.0 0
118133.0 200039.0 0
123414.0 199393.0 0
131162.0 196487.0 0
136449.0 196436.0 0
137736.0 200352.0 0
142523.0 200506.0 0
151840.0 197105.0 0
148000.0 200113.0 0
156823.0 199399.0 0
161708.0 195940.0 0
166531.0 197762.0 0
170843.0 200351.0 0
182232.0 198869.0 0
188051.0 195643.0 0
197220.0 200093.0 0
203051.0 199953.0 0
204287.0 195810.0 0
217709.0 195904.0 0
214360.0 199855.0 0
222046.0 199285.0 0
227531.0 199947.0 0
232449.0 195907.0 0
234307.0 200299.0 0
237432.0 195688.0 0
237844.0 199017.0 0
241798.0 196341.0 0
246242.0 200063.0 0
251797.0 196161.0 0
255881.0 199295.0 0
260346.0 198968.0 0
266367.0 199181.0 0
278362.0 199294.0 0
283566.0 196072.0 0
287228.0 196146.0 0
288762.0 199303.0 0
302245.0 195794.0 0
313215.0 196302.0 0
316235.0 200028.0 0
321058.0 199565.0 0
326815.0 196187.0 0
329889.0 199745.0 0
331859.0 195923.0 0
339782.0 199233.0 0
346085.0 200694.0 0
357350.0 198110.0 0
361676.0 200498.0 0
366562.0 198301.0 0
382813.0 199036.0 0
388343.0 196711.0 0
399510.0 200527.0 0
408061.0 199407.0 0
404314.0 200541.0 0
414399.0 196614.0 0
416954.0 200403.0 0
427671.0 196417.0 0
425638.0 200040.0 0
431044.0 200493.0 0
437126.0 199258.0 0
441828.0 199833.0 0
446541.0 198392.0 0
450861.0 198926.0 0
458969.0 195997.0 0
463149.0 195766.0 0
461231.0 200444.0 0
467511.0 195903.0 0
467006.0 200234.0 0
472617.0 199279.0 0
482616.0 196145.0 0
487503.0 197230.0 0
491508.0 195743.0 0
492123.0 199604.0 0
2182.12 200854.0 0
1484.83 205562.0 0
7135.89 205409.0 0
11883.0 203437.0 0
17146.8 204176.0 0
23035.7 204937.0 0
26972.8 201552.0 0
30212.5 204284.0 0
34864.1 205072.0 0
39751.6 204481.0 0
48548.0 204481.0 0
53807.2 200922.0 0
57204.2 204811.0 0
63075.8 204842.0 0
68064.8 201048.0 0
73384.1 204629.0 0
78284.7 205206.0 0
83576.0 205260.0 0
88380.2 205327.0 0
92270.1 201013.0 0
102770.0 201700.0 0
105590.0 205520.0 0
111305.0 204694.0 0
116639.0 205298.0 0
122097.0 204585.0 0
127500.0 200951.0 0
126926.0 205028.0 0
131218.0 205700.0 0
132687.0 201318.0 0
136576.0 204903.0 0
147009.0 204390.0 0
153406.0 201764.0 0
157933.0 205314.0 0
160407.0 200752.0 0
164429.0 201464.0 0
167055.0 204331.0 0
177034.0 201739.0 0
182931.0 205783.0 0
186625.0 201276.0 0
191646.0 200774.0 0
193690.0 204858.0 0
189202.0 205691.0 0
203174.0 205054.0 0
208745.0 201803.0 0
218724.0 201134.0 0
216327.0 204468.0 0
221184.0 204781.0 0
231988.0 204813.0 0
237943.0 203753.0 0
241777.0 200942.0 0
242849.0 205584.0 0
248038.0 205148.0 0
251525.0 201420.0 0
252905.0 205448.0 0
257735.0 204477.0 0
262645.0 202543.0 0
267605.0 205120.0 0
271767.0 200875.0 0
284359.0 200813.0 0
283575.0 205399.0 0
288837.0 204623.0 0
292985.0 201019.0 0
293489.0 205617.0 0
298944.0 200951.0 0
303985.0 201170.0 0
302639.0 205476.0 0
307500.0 200994.0 0
312166.0 200813.0 0
311958.0 205552.0 0
316989.0 204456.0 0
325842.0 201117.0 0
322318.0 205150.0 0
330966.0 205262.0 0
334361.0 201721.0 0
341494.0 204717.0 0
337103.0 205634.0 0
352841.0 201167.0 0
357888.0 204678.0 0
367114.0 203207.0 0
362977.0 205469.0 0
371935.0 201095.0 0
377880.0 202429.0 0
387366.0 200894.0 0
383266.0 205061.0 0
388190.0 205076.0 0
393043.0 201592.0 0
403061.0 204522.0 0
412358.0 201089.0 0
408166.0 204257.0 0
414662.0 204725.0 0
421360.0 201681.0 0
427474.0 204510.0 0
436092.0 204233.0 0
441964.0 205494.0 0
448301.0 203916.0 0
455436.0 200726.0 0
464960.0 205319.0 0
473863.0 204501.0 0
478863.0 200789.0 0
481990.0 205749.0 0
484722.0 201283.0 0
489145.0 202010.0 0
486776.0 205624.0 0
496755.0 201997.0 0
2747.74 209602.0 0
12654.4 207941.0 0
18083.2 209943.0 0
23737.7 210692.0 0
28640.2 208331.0 0
33612.4 210626.0 0
39110.2 209320.0 0
43658.3 206339.0 0
43713.3 210548.0 0
48660.7 210450.0 0
53115.8 206902.0 0
59701.8 209827.0 0
68326.3 206223.0 0
68276.9 210441.0 0
72220.2 208515.0 0
76326.1 210111.0 0
81948.5 210685.0 0
87892.8 210398.0 0
92500.0 205859.0 0
92641.8 210804.0 0
96909.8 210438.0 0
97240.8 205865.0 0
101199.0 205916.0 0
101493.0 210559.0 0
106438.0 210856.0 0
111043.0 209543.0 0
115384.0 210014.0 0
120869.0 210604.0 0
127439.0 210292.0 0
133298.0 210154.0 0
142211.0 206199.0 0
138722.0 210641.0 0
143739.0 210807.0 0
151795.0 206333.0 0
148384.0 210419.0 0
161435.0 209788.0 0
163669.0 205950.0 0
166775.0 209685.0 0
171005.0 206358.0 0
176731.0 208029.0 0
186875.0 210684.0 0
192404.0 210201.0 0
198248.0 205983.0 0
202622.0 209621.0 0
207326.0 207182.0 0
212119.0 206049.0 0
210632.0 210584.0 0
216378.0 210360.0 0
222680.0 210447.0 0
226329.0 206577.0 0
236036.0 208745.0 0
250926.0 209605.0 0
256783.0 210685.0 0
262848.0 208121.0 0
268279.0 210504.0 0
272706.0 206758.0 0
278482.0 205948.0 0
282088.0 209330.0 0
287111.0 210708.0 0
293046.0 210032.0 0
297508.0 206995.0 0
301878.0 209400.0 0
307132.0 205835.0 0
316878.0 209580.0 0
327174.0 205983.0 0
328012.0 210598.0 0
333895.0 209505.0 0
346711.0 206636.0 0
342249.0 210688.0 0
351630.0 206829.0 0
355596.0 208966.0 0
360544.0 210226.0 0
366540.0 210320.0 0
370195.0 206634.0 0
374570.0 206671.0 0
378571.0 210022.0 0
383442.0 209198.0 0
387261.0 209554.0 0
392175.0 207839.0 0
397904.0 206463.0 0
400407.0 210742.0 0
405322.0 209760.0 0
411961.0 208850.0 0
417918.0 205947.0 0
417761.0 210734.0 0
422474.0 206545.0 0
427263.0 208762.0 0
431224.0 205922.0 0
432217.0 210497.0 0
437066.0 209560.0 0
447101.0 210083.0 0
454009.0 205873.0 0
459425.0 206039.0 0
466545.0 209996.0 0
469624.0 206172.0 0
471806.0 210731.0 0
477651.0 207557.0 0
487737.0 210473.0 0
492178.0 206179.0 0
497458.0 207731.0 0
3051.73 215399.0 0
7839.1 211910.0 0
13601.9 213785.0 0
28768.7 213673.0 0
38525.3 214505.0 0
43251.9 214805.0 0
49654.7 215340.0 0
54154.7 211602.0 0
58559.7 215697.0 0
64853.9 210923.0 0
63409.4 214874.0 0
67001.6 215322.0 0
71708.5 213850.0 0
77981.5 215420.0 0
88025.5 215431.0 0
93066.4 215423.0 0
97995.0 214909.0 0
105791.0 215293.0 0
110774.0 214889.0 0
116650.0 214790.0 0
126507.0 215525.0 0
131213.0 214858.0 0
145119.0 215394.0 0
152801.0 210909.0 0
150863.0 215459.0 0
157001.0 211014.0 0
162043.0 214448.0 0
167185.0 214781.0 0
172242.0 212139.0 0
177070.0 212355.0 0
181355.0 212400.0 0
185799.0 215970.0 0
197838.0 211691.0 0
202635.0 215069.0 0
206611.0 211790.0 0
207602.0 215807.0 0
212130.0 214967.0 0
228326.0 212121.0 0
233994.0 213274.0 0
240958.0 211174.0 0
246441.0 211720.0 0
248958.0 215851.0 0
252354.0 213912.0 0
262544.0 215300.0 0
268734.0 215472.0 0
272899.0 211653.0 0
277857.0 211958.0 0
282799.0 214714.0 0
293210.0 215365.0 0
297888.0 212334.0 0
302615.0 215244.0 0
306182.0 211313.0 0
311441.0 211268.0 0
313173.0 215824.0 0
317435.0 215315.0 0
322349.0 211068.0 0
325902.0 214686.0 0
330021.0 215740.0 0
337574.0 212882.0 0
348022.0 211406.0 0
351119.0 215580.0 0
352332.0 211108.0 0
356043.0 213561.0 0
372547.0 211600.0 0
383523.0 213645.0 0
390777.0 212485.0 0
396055.0 212285.0 0
403873.0 215790.0 0
409482.0 214444.0 0
414453.0 214737.0 0
417749.0 214868.0 0
422951.0 211412.0 0
420937.0 215219.0 0
427635.0 215255.0 0
433309.0 214856.0 0
437894.0 214533.0 0
441840.0 211099.0 0
442662.0 215988.0 0
448514.0 215964.0 0
452635.0 211066.0 0
453992.0 215930.0 0
458102.0 211403.0 0
462539.0 210983.0 0
467787.0 214975.0 0
476950.0 212279.0 0
482256.0 211104.0 0
488521.0 215601.0 0
492477.0 212004.0 0
497461.0 212813.0 0
8748.05 217803.0 0
18367.3 217525.0 0
23869.0 216391.0 0
22331.3 220870.0 0
33709.3 216328.0 0
32317.8 220577.0 0
46370.6 219153.0 0
53676.5 216348.0 0
63628.9 220042.0 0
68669.4 218615.0 0
79804.1 220905.0 0
83404.2 216762.0 0
90118.4 219919.0 0
98579.4 219086.0 0
102081.0 216540.0 0
105626.0 219800.0 0
118220.0 220358.0 0
122666.0 216099.0 0
123827.0 220626.0 0
128394.0 218941.0 0
135239.0 216679.0 0
133275.0 221016.0 0
139765.0 216188.0 0
137795.0 220122.0 0
141899.0 220990.0 0
147418.0 220707.0 0
152989.0 220673.0 0
156894.0 216371.0 0
161798.0 220017.0 0
167155.0 219751.0 0
171465.0 217461.0 0
176189.0 216082.0 0
176893.0 221074.0 0
180979.0 218003.0 0
186899.0 220994.0 0
191581.0 216081.0 0
197328.0 217221.0 0
201654.0 220548.0 0
207182.0 220778.0 0
213018.0 220512.0 0
217208.0 216746.0 0
223343.0 216416.0 0
228973.0 218112.0 0
233404.0 217739.0 0
238452.0 216925.0 0
243831.0 216234.0 0
242079.0 220467.0 0
246537.0 220221.0 0
251477.0 219789.0 0
255549.0 216783.0 0
268246.0 221088.0 0
273492.0 216197.0 0
278390.0 217348.0 0
284568.0 220790.0 0
287968.0 216720.0 0
293287.0 219803.0 0
297716.0 217598.0 0
302335.0 220989.0 0
308394.0 216218.0 0
312021.0 219987.0 0
316759.0 219910.0 0
322178.0 216639.0 0
326417.0 220223.0 0
335084.0 216292.0 0
331724.0 220714.0 0
340350.0 216695.0 0
345962.0 217459.0 0
351187.0 220756.0 0
356407.0 219099.0 0
360844.0 216101.0 0
366463.0 216063.0 0
367001.0 220933.0 0
371164.0 216536.0 0
371682.0 221016.0 0
377245.0 217251.0 0
387816.0 216838.0 0
392753.0 216833.0 0
398355.0 217805.0 0
411615.0 219957.0 0
417008.0 218599.0 0
422650.0 220201.0 0
432991.0 219499.0 0
438713.0 220179.0 0
444686.0 220878.0 0
458531.0 216372.0 0
455650.0 220329.0 0
462981.0 216130.0 0
468704.0 220200.0 0
472979.0 216466.0 0
477808.0 220724.0 0
479954.0 216201.0 0
484281.0 216037.0 0
482451.0 220866.0 0
486606.0 219774.0 0
492613.0 216160.0 0
490661.0 220193.0 0
497772.0 217572.0 0
2142.5 221270.0 0
2239.25 225843.0 0
7228.25 223872.0 0
13670.3 221416.0 0
18594.0 222465.0 0
23268.3 225720.0 0
27478.2 221275.0 0
32586.6 224050.0 0
37255.7 221130.0 0
42425.9 222431.0 0
46984.1 225627.0 0
51398.4 221550.0 0
57387.4 221825.0 0
62184.3 225435.0 0
67950.8 225498.0 0
73540.7 221676.0 0
78091.9 225505.0 0
85108.5 221675.0 0
88767.5 226205.0 0
95022.8 221788.0 0
101281.0 222433.0 0
97839.5 225145.0 0
105726.0 225291.0 0
111326.0 221228.0 0
121627.0 225452.0 0
128123.0 224982.0 0
137503.0 224077.0 0
133716.0 225850.0 0
157251.0 222266.0 0
153552.0 225491.0 0
163112.0 225855.0 0
170770.0 221490.0 0
173364.0 224734.0 0
168448.0 225022.0 0
177766.0 225517.0 0
182334.0 222821.0 0
191547.0 221385.0 0
191581.0 225896.0 0
196361.0 222670.0 0
201130.0 226138.0 0
212106.0 225440.0 0
219810.0 221839.0 0
224919.0 221733.0 0
228661.0 222206.0 0
232732.0 221509.0 0
231013.0 225565.0 0
236994.0 222169.0 0
241279.0 225379.0 0
246724.0 225156.0 0
252422.0 225301.0 0
257762.0 222056.0 0
262736.0 221372.0 0
274062.0 221156.0 0
274610.0 226131.0 0
279358.0 222870.0 0
283987.0 225245.0 0
289677.0 221664.0 0
292633.0 225094.0 0
296583.0 222532.0 0
303621.0 225960.0 0
307427.0 221496.0 0
307769.0 225850.0 0
312282.0 225217.0 0
321321.0 221770.0 0
317555.0 224909.0 0
328013.0 224882.0 0
332719.0 225823.0 0
337288.0 221963.0 0
342892.0 222033.0 0
346862.0 222026.0 0
341953.0 225961.0 0
345518.0 225741.0 0
349557.0 224953.0 0
355367.0 225311.0 0
361709.0 222203.0 0
366525.0 225653.0 0
373454.0 226164.0 0
382223.0 221169.0 0
378364.0 223856.0 0
386909.0 221560.0 0
391462.0 221341.0 0
388094.0 225960.0 0
392601.0 225710.0 0
395535.0 222108.0 0
397132.0 225958.0 0
400541.0 222907.0 0
405873.0 221571.0 0
412529.0 225200.0 0
417191.0 223724.0 0
421044.0 225768.0 0
428257.0 221338.0 0
425389.0 225383.0 0
431956.0 225146.0 0
450496.0 222632.0 0
454488.0 225580.0 0
461349.0 221247.0 0
465814.0 222875.0 0
469282.0 225649.0 0
473159.0 222021.0 0
479076.0 225613.0 0
486634.0 223977.0 0
491431.0 226046.0 0
495014.0 221554.0 0
497411.0 226175.0 0
2123.63 230209.0 0
6950.48 229732.0 0
12433.7 227476.0 0
18040.5 226916.0 0
16004.6 230907.0 0
20032.7 231193.0 0
24880.0 230969.0 0
29050.1 227253.0 0
35969.5 226916.0 0
41009.9 226660.0 0
43303.6 231099.0 0
52812.1 226267.0 0
53563.1 230784.0 0
57594.1 227985.0 0
62542.1 230675.0 0
67218.1 230762.0 0
73639.8 228382.0 0
79071.0 231034.0 0
82808.8 226402.0 0
84510.9 231013.0 0
88576.6 231240.0 0
93961.5 226638.0 0
92508.1 230710.0 0
101250.0 226717.0 0
97468.9 229536.0 0
102452.0 231140.0 0
110245.0 226654.0 0
107194.0 230041.0 0
111839.0 230817.0 0
115524.0 226231.0 0
123253.0 230683.0 0
127771.0 230369.0 0
132824.0 230920.0 0
142032.0 226256.0 0
138528.0 230185.0 0
143146.0 231078.0 0
148124.0 227283.0 0
151876.0 231072.0 0
157993.0 226444.0 0
156564.0 231273.0 0
161569.0 230790.0 0
166879.0 229895.0 0
173247.0 230953.0 0
181600.0 227391.0 0
178605.0 231100.0 0
186466.0 226260.0 0
189468.0 231105.0 0
195897.0 228421.0 0
199741.0 231137.0 0
207151.0 226853.0 0
212777.0 230072.0 0
216824.0 226627.0 0
221595.0 227468.0 0
223358.0 230936.0 0
226062.0 226264.0 0
227640.0 230964.0 0
232480.0 230317.0 0
235870.0 226804.0 0
237799.0 231229.0 0
246755.0 229992.0 0
257588.0 227286.0 0
263741.0 226869.0 0
269634.0 226743.0 0
267705.0 230927.0 0
271775.0 230519.0 0
279893.0 228216.0 0
276111.0 230963.0 0
284250.0 229657.0 0
288573.0 226681.0 0
293566.0 229638.0 0
298697.0 227281.0 0
302606.0 230841.0 0
306692.0 229731.0 0
311695.0 230903.0 0
316846.0 229748.0 0
323368.0 226749.0 0
324896.0 230636.0 0
328711.0 229592.0 0
337394.0 227277.0 0
339625.0 231153.0 0
344182.0 229955.0 0
350138.0 230608.0 0
360698.0 227390.0 0
369423.0 230447.0 0
378305.0 228351.0 0
383175.0 226813.0 0
388119.0 230455.0 0
393189.0 230778.0 0
397958.0 230131.0 0
408074.0 226326.0 0
403371.0 227049.0 0
406613.0 230950.0 0
412756.0 231093.0 0
418449.0 229136.0 0
423561.0 230513.0 0
428736.0 229177.0 0
437677.0 226416.0 0
443661.0 226457.0 0
445496.0 231171.0 0
450713.0 229062.0 0
458774.0 226535.0 0
456138.0 230688.0 0
463925.0 226352.0 0
463203.0 230394.0 0
460056.0 231107.0 0
467454.0 230919.0 0
474357.0 226573.0 0
472542.0 230875.0 0
477865.0 230941.0 0
483696.0 227260.0 0
487588.0 230504.0 0
492458.0 231244.0 0
497811.0 230936.0 0
3066.73 235317.0 0
8521.76 234239.0 0
12550.8 232883.0 0
16397.3 235069.0 0
21284.6 236096.0 0
27437.1 236332.0 0
32195.2 231613.0 0
32655.5 235486.0 0
37666.1 232525.0 0
42248.6 236241.0 0
48673.7 231618.0 0
53255.7 235751.0 0
57435.0 232894.0 0
62500.8 235097.0 0
71126.3 233152.0 0
66931.4 235198.0 0
76189.7 236207.0 0
82328.8 234623.0 0
86370.4 234950.0 0
91234.6 235775.0 0
96588.3 234654.0 0
101329.0 235801.0 0
106452.0 235209.0 0
112400.0 236327.0 0
117996.0 231738.0 0
123230.0 235933.0 0
128388.0 234871.0 0
133240.0 236403.0 0
138700.0 235916.0 0
143908.0 235118.0 0
147992.0 233258.0 0
152626.0 235521.0 0
157978.0 235765.0 0
162827.0 234924.0 0
168106.0 235345.0 0
177257.0 236377.0 0
183554.0 232032.0 0
187099.0 235992.0 0
192276.0 236265.0 0
193916.0 232243.0 0
197941.0 235858.0 0
203873.0 231719.0 0
202915.0 235704.0 0
208374.0 231989.0 0
212061.0 235017.0 0
219046.0 231385.0 0
222465.0 235166.0 0
232462.0 235023.0 0
237100.0 235535.0 0
242352.0 231724.0 0
241396.0 236185.0 0
246130.0 235004.0 0
251934.0 231555.0 0
254549.0 236046.0 0
257453.0 231583.0 0
262284.0 233085.0 0
267437.0 236258.0 0
272496.0 234413.0 0
277192.0 236253.0 0
283129.0 235040.0 0
288542.0 231919.0 0
292691.0 235233.0 0
298787.0 232041.0 0
297302.0 235973.0 0
302023.0 235922.0 0
306837.0 234459.0 0
316044.0 234641.0 0
311357.0 236374.0 0
321347.0 231639.0 0
320409.0 236052.0 0
326145.0 235421.0 0
334173.0 231443.0 0
343330.0 234895.0 0
348089.0 236051.0 0
356751.0 232154.0 0
363287.0 232050.0 0
372381.0 235615.0 0
367635.0 236039.0 0
374942.0 231485.0 0
379757.0 232319.0 0
382071.0 235461.0 0
384043.0 232363.0 0
387305.0 235059.0 0
391769.0 235460.0 0
396357.0 234743.0 0
402015.0 231377.0 0
401383.0 236266.0 0
406533.0 235813.0 0
417755.0 235032.0 0
428001.0 235381.0 0
433886.0 231653.0 0
440197.0 232574.0 0
448666.0 233697.0 0
444903.0 236309.0 0
453275.0 235462.0 0
458551.0 234525.0 0
463250.0 234584.0 0
468261.0 235975.0 0
473573.0 236056.0 0
478475.0 235850.0 0
482747.0 231508.0 0
481982.0 236251.0 0
485443.0 235000.0 0
490359.0 235142.0 0
495352.0 235201.0 0
2829.93 241210.0 0
7507.07 238665.0 0
12201.7 237432.0 0
12483.5 241074.0 0
17120.7 240610.0 0
28466.6 241422.0 0
32871.3 239596.0 0
37733.6 237893.0 0
47939.6 237124.0 0
51654.3 240237.0 0
58923.1 236777.0 0
56208.6 240317.0 0
61478.5 240762.0 0
71380.1 237330.0 0
67343.0 240700.0 0
80899.5 238891.0 0
86732.4 240566.0 0
98378.3 240017.0 0
103686.0 239974.0 0
108533.0 240599.0 0
118083.0 237160.0 0
123575.0 240965.0 0
128441.0 240045.0 0
133095.0 240923.0 0
137607.0 241293.0 0
146830.0 237500.0 0
143086.0 239241.0 0
150635.0 239465.0 0
155608.0 239546.0 0
161150.0 239807.0 0
167134.0 241421.0 0
172592.0 236640.0 0
172931.0 240928.0 0
182437.0 236985.0 0
189258.0 240733.0 0
194199.0 240787.0 0
203778.0 239910.0 0
199082.0 241502.0 0
207322.0 236688.0 0
213123.0 240276.0 0
217209.0 236458.0 0
222500.0 240911.0 0
227448.0 236504.0 0
227501.0 241081.0 0
231499.0 239185.0 0
235480.0 239623.0 0
241034.0 240574.0 0
246248.0 240865.0 0
250371.0 236577.0 0
252689.0 241325.0 0
258842.0 236695.0 0
257745.0 240436.0 0
262639.0 239632.0 0
268587.0 240980.0 0
272436.0 239064.0 0
276603.0 241301.0 0
282658.0 240830.0 0
288142.0 236469.0 0
287874.0 240876.0 0
293338.0 240703.0 0
298015.0 239830.0 0
306736.0 239333.0 0
317180.0 240349.0 0
322896.0 240610.0 0
326717.0 240365.0 0
332579.0 237491.0 0
338277.0 236474.0 0
340770.0 241184.0 0
345193.0 239303.0 0
349874.0 240659.0 0
353199.0 236608.0 0
358609.0 237667.0 0
363211.0 237536.0 0
367132.0 241398.0 0
377385.0 236965.0 0
372548.0 240529.0 0
382862.0 240130.0 0
389015.0 240014.0 0
397224.0 239871.0 0
407511.0 240516.0 0
411913.0 237451.0 0
416984.0 240726.0 0
422241.0 237970.0 0
426094.0 241486.0 0
432063.0 240730.0 0
435880.0 236910.0 0
440095.0 237511.0 0
443193.0 241336.0 0
448961.0 236828.0 0
447823.0 240485.0 0
452687.0 241333.0 0
457777.0 239380.0 0
463151.0 239755.0 0
468223.0 241085.0 0
473106.0 241169.0 0
478121.0 240687.0 0
482759.0 240997.0 0
487725.0 239930.0 0
493271.0 239922.0 0
497798.0 239495.0 0
2506.84 246554.0 0
9624.54 242537.0 0
7250.69 245987.0 0
12088.2 246310.0 0
23539.8 241534.0 0
28766.9 245928.0 0
32675.3 244260.0 0
37931.5 243552.0 0
44147.7 241583.0 0
48938.9 243271.0 0
52862.4 245948.0 0
58184.1 245097.0 0
64140.2 246370.0 0
71388.6 245281.0 0
73093.2 241714.0 0
78001.9 242713.0 0
92885.3 241773.0 0
96744.8 245835.0 0
92014.9 246352.0 0
101918.0 244321.0 0
113670.0 241707.0 0
118723.0 242457.0 0
123403.0 246030.0 0
128619.0 245207.0 0
133599.0 245453.0 0
141658.0 243812.0 0
146707.0 241548.0 0
145488.0 246410.0 0
150741.0 245175.0 0
156827.0 244769.0 0
162669.0 245880.0 0
170984.0 245789.0 0
178059.0 241887.0 0
183618.0 241761.0 0
183142.0 245714.0 0
179601.0 246579.0 0
187219.0 245802.0 0
192596.0 245385.0 0
202921.0 244939.0 0
208277.0 241731.0 0
210992.0 245815.0 0
217844.0 241761.0 0
215655.0 246091.0 0
221195.0 246178.0 0
227141.0 246427.0 0
231641.0 243375.0 0
237632.0 245353.0 0
243888.0 246082.0 0
248938.0 245828.0 0
257368.0 243775.0 0
260306.0 245813.0 0
265509.0 244800.0 0
272396.0 245380.0 0
279493.0 246044.0 0
285570.0 244992.0 0
290235.0 244791.0 0
297323.0 245052.0 0
302144.0 241902.0 0
306834.0 244795.0 0
311403.0 241595.0 0
318336.0 246174.0 0
323492.0 245553.0 0
331450.0 241899.0 0
328130.0 243874.0 0
335613.0 242399.0 0
332374.0 246379.0 0
340990.0 245760.0 0
345739.0 244576.0 0
355436.0 242846.0 0
361529.0 242242.0 0
368942.0 246057.0 0
373328.0 245393.0 0
377571.0 242699.0 0
381323.0 245962.0 0
386951.0 246158.0 0
393402.0 242181.0 0
402342.0 241896.0 0
398505.0 245449.0 0
407741.0 245903.0 0
411967.0 242756.0 0
415856.0 246555.0 0
421571.0 242550.0 0
424602.0 245524.0 0
428969.0 246046.0 0
437843.0 241852.0 0
434133.0 245721.0 0
442775.0 245692.0 0
447705.0 245747.0 0
453031.0 246356.0 0
458317.0 245189.0 0
463602.0 244575.0 0
468166.0 246410.0 0
473596.0 245583.0 0
478163.0 245843.0 0
482822.0 245195.0 0
487507.0 245508.0 0
492504.0 244871.0 0
497559.0 244141.0 0
2475.32 251547.0 0
7679.1 250995.0 0
12006.4 250506.0 0
17557.0 246884.0 0
23369.5 247587.0 0
34047.4 249620.0 0
39386.0 248522.0 0
43256.9 247011.0 0
44676.8 251480.0 0
47691.3 247087.0 0
48729.5 250800.0 0
53032.6 251121.0 0
59479.7 250192.0 0
63878.8 251508.0 0
69233.5 247290.0 0
67595.2 250746.0 0
75135.4 247108.0 0
71680.8 250696.0 0
81047.6 246859.0 0
78306.7 250599.0 0
87050.1 247221.0 0
92011.5 250992.0 0
97011.9 250949.0 0
102140.0 250209.0 0
107424.0 246689.0 0
111118.0 251002.0 0
113363.0 246702.0 0
118424.0 247717.0 0
126572.0 250734.0 0
132454.0 250426.0 0
137141.0 251543.0 0
138000.0 247074.0 0
142292.0 250680.0 0
147730.0 250166.0 0
152623.0 250835.0 0
157516.0 249850.0 0
162023.0 251448.0 0
167211.0 249889.0 0
172469.0 250941.0 0
175336.0 247511.0 0
183451.0 249631.0 0
190400.0 250397.0 0
197945.0 247141.0 0
203334.0 250296.0 0
206834.0 247236.0 0
208131.0 251255.0 0
212521.0 250353.0 0
217670.0 250797.0 0
223414.0 250988.0 0
227822.0 251402.0 0
232868.0 250696.0 0
238053.0 251361.0 0
242308.0 250280.0 0
246635.0 250154.0 0
254184.0 247446.0 0
262646.0 249986.0 0
268073.0 250060.0 0
284015.0 249230.0 0
289078.0 249888.0 0
293596.0 248172.0 0
298774.0 250821.0 0
302272.0 247039.0 0
302762.0 250578.0 0
307516.0 250380.0 0
312359.0 247652.0 0
316372.0 251039.0 0
321278.0 251195.0 0
327585.0 249737.0 0
333566.0 251366.0 0
337094.0 246963.0 0
340753.0 249889.0 0
346460.0 251134.0 0
350966.0 246728.0 0
352471.0 251565.0 0
359276.0 247045.0 0
364350.0 246728.0 0
362687.0 250595.0 0
367607.0 251311.0 0
377202.0 247783.0 0
373237.0 250508.0 0
383128.0 251393.0 0
393336.0 247033.0 0
397589.0 249868.0 0
402880.0 246833.0 0
401983.0 251451.0 0
407541.0 251706.0 0
417753.0 250699.0 0
421162.0 247823.0 0
426070.0 251411.0 0
432056.0 250523.0 0
438727.0 247038.0 0
436721.0 250877.0 0
442754.0 250713.0 0
453397.0 250524.0 0
463569.0 249115.0 0
467776.0 251726.0 0
471810.0 249280.0 0
476433.0 250863.0 0
481078.0 249168.0 0
485628.0 250154.0 0
490687.0 251153.0 0
495986.0 249414.0 0
3200.12 256676.0 0
8248.72 256096.0 0
12753.9 255732.0 0
15774.8 251936.0 0
17397.3 256699.0 0
20838.9 252635.0 0
26804.1 251927.0 0
26214.4 256708.0 0
30921.7 255233.0 0
40026.1 252767.0 0
35898.0 255361.0 0
43612.8 255467.0 0
47736.7 254834.0 0
51788.2 255181.0 0
56808.8 255387.0 0
62557.0 255515.0 0
67148.4 255931.0 0
72497.6 255884.0 0
77971.0 254691.0 0
82486.8 251845.0 0
82546.7 256270.0 0
87152.8 252811.0 0
90166.4 256130.0 0
95228.8 255970.0 0
101131.0 255876.0 0
106970.0 252574.0 0
111801.0 255861.0 0
115815.0 252358.0 0
121096.0 252350.0 0
123266.0 256780.0 0
127617.0 255855.0 0
132207.0 255743.0 0
137225.0 256141.0 0
146452.0 255156.0 0
156138.0 254792.0 0
169294.0 256267.0 0
178171.0 251840.0 0
181619.0 256675.0 0
186102.0 254029.0 0
190966.0 255697.0 0
195386.0 251837.0 0
195726.0 256512.0 0
199755.0 252457.0 0
204913.0 254827.0 0
211721.0 254956.0 0
216600.0 256138.0 0
221796.0 255427.0 0
226795.0 255887.0 0
232024.0 254952.0 0
236138.0 256220.0 0
241524.0 254778.0 0
246847.0 255263.0 0
251488.0 251905.0 0
251501.0 256156.0 0
257649.0 251749.0 0
261538.0 255319.0 0
266306.0 254495.0 0
273534.0 252038.0 0
279495.0 252229.0 0
284961.0 254352.0 0
290134.0 254753.0 0
293814.0 252392.0 0
297270.0 255267.0 0
302619.0 253735.0 0
307410.0 254312.0 0
310179.0 256802.0 0
312821.0 253467.0 0
316940.0 255263.0 0
326179.0 255118.0 0
331804.0 256341.0 0
336652.0 256790.0 0
337866.0 252815.0 0
341748.0 255755.0 0
350376.0 255493.0 0
354422.0 256697.0 0
358051.0 252628.0 0
363433.0 255925.0 0
368539.0 256534.0 0
372667.0 255200.0 0
377757.0 252514.0 0
381279.0 255901.0 0
385766.0 256502.0 0
388879.0 252031.0 0
393913.0 252310.0 0
397817.0 255948.0 0
403448.0 256415.0 0
408202.0 256819.0 0
413342.0 251753.0 0
417336.0 255392.0 0
420762.0 251968.0 0
422299.0 255722.0 0
433138.0 256454.0 0
438889.0 254932.0 0
448800.0 252845.0 0
443927.0 256302.0 0
453740.0 255490.0 0
458487.0 251743.0 0
463015.0 256199.0 0
468087.0 256523.0 0
472226.0 254362.0 0
476500.0 255892.0 0
481559.0 254438.0 0
487370.0 255064.0 0
497270.0 255059.0 0
8046.16 261119.0 0
14937.3 260947.0 0
19926.3 261512.0 0
21997.7 257231.0 0
25346.1 261555.0 0
39974.5 258479.0 0
47191.8 260110.0 0
52660.7 259373.0 0
57751.2 261624.0 0
63747.8 260870.0 0
69573.9 261236.0 0
74689.9 261755.0 0
78843.7 259440.0 0
86311.9 256879.0 0
82760.9 261064.0 0
87409.9 261316.0 0
93074.0 261387.0 0
98827.4 261230.0 0
106564.0 257594.0 0
103888.0 261770.0 0
107216.0 261603.0 0
111632.0 261730.0 0
118318.0 257033.0 0
120373.0 261764.0 0
124162.0 261075.0 0
128417.0 260476.0 0
132883.0 260075.0 0
136867.0 260832.0 0
141697.0 257430.0 0
141100.0 261614.0 0
146517.0 261122.0 0
151562.0 257606.0 0
156634.0 261204.0 0
161843.0 257748.0 0
172252.0 261256.0 0
175985.0 257620.0 0
179231.0 261242.0 0
184121.0 261887.0 0
189291.0 260210.0 0
193649.0 261082.0 0
197493.0 260771.0 0
200498.0 257680.0 0
202930.0 261524.0 0
208482.0 256967.0 0
206359.0 259349.0 0
212335.0 260740.0 0
216887.0 260664.0 0
221050.0 260257.0 0
225817.0 260909.0 0
231051.0 259324.0 0
235689.0 261139.0 0
240610.0 260018.0 0
248414.0 260056.0 0
252649.0 259797.0 0
256211.0 256873.0 0
260035.0 259927.0 0
256120.0 261868.0 0
265460.0 259737.0 0
270583.0 256901.0 0
272900.0 260351.0 0
276603.0 256968.0 0
275636.0 260939.0 0
281974.0 259862.0 0
288354.0 259530.0 0
293713.0 256986.0 0
293493.0 261661.0 0
298769.0 259664.0 0
304642.0 258401.0 0
309200.0 260466.0 0
313939.0 258349.0 0
317718.0 260246.0 0
321544.0 257173.0 0
327758.0 259638.0 0
332500.0 260975.0 0
336864.0 261399.0 0
346586.0 256980.0 0
342188.0 261327.0 0
351670.0 260241.0 0
347195.0 261346.0 0
357634.0 260258.0 0
368505.0 260796.0 0
377000.0 257663.0 0
382589.0 259918.0 0
391596.0 257051.0 0
395887.0 260671.0 0
400744.0 261120.0 0
405931.0 260757.0 0
412662.0 256881.0 0
416962.0 261246.0 0
422184.0 260620.0 0
427068.0 258119.0 0
437977.0 260353.0 0
448487.0 258690.0 0
453573.0 260717.0 0
457884.0 257629.0 0
458367.0 261822.0 0
462261.0 261196.0 0
467291.0 261532.0 0
472251.0 259517.0 0
478258.0 260638.0 0
483453.0 259563.0 0
487737.0 259731.0 0
492232.0 257550.0 0
497081.0 260656.0 0
2743.12 262105.0 0
2121.93 266930.0 0
6642.03 266053.0 0
11769.5 263598.0 0
16451.3 266171.0 0
22155.3 266312.0 0
26825.5 266129.0 0
32693.5 262015.0 0
42509.5 263442.0 0
47182.2 265240.0 0
52162.2 264789.0 0
62694.2 266249.0 0
67628.2 266574.0 0
72729.4 266300.0 0
77867.0 265694.0 0
83355.2 265777.0 0
88724.0 266278.0 0
93482.7 266246.0 0
97426.1 265865.0 0
102459.0 266980.0 0
107419.0 264854.0 0
116397.0 264434.0 0
125876.0 265405.0 0
131762.0 264800.0 0
137394.0 265711.0 0
143330.0 266521.0 0
151899.0 262995.0 0
148479.0 266068.0 0
157329.0 266200.0 0
160709.0 263297.0 0
166708.0 262532.0 0
163273.0 265677.0 0
170863.0 264691.0 0
175910.0 265260.0 0
189121.0 265456.0 0
194250.0 265872.0 0
199448.0 265119.0 0
207390.0 264158.0 0
216155.0 266173.0 0
221738.0 264517.0 0
226477.0 266192.0 0
232427.0 265327.0 0
238413.0 265099.0 0
244790.0 264353.0 0
251413.0 264819.0 0
256869.0 266396.0 0
261841.0 264521.0 0
270072.0 263722.0 0
274186.0 266466.0 0
278005.0 263962.0 0
283407.0 266198.0 0
288947.0 264861.0 0
297176.0 264534.0 0
302964.0 264865.0 0
308770.0 265721.0 0
312942.0 263086.0 0
318344.0 265527.0 0
323326.0 262370.0 0
328783.0 264852.0 0
334049.0 266618.0 0
339568.0 265990.0 0
344907.0 265794.0 0
349962.0 265334.0 0
354409.0 263871.0 0
358637.0 266965.0 0
363232.0 262275.0 0
368156.0 265509.0 0
372325.0 266685.0 0
373399.0 262016.0 0
376974.0 266595.0 0
379116.0 262066.0 0
382482.0 265564.0 0
387088.0 262101.0 0
387497.0 266588.0 0
392329.0 263238.0 0
396155.0 266054.0 0
401235.0 266586.0 0
406699.0 265914.0 0
411224.0 262053.0 0
411224.0 266924.0 0
415499.0 266287.0 0
421163.0 266205.0 0
426364.0 263670.0 0
431399.0 262154.0 0
430931.0 266593.0 0
435848.0 266376.0 0
443843.0 262166.0 0
446675.0 266520.0 0
449062.0 263040.0 0
456093.0 265481.0 0
461505.0 266244.0 0
466939.0 266936.0 0
472915.0 264716.0 0
478067.0 266106.0 0
482523.0 264024.0 0
487860.0 264858.0 0
492432.0 262539.0 0
493655.0 266429.0 0
498091.0 265327.0 0
2816.98 271721.0 0
8171.28 270992.0 0
10886.8 267253.0 0
12913.9 270357.0 0
16351.9 271002.0 0
20404.2 270889.0 0
25292.5 272101.0 0
31193.2 269817.0 0
38019.8 267474.0 0
44021.2 267955.0 0
41772.1 271818.0 0
47422.4 271935.0 0
53076.5 271244.0 0
57345.4 267720.0 0
63560.2 271403.0 0
68262.8 270971.0 0
72448.8 271148.0 0
77181.9 270805.0 0
86317.9 269901.0 0
82031.1 270885.0 0
91300.7 270811.0 0
96814.4 270266.0 0
111809.0 268093.0 0
116475.0 270819.0 0
120443.0 267610.0 0
126004.0 271558.0 0
132141.0 271184.0 0
137838.0 271350.0 0
147550.0 270622.0 0
142858.0 271895.0 0
152906.0 267519.0 0
157583.0 271188.0 0
162742.0 270178.0 0
168100.0 267947.0 0
172608.0 270439.0 0
177913.0 270529.0 0
181662.0 267093.0 0
186419.0 269824.0 0
192142.0 270377.0 0
196691.0 270998.0 0
203612.0 267081.0 0
201186.0 270571.0 0
206841.0 270449.0 0
210859.0 267819.0 0
212749.0 270951.0 0
217659.0 272081.0 0
221815.0 269179.0 0
226840.0 271282.0 0
231588.0 270962.0 0
236448.0 270086.0 0
241253.0 269527.0 0
245815.0 269702.0 0
250478.0 270707.0 0
255223.0 270549.0 0
260791.0 270690.0 0
266250.0 267831.0 0
271157.0 270139.0 0
278100.0 269780.0 0
288401.0 270150.0 0
293194.0 267184.0 0
293421.0 272082.0 0
298347.0 269743.0 0
303410.0 270416.0 0
308141.0 270726.0 0
314300.0 270831.0 0
319215.0 270430.0 0
324041.0 267814.0 0
328940.0 270478.0 0
333122.0 270825.0 0
336742.0 270760.0 0
342563.0 271155.0 0
347864.0 270378.0 0
353189.0 270012.0 0
363889.0 267865.0 0
367767.0 271169.0 0
373539.0 271354.0 0
382626.0 270815.0 0
378311.0 271118.0 0
387500.0 271124.0 0
392135.0 267345.0 0
390865.0 270925.0 0
394235.0 270523.0 0
398015.0 270503.0 0
405861.0 271941.0 0
412271.0 271554.0 0
417900.0 271078.0 0
423026.0 271464.0 0
428496.0 267198.0 0
427893.0 271095.0 0
432806.0 271530.0 0
437692.0 272019.0 0
442061.0 268105.0 0
447120.0 270801.0 0
451298.0 267737.0 0
456305.0 270430.0 0
461236.0 271896.0 0
466178.0 271519.0 0
470968.0 269693.0 0
476153.0 271125.0 0
482648.0 270025.0 0
488896.0 270423.0 0
497012.0 270106.0 0
2344.75 276164.0 0
7488.63 275840.0 0
11907.1 274321.0 0
17728.0 275249.0 0
22198.5 275844.0 0
25723.1 276628.0 0
33501.2 275403.0 0
37235.7 272820.0 0
41269.2 277047.0 0
46279.8 277172.0 0
51612.1 276588.0 0
58683.2 273011.0 0
62243.1 276854.0 0
67520.6 275691.0 0
72511.4 275759.0 0
81271.9 276008.0 0
76627.9 276829.0 0
87018.9 274920.0 0
92315.6 276078.0 0
101399.0 272873.0 0
97262.2 276102.0 0
107503.0 273061.0 0
111801.0 276890.0 0
113017.0 272918.0 0
121274.0 272346.0 0
117630.0 276364.0 0
123423.0 276101.0 0
128784.0 276612.0 0
134059.0 276226.0 0
137961.0 275955.0 0
142167.0 275894.0 0
147539.0 276421.0 0
152651.0 272160.0 0
152907.0 277092.0 0
158959.0 275583.0 0
162907.0 275572.0 0
167333.0 272981.0 0
172044.0 274851.0 0
177778.0 276063.0 0
182352.0 272180.0 0
183294.0 276858.0 0
188283.0 274799.0 0
193938.0 275656.0 0
199094.0 275371.0 0
204198.0 275776.0 0
214058.0 274371.0 0
209538.0 275528.0 0
217497.0 276459.0 0
222163.0 274670.0 0
226332.0 275163.0 0
230552.0 276477.0 0
235759.0 274823.0 0
240075.0 272892.0 0
243688.0 273857.0 0
240011.0 276939.0 0
250389.0 276096.0 0
256495.0 275978.0 0
262621.0 276321.0 0
266746.0 273341.0 0
272505.0 275780.0 0
278304.0 275587.0 0
283228.0 272985.0 0
289940.0 275640.0 0
294876.0 276528.0 0
299316.0 275101.0 0
303593.0 274413.0 0
307765.0 275881.0 0
312971.0 277015.0 0
317858.0 275245.0 0
322839.0 273546.0 0
327886.0 275499.0 0
333088.0 275109.0 0
338905.0 276401.0 0
344229.0 276443.0 0
346960.0 273929.0 0
351181.0 276119.0 0
357738.0 272653.0 0
358176.0 277029.0 0
362479.0 272668.0 0
367621.0 276532.0 0
372862.0 276983.0 0
377591.0 275796.0 0
383032.0 275978.0 0
387668.0 275612.0 0
390590.0 276470.0 0
394673.0 275143.0 0
400651.0 274895.0 0
416371.0 276872.0 0
422823.0 277118.0 0
428624.0 275908.0 0
433387.0 276348.0 0
441787.0 272773.0 0
448818.0 275668.0 0
444219.0 276582.0 0
452098.0 272904.0 0
452105.0 276894.0 0
457232.0 276718.0 0
462837.0 276357.0 0
470800.0 274880.0 0
482894.0 276759.0 0
488674.0 275902.0 0
492851.0 273241.0 0
492900.0 276960.0 0
497143.0 275960.0 0
2860.13 280003.0 0
7660.86 280301.0 0
13283.8 278725.0 0
17508.1 280140.0 0
22014.5 280130.0 0
29638.8 278407.0 0
25957.0 280540.0 0
33842.4 281301.0 0
36835.7 277815.0 0
38552.0 281284.0 0
43312.4 282110.0 0
47500.0 280937.0 0
51963.1 282234.0 0
56845.6 277262.0 0
58882.1 281815.0 0
64468.5 282054.0 0
68979.9 280788.0 0
73849.7 280238.0 0
77214.8 280663.0 0
80682.0 281109.0 0
86311.9 281225.0 0
92815.4 281085.0 0
98246.6 281363.0 0
102435.0 278022.0 0
106772.0 278205.0 0
103091.0 281987.0 0
109007.0 281399.0 0
113177.0 281013.0 0
122443.0 280892.0 0
117544.0 282073.0 0
126564.0 281504.0 0
131867.0 280960.0 0
136848.0 280504.0 0
144032.0 281180.0 0
150463.0 280972.0 0
157103.0 280807.0 0
163015.0 279958.0 0
167201.0 277615.0 0
167682.0 282271.0 0
173087.0 280480.0 0
183071.0 281482.0 0
178872.0 282131.0 0
186715.0 280175.0 0
191870.0 280530.0 0
196824.0 279710.0 0
201811.0 280807.0 0
207335.0 280614.0 0
213674.0 278642.0 0
216955.0 281610.0 0
220522.0 279514.0 0
225417.0 279021.0 0
229411.0 281519.0 0
235842.0 280300.0 0
240259.0 281947.0 0
245187.0 279919.0 0
252553.0 281091.0 0
257270.0 281424.0 0
262318.0 281087.0 0
267368.0 278864.0 0
272592.0 281884.0 0
277772.0 280597.0 0
282870.0 278530.0 0
289728.0 280411.0 0
285962.0 282056.0 0
293380.0 280112.0 0
297839.0 281005.0 0
303726.0 279551.0 0
309252.0 281437.0 0
320201.0 279590.0 0
324520.0 278171.0 0
328720.0 281080.0 0
334616.0 280400.0 0
342793.0 281613.0 0
348320.0 280912.0 0
354577.0 280838.0 0
358837.0 280991.0 0
362934.0 277572.0 0
362318.0 281631.0 0
366745.0 281577.0 0
376890.0 279618.0 0
380646.0 280262.0 0
386659.0 280767.0 0
391391.0 279854.0 0
396449.0 280848.0 0
400521.0 279271.0 0
404225.0 278197.0 0
409734.0 277397.0 0
418115.0 281933.0 0
422117.0 282271.0 0
426893.0 280718.0 0
431435.0 280637.0 0
438578.0 277274.0 0
442110.0 281922.0 0
447558.0 280831.0 0
452812.0 281081.0 0
461603.0 280575.0 0
466803.0 277621.0 0
465860.0 281678.0 0
470843.0 280671.0 0
476409.0 277502.0 0
480525.0 281175.0 0
485120.0 281806.0 0
491130.0 281748.0 0
497365.0 281450.0 0
2104.04 284163.0 0
6792.13 285792.0 0
12523.6 284087.0 0
18521.6 285175.0 0
24346.1 284900.0 0
30114.4 285278.0 0
35416.0 286710.0 0
39860.0 285344.0 0
43507.1 287406.0 0
47460.7 285102.0 0
51736.4 287072.0 0
56697.5 286853.0 0
61955.3 286869.0 0
66627.6 286542.0 0
71681.8 285132.0 0
77181.7 284282.0 0
82282.3 286092.0 0
93311.3 285192.0 0
97500.0 285971.0 0
102239.0 285771.0 0
107097.0 285549.0 0
112309.0 285275.0 0
117490.0 286688.0 0
122472.0 284983.0 0
132609.0 285747.0 0
127685.0 286466.0 0
137659.0 285445.0 0
140220.0 282792.0 0
142133.0 285860.0 0
147662.0 285667.0 0
153071.0 284998.0 0
157508.0 286688.0 0
161595.0 284846.0 0
165692.0 286512.0 0
171289.0 286367.0 0
176290.0 286367.0 0
180380.0 286788.0 0
185024.0 285258.0 0
190275.0 284812.0 0
195432.0 285307.0 0
201343.0 286261.0 0
206612.0 286607.0 0
212361.0 284456.0 0
218134.0 286012.0 0
222891.0 283978.0 0
227507.0 286639.0 0
232596.0 285134.0 0
238135.0 285894.0 0
243759.0 286234.0 0
248612.0 284887.0 0
255101.0 285176.0 0
259915.0 285356.0 0
266644.0 285898.0 0
272619.0 286802.0 0
276477.0 285410.0 0
281546.0 284290.0 0
286996.0 286644.0 0
292782.0 284927.0 0
298709.0 286866.0 0
303460.0 284845.0 0
307680.0 286093.0 0
315318.0 282445.0 0
319068.0 286747.0 0
323645.0 283057.0 0
323757.0 287282.0 0
328168.0 286723.0 0
332636.0 285033.0 0
338196.0 282621.0 0
337175.0 286397.0 0
341702.0 286844.0 0
346944.0 286341.0 0
352947.0 286110.0 0
358284.0 284821.0 0
363837.0 286033.0 0
372006.0 282373.0 0
368615.0 285676.0 0
377272.0 283911.0 0
372505.0 286254.0 0
383140.0 285233.0 0
392805.0 284591.0 0
388495.0 286460.0 0
396716.0 286348.0 0
401651.0 284341.0 0
407489.0 282862.0 0
413218.0 282695.0 0
417500.0 285870.0 0
423640.0 286180.0 0
429097.0 284923.0 0
432842.0 286130.0 0
436300.0 282622.0 0
439577.0 286301.0 0
445087.0 285924.0 0
449566.0 285587.0 0
453924.0 285932.0 0
457504.0 282756.0 0
458022.0 287322.0 0
461736.0 285161.0 0
466246.0 286387.0 0
472018.0 286697.0 0
476636.0 283424.0 0
481388.0 285793.0 0
487081.0 286990.0 0
497597.0 286484.0 0
3506.38 291244.0 0
8912.77 291063.0 0
12819.0 289510.0 0
18046.9 291385.0 0
23735.5 290266.0 0
29008.8 291071.0 0
33721.0 290872.0 0
38524.2 291193.0 0
43678.4 292141.0 0
47738.1 289864.0 0
52014.2 291628.0 0
56985.4 292259.0 0
61802.9 291578.0 0
66405.8 291135.0 0
71639.9 291018.0 0
78216.8 291496.0 0
84127.4 290831.0 0
88454.1 287537.0 0
94102.1 289412.0 0
99301.0 290670.0 0
103857.0 292095.0 0
108327.0 290512.0 0
113645.0 290119.0 0
122413.0 289375.0 0
118198.0 291146.0 0
126920.0 291413.0 0
131363.0 290553.0 0
135436.0 289214.0 0
140001.0 290147.0 0
145231.0 290806.0 0
151717.0 291108.0 0
157498.0 291829.0 0
162269.0 290272.0 0
167884.0 290818.0 0
173505.0 292001.0 0
178693.0 290752.0 0
183537.0 290804.0 0
188881.0 288929.0 0
193449.0 291561.0 0
198203.0 290011.0 0
202275.0 291562.0 0
207057.0 291773.0 0
212425.0 290847.0 0
217361.0 290477.0 0
221980.0 289310.0 0
226325.0 291392.0 0
231261.0 290534.0 0
236066.0 291067.0 0
240749.0 290906.0 0
247366.0 290204.0 0
251772.0 288140.0 0
251809.0 292148.0 0
256858.0 290347.0 0
262057.0 290578.0 0
272485.0 291548.0 0
277756.0 289901.0 0
282655.0 289777.0 0
287482.0 292130.0 0
294230.0 291542.0 0
299691.0 291686.0 0
304150.0 289860.0 0
308962.0 291159.0 0
312682.0 287714.0 0
320345.0 291757.0 0
326052.0 292021.0 0
333110.0 291195.0 0
339095.0 291727.0 0
343390.0 290865.0 0
347322.0 291142.0 0
351764.0 291646.0 0
357525.0 290168.0 0
362983.0 291065.0 0
368177.0 290510.0 0
373357.0 289950.0 0
378031.0 289017.0 0
382781.0 291381.0 0
392122.0 289545.0 0
387979.0 292150.0 0
397067.0 290704.0 0
402881.0 291014.0 0
407568.0 290998.0 0
408646.0 287452.0 0
412960.0 287659.0 0
411392.0 291971.0 0
416298.0 290825.0 0
421523.0 290618.0 0
427083.0 289984.0 0
431824.0 292265.0 0
436290.0 289814.0 0
442638.0 291196.0 0
449574.0 291215.0 0
454956.0 290608.0 0
459047.0 291622.0 0
462505.0 289367.0 0
466467.0 291250.0 0
470816.0 291866.0 0
477069.0 288078.0 0
475086.0 291628.0 0
479829.0 292115.0 0
492809.0 287644.0 0
491399.0 291853.0 0
496529.0 291959.0 0
7864.51 295128.0 0
13202.4 295420.0 0
18016.5 297363.0 0
22913.6 295902.0 0
28302.8 296214.0 0
33683.5 295781.0 0
38743.8 296131.0 0
42462.0 295972.0 0
47500.0 295746.0 0
52547.8 296026.0 0
57791.3 297575.0 0
62773.5 296046.0 0
67039.5 295945.0 0
72935.3 297067.0 0
78321.3 297295.0 0
82589.4 295891.0 0
87692.2 292611.0 0
87057.5 296525.0 0
92063.1 294726.0 0
97669.8 295954.0 0
102294.0 295764.0 0
107406.0 296343.0 0
113343.0 295536.0 0
121263.0 294645.0 0
117554.0 296883.0 0
125807.0 297312.0 0
129858.0 294830.0 0
135579.0 295007.0 0
141833.0 295018.0 0
147652.0 297142.0 0
152844.0 296462.0 0
156986.0 296304.0 0
162589.0 296384.0 0
168637.0 296337.0 0
173706.0 297359.0 0
178565.0 295836.0 0
183163.0 297472.0 0
188049.0 294810.0 0
193423.0 296338.0 0
197920.0 295035.0 0
202758.0 295757.0 0
206581.0 296161.0 0
210455.0 295418.0 0
215954.0 294987.0 0
222078.0 295398.0 0
227934.0 295848.0 0
232904.0 294981.0 0
237607.0 295558.0 0
243231.0 295408.0 0
248611.0 295694.0 0
254388.0 295815.0 0
259228.0 295275.0 0
262917.0 296863.0 0
266427.0 293212.0 0
270756.0 295815.0 0
276860.0 294471.0 0
282700.0 295921.0 0
287953.0 297353.0 0
292276.0 297066.0 0
298246.0 295987.0 0
305972.0 295454.0 0
310135.0 296981.0 0
315328.0 292575.0 0
311335.0 294186.0 0
314011.0 297594.0 0
318434.0 295838.0 0
322500.0 296032.0 0
328891.0 296660.0 0
333234.0 297586.0 0
336984.0 295568.0 0
341088.0 295507.0 0
346147.0 295670.0 0
357127.0 295487.0 0
361933.0 295982.0 0
372164.0 294570.0 0
367461.0 297305.0 0
377862.0 295017.0 0
383975.0 297421.0 0
389039.0 296953.0 0
392972.0 294763.0 0
398548.0 296138.0 0
404602.0 296176.0 0
408302.0 296196.0 0
411598.0 296264.0 0
415646.0 295620.0 0
420772.0 296106.0 0
427257.0 296534.0 0
432707.0 296332.0 0
437827.0 296386.0 0
443865.0 297445.0 0
448906.0 297330.0 0
453723.0 295437.0 0
458596.0 295711.0 0
462385.0 293841.0 0
466464.0 296130.0 0
471675.0 296524.0 0
476754.0 296199.0 0
482151.0 296975.0 0
485476.0 292654.0 0
489734.0 295981.0 0
3164.71 297906.0 0
6289.44 302106.0 0
11599.2 301534.0 0
17536.7 301826.0 0
22464.3 301574.0 0
27690.7 301275.0 0
32846.8 301161.0 0
37850.5 300664.0 0
42860.5 300768.0 0
47500.0 300829.0 0
52500.0 300749.0 0
57474.2 302036.0 0
62273.9 301102.0 0
67614.2 300331.0 0
77005.7 301184.0 0
81631.9 300796.0 0
86243.1 300647.0 0
91741.9 301139.0 0
97810.2 301342.0 0
102673.0 300325.0 0
106905.0 302488.0 0
111197.0 300413.0 0
115542.0 301206.0 0
120821.0 300530.0 0
126028.0 302144.0 0
131570.0 300814.0 0
137600.0 301194.0 0
143045.0 301605.0 0
152373.0 300418.0 0
156812.0 300985.0 0
161291.0 302184.0 0
165914.0 300880.0 0
170863.0 301283.0 0
176347.0 301918.0 0
181196.0 301003.0 0
190818.0 299711.0 0
195990.0 300679.0 0
202305.0 299437.0 0
207123.0 301165.0 0
212785.0 299598.0 0
217453.0 299379.0 0
221413.0 300900.0 0
226189.0 300692.0 0
231951.0 300027.0 0
236963.0 302194.0 0
240956.0 299675.0 0
246421.0 301682.0 0
252570.0 301088.0 0
257805.0 299264.0 0
262380.0 301891.0 0
267355.0 298924.0 0
272658.0 299905.0 0
277768.0 299180.0 0
289859.0 301889.0 0
295973.0 301135.0 0
302012.0 300086.0 0
308435.0 300939.0 0
313665.0 302723.0 0
318441.0 300414.0 0
325773.0 300368.0 0
330989.0 302143.0 0
336302.0 301262.0 0
342214.0 300900.0 0
347981.0 301845.0 0
352115.0 297756.0 0
357690.0 301313.0 0
363346.0 300909.0 0
372113.0 300689.0 0
377580.0 300981.0 0
388186.0 301824.0 0
393843.0 300441.0 0
403551.0 301974.0 0
409207.0 302734.0 0
413402.0 300452.0 0
418008.0 301074.0 0
422324.0 301149.0 0
432985.0 300588.0 0
437053.0 301312.0 0
447415.0 300710.0 0
451705.0 301289.0 0
455867.0 299709.0 0
461833.0 301007.0 0
468606.0 301715.0 0
474672.0 301612.0 0
480001.0 301059.0 0
486607.0 301201.0 0
493002.0 297980.0 0
493173.0 302355.0 0
497150.0 297952.0 0
498364.0 302272.0 0
2175.05 303153.0 0
2647.18 307435.0 0
6704.61 305980.0 0
17237.6 306323.0 0
21689.7 306448.0 0
26625.9 306477.0 0
32270.2 306616.0 0
37800.7 305735.0 0
42911.0 305883.0 0
48373.5 305703.0 0
53049.3 305931.0 0
57491.6 306321.0 0
62500.0 305916.0 0
67351.0 305939.0 0
72220.4 302788.0 0
72974.1 307125.0 0
77093.0 306113.0 0
80948.3 306099.0 0
86601.0 305819.0 0
92663.6 307733.0 0
98143.4 306386.0 0
102894.0 305340.0 0
107107.0 307841.0 0
112145.0 305717.0 0
117791.0 305584.0 0
127515.0 305863.0 0
123043.0 307248.0 0
131668.0 307613.0 0
135067.0 304695.0 0
139809.0 307300.0 0
148559.0 302945.0 0
153475.0 306240.0 0
159463.0 306722.0 0
165981.0 306094.0 0
171479.0 306513.0 0
186250.0 302958.0 0
191934.0 304447.0 0
201334.0 304404.0 0
211977.0 305364.0 0
217705.0 304091.0 0
222977.0 305563.0 0
228690.0 305688.0 0
233712.0 305007.0 0
237027.0 306592.0 0
241201.0 305006.0 0
251790.0 306535.0 0
257113.0 303745.0 0
263381.0 307474.0 0
268824.0 304886.0 0
274324.0 307578.0 0
276095.0 303368.0 0
278969.0 306349.0 0
283371.0 302944.0 0
288503.0 306654.0 0
293573.0 306817.0 0
300041.0 306221.0 0
305094.0 304483.0 0
308699.0 306725.0 0
313287.0 307677.0 0
316673.0 305619.0 0
320517.0 307197.0 0
322140.0 303076.0 0
326629.0 306796.0 0
333853.0 307089.0 0
338662.0 305648.0 0
342795.0 306382.0 0
347412.0 306817.0 0
352467.0 303411.0 0
357813.0 307097.0 0
362638.0 305735.0 0
367026.0 307746.0 0
367597.0 303396.0 0
371840.0 306128.0 0
377415.0 306889.0 0
382654.0 303708.0 0
386620.0 307342.0 0
391984.0 306618.0 0
397814.0 304283.0 0
406991.0 306921.0 0
411814.0 306433.0 0
417025.0 305617.0 0
422579.0 306875.0 0
427434.0 303285.0 0
432176.0 307175.0 0
437972.0 306535.0 0
442556.0 302930.0 0
448189.0 305760.0 0
455979.0 305612.0 0
461571.0 307564.0 0
466233.0 306227.0 0
477537.0 306425.0 0
481990.0 305034.0 0
491855.0 307461.0 0
497015.0 307050.0 0
11883.5 308321.0 0
146660.0 308168.0 0
162836.0 309738.0 0
177295.0 308142.0 0
183220.0 308210.0 0
188856.0 308568.0 0
196014.0 308270.0 0
201286.0 309836.0 0
206513.0 307850.0 0
204557.0 312366.0 0
210881.0 311022.0 0
216510.0 309822.0 0
222555.0 311300.0 0
228040.0 311097.0 0
234059.0 309812.0 0
240415.0 310776.0 0
246263.0 308109.0 0
248953.0 312730.0 0
253429.0 311340.0 0
258322.0 308718.0 0
261268.0 311734.0 0
265697.0 312406.0 0
270533.0 310423.0 0
278462.0 311821.0 0
284402.0 309322.0 0
289750.0 311191.0 0
296982.0 311576.0 0
304860.0 308536.0 0
302231.0 312118.0 0
352855.0 308236.0 0
382625.0 308064.0 0
396548.0 308401.0 0
401649.0 308696.0 0
427264.0 309024.0 0
442941.0 308484.0 0
452075.0 308920.0 0
471910.0 307932.0 0
481342.0 308877.0 0
486492.0 308500.0 0
199797.0 314806.0 0
204703.0 316492.0 0
209679.0 316044.0 0
215865.0 315920.0 0
221268.0 316689.0 0
226772.0 316669.0 0
231614.0 314348.0 0
236662.0 313152.0 0
235460.0 316321.0 0
244589.0 313932.0 0
240469.0 316871.0 0
252323.0 316268.0 0
257836.0 314259.0 0
262094.0 314890.0 0
271315.0 315538.0 0
276262.0 317179.0 0
283315.0 313943.0 0
280773.0 317053.0 0
287124.0 315453.0 0
293108.0 316103.0 0
299360.0 316939.0 0
200758.0 321095.0 0
207014.0 321013.0 0
212538.0 320279.0 0
218293.0 321612.0 0
223439.0 320632.0 0
227455.0 322625.0 0
231933.0 319642.0 0
236826.0 319990.0 0
241046.0 322615.0 0
245892.0 319045.0 0
250683.0 320622.0 0
256773.0 320636.0 0
262834.0 318955.0 0
267936.0 319704.0 0
273246.0 321896.0 0
278753.0 321062.0 0
284413.0 318298.0 0
283247.0 322003.0 0
288652.0 320746.0 0
294124.0 321689.0 0
298179.0 321631.0 0
202406.0 327454.0 0
208458.0 326528.0 0
213697.0 325373.0 0
218849.0 326970.0 0
223875.0 326583.0 0
228352.0 327264.0 0
231770.0 325006.0 0
236193.0 324063.0 0
240638.0 326691.0 0
246426.0 324905.0 0
252245.0 325368.0 0
257367.0 326553.0 0
261586.0 323913.0 0
266622.0 324933.0 0
271780.0 326676.0 0
276785.0 325893.0 0
280951.0 324966.0 0
285763.0 325938.0 0
291344.0 325660.0 0
297229.0 326260.0 0
10310.7 330872.0 0
206357.0 331948.0 0
210539.0 330479.0 0
215387.0 330875.0 0
220991.0 331183.0 0
226661.0 332187.0 0
231370.0 329609.0 0
237070.0 329501.0 0
243185.0 329480.0 0
248835.0 330269.0 0
254659.0 330530.0 0
261803.0 329226.0 0
268328.0 331396.0 0
274519.0 329956.0 0
279476.0 328690.0 0
278587.0 332769.0 0
283474.0 330883.0 0
289078.0 330429.0 0
293836.0 329819.0 0
297670.0 332511.0 0
309756.0 332402.0 0
341742.0 328537.0 0
48261.5 338297.0 0
174681.0 337321.0 0
202059.0 334585.0 0
206423.0 337251.0 0
211607.0 335379.0 0
217075.0 336414.0 0
222446.0 336025.0 0
228284.0 336799.0 0
232304.0 334668.0 0
237214.0 334879.0 0
242055.0 334943.0 0
247805.0 336137.0 0
253384.0 335717.0 0
258708.0 334074.0 0
262743.0 336706.0 0
267390.0 337671.0 0
272957.0 336349.0 0
282624.0 335086.0 0
286860.0 336834.0 0
292690.0 335111.0 0
368610.0 338328.0 0
389098.0 337393.0 0
404603.0 335659.0 0
421499.0 336930.0 0
443009.0 336577.0 0
455114.0 336959.0 0
472319.0 337702.0 0
497243.0 336526.0 0
6878.9 340683.0 0
56374.4 342210.0 0
63868.7 342220.0 0
68827.6 343239.0 0
96187.4 342486.0 0
100416.0 341934.0 0
126005.0 341654.0 0
167796.0 340545.0 0
177286.0 341374.0 0
191569.0 342527.0 0
196244.0 343455.0 0
201556.0 339354.0 0
205343.0 342142.0 0
210650.0 341058.0 0
215736.0 341186.0 0
220283.0 340479.0 0
225616.0 340174.0 0
231507.0 340780.0 0
237606.0 339794.0 0
242351.0 342881.0 0
248064.0 342154.0 0
253807.0 341062.0 0
258789.0 339266.0 0
263552.0 341803.0 0
269171.0 342783.0 0
274229.0 341568.0 0
279060.0 338492.0 0
284089.0 341829.0 0
288587.0 341405.0 0
292547.0 340393.0 0
297613.0 338977.0 0
317421.0 340622.0 0
322450.0 342012.0 0
357807.0 340129.0 0
362467.0 338546.0 0
374583.0 340970.0 0
437044.0 340219.0 0
461586.0 340820.0 0
476569.0 340945.0 0
481239.0 342038.0 0
492537.0 338678.0 0
14254.8 345236.0 0
17655.2 348552.0 0
22442.4 346551.0 0
30433.9 346456.0 0
36537.1 346989.0 0
75161.9 345275.0 0
79658.9 343973.0 0
85031.3 344671.0 0
93065.2 348588.0 0
107589.0 343671.0 0
111005.0 345515.0 0
115161.0 343972.0 0
121008.0 343865.0 0
131855.0 345977.0 0
137504.0 344990.0 0
142262.0 347242.0 0
150902.0 348565.0 0
154054.0 344275.0 0
158565.0 343670.0 0
173221.0 346398.0 0
178041.0 348243.0 0
178735.0 344742.0 0
201050.0 343709.0 0
208209.0 345124.0 0
204266.0 346774.0 0
213464.0 345949.0 0
217991.0 344903.0 0
222459.0 344660.0 0
227575.0 345447.0 0
233116.0 346505.0 0
238231.0 345874.0 0
241821.0 347656.0 0
245433.0 346679.0 0
250940.0 347050.0 0
258890.0 343677.0 0
255433.0 345618.0 0
261676.0 346062.0 0
267164.0 347791.0 0
273043.0 345834.0 0
277742.0 345263.0 0
282084.0 345677.0 0
284494.0 348071.0 0
287543.0 345562.0 0
292742.0 345394.0 0
297234.0 343977.0 0
296670.0 348385.0 0
309917.0 343908.0 0
322451.0 346725.0 0
326630.0 347483.0 0
330913.0 347758.0 0
339605.0 347102.0 0
391311.0 344071.0 0
388726.0 348586.0 0
396056.0 345510.0 0
417127.0 346575.0 0
423600.0 344881.0 0
426612.0 348450.0 0
439714.0 347441.0 0
449230.0 346592.0 0
462790.0 347268.0 0
466760.0 346082.0 0
471850.0 344678.0 0
479717.0 347321.0 0
484429.0 347402.0 0
497839.0 345978.0 0
8033.1 350872.0 0
14588.8 352060.0 0
30589.4 352657.0 0
40985.6 351393.0 0
48339.7 349200.0 0
45936.2 352869.0 0
53010.0 349197.0 0
88220.9 350661.0 0
92904.6 353596.0 0
97919.2 350712.0 0
102310.0 352819.0 0
113050.0 352877.0 0
119144.0 350862.0 0
124394.0 348788.0 0
126271.0 352998.0 0
146000.0 350694.0 0
155278.0 351931.0 0
169989.0 351649.0 0
177650.0 352421.0 0
189010.0 352769.0 0
199809.0 351540.0 0
204699.0 351897.0 0
209593.0 349469.0 0
215331.0 351448.0 0
220365.0 348799.0 0
222361.0 353063.0 0
226182.0 350441.0 0
230930.0 351317.0 0
236520.0 350959.0 0
241540.0 351419.0 0
247311.0 352139.0 0
253363.0 351501.0 0
257831.0 349466.0 0
262727.0 350272.0 0
267185.0 353125.0 0
271660.0 350247.0 0
280605.0 349877.0 0
276090.0 351793.0 0
287718.0 350507.0 0
292337.0 350283.0 0
300193.0 351013.0 0
296030.0 353250.0 0
304563.0 351363.0 0
308666.0 350571.0 0
314009.0 353446.0 0
318274.0 350747.0 0
335045.0 350417.0 0
345114.0 349294.0 0
342101.0 352695.0 0
348027.0 352849.0 0
364947.0 351856.0 0
377600.0 352713.0 0
383597.0 351504.0 0
390690.0 352515.0 0
393964.0 350393.0 0
398809.0 352544.0 0
407296.0 349662.0 0
403236.0 353415.0 0
412976.0 351984.0 0
422388.0 350347.0 0
431907.0 349153.0 0
436080.0 350990.0 0
444222.0 349699.0 0
458451.0 349457.0 0
478880.0 352541.0 0
489239.0 350327.0 0
2631.23 353842.0 0
10165.2 357095.0 0
18911.2 354386.0 0
27252.5 356710.0 0
37311.7 354989.0 0
44551.6 358350.0 0
54909.3 355858.0 0
60744.6 356907.0 0
85759.2 355877.0 0
91010.0 356010.0 0
96476.5 355034.0 0
100409.0 357203.0 0
105708.0 355910.0 0
118177.0 358197.0 0
132649.0 356350.0 0
127561.0 357738.0 0
137102.0 354448.0 0
140005.0 358650.0 0
145849.0 358672.0 0
166524.0 355705.0 0
175201.0 357748.0 0
183166.0 354075.0 0
194862.0 353887.0 0
208948.0 354861.0 0
204318.0 357392.0 0
213239.0 357917.0 0
218630.0 356558.0 0
222975.0 356957.0 0
226791.0 355268.0 0
231990.0 356530.0 0
237380.0 356380.0 0
242545.0 356057.0 0
247251.0 358512.0 0
252155.0 356425.0 0
257543.0 354958.0 0
262638.0 354954.0 0
265887.0 358778.0 0
272409.0 355931.0 0
278257.0 355927.0 0
283963.0 354764.0 0
290630.0 355695.0 0
305439.0 355243.0 0
301503.0 358448.0 0
309710.0 354712.0 0
312775.0 358705.0 0
335176.0 357924.0 0
341691.0 357589.0 0
360425.0 355653.0 0
368682.0 354506.0 0
373639.0 356904.0 0
380959.0 357494.0 0
385630.0 356236.0 0
394399.0 355183.0 0
398411.0 356562.0 0
402468.0 358318.0 0
415149.0 356428.0 0
431773.0 354675.0 0
462565.0 357089.0 0
468005.0 358747.0 0
473827.0 354106.0 0
483291.0 356140.0 0
488293.0 357588.0 0
492521.0 354325.0 0
497266.0 354081.0 0
1396.57 361936.0 0
4198.95 358945.0 0
8211.08 360902.0 0
11918.4 362377.0 0
16619.4 361846.0 0
21754.5 360542.0 0
31965.1 359195.0 0
31750.6 363937.0 0
36111.9 363187.0 0
40529.6 362816.0 0
49617.5 359286.0 0
53511.7 360827.0 0
65233.2 360051.0 0
73247.1 358944.0 0
79604.9 359567.0 0
97591.4 360638.0 0
101262.0 361753.0 0
122345.0 360177.0 0
125806.0 361488.0 0
131849.0 362555.0 0
150246.0 362088.0 0
157949.0 360841.0 0
162385.0 361620.0 0
169946.0 359410.0 0
178339.0 361250.0 0
173828.0 362565.0 0
182145.0 359304.0 0
208681.0 360164.0 0
204066.0 362998.0 0
212254.0 362767.0 0
217082.0 363291.0 0
221696.0 360854.0 0
226498.0 360240.0 0
231143.0 361857.0 0
237056.0 362324.0 0
242713.0 361088.0 0
247471.0 362952.0 0
251125.0 361592.0 0
255717.0 360210.0 0
261572.0 360483.0 0
265075.0 363637.0 0
269759.0 362741.0 0
276023.0 361728.0 0
281387.0 359341.0 0
286336.0 360356.0 0
295840.0 359469.0 0
291330.0 363005.0 0
305124.0 361961.0 0
308822.0 359322.0 0
315850.0 362524.0 0
321608.0 362292.0 0
329673.0 361015.0 0
345721.0 362749.0 0
350533.0 360341.0 0
355714.0 361835.0 0
368265.0 359995.0 0
376826.0 361947.0 0
388242.0 359473.0 0
392773.0 363940.0 0
397327.0 361777.0 0
402414.0 363077.0 0
406830.0 360931.0 0
411664.0 359425.0 0
417627.0 361239.0 0
435876.0 362323.0 0
440796.0 359929.0 0
448497.0 362287.0 0
472750.0 359782.0 0
494690.0 359032.0 0
490331.0 362172.0 0
498185.0 362124.0 0
9024.03 365781.0 0
22141.1 366028.0 0
27556.0 367053.0 0
42506.5 366458.0 0
47221.1 367172.0 0
55137.7 364967.0 0
66736.5 368235.0 0
71308.4 365317.0 0
76342.2 364382.0 0
87656.3 366875.0 0
102064.0 366944.0 0
106106.0 367514.0 0
116011.0 364997.0 0
121416.0 365825.0 0
127185.0 365087.0 0
134328.0 366720.0 0
136635.0 366978.0 0
137688.0 363912.0 0
142927.0 366547.0 0
155044.0 367583.0 0
159481.0 366205.0 0
162925.0 368511.0 0
166757.0 364197.0 0
170964.0 366004.0 0
179930.0 368922.0 0
178181.0 365508.0 0
182661.0 364073.0 0
188494.0 366039.0 0
193978.0 368649.0 0
198734.0 366074.0 0
203633.0 368627.0 0
208630.0 365531.0 0
213445.0 367408.0 0
222202.0 366058.0 0
227739.0 366095.0 0
233174.0 366885.0 0
238526.0 368684.0 0
244180.0 366476.0 0
249549.0 366323.0 0
254025.0 366844.0 0
259192.0 364904.0 0
263692.0 367665.0 0
267824.0 367168.0 0
272449.0 367163.0 0
277708.0 368042.0 0
282065.0 364277.0 0
287191.0 366559.0 0
295863.0 364920.0 0
292189.0 368213.0 0
296547.0 368932.0 0
310186.0 365702.0 0
315912.0 368392.0 0
326129.0 365490.0 0
329883.0 367432.0 0
332766.0 365408.0 0
359390.0 365504.0 0
365249.0 364547.0 0
371510.0 364450.0 0
375753.0 367845.0 0
382983.0 364787.0 0
388117.0 368321.0 0
405524.0 366040.0 0
418256.0 366405.0 0
423877.0 366456.0 0
430432.0 363988.0 0
443743.0 364218.0 0
448865.0 367162.0 0
453540.0 368483.0 0
457751.0 365728.0 0
463509.0 365839.0 0
473024.0 364107.0 0
469786.0 367252.0 0
477995.0 364475.0 0
492549.0 366027.0 0
497345.0 367021.0 0
1715.97 375461.0 0
5476.93 375194.0 0
9856.26 376019.0 0
14256.7 372657.0 0
19200.6 375159.0 0
22383.6 376169.0 0
25021.1 375265.0 0
28438.4 375208.0 0
32392.0 375188.0 0
35498.2 375371.0 0
35847.6 370865.0 0
40190.3 372163.0 0
42464.8 375414.0 0
49878.2 375108.0 0
45877.5 375179.0 0
53581.6 375231.0 0
57885.0 368662.0 0
57030.4 375033.0 0
59705.9 376005.0 0
62268.0 370077.0 0
65767.0 376265.0 0
69055.0 375231.0 0
77846.2 375470.0 0
73427.9 375193.0 0
79576.8 369277.0 0
84735.0 371543.0 0
88844.4 372448.0 0
93894.2 371117.0 0
98970.2 375213.0 0
104075.0 375483.0 0
111058.0 369357.0 0
108016.0 375357.0 0
115897.0 371526.0 0
119057.0 375100.0 0
122634.0 371940.0 0
119920.0 369455.0 0
124941.0 368586.0 0
124270.0 376429.0 0
127841.0 375137.0 0
131939.0 375504.0 0
135384.0 375153.0 0
138872.0 375489.0 0
142899.0 375354.0 0
145562.0 370342.0 0
149544.0 368808.0 0
153139.0 371394.0 0
156818.0 372776.0 0
159983.0 376028.0 0
163259.0 375129.0 0
167385.0 375359.0 0
172059.0 375553.0 0
175791.0 370271.0 0
177918.0 375254.0 0
181629.0 375271.0 0
184662.0 375794.0 0
188836.0 375492.0 0
193014.0 375973.0 0
196033.0 375567.0 0
199012.0 375374.0 0
203858.0 373719.0 0
209007.0 370951.0 0
214228.0 373237.0 0
218243.0 369710.0 0
223563.0 371052.0 0
220253.0 373510.0 0
229295.0 371066.0 0
234139.0 372035.0 0
238415.0 373698.0 0
242655.0 372240.0 0
247778.0 371130.0 0
252066.0 370189.0 0
255846.0 371933.0 0
260759.0 371051.0 0
265364.0 371546.0 0
269858.0 371253.0 0
274764.0 372940.0 0
282785.0 369616.0 0
287600.0 372362.0 0
293021.0 373099.0 0
297197.0 372597.0 0
301341.0 370148.0 0
305770.0 369587.0 0
309179.0 370696.0 0
316802.0 375519.0 0
312921.0 375489.0 0
320550.0 374251.0 0
323945.0 375668.0 0
326986.0 375404.0 0
330138.0 375198.0 0
332195.0 370962.0 0
341820.0 375301.0 0
337341.0 370226.0 0
344487.0 371143.0 0
350111.0 370679.0 0
347821.0 375575.0 0
354812.0 369218.0 0
359357.0 371028.0 0
360786.0 375656.0 0
368235.0 369611.0 0
363532.0 369130.0 0
364509.0 375345.0 0
370914.0 375157.0 0
367731.0 375855.0 0
374258.0 375302.0 0
379842.0 370418.0 0
377191.0 375556.0 0
380432.0 375511.0 0
383934.0 370487.0 0
383358.0 375785.0 0
389549.0 375188.0 0
386264.0 375171.0 0
393394.0 375369.0 0
398287.0 375061.0 0
402382.0 375413.0 0
406174.0 375239.0 0
409959.0 375443.0 0
413608.0 375347.0 0
417498.0 375259.0 0
420703.0 370131.0 0
421645.0 375573.0 0
424899.0 375390.0 0
428710.0 369966.0 0
431857.0 375318.0 0
435628.0 375412.0 0
439674.0 375485.0 0
443148.0 375041.0 0
447253.0 375322.0 0
450863.0 375548.0 0
454338.0 375425.0 0
457559.0 375862.0 0
460697.0 375063.0 0
464172.0 375789.0 0
468215.0 375263.0 0
471698.0 375841.0 0
473976.0 368845.0 0
478921.0 370266.0 0
483869.0 368401.0 0
482197.0 375256.0 0
485416.0 375589.0 0
488366.0 375473.0 0
491242.0 375231.0 0
495025.0 375244.0 0
498572.0 375698.0 0
4982.29 378367.0 0
1503.02 378452.0 0
2658.64 381788.0 0
7937.85 380000.0 0
13114.3 377543.0 0
11574.4 381446.0 0
15881.4 376586.0 0
19249.9 378338.0 0
16149.9 380850.0 0
22468.4 378809.0 0
25580.6 378157.0 0
20504.9 382180.0 0
24618.0 381472.0 0
28324.4 377778.0 0
28099.7 381388.0 0
31336.5 378547.0 0
34901.6 378774.0 0
38238.1 376828.0 0
39277.6 381130.0 0
41614.5 378305.0 0
44850.8 378565.0 0
42635.3 381514.0 0
48802.6 378190.0 0
49881.3 382176.0 0
52893.1 378846.0 0
56552.8 381048.0 0
56547.1 377785.0 0
59488.3 379228.0 0
62450.4 375287.0 0
62796.9 379111.0 0
66375.8 379673.0 0
70094.0 378885.0 0
75311.9 378524.0 0
80935.1 375784.0 0
79087.0 379159.0 0
83366.3 375296.0 0
82537.1 379001.0 0
86461.9 377410.0 0
91287.7 376610.0 0
89279.6 380584.0 0
95255.5 377426.0 0
100349.0 379414.0 0
104511.0 379017.0 0
108307.0 378680.0 0
111439.0 375662.0 0
111627.0 378942.0 0
115170.0 376978.0 0
121495.0 377084.0 0
118548.0 379518.0 0
116613.0 381546.0 0
125676.0 380639.0 0
128785.0 378372.0 0
131987.0 378343.0 0
130507.0 381668.0 0
135384.0 378031.0 0
134461.0 381399.0 0
137958.0 381906.0 0
138646.0 378715.0 0
141617.0 378629.0 0
147601.0 375582.0 0
145221.0 379234.0 0
152092.0 375839.0 0
149225.0 379421.0 0
155553.0 376815.0 0
153076.0 380782.0 0
158231.0 379971.0 0
165040.0 377248.0 0
168824.0 377865.0 0
162680.0 379435.0 0
166827.0 379426.0 0
169599.0 380843.0 0
175728.0 376890.0 0
173142.0 380264.0 0
177010.0 379833.0 0
180627.0 378798.0 0
184164.0 378315.0 0
187021.0 379188.0 0
183947.0 381040.0 0
191278.0 380300.0 0
194853.0 379210.0 0
198930.0 379118.0 0
208114.0 376314.0 0
212499.0 377803.0 0
217928.0 377334.0 0
223091.0 376361.0 0
226618.0 374195.0 0
230680.0 375944.0 0
235599.0 376950.0 0
240658.0 377228.0 0
246023.0 376714.0 0
251606.0 375040.0 0
256449.0 376986.0 0
262244.0 375904.0 0
267735.0 375988.0 0
272793.0 378001.0 0
277993.0 377498.0 0
281282.0 374111.0 0
284545.0 377165.0 0
289804.0 377908.0 0
295324.0 377591.0 0
300899.0 376445.0 0
304894.0 375231.0 0
304752.0 378816.0 0
308795.0 376015.0 0
308471.0 380300.0 0
315742.0 378441.0 0
312241.0 379500.0 0
319825.0 378383.0 0
317667.0 380719.0 0
323455.0 378500.0 0
327202.0 378944.0 0
323067.0 381409.0 0
331106.0 377957.0 0
331146.0 381770.0 0
334339.0 375589.0 0
334037.0 379508.0 0
336015.0 380496.0 0
338420.0 377184.0 0
343121.0 377739.0 0
345040.0 375636.0 0
345677.0 378665.0 0
341973.0 380294.0 0
348312.0 378386.0 0
351378.0 375889.0 0
348557.0 380971.0 0
356135.0 376355.0 0
359623.0 380208.0 0
362933.0 378555.0 0
366763.0 379630.0 0
371438.0 378860.0 0
374501.0 377312.0 0
376277.0 379565.0 0
379659.0 378928.0 0
383819.0 379695.0 0
387579.0 378124.0 0
391134.0 378251.0 0
395673.0 378681.0 0
392666.0 381490.0 0
400213.0 378913.0 0
404395.0 378787.0 0
411839.0 378602.0 0
408513.0 378546.0 0
411895.0 381793.0 0
408101.0 381836.0 0
415163.0 378194.0 0
415564.0 381318.0 0
419179.0 378812.0 0
422874.0 379122.0 0
428377.0 375308.0 0
425951.0 378222.0 0
427851.0 381352.0 0
430561.0 378372.0 0
436833.0 378413.0 0
434278.0 379044.0 0
437264.0 382033.0 0
439566.0 378636.0 0
444074.0 378570.0 0
442009.0 381827.0 0
448802.0 379123.0 0
445827.0 381578.0 0
453110.0 378846.0 0
456890.0 379162.0 0
460557.0 377961.0 0
459925.0 381291.0 0
464010.0 380029.0 0
467387.0 378333.0 0
467903.0 381847.0 0
470686.0 379108.0 0
473920.0 378745.0 0
475734.0 375398.0 0
478052.0 379578.0 0
475107.0 380958.0 0
479393.0 376016.0 0
481658.0 378664.0 0
485210.0 379268.0 0
489009.0 381877.0 0
489138.0 378069.0 0
492896.0 378514.0 0
497773.0 379470.0 0
1359.31 384654.0 0
4419.65 385830.0 0
6740.48 383616.0 0
10409.4 385122.0 0
14684.5 385181.0 0
18767.8 385531.0 0
23321.7 385032.0 0
27071.6 384837.0 0
30258.6 385691.0 0
31841.8 382188.0 0
33817.7 384968.0 0
36007.3 381996.0 0
39483.2 384284.0 0
36892.0 385888.0 0
45970.4 381921.0 0
41858.3 383735.0 0
44404.7 384799.0 0
47832.9 385216.0 0
53605.9 382453.0 0
51833.8 385702.0 0
56234.2 385071.0 0
60156.5 383108.0 0
64453.8 382058.0 0
68011.8 382898.0 0
70770.5 385565.0 0
73286.4 382353.0 0
77264.6 381843.0 0
79861.9 382734.0 0
77476.4 384646.0 0
81544.5 385904.0 0
81900.0 381903.0 0
85156.9 382619.0 0
89491.0 384261.0 0
92844.8 381138.0 0
96692.2 382163.0 0
93946.4 385563.0 0
100609.0 383789.0 0
104802.0 382554.0 0
106534.0 386174.0 0
109613.0 382705.0 0
113728.0 381237.0 0
113184.0 385580.0 0
116206.0 384026.0 0
121958.0 380763.0 0
119565.0 383773.0 0
123804.0 384561.0 0
128494.0 384859.0 0
133866.0 385314.0 0
141866.0 382111.0 0
138551.0 385573.0 0
146373.0 382666.0 0
143464.0 385616.0 0
149879.0 383123.0 0
156588.0 384523.0 0
152587.0 385489.0 0
161584.0 383106.0 0
165394.0 382295.0 0
164569.0 385777.0 0
168158.0 384512.0 0
170973.0 383483.0 0
177244.0 383382.0 0
173781.0 383702.0 0
180721.0 382650.0 0
187697.0 382706.0 0
183752.0 384511.0 0
187972.0 386570.0 0
192079.0 384769.0 0
195625.0 382932.0 0
196021.0 386088.0 0
199198.0 382837.0 0
198980.0 385454.0 0
204381.0 379627.0 0
209141.0 381793.0 0
214979.0 382663.0 0
220421.0 381857.0 0
224176.0 383869.0 0
226907.0 379911.0 0
232090.0 380882.0 0
237510.0 381799.0 0
242902.0 380868.0 0
247840.0 382637.0 0
251830.0 379614.0 0
259934.0 380051.0 0
255623.0 382115.0 0
264638.0 380743.0 0
269272.0 380930.0 0
275365.0 382844.0 0
281764.0 382365.0 0
287999.0 383252.0 0
293770.0 383022.0 0
300448.0 385152.0 0
301163.0 381185.0 0
305036.0 382150.0 0
303911.0 385024.0 0
307760.0 384067.0 0
315322.0 382754.0 0
311379.0 383578.0 0
320053.0 382304.0 0
318834.0 385625.0 0
326416.0 382932.0 0
322714.0 384564.0 0
329775.0 385907.0 0
334847.0 384796.0 0
339080.0 382875.0 0
345437.0 381812.0 0
342885.0 384672.0 0
352235.0 380597.0 0
348488.0 385389.0 0
356144.0 382512.0 0
352889.0 384817.0 0
359712.0 385104.0 0
362940.0 382707.0 0
370540.0 382527.0 0
367085.0 384672.0 0
371887.0 386106.0 0
374197.0 382477.0 0
376122.0 385729.0 0
377933.0 382767.0 0
380713.0 382470.0 0
380240.0 385641.0 0
384974.0 384578.0 0
388595.0 381669.0 0
390092.0 385339.0 0
393955.0 385221.0 0
397623.0 382861.0 0
401321.0 381983.0 0
401331.0 386155.0 0
404095.0 382527.0 0
406252.0 385977.0 0
410422.0 385203.0 0
414853.0 385100.0 0
419679.0 383026.0 0
423944.0 382641.0 0
427773.0 385334.0 0
431995.0 383005.0 0
435824.0 386181.0 0
441123.0 385666.0 0
444556.0 383633.0 0
448336.0 383131.0 0
446413.0 386595.0 0
451245.0 381750.0 0
451280.0 385177.0 0
454973.0 382844.0 0
458961.0 385200.0 0
463740.0 384570.0 0
468514.0 385798.0 0
472329.0 382655.0 0
472503.0 386032.0 0
477348.0 384453.0 0
481301.0 382254.0 0
481767.0 386132.0 0
484920.0 383609.0 0
489792.0 385827.0 0
486088.0 386589.0 0
493616.0 382759.0 0
498057.0 384045.0 0
1606.05 387585.0 0
4757.83 389019.0 0
1627.23 390689.0 0
7807.77 387791.0 0
9637.44 390961.0 0
12240.3 388559.0 0
16524.2 389210.0 0
21702.4 389198.0 0
26223.7 388090.0 0
29397.5 389109.0 0
26143.7 391479.0 0
33304.1 387954.0 0
37073.7 389606.0 0
41581.0 387834.0 0
49394.5 387678.0 0
46257.2 388585.0 0
50970.2 389604.0 0
54308.5 388609.0 0
56239.3 390726.0 0
58837.5 388359.0 0
63524.4 386510.0 0
62124.6 391540.0 0
67849.4 386791.0 0
70667.8 389171.0 0
66525.5 390590.0 0
74123.5 386866.0 0
77552.3 387772.0 0
79805.9 390896.0 0
85864.9 387040.0 0
83547.8 389952.0 0
90128.4 388885.0 0
94708.5 390576.0 0
98156.8 387298.0 0
101208.0 389853.0 0
102977.0 386854.0 0
105573.0 390235.0 0
109715.0 387573.0 0
109694.0 391376.0 0
116860.0 387204.0 0
113653.0 389834.0 0
120929.0 387923.0 0
126195.0 389158.0 0
131263.0 388232.0 0
130039.0 391349.0 0
135365.0 388616.0 0
133365.0 390376.0 0
141362.0 388371.0 0
138333.0 389242.0 0
141080.0 391744.0 0
144794.0 389601.0 0
148295.0 386967.0 0
152759.0 389177.0 0
156586.0 389099.0 0
160558.0 386772.0 0
160121.0 390157.0 0
163329.0 389330.0 0
167250.0 388378.0 0
171654.0 387280.0 0
175895.0 386691.0 0
175749.0 391193.0 0
179623.0 386847.0 0
180358.0 390215.0 0
183904.0 388290.0 0
188043.0 390615.0 0
191186.0 388562.0 0
192257.0 391489.0 0
198521.0 388666.0 0
194361.0 388549.0 0
203796.0 385107.0 0
208818.0 386762.0 0
205458.0 389565.0 0
213415.0 388286.0 0
218880.0 386489.0 0
223294.0 388325.0 0
228671.0 385959.0 0
233709.0 385184.0 0
237596.0 387561.0 0
241603.0 385061.0 0
249677.0 387447.0 0
245321.0 387829.0 0
254555.0 387546.0 0
260802.0 385762.0 0
267531.0 385725.0 0
272892.0 387893.0 0
278376.0 387703.0 0
282648.0 387321.0 0
286231.0 387753.0 0
290870.0 387448.0 0
296234.0 387978.0 0
301816.0 388866.0 0
306735.0 387573.0 0
310168.0 386528.0 0
310741.0 390232.0 0
314599.0 387526.0 0
319190.0 389615.0 0
321903.0 387489.0 0
325729.0 387329.0 0
322842.0 390143.0 0
330630.0 389616.0 0
326682.0 391179.0 0
333888.0 388990.0 0
339790.0 386823.0 0
337281.0 388848.0 0
343945.0 388623.0 0
348985.0 390737.0 0
356169.0 387138.0 0
352558.0 388379.0 0
359348.0 389678.0 0
363190.0 387352.0 0
368258.0 389719.0 0
373830.0 389574.0 0
378262.0 389371.0 0
383079.0 388943.0 0
387931.0 389184.0 0
396868.0 387193.0 0
393134.0 389612.0 0
399172.0 390336.0 0
408366.0 388971.0 0
404089.0 389470.0 0
412045.0 387868.0 0
411667.0 391322.0 0
415586.0 389195.0 0
418820.0 386761.0 0
423358.0 386948.0 0
419950.0 390348.0 0
427899.0 388969.0 0
424413.0 391008.0 0
431689.0 387167.0 0
431743.0 390684.0 0
435390.0 390032.0 0
442609.0 389637.0 0
438776.0 388801.0 0
446534.0 390355.0 0
450606.0 388632.0 0
454724.0 387198.0 0
458576.0 389329.0 0
454254.0 390514.0 0
462131.0 388404.0 0
462586.0 391557.0 0
465622.0 388856.0 0
470518.0 389672.0 0
474863.0 388000.0 0
478932.0 389019.0 0
483828.0 390095.0 0
489019.0 389540.0 0
494097.0 387394.0 0
492935.0 391246.0 0
498323.0 387932.0 0
497648.0 391513.0 0
1286.46 393297.0 0
2110.6 396418.0 0
5719.49 392982.0 0
13653.1 392481.0 0
10265.6 394812.0 0
14834.5 397010.0 0
18176.3 393521.0 0
22985.2 393874.0 0
29182.5 392738.0 0
27165.6 395293.0 0
32730.6 391661.0 0
31621.7 396425.0 0
40737.0 391953.0 0
36446.6 394264.0 0
40287.1 394677.0 0
44440.6 391803.0 0
43107.7 395027.0 0
48665.0 391920.0 0
46530.9 394412.0 0
50530.1 395839.0 0
53462.5 392790.0 0
56054.0 396597.0 0
58086.5 392955.0 0
60994.8 395968.0 0
65230.0 394548.0 0
69708.3 393068.0 0
68524.4 396618.0 0
74519.6 391590.0 0
72948.9 396322.0 0
77956.6 394968.0 0
83047.4 394441.0 0
86639.8 391615.0 0
90662.1 393522.0 0
87020.2 395293.0 0
94874.0 395545.0 0
98538.0 392308.0 0
99167.7 396400.0 0
102575.0 393406.0 0
107332.0 394941.0 0
112678.0 394177.0 0
116222.0 394966.0 0
117608.0 391645.0 0
122368.0 392449.0 0
119951.0 396310.0 0
127281.0 394503.0 0
123596.0 395447.0 0
132276.0 393297.0 0
130778.0 395716.0 0
136620.0 392621.0 0
140376.0 396501.0 0
145156.0 393676.0 0
149269.0 391601.0 0
149467.0 395710.0 0
158250.0 392377.0 0
154155.0 393967.0 0
161635.0 392755.0 0
158998.0 395892.0 0
163234.0 396106.0 0
165671.0 392288.0 0
168202.0 395660.0 0
170308.0 391676.0 0
172391.0 394792.0 0
175706.0 396350.0 0
183490.0 391698.0 0
180350.0 394414.0 0
185979.0 394268.0 0
190142.0 393807.0 0
193705.0 395494.0 0
195749.0 391726.0 0
198466.0 395249.0 0
199225.0 391707.0 0
202746.0 391908.0 0
209398.0 391293.0 0
213680.0 393127.0 0
218146.0 391294.0 0
222640.0 393051.0 0
227393.0 391463.0 0
232129.0 390194.0 0
236474.0 392610.0 0
241404.0 390774.0 0
246319.0 392956.0 0
251236.0 391497.0 0
256516.0 393449.0 0
263075.0 392369.0 0
268304.0 390893.0 0
272355.0 393025.0 0
277161.0 392743.0 0
282304.0 391800.0 0
286665.0 391323.0 0
288991.0 394422.0 0
293244.0 391975.0 0
296924.0 391723.0 0
301195.0 393425.0 0
305839.0 391420.0 0
304879.0 395213.0 0
309780.0 394850.0 0
315827.0 393013.0 0
313507.0 396194.0 0
320953.0 392918.0 0
320197.0 396500.0 0
323607.0 392445.0 0
325669.0 396175.0 0
330193.0 393557.0 0
334999.0 393052.0 0
340069.0 390965.0 0
339600.0 395000.0 0
344575.0 393882.0 0
350146.0 394976.0 0
354829.0 392596.0 0
359766.0 393678.0 0
363581.0 392120.0 0
371545.0 392536.0 0
367339.0 395126.0 0
371874.0 395712.0 0
376111.0 393733.0 0
381215.0 392737.0 0
385420.0 392144.0 0
384731.0 395546.0 0
389771.0 394079.0 0
395518.0 393541.0 0
402631.0 392403.0 0
399682.0 394153.0 0
398305.0 396504.0 0
406924.0 392786.0 0
407589.0 396397.0 0
411557.0 394971.0 0
416131.0 393447.0 0
421354.0 393990.0 0
419061.0 396922.0 0
428565.0 393004.0 0
425244.0 394846.0 0
432520.0 394834.0 0
434181.0 392339.0 0
436061.0 393207.0 0
437051.0 396349.0 0
439132.0 392070.0 0
440456.0 394974.0 0
443938.0 393602.0 0
449727.0 393085.0 0
458168.0 392746.0 0
454374.0 394028.0 0
461201.0 394336.0 0
466750.0 392240.0 0
464374.0 394910.0 0
468202.0 396134.0 0
470633.0 393203.0 0
473211.0 395702.0 0
475055.0 391721.0 0
477275.0 394840.0 0
479794.0 392646.0 0
483476.0 394313.0 0
488136.0 393908.0 0
493458.0 395632.0 0
498145.0 395451.0 0
2029.28 400299.0 0
6492.47 398157.0 0
9187.32 401282.0 0
10731.6 398520.0 0
12596.5 401289.0 0
19876.3 397636.0 0
17255.9 401647.0 0
24070.0 397691.0 0
23085.3 401788.0 0
27925.2 399508.0 0
35704.6 398471.0 0
39741.5 397915.0 0
38272.1 401793.0 0
42806.3 398030.0 0
45924.5 398081.0 0
42502.8 400836.0 0
49239.6 400171.0 0
52892.1 399119.0 0
55901.6 401040.0 0
59737.1 399771.0 0
64721.1 399170.0 0
69407.1 400121.0 0
73562.3 400615.0 0
76733.8 398368.0 0
80902.2 397904.0 0
85340.3 398325.0 0
83141.6 400854.0 0
90315.6 398612.0 0
95729.0 400451.0 0
101037.0 400643.0 0
103661.0 397149.0 0
106715.0 400423.0 0
110450.0 397685.0 0
111014.0 401387.0 0
115136.0 399001.0 0
120270.0 400397.0 0
124399.0 398550.0 0
129698.0 398902.0 0
134698.0 397170.0 0
137612.0 400945.0 0
133375.0 401117.0 0
145532.0 397393.0 0
143279.0 401268.0 0
152750.0 398276.0 0
148656.0 399571.0 0
156272.0 398522.0 0
160527.0 400220.0 0
165734.0 399476.0 0
171423.0 399205.0 0
175662.0 400336.0 0
179415.0 398998.0 0
184169.0 397979.0 0
187557.0 401062.0 0
189010.0 397037.0 0
192288.0 399715.0 0
197643.0 400042.0 0
203970.0 396208.0 0
209671.0 396706.0 0
218805.0 395915.0 0
214816.0 397423.0 0
222656.0 397311.0 0
226767.0 396289.0 0
232111.0 396485.0 0
237662.0 396878.0 0
241773.0 395832.0 0
247344.0 397905.0 0
251555.0 396035.0 0
257671.0 398248.0 0
261138.0 397312.0 0
268012.0 396329.0 0
273296.0 397434.0 0
279709.0 396870.0 0
284527.0 396537.0 0
288206.0 398660.0 0
292566.0 397472.0 0
296477.0 395314.0 0
296850.0 399720.0 0
301856.0 398265.0 0
305804.0 401293.0 0
306110.0 397810.0 0
308862.0 399004.0 0
315962.0 397770.0 0
312360.0 398854.0 0
318657.0 400177.0 0
323291.0 401150.0 0
331532.0 397436.0 0
328862.0 401494.0 0
336028.0 398029.0 0
339538.0 398284.0 0
342653.0 398485.0 0
346907.0 397671.0 0
345422.0 400355.0 0
350310.0 398330.0 0
353711.0 397397.0 0
352401.0 400549.0 0
355919.0 401322.0 0
358015.0 397244.0 0
361049.0 401527.0 0
362724.0 396680.0 0
365719.0 399548.0 0
369666.0 398342.0 0
375076.0 399226.0 0
379992.0 396643.0 0
380159.0 400923.0 0
383293.0 398980.0 0
387856.0 399314.0 0
393820.0 398064.0 0
402847.0 396649.0 0
398944.0 399699.0 0
402572.0 401341.0 0
406294.0 399585.0 0
410865.0 398975.0 0
415066.0 397776.0 0
423515.0 398406.0 0
418852.0 400751.0 0
428497.0 397484.0 0
426727.0 401390.0 0
433236.0 398732.0 0
430020.0 401010.0 0
437363.0 400599.0 0
441942.0 398642.0 0
446768.0 397291.0 0
452106.0 397151.0 0
449582.0 400380.0 0
453782.0 400949.0 0
457388.0 397442.0 0
457724.0 401708.0 0
461875.0 397342.0 0
461262.0 400836.0 0
465144.0 399082.0 0
468976.0 401224.0 0
470972.0 398240.0 0
473568.0 400224.0 0
476339.0 397864.0 0
480610.0 397076.0 0
482784.0 400191.0 0
485271.0 397450.0 0
489021.0 397675.0 0
486936.0 401162.0 0
492295.0 400000.0 0
497615.0 399496.0 0
1538.6 403910.0 0
5832.81 403062.0 0
7812.72 406975.0 0
10152.6 404304.0 0
13590.1 404945.0 0
20355.4 404745.0 0
27453.1 404254.0 0
32840.9 401903.0 0
37010.0 405616.0 0
45884.9 402807.0 0
41556.3 404576.0 0
45676.2 406746.0 0
51685.8 404741.0 0
58316.9 404476.0 0
62591.9 402765.0 0
62899.1 406402.0 0
66835.8 403666.0 0
70732.6 403308.0 0
70657.1 406867.0 0
74310.7 404314.0 0
78500.5 402103.0 0
83096.2 405023.0 0
86957.1 402256.0 0
87487.3 406666.0 0
91541.3 403765.0 0
94739.7 405932.0 0
98340.2 404910.0 0
103923.0 404962.0 0
109139.0 404627.0 0
117170.0 402664.0 0
113513.0 403721.0 0
117103.0 406206.0 0
119985.0 403886.0 0
126776.0 401859.0 0
123165.0 403055.0 0
126748.0 405932.0 0
130431.0 403580.0 0
134715.0 405486.0 0
139664.0 404760.0 0
147972.0 403650.0 0
152188.0 401665.0 0
152091.0 405444.0 0
156203.0 402546.0 0
160417.0 405564.0 0
163806.0 402812.0 0
168294.0 403201.0 0
164882.0 405754.0 0
178197.0 402597.0 0
173816.0 404845.0 0
182635.0 402589.0 0
179265.0 405869.0 0
183302.0 406659.0 0
186676.0 405317.0 0
190942.0 404098.0 0
194447.0 403193.0 0
196597.0 404697.0 0
194211.0 406632.0 0
199256.0 404128.0 0
202630.0 402751.0 0
206138.0 400821.0 0
212397.0 401615.0 0
216716.0 400891.0 0
215892.0 404710.0 0
220943.0 401520.0 0
226389.0 401428.0 0
231313.0 401551.0 0
236599.0 401766.0 0
242867.0 401243.0 0
247693.0 401992.0 0
251626.0 400583.0 0
256160.0 402044.0 0
260900.0 401596.0 0
265875.0 401606.0 0
270749.0 400877.0 0
276508.0 401044.0 0
281848.0 401371.0 0
286305.0 402078.0 0
291094.0 402186.0 0
296041.0 404562.0 0
301448.0 402622.0 0
305052.0 405123.0 0
310121.0 401964.0 0
308272.0 404759.0 0
314677.0 402309.0 0
311681.0 405713.0 0
315850.0 406736.0 0
319031.0 404211.0 0
322487.0 405462.0 0
326247.0 405360.0 0
331440.0 406472.0 0
334024.0 402103.0 0
336581.0 405908.0 0
338916.0 401889.0 0
341335.0 405769.0 0
343400.0 402352.0 0
346431.0 405353.0 0
348468.0 401583.0 0
352168.0 404803.0 0
357138.0 405259.0 0
360706.0 405621.0 0
365004.0 403754.0 0
369798.0 402496.0 0
372341.0 406647.0 0
374270.0 403766.0 0
375845.0 406162.0 0
377699.0 403717.0 0
380874.0 404274.0 0
383893.0 402460.0 0
387054.0 403995.0 0
391696.0 403233.0 0
396170.0 402062.0 0
395824.0 405050.0 0
399548.0 404270.0 0
405608.0 402573.0 0
404184.0 405651.0 0
409333.0 403415.0 0
414646.0 402337.0 0
413279.0 406924.0 0
422805.0 402911.0 0
418871.0 406080.0 0
426071.0 404738.0 0
423541.0 406816.0 0
433332.0 403053.0 0
429230.0 404380.0 0
437211.0 405445.0 0
440913.0 402804.0 0
442694.0 406502.0 0
445641.0 402550.0 0
450511.0 404216.0 0
455387.0 404841.0 0
459876.0 404639.0 0
464484.0 403620.0 0
468442.0 405103.0 0
473172.0 404391.0 0
478228.0 401763.0 0
482824.0 403951.0 0
486492.0 405513.0 0
490521.0 404581.0 0
495376.0 403523.0 0
498845.0 403096.0 0
498272.0 406529.0 0
2949.35 408055.0 0
8079.68 411170.0 0
11579.2 408261.0 0
17224.0 408529.0 0
23127.1 406942.0 0
22347.6 411401.0 0
27041.8 409152.0 0
32234.3 407360.0 0
39333.5 406869.0 0
36770.4 410292.0 0
41708.3 409029.0 0
48661.1 408716.0 0
55628.3 408371.0 0
51907.6 411403.0 0
59690.9 408712.0 0
63185.1 411767.0 0
66469.4 407888.0 0
69121.3 411836.0 0
74279.5 407252.0 0
74076.1 410635.0 0
78162.9 407132.0 0
78613.6 411464.0 0
82804.5 409484.0 0
87211.7 411254.0 0
96426.6 408696.0 0
91979.1 409032.0 0
100981.0 409892.0 0
106835.0 408895.0 0
112581.0 408228.0 0
122086.0 407602.0 0
117713.0 410225.0 0
127248.0 410892.0 0
130362.0 407363.0 0
133267.0 410915.0 0
138676.0 409459.0 0
144028.0 406969.0 0
147124.0 410233.0 0
148603.0 407349.0 0
151709.0 410522.0 0
155840.0 407063.0 0
158436.0 410990.0 0
164002.0 410160.0 0
168939.0 408114.0 0
172732.0 409768.0 0
176798.0 409344.0 0
181456.0 409704.0 0
185877.0 409432.0 0
190186.0 408285.0 0
198141.0 407757.0 0
194409.0 411265.0 0
198963.0 411435.0 0
202516.0 406342.0 0
208324.0 406527.0 0
213661.0 407737.0 0
220097.0 406491.0 0
225251.0 406901.0 0
230586.0 406217.0 0
235463.0 407202.0 0
240034.0 406316.0 0
245812.0 406946.0 0
252783.0 407038.0 0
259161.0 406436.0 0
263959.0 406379.0 0
269527.0 405970.0 0
273928.0 405540.0 0
278314.0 406308.0 0
283192.0 405765.0 0
287032.0 405761.0 0
291317.0 407601.0 0
301704.0 407639.0 0
307736.0 409565.0 0
312901.0 409257.0 0
319716.0 408220.0 0
316703.0 410821.0 0
323670.0 408668.0 0
327675.0 408802.0 0
334804.0 409934.0 0
339308.0 409326.0 0
344059.0 409389.0 0
349494.0 409204.0 0
354610.0 409032.0 0
359257.0 408579.0 0
363526.0 407456.0 0
362393.0 411303.0 0
366407.0 410912.0 0
367802.0 406935.0 0
370777.0 410229.0 0
375716.0 409924.0 0
379133.0 406941.0 0
380252.0 410640.0 0
383735.0 407082.0 0
383577.0 411715.0 0
386748.0 410608.0 0
388883.0 407216.0 0
390982.0 411814.0 0
393274.0 407760.0 0
397371.0 407920.0 0
395300.0 410579.0 0
401149.0 408146.0 0
399268.0 411903.0 0
404901.0 410810.0 0
408201.0 407514.0 0
410670.0 411418.0 0
416602.0 410446.0 0
422137.0 410646.0 0
427333.0 408250.0 0
432200.0 407240.0 0
430892.0 410899.0 0
436042.0 410875.0 0
439362.0 408178.0 0
440855.0 410148.0 0
447439.0 407164.0 0
444543.0 410765.0 0
452565.0 408252.0 0
449256.0 411695.0 0
457832.0 408866.0 0
462220.0 407031.0 0
462252.0 410800.0 0
465686.0 407771.0 0
466907.0 411912.0 0
469873.0 408439.0 0
474101.0 408655.0 0
478587.0 406994.0 0
476615.0 411573.0 0
483991.0 408428.0 0
480640.0 411673.0 0
488915.0 409018.0 0
493994.0 407914.0 0
492752.0 411675.0 0
497673.0 410482.0 0
3014.83 413902.0 0
8620.87 416310.0 0
12779.1 412813.0 0
18012.3 414281.0 0
22909.7 416335.0 0
26296.2 413477.0 0
31365.1 412720.0 0
36206.5 415300.0 0
41036.6 413936.0 0
46086.7 412041.0 0
49177.8 415501.0 0
53210.8 416000.0 0
57359.4 412736.0 0
60844.9 415840.0 0
57115.5 416804.0 0
65942.8 415123.0 0
75213.3 415247.0 0
79045.4 414393.0 0
82766.8 413970.0 0
91684.6 413706.0 0
87150.1 415807.0 0
96403.4 412572.0 0
100633.0 415631.0 0
104527.0 412984.0 0
109966.0 413596.0 0
114779.0 412333.0 0
114744.0 416178.0 0
121771.0 412710.0 0
117824.0 414040.0 0
125445.0 416759.0 0
130264.0 414834.0 0
134633.0 415901.0 0
138983.0 414166.0 0
143156.0 411963.0 0
143250.0 416669.0 0
147484.0 414212.0 0
154674.0 413235.0 0
156749.0 416707.0 0
161963.0 415348.0 0
165643.0 413873.0 0
166474.0 416635.0 0
169512.0 413474.0 0
174485.0 413287.0 0
176809.0 416568.0 0
179218.0 413208.0 0
184109.0 413278.0 0
189022.0 412759.0 0
192838.0 416858.0 0
197982.0 414960.0 0
203573.0 411039.0 0
209148.0 413538.0 0
213651.0 411203.0 0
217402.0 410650.0 0
222008.0 411258.0 0
227151.0 411739.0 0
232631.0 411557.0 0
238298.0 411266.0 0
242720.0 411064.0 0
247729.0 412597.0 0
251645.0 411888.0 0
255646.0 412520.0 0
260671.0 411551.0 0
265681.0 410365.0 0
271390.0 411948.0 0
276438.0 410657.0 0
281595.0 411411.0 0
287039.0 410345.0 0
291096.0 412927.0 0
296342.0 410336.0 0
302641.0 412288.0 0
301874.0 416934.0 0
307456.0 415457.0 0
312476.0 413334.0 0
320952.0 411950.0 0
317578.0 415496.0 0
325682.0 412329.0 0
322975.0 416224.0 0
330472.0 411821.0 0
328059.0 416148.0 0
334066.0 414574.0 0
337771.0 412717.0 0
341680.0 413200.0 0
338443.0 416778.0 0
346802.0 413422.0 0
351981.0 413399.0 0
357454.0 413221.0 0
361623.0 414605.0 0
365418.0 415621.0 0
369204.0 413726.0 0
373243.0 414049.0 0
377777.0 414122.0 0
381831.0 414696.0 0
386397.0 415078.0 0
390920.0 416585.0 0
395119.0 414269.0 0
402742.0 414976.0 0
407321.0 415861.0 0
411638.0 415752.0 0
414546.0 413829.0 0
414608.0 416947.0 0
418678.0 415088.0 0
426889.0 412456.0 0
423881.0 415668.0 0
429961.0 413657.0 0
432857.0 414469.0 0
428757.0 416858.0 0
436889.0 415924.0 0
440867.0 413721.0 0
445617.0 415348.0 0
451309.0 416549.0 0
454489.0 412461.0 0
458650.0 413369.0 0
455970.0 415830.0 0
463423.0 415047.0 0
467791.0 416741.0 0
472054.0 413185.0 0
477170.0 416233.0 0
482076.0 415373.0 0
485832.0 412879.0 0
489567.0 412530.0 0
495253.0 414020.0 0
498517.0 414055.0 0
3806.73 419544.0 0
9034.65 421113.0 0
13812.2 418291.0 0
18891.9 418290.0 0
21651.9 420068.0 0
25514.7 420472.0 0
27996.8 417124.0 0
32108.7 417324.0 0
35180.2 419560.0 0
30698.4 421840.0 0
39869.6 419154.0 0
45015.3 417562.0 0
49643.1 419954.0 0
54525.9 420118.0 0
59207.4 419717.0 0
64331.9 419178.0 0
70270.0 417196.0 0
68493.7 422017.0 0
75842.5 419503.0 0
72682.0 421569.0 0
79163.2 417356.0 0
79461.1 421273.0 0
83405.1 418500.0 0
90740.2 417391.0 0
87699.9 420847.0 0
95585.6 417092.0 0
92596.6 420622.0 0
99043.9 419727.0 0
105803.0 417196.0 0
102887.0 420174.0 0
107012.0 420888.0 0
110926.0 419054.0 0
116550.0 420606.0 0
120018.0 416976.0 0
121867.0 420678.0 0
130577.0 419527.0 0
135277.0 419877.0 0
139154.0 418683.0 0
147234.0 418960.0 0
143108.0 421342.0 0
151620.0 416269.0 0
151346.0 420770.0 0
155788.0 421692.0 0
159933.0 419945.0 0
164072.0 419874.0 0
172777.0 417549.0 0
169020.0 420335.0 0
176478.0 420653.0 0
181299.0 417606.0 0
187093.0 417330.0 0
184361.0 421066.0 0
197975.0 419511.0 0
202777.0 415916.0 0
206628.0 419209.0 0
214750.0 415460.0 0
219145.0 416093.0 0
222469.0 416137.0 0
226664.0 417401.0 0
232004.0 416628.0 0
237078.0 416422.0 0
242201.0 415625.0 0
246797.0 417404.0 0
252500.0 416145.0 0
255820.0 417248.0 0
260636.0 416781.0 0
266299.0 416321.0 0
271649.0 417814.0 0
276280.0 415280.0 0
281108.0 417359.0 0
286243.0 415429.0 0
290434.0 418733.0 0
295632.0 416428.0 0
305366.0 419530.0 0
301869.0 421887.0 0
308557.0 420186.0 0
312440.0 418492.0 0
317249.0 420273.0 0
325774.0 419344.0 0
321853.0 420670.0 0
331558.0 417231.0 0
329876.0 421057.0 0
334728.0 419371.0 0
343576.0 418050.0 0
349231.0 418120.0 0
351739.0 421872.0 0
354477.0 417974.0 0
360452.0 418934.0 0
365883.0 421110.0 0
370355.0 418047.0 0
375514.0 417849.0 0
373636.0 421142.0 0
379476.0 417852.0 0
378133.0 421943.0 0
383129.0 418619.0 0
387547.0 420157.0 0
392206.0 420308.0 0
394684.0 418002.0 0
396618.0 421886.0 0
398792.0 417226.0 0
400274.0 420292.0 0
403452.0 419262.0 0
407643.0 419218.0 0
411184.0 419652.0 0
416449.0 420500.0 0
420933.0 418815.0 0
425355.0 420915.0 0
433211.0 418552.0 0
429895.0 420998.0 0
437451.0 420371.0 0
440739.0 417772.0 0
443919.0 418782.0 0
447226.0 419819.0 0
451143.0 421481.0 0
455637.0 419938.0 0
459751.0 417414.0 0
464087.0 419159.0 0
460555.0 421660.0 0
472183.0 417882.0 0
469441.0 421960.0 0
474681.0 420042.0 0
477924.0 421242.0 0
481646.0 419319.0 0
485479.0 417256.0 0
486179.0 421765.0 0
490864.0 417189.0 0
494204.0 421600.0 0
497336.0 417986.0 0
1689.03 423485.0 0
5716.26 424264.0 0
9319.93 425321.0 0
13073.6 423683.0 0
17954.8 422451.0 0
20016.4 425975.0 0
16653.1 427143.0 0
22490.1 423472.0 0
26340.1 424548.0 0
29277.7 425559.0 0
32402.7 426863.0 0
36563.6 423852.0 0
45538.1 422007.0 0
41793.3 423457.0 0
45044.7 426468.0 0
48324.1 423977.0 0
52268.0 424150.0 0
57096.4 423832.0 0
61251.3 422956.0 0
60477.1 427082.0 0
64943.2 424835.0 0
75832.9 424019.0 0
80579.5 426012.0 0
83577.8 422578.0 0
86456.7 426267.0 0
91111.8 424356.0 0
96199.6 422514.0 0
96713.8 427012.0 0
100373.0 423771.0 0
105049.0 424313.0 0
110421.0 424075.0 0
115631.0 425917.0 0
120403.0 424344.0 0
126016.0 422058.0 0
124750.0 426887.0 0
129881.0 425075.0 0
133882.0 422948.0 0
137965.0 422763.0 0
140948.0 425682.0 0
147618.0 423709.0 0
144171.0 424480.0 0
152284.0 425043.0 0
156307.0 425810.0 0
160204.0 424187.0 0
164854.0 424018.0 0
168648.0 424970.0 0
172834.0 424164.0 0
177927.0 426160.0 0
180623.0 422180.0 0
188687.0 422350.0 0
183872.0 425757.0 0
188276.0 426827.0 0
193691.0 422319.0 0
191431.0 425594.0 0
197997.0 424686.0 0
194348.0 426432.0 0
202500.0 421018.0 0
208904.0 423604.0 0
213153.0 420869.0 0
217674.0 420977.0 0
222500.0 420843.0 0
228104.0 422644.0 0
233036.0 421224.0 0
237912.0 421307.0 0
242677.0 420213.0 0
241642.0 424844.0 0
247663.0 421716.0 0
251785.0 420436.0 0
256046.0 421473.0 0
260477.0 421829.0 0
265257.0 421641.0 0
270343.0 423073.0 0
276357.0 421524.0 0
285127.0 421269.0 0
281014.0 423734.0 0
290172.0 423981.0 0
296164.0 423037.0 0
305993.0 423184.0 0
302004.0 426125.0 0
310028.0 423519.0 0
313967.0 422961.0 0
318835.0 425714.0 0
325558.0 423192.0 0
329537.0 426750.0 0
334282.0 424045.0 0
339210.0 421971.0 0
338297.0 426898.0 0
343701.0 422371.0 0
343011.0 426057.0 0
347510.0 423308.0 0
351834.0 426141.0 0
356293.0 423114.0 0
361710.0 424668.0 0
366160.0 425509.0 0
370158.0 422658.0 0
369793.0 426397.0 0
373942.0 425160.0 0
380115.0 425732.0 0
383162.0 422989.0 0
387420.0 425181.0 0
390821.0 423180.0 0
393486.0 426947.0 0
401556.0 423180.0 0
398699.0 426156.0 0
406945.0 423194.0 0
412674.0 424562.0 0
417692.0 425789.0 0
420828.0 422680.0 0
428467.0 424900.0 0
423460.0 427051.0 0
433403.0 423710.0 0
437861.0 424167.0 0
442326.0 422659.0 0
439983.0 426667.0 0
447416.0 424382.0 0
452489.0 425855.0 0
457103.0 424348.0 0
461470.0 426648.0 0
464492.0 423010.0 0
466912.0 426836.0 0
474494.0 423668.0 0
471808.0 427153.0 0
478071.0 424687.0 0
481612.0 423795.0 0
485125.0 426251.0 0
490532.0 423457.0 0
494249.0 425663.0 0
498000.0 422725.0 0
498021.0 426601.0 0
2469.97 427620.0 0
7305.25 429397.0 0
12172.2 428360.0 0
15389.0 431536.0 0
19995.9 430500.0 0
23108.1 427347.0 0
23873.9 431007.0 0
27844.4 429294.0 0
32766.1 431486.0 0
36135.9 428728.0 0
40272.6 427604.0 0
42948.9 430367.0 0
49473.3 427358.0 0
50893.1 430590.0 0
46939.7 430579.0 0
55104.7 428653.0 0
59922.1 431839.0 0
64720.9 429693.0 0
70616.6 427373.0 0
76265.6 428613.0 0
79692.6 430144.0 0
83062.8 429701.0 0
91698.4 429225.0 0
86817.3 431855.0 0
101949.0 429041.0 0
107693.0 428637.0 0
111952.0 428612.0 0
115334.0 430891.0 0
119993.0 429048.0 0
123909.0 432164.0 0
129421.0 430940.0 0
135572.0 427909.0 0
141062.0 430874.0 0
144933.0 427756.0 0
146129.0 432076.0 0
149248.0 428406.0 0
154091.0 429719.0 0
158952.0 428561.0 0
162776.0 427496.0 0
162264.0 431502.0 0
166456.0 427800.0 0
167330.0 432064.0 0
170604.0 428489.0 0
174214.0 428936.0 0
177271.0 431123.0 0
181348.0 429966.0 0
186064.0 430932.0 0
191528.0 429880.0 0
197282.0 430109.0 0
202856.0 425789.0 0
207127.0 427640.0 0
212459.0 426259.0 0
217524.0 425743.0 0
222376.0 425856.0 0
226442.0 427095.0 0
231475.0 425923.0 0
236431.0 426012.0 0
247178.0 426843.0 0
253316.0 425946.0 0
258531.0 426186.0 0
262484.0 425534.0 0
266680.0 426973.0 0
273832.0 426784.0 0
278275.0 426846.0 0
282888.0 426736.0 0
286748.0 427506.0 0
291697.0 428515.0 0
296731.0 429511.0 0
302004.0 430127.0 0
307014.0 428058.0 0
312822.0 427199.0 0
311227.0 431641.0 0
316243.0 431197.0 0
321441.0 430878.0 0
324248.0 427231.0 0
326488.0 431501.0 0
331625.0 431808.0 0
334296.0 428436.0 0
343265.0 430604.0 0
347346.0 428182.0 0
352097.0 430997.0 0
357264.0 428665.0 0
362460.0 429275.0 0
367105.0 429619.0 0
377072.0 428343.0 0
372315.0 430525.0 0
380357.0 430970.0 0
383625.0 427984.0 0
388448.0 430219.0 0
398071.0 430496.0 0
403321.0 428197.0 0
409186.0 428553.0 0
414412.0 429624.0 0
419066.0 429886.0 0
426650.0 431225.0 0
431225.0 429067.0 0
436204.0 427670.0 0
435257.0 431601.0 0
443832.0 427912.0 0
439737.0 431140.0 0
448641.0 429545.0 0
452900.0 430284.0 0
456367.0 428848.0 0
459787.0 431469.0 0
464429.0 431278.0 0
469369.0 431268.0 0
474094.0 431501.0 0
476424.0 427719.0 0
478453.0 431449.0 0
481067.0 428142.0 0
489292.0 427827.0 0
485182.0 430766.0 0
493437.0 429451.0 0
497657.0 430643.0 0
2756.81 432720.0 0
1118.92 436414.0 0
7265.85 433908.0 0
9743.99 437354.0 0
11051.8 432711.0 0
14441.0 436265.0 0
18514.6 434373.0 0
22944.2 434763.0 0
28435.1 434874.0 0
33888.1 436228.0 0
38606.1 432812.0 0
43978.4 434679.0 0
49345.2 434625.0 0
54846.3 434475.0 0
59849.3 436971.0 0
64347.7 434541.0 0
68198.3 432420.0 0
69078.8 437183.0 0
72212.0 433088.0 0
77101.9 433245.0 0
81962.9 433594.0 0
91111.1 434827.0 0
96701.8 432773.0 0
101686.0 434125.0 0
99380.6 437387.0 0
105940.0 433258.0 0
110887.0 432738.0 0
108817.0 436720.0 0
114807.0 434821.0 0
119218.0 433953.0 0
134997.0 434248.0 0
139444.0 434453.0 0
143081.0 435905.0 0
150222.0 432355.0 0
148428.0 436669.0 0
157951.0 432576.0 0
153722.0 435093.0 0
163974.0 435629.0 0
172725.0 433110.0 0
168489.0 437189.0 0
177354.0 435352.0 0
182120.0 434535.0 0
189402.0 434132.0 0
193683.0 434568.0 0
198069.0 435392.0 0
203188.0 430799.0 0
207945.0 432169.0 0
212943.0 431455.0 0
217770.0 430828.0 0
221857.0 430822.0 0
225665.0 431355.0 0
230655.0 431387.0 0
236494.0 431232.0 0
242341.0 430849.0 0
248011.0 432381.0 0
252214.0 431057.0 0
256692.0 430698.0 0
261574.0 430807.0 0
266777.0 432777.0 0
272283.0 431245.0 0
277717.0 432245.0 0
283274.0 431086.0 0
288637.0 432399.0 0
293475.0 433534.0 0
297492.0 434688.0 0
302315.0 434619.0 0
306838.0 433313.0 0
310551.0 436333.0 0
315129.0 435738.0 0
319525.0 435118.0 0
324023.0 435594.0 0
328688.0 436081.0 0
333769.0 436348.0 0
337872.0 432164.0 0
342860.0 435843.0 0
347572.0 433063.0 0
351912.0 436041.0 0
356015.0 433753.0 0
360229.0 433023.0 0
364305.0 432788.0 0
368525.0 434541.0 0
376618.0 432377.0 0
373959.0 436441.0 0
379652.0 435494.0 0
384160.0 433261.0 0
388783.0 436161.0 0
393496.0 432955.0 0
397859.0 436088.0 0
401689.0 433287.0 0
406422.0 433054.0 0
411114.0 433099.0 0
417182.0 434257.0 0
422225.0 432574.0 0
421400.0 437177.0 0
425900.0 435877.0 0
429939.0 433913.0 0
434433.0 436243.0 0
440383.0 436631.0 0
444593.0 433005.0 0
449543.0 434604.0 0
455317.0 434555.0 0
461774.0 436589.0 0
466764.0 435105.0 0
471476.0 436110.0 0
476824.0 435623.0 0
481685.0 434401.0 0
486019.0 435203.0 0
490225.0 433017.0 0
494512.0 433042.0 0
493724.0 436725.0 0
497833.0 435024.0 0
4752.1 437775.0 0
1200.24 439397.0 0
7824.42 442053.0 0
12971.5 441234.0 0
19441.6 439343.0 0
25241.8 439363.0 0
30179.7 439741.0 0
34781.0 441425.0 0
38320.3 438059.0 0
42491.5 439402.0 0
46832.6 438894.0 0
55950.6 439424.0 0
51561.7 439328.0 0
59542.3 442439.0 0
64167.3 439680.0 0
67869.5 442024.0 0
74489.0 437542.0 0
72033.9 441763.0 0
79678.8 437925.0 0
76784.2 441903.0 0
85680.9 437533.0 0
90614.9 439436.0 0
94889.1 438194.0 0
98382.5 442050.0 0
104222.0 438158.0 0
108659.0 441534.0 0
116999.0 437669.0 0
112865.0 438536.0 0
121001.0 438224.0 0
117723.0 442051.0 0
127051.0 437585.0 0
132688.0 438488.0 0
136306.0 441048.0 0
138813.0 437420.0 0
141377.0 440476.0 0
145184.0 439564.0 0
147888.0 440852.0 0
153583.0 440697.0 0
159048.0 437741.0 0
164320.0 440491.0 0
168966.0 442100.0 0
173768.0 439290.0 0
178247.0 438756.0 0
181783.0 439810.0 0
186543.0 437508.0 0
185615.0 441885.0 0
192070.0 440084.0 0
197758.0 439769.0 0
302044.0 439323.0 0
305951.0 437583.0 0
305728.0 442165.0 0
309530.0 440544.0 0
314023.0 440350.0 0
319478.0 440280.0 0
325414.0 440671.0 0
330949.0 440545.0 0
335671.0 441030.0 0
338250.0 437550.0 0
341432.0 442188.0 0
346831.0 441951.0 0
347600.0 437957.0 0
351435.0 441296.0 0
356867.0 438896.0 0
363201.0 437664.0 0
369019.0 440420.0 0
378714.0 441436.0 0
383839.0 438238.0 0
387636.0 441245.0 0
392459.0 441960.0 0
393538.0 437800.0 0
402772.0 437911.0 0
397745.0 441400.0 0
407581.0 437549.0 0
405651.0 440409.0 0
412626.0 437687.0 0
409163.0 442088.0 0
417411.0 439293.0 0
421293.0 441739.0 0
426347.0 441065.0 0
429702.0 437892.0 0
432354.0 441805.0 0
437226.0 440678.0 0
441872.0 442202.0 0
445806.0 438268.0 0
451612.0 439972.0 0
457282.0 440026.0 0
462110.0 442094.0 0
467042.0 439993.0 0
474790.0 441196.0 0
480467.0 439316.0 0
484959.0 438858.0 0
489279.0 438110.0 0
493044.0 442059.0 0
497671.0 439349.0 0
2883.1 442473.0 0
5243.1 445514.0 0
11225.5 446910.0 0
17492.3 445330.0 0
22677.6 443769.0 0
27676.7 444217.0 0
32800.3 446398.0 0
39373.0 442451.0 0
38150.9 447029.0 0
43245.3 443491.0 0
48379.6 444377.0 0
54273.9 443670.0 0
57756.3 447472.0 0
64282.6 445064.0 0
68999.8 445855.0 0
73347.8 446280.0 0
77838.5 446584.0 0
82336.8 443270.0 0
86025.3 446551.0 0
87842.5 442611.0 0
89759.5 446469.0 0
93279.3 443123.0 0
99472.5 447408.0 0
103565.0 443692.0 0
110625.0 446430.0 0
113177.0 442896.0 0
115383.0 446499.0 0
120336.0 445894.0 0
122868.0 442434.0 0
127011.0 443574.0 0
124367.0 446567.0 0
131308.0 442506.0 0
134520.0 447093.0 0
139641.0 444863.0 0
144949.0 444123.0 0
149818.0 443850.0 0
153893.0 446365.0 0
158914.0 443822.0 0
163907.0 445327.0 0
168207.0 446503.0 0
172892.0 445108.0 0
178030.0 443041.0 0
182490.0 444710.0 0
188550.0 445067.0 0
198204.0 443834.0 0
193999.0 446319.0 0
301653.0 443363.0 0
304268.0 447147.0 0
310725.0 445834.0 0
316629.0 444676.0 0
321850.0 444786.0 0
328128.0 445686.0 0
332998.0 444915.0 0
346573.0 445779.0 0
351058.0 446656.0 0
355740.0 444541.0 0
360979.0 443287.0 0
365107.0 446365.0 0
369045.0 445402.0 0
373287.0 444393.0 0
377121.0 446722.0 0
380505.0 446362.0 0
384018.0 444426.0 0
389330.0 446028.0 0
394597.0 446459.0 0
402976.0 442753.0 0
399760.0 446399.0 0
406164.0 446061.0 0
411477.0 446999.0 0
414221.0 442650.0 0
418261.0 446122.0 0
423903.0 445926.0 0
428893.0 445631.0 0
437487.0 445486.0 0
447149.0 443030.0 0
444400.0 446802.0 0
449185.0 446755.0 0
453707.0 445357.0 0
458296.0 444396.0 0
462217.0 447164.0 0
466717.0 445138.0 0
471666.0 446553.0 0
477349.0 446617.0 0
481724.0 444136.0 0
484406.0 447580.0 0
487049.0 443231.0 0
490841.0 446948.0 0
497957.0 443782.0 0
495184.0 446654.0 0
94226.1 448139.0 0
106413.0 447360.0 0
160758.0 448874.0 0
319240.0 448956.0 0
324393.0 447959.0 0
337637.0 447426.0 0
342843.0 447971.0 0
359150.0 448001.0 0
371099.0 448290.0 0
POINT_DATA 5000
SCALARS Radius float 1
LOOKUP_TABLE default
3979.26 3471.03 5253.55 5782.6 4862.21 5379.87 4792.73 3485.26 5337.48 5495.39 4133.88 3850.77 6044.04 5415.48 5120.0 3863.18 4998.37 6182.6 5258.36 3163.97 5812.43 5906.14 7513.1 5254.28 5733.48 5580.89 6810.52 5840.26 6110.27 4380.59 6716.79 7613.27 5529.52 5255.32 6037.08 5096.78 6756.95 6324.23 3843.58 4270.53 5191.63 4150.99 4216.92 4742.68 4344.58 5634.83 5495.84 6268.1 4861.06 5320.28 6739.08 4797.52 4796.58 4298.67 5960.66 6608.73 5820.48 7034.11 6261.42 5113.21 3929.19 4107.03 4043.57 4478.15 5681.38 5925.6 4501.51 5513.6 4736.58 4931.38 6082.81 4329.05 4151.94 4049.23 5601.05 6124.89 4929.8 5708.81 5252.48 4780.03 4015.92 3996.0 3856.1 3936.02 4665.12 3383.4 5980.74 4094.62 4834.9 4927.02 5546.39 5325.36 5484.83 5085.53 5351.6 2356.98 4730.36 4715.55 5867.73 5492.18 3951.75 5061.3 3642.12 5542.27 5054.98 5122.66 5484.19 4688.68 4436.4 4402.52 4517.56 4672.91 4182.53 5903.42 3588.44 5645.7 5176.86 4366.19 3672.51 5561.06 5073.35 4008.92 3615.22 5670.04 3589.27 4827.82 3997.1 3607.45 3260.67 5759.91 3038.33 4392.68 4333.2 4951.03 7199.21 4523.7 2240.39 5091.39 5293.9 4129.43 6142.94 3320.52 4727.24 4602.25 4194.5 4790.08 5082.47 5344.25 5445.87 4593.7 4704.72 4177.94 4571.7 5896.46 3784.5 6481.79 5374.51 7042.12 6326.39 4569.12 5873.69 4962.09 3999.48 5011.84 4359.62 2586.12 4502.5 5433.8 3771.48 4011.77 5499.11 4271.69 4138.42 3708.04 5987.17 3240.09 4556.36 4901.41 5110.37 3191.99 4685.34 4382.74 4651.28 3586.91 3693.63 3103.0 4516.43 3554.9 5481.78 5542.21 4487.31 5043.05 4044.71 5816.2 5109.54 5945.65 6759.9 5538.89 5416.38 6059.59 4955.55 5013.56 5701.86 4499.64 4375.68 4238.81 4468.59 6030.06 5170.02 3557.27 5200.76 4927.31 4862.64 5185.34 4432.58 6684.56 3968.64 3955.56 3761.32 4118.05 5292.64 6166.5 5553.16 2938.66 5936.02 4940.78 4231.61 4861.08 4003.05 3942.53 3379.84 4805.87 5227.21 5697.78 4667.36 5123.52 4091.31 6372.62 4295.38 5615.42 7565.34 5923.5 4612.68 4973.83 3912.37 6342.25 6691.39 5135.69 4763.45 5344.0 6045.46 3815.26 4245.72 5908.1 6048.7 6133.92 5022.8 3780.23 4166.08 4123.6 5224.12 4819.73 6817.32 4471.58 6098.14 4472.17 4203.26 5188.81 6946.21 6057.22 5062.71 6125.34 4527.08 3633.87 5922.5 4850.01 5198.77 3970.25 6013.14 3979.82 2765.2 5011.31 5138.31 5264.06 5664.98 6327.9 5927.43 6355.42 4384.42 4362.19 5690.56 4948.92 5637.59 4937.14 3307.12 5924.89 5693.81 4002.16 4174.52 6483.19 3829.13 6230.49 5418.62 7021.47 5740.68 5926.61 2720.68 3563.63 5836.15 4345.55 6704.06 5885.03 3653.41 2837.58 3871.88 5325.02 5246.2 5017.13 5279.39 3673.74 5205.43 7447.37 4688.67 2635.86 4385.06 5065.13 5305.17 4290.3 5399.73 5390.22 3888.21 4712.33 6038.78 6902.81 4254.17 5629.19 5090.24 5530.87 4281.49 5978.9 4187.56 3629.62 4840.84 4301.06 4020.32 4290.14 6562.18 4156.38 5316.75 4541.21 4164.68 3719.84 4178.4 5934.22 3095.48 5624.49 5762.59 4850.14 5163.55 3382.7 3954.91 4319.79 2965.01 6643.85 3637.61 6222.42 5654.31 4730.41 3745.84 5690.26 4156.2 5965.78 5347.48 4810.12 5643.58 5147.67 4292.06 5577.04 5006.58 4602.86 4659.59 4048.37 5449.18 5492.26 5244.78 5762.84 3115.91 3937.74 4749.8 4493.48 6084.86 4778.34 4138.16 6894.71 3486.22 4684.5 3091.3 6458.82 7054.71 4601.27 5493.32 3641.64 5489.43 4277.89 6051.14 3261.21 4195.44 5539.32 6496.85 5600.93 3856.01 4874.39 5541.59 4390.66 4124.71 5728.85 4827.23 4911.47 6116.18 4924.6 4381.97 6257.19 4733.32 3255.82 7184.19 2899.43 2812.98 2924.37 3867.67 5603.15 4695.45 4660.72 6052.7 3921.18 5891.05 5308.1 3666.57 6644.76 5655.21 4786.6 4645.41 5740.84 6445.94 4310.18 5542.14 4218.06 7134.64 4716.19 4997.27 5514.76 3456.98 4877.67 3066.13 6006.16 6009.88 7055.53 5669.65 5339.78 4970.88 7092.87 4636.5 4666.81 3703.1 4940.42 6471.55 5499.39 5501.93 5463.38 5945.21 4938.74 5696.88 5607.14 4497.59 3923.03 5975.63 4374.35 6396.74 5215.05 2775.04 3821.72 4986.77 6318.18 5586.81 3688.8 3948.17 4621.75 4548.16 3369.23 4551.24 5358.59 4220.88 4515.71 6519.71 6640.13 5082.6 5478.92 5810.84 4230.54 5551.36 5094.44 4467.94 4414.54 4850.81 5789.98 6138.47 5527.54 5573.7 5747.75 4727.62 5054.25 4796.33 4055.8 7325.81 5280.17 5360.19 4794.96 5083.08 6834.49 6337.56 5525.39 5803.39 5863.59 4024.3 6394.38 5555.28 5242.73 4737.14 4065.69 5556.96 3798.62 5581.75 6392.01 4907.89 6730.19 4937.02 4073.93 6043.3 5952.75 4433.59 4320.28 6122.55 2739.94 4931.53 5480.13 6308.71 3323.28 6695.82 6405.76 3498.2 5794.24 5105.16 5448.61 4302.5 5050.65 4827.33 5513.57 5013.67 5826.04 4538.95 4143.78 5965.15 4763.66 4946.42 5923.4 5085.71 6116.33 5644.82 6343.14 5750.71 4831.47 4643.85 4004.04 5252.34 5564.02 4138.46 4274.61 2965.79 6898.19 6035.6 4481.53 5330.45 4581.13 3610.4 6387.01 5367.52 3092.35 5210.03 5351.39 3748.24 6142.37 4655.49 4933.21 5375.47 6038.14 2540.31 6029.66 5262.61 5697.4 6038.2 4270.95 4005.44 5206.78 6425.26 5143.58 6186.19 4839.34 4840.01 2980.99 7933.0 4455.12 3998.5 5938.34 5380.13 5118.27 5169.36 5932.23 4686.65 5834.74 3369.13 4479.66 5788.23 3043.85 5461.13 3599.45 4907.06 5489.34 3735.44 5163.9 6332.36 6155.31 4223.33 5911.67 5709.62 5835.78 4127.74 2476.04 4678.38 3942.07 7443.72 3937.08 5260.34 5206.48 4709.35 6586.45 5729.23 4373.3 5226.0 3365.82 5724.64 4780.2 6090.91 4963.34 5019.93 5081.78 6263.44 5774.97 5462.21 4020.95 5470.77 3474.39 6062.05 4289.17 6072.45 4410.55 5526.14 5137.34 5423.0 3856.59 4219.07 5413.79 6202.55 4322.15 5025.39 4714.54 3629.96 5893.5 5478.47 3320.11 5030.91 6022.17 5119.37 6061.47 6163.38 4566.18 4723.12 5120.49 4964.09 5201.36 5024.9 6302.8 5409.61 5094.81 5972.06 5713.22 5555.88 6732.43 5028.96 3866.16 6362.12 4484.76 3778.1 5152.36 4511.82 5611.2 6820.42 5173.87 4894.16 4896.52 5711.87 3372.79 4941.22 5282.64 5791.61 4669.66 4808.52 5367.2 5607.24 4726.76 5053.92 5839.13 5495.68 4863.72 5002.48 5708.14 5537.72 4262.82 3920.42 5102.36 8332.24 4553.56 5329.64 6049.55 5991.09 5133.97 6600.94 5371.02 6155.1 5876.71 4750.78 5029.78 4163.5 4888.6 5078.86 4918.77 5100.1 3561.29 4371.99 4219.78 3295.83 3885.86 4459.28 4260.92 4479.94 6250.23 5960.56 4118.84 5862.86 6313.06 3493.7 6470.3 4200.03 6939.12 5082.74 6915.83 5092.37 6444.77 7099.43 4287.63 5198.29 6449.45 5077.33 4746.52 3689.45 5572.95 6338.89 5584.06 7111.16 4547.19 3817.13 3982.23 4583.31 5806.08 3459.9 4853.39 4997.27 4093.08 4809.42 4306.53 4717.05 5659.17 6135.57 4312.67 5861.71 4359.04 3183.98 3794.63 5017.78 4524.28 6175.81 4727.24 6677.09 5826.64 4220.65 4816.2 5201.67 6321.41 4089.76 4751.02 3192.41 5184.56 4987.87 4715.72 3315.57 5804.71 5046.33 4764.96 4242.52 5356.51 6352.26 3847.38 3818.59 3057.03 4087.15 4143.08 7500.97 6623.85 5228.18 5787.31 4342.9 5065.11 5069.84 4051.44 4050.9 4978.31 4241.89 4099.77 5054.74 5941.72 4656.78 5126.91 3600.43 4788.58 5131.24 5196.67 6262.72 3664.11 6515.84 2990.77 5882.65 4739.14 5187.7 4188.3 6261.75 5235.29 5177.64 4255.31 5453.3 6413.02 4863.27 3492.19 4584.5 5122.63 6049.79 5374.98 4719.7 5274.19 4735.33 4406.4 5411.85 4844.57 4027.46 6314.07 5776.37 5315.4 4516.28 3627.82 3975.31 4044.45 3824.16 5125.78 5344.43 3868.18 4373.47 5045.38 6723.16 5372.61 3686.21 6480.17 5507.24 5023.15 4377.07 6851.54 3813.22 4503.89 5570.3 4336.42 5243.29 7589.94 4449.22 3130.65 5543.27 5856.11 5287.2 4109.88 5998.38 5013.13 5423.8 4270.24 3417.33 4989.15 4926.42 4164.13 5015.69 4642.34 4947.52 4305.57 6959.81 4829.35 4389.21 3791.79 4424.7 4925.44 4754.05 5526.55 6084.93 5215.15 3697.96 4739.42 5538.93 5020.12 5727.3 2631.9 5281.28 4277.88 4668.71 4758.21 7228.46 3948.23 5978.82 3927.99 5868.82 4948.98 5227.52 4414.48 4537.32 4981.9 5163.02 7144.24 4906.82 5687.83 5004.23 6496.67 5474.8 4648.04 6607.87 5117.47 4721.32 4925.63 3293.56 3163.78 5274.14 4434.19 4903.82 5746.28 4623.61 5511.6 4338.08 4378.3 6134.99 4094.73 4407.9 4440.57 5548.29 6766.43 4703.08 2315.64 6345.13 5226.56 5516.95 5313.22 4413.85 3999.94 4470.98 4864.22 5759.46 3921.08 4190.31 5678.96 5262.19 4244.9 6070.58 6034.41 5350.88 5130.91 5402.24 4519.22 6445.22 3844.9 5101.59 3963.86 3848.93 4306.11 5935.47 5903.66 5628.24 5004.67 5365.89 3327.49 5992.26 4234.94 3960.8 4562.29 4980.85 5080.66 5110.45 5248.77 4083.97 4520.1 4607.02 5153.74 5874.89 4528.09 4293.03 5813.4 6291.51 4128.98 5882.89 6246.22 4951.47 5246.61 4307.28 4100.38 5344.77 4723.48 4899.11 5097.87 4745.45 4278.07 7267.18 6255.18 5269.18 4406.1 6362.14 6719.88 4454.63 5080.18 5266.5 4523.88 3279.1 4066.38 4403.98 4560.84 4729.43 4092.24 5776.57 4562.74 5598.74 7493.3 6442.69 6320.71 3464.83 5698.77 6413.11 4305.16 5092.28 4965.89 5659.95 4152.85 4082.47 2908.7 4453.64 4517.73 5469.47 5660.16 4989.56 4718.54 2588.37 6736.03 3623.87 5916.16 4390.41 5599.49 4097.57 3905.51 5017.5 5563.79 3901.8 6171.13 5083.41 7055.42 6048.86 4285.32 5490.43 5452.83 4959.34 4948.5 4527.02 4531.14 3695.36 4564.34 4871.44 5076.35 6020.48 6375.99 3402.32 5200.05 4528.49 5419.37 4466.03 4511.54 5409.33 5070.39 4923.9 5714.58 3329.99 5208.32 3947.47 3296.27 4713.25 4204.84 6243.0 3895.51 6673.96 4165.81 3556.85 5441.96 3435.9 5174.89 4288.3 5370.52 4188.32 4652.29 5774.81 3746.31 5027.98 6475.1 4969.21 2691.29 6256.02 5320.92 5314.85 4305.43 5450.44 5034.59 4942.77 4263.33 5592.32 5912.61 5381.16 6193.35 6086.96 5233.78 5046.21 5683.26 5894.61 5139.5 5304.13 5944.09 4814.55 3527.05 4923.41 2477.07 4497.31 5384.76 5529.42 5257.12 5243.43 4537.14 5551.9 3757.34 6415.61 4687.64 4419.71 5037.06 3838.47 4541.8 5175.29 6235.57 5412.31 3087.09 6934.37 6113.95 4050.08 5452.42 5328.22 6853.85 2395.5 5511.88 4512.11 5486.68 5683.61 3836.45 5100.25 5022.28 5197.52 5178.99 5383.07 4591.87 5013.42 3838.56 4247.15 6552.22 5651.07 6248.81 5273.35 5234.29 5313.66 2651.49 4645.58 5512.23 5275.32 4898.94 5196.0 4613.31 4973.78 4733.04 6119.09 5788.66 5091.68 7531.29 5069.25 5048.89 3161.47 3991.03 6390.78 7435.25 6826.57 4788.87 4495.87 6022.72 5498.32 5527.33 5346.27 5402.21 4989.09 2845.98 4880.14 5289.52 4982.31 3848.54 5941.4 6510.17 5742.65 4402.67 4470.61 5565.13 4384.88 6887.27 3701.27 5653.9 4806.34 5612.21 4929.14 5945.08 3979.54 3306.14 5490.58 5833.06 4863.79 3830.46 6031.67 4689.15 6138.12 4428.78 5409.66 4345.67 4765.72 4642.66 4752.14 5329.59 4888.12 4950.97 5512.16 3197.63 5842.56 5887.15 7480.41 3423.15 4890.5 4488.85 3981.07 3731.84 4901.07 5186.3 3436.15 3497.9 4151.76 5941.61 4020.4 5782.48 3493.47 6248.6 5443.58 4558.46 5805.86 6894.26 4470.4 4986.51 5339.38 6169.11 5615.35 4027.09 4790.78 6422.84 4502.18 5379.09 4602.85 4962.77 5872.05 4853.02 4091.8 5181.4 5670.2 5985.29 4247.23 4178.15 4268.65 4694.83 5509.42 4354.08 4256.43 5936.36 4520.62 3903.75 4755.47 5935.03 5475.8 5314.69 4249.46 5965.81 3702.37 5660.85 4643.31 2330.66 4177.19 6917.52 3587.05 6229.37 6718.19 5282.91 4307.48 4425.84 7256.35 5331.02 4800.69 4871.96 4863.23 3555.86 6386.78 4631.83 4996.99 6081.14 6008.49 4220.46 4287.53 5128.57 6000.7 3169.67 4968.03 6710.88 5395.14 4702.06 3967.48 6213.04 3685.13 4655.16 5251.4 3867.19 5857.79 4039.91 5276.7 5036.58 6119.63 5411.02 4752.9 4287.16 4863.96 5199.44 5191.08 5203.08 4435.51 5374.07 5163.77 4588.7 3766.55 4579.69 3554.48 6496.52 5005.85 4216.17 6484.17 4721.02 4596.75 4254.37 4933.65 4031.78 6098.1 5708.99 4049.02 5346.68 5311.03 5255.12 4611.53 4285.66 4896.11 5172.53 5801.99 5210.48 7552.94 6259.23 5323.3 5088.44 4998.21 4711.62 4662.56 4114.24 5349.31 4649.22 5394.55 5094.52 4946.74 2682.24 5928.32 5229.48 5475.7 4485.99 4016.18 5127.16 5435.74 4244.99 6050.81 5543.46 6185.89 3997.96 4750.17 3460.94 3990.25 3691.0 3758.07 4752.51 4236.14 4407.87 5282.51 4460.92 3797.33 5945.89 4105.55 4340.76 6566.1 6065.22 4221.28 4456.39 4896.39 3633.79 5421.53 5480.83 4607.85 6070.3 5233.29 4312.56 5604.21 5204.04 3361.92 4750.58 6667.68 5235.11 6622.11 5211.38 4590.55 6790.73 5920.32 4255.85 5097.69 3988.3 6543.13 5149.72 5464.25 5301.47 4617.55 5424.88 4062.5 5415.85 5683.95 6027.62 5010.2 6123.03 5966.61 5711.11 4575.94 4938.72 3374.08 3546.71 5768.57 5564.23 5950.04 5687.85 4231.83 2435.33 6401.43 5296.29 5020.71 2681.29 5094.48 3872.61 4238.4 4135.62 4318.48 6132.95 5534.94 4860.33 7644.38 4051.34 6101.92 3627.55 6239.84 4635.6 4256.67 3457.48 5166.79 3931.07 2976.22 3405.98 5417.15 3688.16 4681.72 4945.39 5996.33 3950.63 5415.19 4612.62 3619.07 5526.75 4275.57 4467.04 6385.23 5327.45 2983.99 5560.26 2614.4 6363.92 6205.93 4439.35 4923.24 5830.72 6184.4 3828.81 4373.45 4082.57 5733.62 5169.9 3004.16 4767.78 4042.28 5235.17 4421.12 4779.5 5254.49 4303.19 5514.84 3914.2 5937.08 4135.08 5620.74 4778.82 4612.06 5467.84 5053.95 5926.11 5767.9 5089.62 5869.4 4741.26 3701.16 4186.6 5895.77 4732.09 6136.49 4356.25 4216.95 5776.96 5742.74 5486.48 4244.21 4947.24 3645.12 6200.54 5148.58 4199.45 8659.64 5469.13 4233.8 5765.42 4997.83 4893.49 5325.44 5021.88 5956.65 4498.25 4188.87 3735.24 6574.95 4074.48 4558.47 5997.88 5839.71 5576.92 6408.83 5266.22 3930.79 5226.97 3685.13 6004.68 3312.06 3361.26 6799.4 5865.39 4427.28 6079.11 6430.39 7440.72 3949.6 5703.6 6326.18 5661.62 6631.19 6648.68 4713.74 5626.61 5817.25 4084.49 5061.98 6632.99 4537.6 4419.61 7177.44 4563.46 5309.98 6553.94 5255.18 5460.65 5652.0 5463.41 5225.33 4929.75 4435.36 6045.22 6649.96 5134.39 3532.3 5784.3 5769.98 4256.57 5442.32 6088.68 2221.99 4643.56 4863.01 5356.79 5657.36 6124.08 3619.79 5029.47 6306.21 5266.01 5253.37 2040.66 7016.27 6515.8 3876.21 3685.65 4916.22 6022.7 4940.84 5750.07 4809.67 4757.74 6045.67 4209.49 3946.28 3821.94 5439.9 5367.73 3875.05 3540.11 3456.47 4652.01 5421.64 7234.66 6599.66 4055.54 4886.12 6419.12 4976.12 6098.95 5453.98 3991.42 4388.63 5102.75 4200.09 4597.29 5931.77 5151.21 6333.29 4477.04 5731.57 5703.74 5662.55 5737.92 5365.24 4360.23 4004.35 4763.96 5754.18 5180.76 3418.99 4480.95 5278.36 4409.63 5521.25 3661.9 3082.32 5370.85 5949.46 3658.37 3178.54 4765.02 5376.71 4448.13 5070.29 4807.28 4867.08 4266.03 5280.69 4220.03 6923.84 5407.78 5449.46 6179.96 6113.54 5147.36 4662.43 6260.79 3963.76 5528.53 6799.88 3062.43 5726.66 5426.78 2967.38 4159.35 6477.91 4237.98 6439.37 4614.3 5580.92 5973.33 5067.46 3583.21 2511.46 3580.58 4011.37 2775.69 4785.25 6519.43 5876.64 5424.46 4857.84 2978.76 4908.49 4962.21 4858.44 5884.9 4673.35 5689.26 4992.42 5297.19 4351.38 4833.46 5933.7 7248.4 5280.12 5984.81 3498.16 4409.27 4640.06 5471.74 3548.39 3673.28 4858.51 4207.54 5625.65 4301.61 6107.89 4817.16 5660.55 5148.08 4834.87 5760.22 3672.21 5938.17 4795.43 5398.64 5097.95 6817.57 4693.52 3614.96 3886.68 6853.04 4745.43 5831.96 4747.55 3056.7 3755.95 6234.32 5293.51 4586.19 4446.06 3450.93 5008.63 5132.68 6595.03 4993.35 4558.15 6218.95 5222.16 5107.23 5136.08 3776.94 5558.68 4010.57 5629.39 2684.03 6157.04 4768.61 2261.36 5075.55 4522.21 5506.19 6719.94 4950.67 5227.59 6166.29 5453.6 5703.07 5294.77 4709.05 4630.82 4043.66 4813.08 5860.67 4540.86 5990.52 4835.83 5604.35 6316.56 4332.87 3091.67 6420.81 4081.97 4715.58 5401.99 5151.52 5369.08 4347.74 5291.9 4009.62 2081.58 6505.78 5461.55 6449.64 6464.8 4684.44 4749.59 3468.42 3809.69 5571.72 4771.13 3208.96 7051.9 4184.23 5550.75 6226.14 5466.33 4444.97 3000.29 5721.05 4247.69 4514.39 4588.99 4321.21 4344.34 4928.27 3583.49 5052.84 3375.28 4366.74 5297.16 3184.64 5206.33 4446.84 5530.49 5653.03 3718.69 4514.79 2216.82 4509.89 6752.75 5269.38 5607.3 5108.06 3573.73 2928.82 4222.4 4000.43 3420.08 4568.41 4912.04 4539.07 5464.68 5591.76 4585.31 6625.18 5323.91 4270.74 5097.45 6293.89 2761.07 5737.75 4983.39 5366.52 4690.55 5533.72 5533.42 4802.32 3678.08 4599.38 5246.47 4187.31 6191.29 3240.51 7422.36 5161.01 4298.15 4628.4 5832.37 6051.83 4642.93 5409.63 4263.16 3973.12 3077.84 6024.75 6109.49 5567.93 5332.65 3764.1 6451.33 5413.31 6400.08 4743.59 5208.14 3317.83 4450.7 3763.05 5092.24 3101.75 4518.04 4766.06 4874.18 5435.19 3298.2 4270.15 6865.76 4093.99 3940.49 4406.05 4680.94 5799.69 5876.72 5236.43 5285.07 4608.41 4144.57 4187.94 5980.59 6834.41 3796.15 4801.8 7216.98 5271.02 4209.31 5718.28 6242.79 5950.45 5713.03 5849.65 5134.67 4165.21 4215.0 4936.96 4481.76 5452.78 5065.26 4304.41 6192.0 4940.28 5885.28 3004.34 3022.6 4811.76 4914.45 4698.87 4661.03 3624.7 4691.91 5262.35 4475.83 2685.81 4510.8 5889.35 5010.04 4394.56 4570.98 4275.07 5825.38 4185.61 4047.87 5742.47 3778.02 6552.21 5417.8 5146.37 7132.12 4836.16 5518.57 5151.11 5463.48 5730.33 5545.46 4527.99 4376.7 5190.61 8325.01 3764.06 4440.81 5941.9 5434.47 6642.76 5829.22 4497.78 4243.79 5987.42 5433.65 4442.22 4008.15 4887.76 4669.06 3012.99 4811.32 4286.49 6184.88 5829.32 4396.25 5551.95 5549.49 3918.87 5423.42 2275.45 6605.86 5012.5 4383.56 3562.79 7093.13 4953.1 5818.95 3604.14 4452.54 5089.1 2711.19 5828.35 4028.32 4099.92 4884.59 3858.06 4680.14 4511.7 4083.79 5263.27 6300.92 5021.77 5599.29 6038.68 4807.4 7013.17 3805.67 4601.74 6506.86 5088.57 5580.34 3852.6 5775.31 4706.5 4603.5 4647.67 5375.12 4356.36 4892.44 5578.94 7610.49 4286.17 6579.31 5323.55 5375.1 4172.6 5313.12 5351.56 5160.59 3984.88 4732.09 4320.42 4255.34 5064.79 5480.3 7509.24 4146.81 5896.26 5388.78 6101.13 4573.72 5099.21 4917.99 5636.4 4367.78 4350.12 5227.02 5670.0 4232.16 5300.96 4344.51 5680.94 3781.77 5581.55 5193.01 4543.1 3474.5 6550.44 3860.83 5732.27 4523.39 5278.56 5146.37 6917.62 4013.38 5631.14 4343.78 5811.18 4909.65 6523.86 7693.4 4326.48 4437.07 3449.37 5491.9 6405.0 4659.16 5789.55 4633.05 4901.2 5711.62 4990.79 4798.17 5166.79 6479.39 2895.63 4516.53 4122.92 4997.91 5079.22 5381.54 5810.77 4714.83 5474.15 7519.2 6355.68 4478.6 3953.55 4304.63 4469.54 4314.56 4173.54 3928.53 5606.51 5046.12 3834.47 6349.67 4590.01 6101.86 4227.41 5993.0 4803.57 5966.42 4110.59 3332.49 5354.66 4214.44 5378.23 4787.97 3746.36 6789.23 3989.7 4777.03 3684.56 4246.61 6028.09 5452.36 3804.5 6486.37 5498.42 5318.53 3344.57 5220.76 4281.98 7165.9 5344.83 7046.11 3427.63 4863.97 6342.48 5756.75 4587.67 5599.7 4163.74 6969.28 3665.95 5698.96 4095.75 3603.51 4298.45 5222.51 6609.84 5135.96 3834.43 5658.37 4707.06 6074.94 5491.37 4250.88 3783.54 6348.03 3475.67 4792.39 7038.89 3863.67 4814.12 5067.56 6137.8 2735.53 5263.3 3352.35 5116.6 3747.03 2783.85 4356.49 4526.81 3994.07 4219.94 5907.46 4264.91 5399.29 4909.31 5971.22 6522.59 6602.43 3568.28 5425.98 5996.66 4405.42 2995.67 3598.08 4599.81 5698.23 7300.58 3608.06 6633.61 5217.95 4867.7 5484.36 4277.24 4063.9 5291.05 5161.1 4619.2 5166.41 5740.65 5067.56 6329.53 4139.3 6541.45 4750.49 5078.31 5391.48 4923.43 5131.15 4847.14 3950.27 5116.66 3566.79 5374.67 4981.43 4215.2 5069.89 4157.29 6813.72 5327.75 4609.02 4896.65 4638.18 4196.37 6448.66 4453.97 6945.98 5138.2 5783.48 4449.98 4504.35 4771.65 4840.44 5093.82 5951.81 3924.14 4296.69 6238.32 3319.67 6471.42 5283.8 4076.59 4428.14 5164.1 6464.15 4479.11 4972.17 6685.4 5699.53 4222.77 6332.01 5268.38 5527.23 4805.33 5980.95 6193.08 6069.3 5887.01 5168.35 5388.39 5335.47 5633.61 5048.19 6799.23 4888.27 6740.71 6487.56 4854.11 5533.19 5417.21 5583.61 6063.64 7382.3 4022.56 5522.21 3772.3 4855.01 4923.57 3340.09 2279.05 4829.35 4075.28 8137.11 5484.32 6650.77 4067.96 7104.73 2596.96 6162.3 5701.75 3272.75 4350.15 4264.54 3516.27 4263.78 4643.9 5228.75 6047.14 5009.83 5210.38 5717.8 3629.44 5003.78 3299.24 6246.56 4741.28 4061.6 2603.64 5107.0 6212.15 6502.97 4783.07 4946.23 4852.58 6083.28 5211.6 3556.79 5806.31 5456.71 3503.41 7317.04 4701.5 7001.83 5012.97 5589.37 5439.49 6918.35 4834.3 6804.79 6372.13 5369.5 5404.01 6016.19 4124.49 3230.13 5714.25 5325.96 4850.06 5016.02 7044.29 4920.21 4234.18 4049.16 7085.01 3936.95 6153.94 6836.82 3862.77 4631.99 4740.98 3185.39 5128.77 3728.18 7122.87 5797.36 4243.26 4153.84 5119.86 4592.15 5084.17 4901.44 3776.8 4998.22 5096.43 6156.21 6104.26 4653.83 6171.71 4986.71 4668.88 5027.43 5522.75 5867.64 6208.9 6059.93 5602.53 6061.63 6545.43 6760.92 4989.2 4711.04 4506.18 4824.12 4383.47 5971.21 7043.44 6412.67 4036.91 6639.64 5212.43 5454.12 6348.54 4066.57 5642.35 4206.98 5156.76 6357.47 6101.57 4891.38 5535.91 5955.86 6176.67 4533.37 4848.46 5412.24 2779.99 5887.38 4581.37 6942.34 5851.61 5478.11 5526.31 3858.17 5030.15 5089.26 2460.79 3628.89 6589.82 4438.58 5073.02 3472.91 7144.05 2970.9 6542.5 6318.23 4058.87 5174.75 5932.07 4984.46 5948.71 4793.65 2949.12 3856.53 4532.89 5460.89 5260.85 5742.09 2884.65 5807.46 4648.21 3658.05 4393.16 4549.69 6423.81 6192.77 6413.15 6103.11 5048.55 6459.51 4024.31 4955.16 5844.72 3992.97 5989.05 6040.74 4054.22 7228.94 5393.65 4961.99 6551.93 4595.12 3311.29 3110.13 6484.43 4625.67 3485.54 6735.97 5305.59 5416.45 4330.58 5754.6 3288.01 4904.51 4147.31 2202.77 5751.15 5950.88 4149.55 4441.22 5853.89 3380.69 4140.4 4386.8 5446.4 4725.01 5966.75 3104.96 5244.78 3636.15 6114.89 5135.63 6384.7 4355.83 6870.97 5351.86 6056.87 5474.01 6201.86 7554.58 5166.89 3639.44 4731.21 5491.63 5725.37 3868.62 5138.33 3477.1 4729.42 4811.22 5216.26 4844.83 5377.37 5652.87 5483.7 5018.69 3152.86 5952.38 3896.27 5807.52 5963.36 5230.02 5307.35 4342.18 5169.48 6016.08 3124.7 6064.71 6102.98 6592.93 5096.24 5769.14 3381.82 4831.93 4023.93 5494.28 5493.89 5261.19 4918.76 4208.41 5826.78 3758.22 4268.19 4788.08 6379.14 3687.65 5478.95 3851.85 4749.96 4658.24 5869.67 4311.48 4899.73 5457.66 6394.19 5973.89 5366.22 6193.73 5518.11 5087.14 5712.35 5701.52 4743.9 6776.22 5321.17 3719.11 4467.13 6060.17 5934.82 4501.78 5415.45 4385.81 6350.71 7107.63 5868.89 4099.26 5206.47 4834.39 3831.52 4263.65 6106.43 6761.81 5467.63 2856.55 6214.73 4553.68 5361.87 4532.7 3205.68 5561.74 6100.73 4908.75 6556.26 3971.08 4482.9 4593.7 4349.13 6818.91 3503.65 3634.5 4019.34 3623.19 4869.48 4906.11 4387.39 4564.1 5825.55 5509.51 4848.14 3199.4 4316.5 5254.24 3742.11 4192.21 3597.43 5144.56 4158.91 5311.55 3360.86 3034.16 4869.25 5545.21 3877.8 4333.87 6418.11 4922.49 3572.94 5001.58 6456.58 5039.12 5366.11 4824.81 7307.21 5135.5 3619.72 5615.84 5788.97 3274.85 5007.21 5545.59 4580.06 4835.97 4057.17 7066.96 4587.7 5644.81 5666.95 4127.53 4642.2 5210.75 5175.89 3894.64 5232.85 4374.74 5975.23 6816.66 4473.29 4745.79 6204.65 6550.4 5513.8 4887.52 5350.88 4392.65 5429.3 5510.96 6653.07 4745.16 4697.91 4584.81 5071.98 5719.79 4371.08 7261.51 4968.14 4914.03 5086.29 5527.13 5139.18 5551.43 4278.57 5049.99 4201.03 4458.64 5001.87 4312.15 3657.69 4078.93 6015.02 4820.17 5244.98 3814.65 3886.72 4034.05 5798.38 6436.74 3419.87 4384.28 3908.98 5944.3 5113.6 6328.42 5640.72 4565.93 4504.52 4464.73 6440.38 5610.53 6419.64 5262.47 4991.35 5196.92 4807.35 4568.64 5750.35 6555.44 5293.75 6358.93 2205.51 3703.49 5144.44 4757.2 5034.69 5470.04 5079.64 4211.82 6003.78 5684.25 4891.67 4882.66 6631.28 6571.31 4944.51 5603.68 5610.95 5532.72 3220.8 5179.17 5579.39 5270.51 5148.1 5490.75 5224.64 5949.73 4312.48 5783.94 6370.33 5081.08 6318.25 6864.06 3644.78 5510.9 4883.63 3492.83 7039.98 6006.89 7778.01 5127.82 5690.96 5805.1 3862.91 4456.26 4027.33 4810.98 3563.14 5851.63 5556.0 5748.9 4954.81 5755.15 4608.34 3926.11 5464.83 2781.96 5414.58 3512.94 4467.0 4994.65 5601.55 5334.36 3903.91 4929.6 3919.62 4489.99 3683.86 5658.14 5473.72 7124.45 2617.39 4062.56 4198.94 3217.67 6163.54 5438.92 3766.69 5110.11 5188.53 4521.75 4813.33 4027.63 4526.34 5635.32 4316.45 5409.08 5042.75 4598.92 5241.22 6647.08 4979.52 3422.29 4407.79 5214.63 3495.68 3990.96 5352.24 7362.42 4202.77 5836.14 6008.81 5473.05 4583.52 4505.28 6280.13 5244.22 5585.14 4960.64 5792.98 4983.3 5910.86 6239.68 4456.11 4234.88 5782.43 4708.31 5026.76 5091.22 6282.38 5727.79 5212.92 5043.14 3742.31 5695.79 4420.6 3622.8 4431.23 4258.98 6545.99 4368.28 4945.0 4548.45 5114.07 5730.61 4508.18 5064.67 3717.47 4504.86 5969.37 4928.35 4509.46 3538.53 996.652 5212.37 6500.49 5058.51 4244.49 4050.03 5036.98 4120.07 3429.57 3840.21 5569.2 6746.66 5410.33 5420.67 5661.6 4827.61 5285.75 5481.64 5673.75 5360.67 5968.54 6263.3 4501.05 4537.03 6548.29 4114.2 4326.06 5034.46 5757.29 5793.12 5469.17 4373.2 5061.75 3769.24 6711.21 4971.29 5832.29 2606.51 4438.76 5401.4 5053.15 5124.17 5749.6 7320.78 4834.44 3873.92 4092.07 5347.9 5657.55 5188.82 4717.73 4928.85 5072.5 4749.18 3663.0 4546.96 6304.49 4475.38 5287.25 4770.51 5577.41 6511.37 5917.34 5740.98 3787.08 4462.87 4218.16 5630.9 2918.64 4728.55 4554.68 4140.92 4474.83 4692.32 5236.24 4658.11 3127.83 4585.04 4551.26 5678.58 4385.49 4263.18 6570.35 7142.95 4559.74 4383.68 6618.21 6666.67 6063.44 6200.63 4051.18 4583.94 5046.31 4337.32 1937.5 3844.54 5241.75 5849.53 4651.99 4420.11 4680.69 5863.0 2628.22 5965.58 3352.34 4901.29 5329.76 4124.76 4775.04 7200.89 4952.52 4802.98 4833.55 4081.34 7224.99 4954.76 3908.56 4642.74 3242.31 6099.28 5372.25 5385.03 4169.15 3234.26 4778.37 5134.17 4074.16 4904.35 5592.54 3247.97 5124.34 4904.37 4358.81 4651.64 5729.92 5016.46 6224.13 4761.84 3661.67 5153.18 3743.76 3425.69 4236.86 5454.11 5510.45 3684.15 4730.14 3994.39 3864.92 4128.1 6119.99 4159.81 4446.58 3965.3 5372.82 4402.17 4932.29 4681.29 4775.49 4990.23 5499.59 3784.94 3220.29 3845.9 4506.66 4141.21 4174.44 4439.71 4125.9 4064.58 5667.51 6331.74 4198.9 5431.29 4833.67 5023.41 5325.91 4213.05 5157.38 4646.51 4224.3 4184.21 6203.03 4700.07 5235.87 5273.37 4732.37 4985.3 4966.07 3904.07 5713.36 5553.94 4704.92 4316.0 5424.55 5134.72 4392.75 4921.1 3814.16 4191.01 5340.05 4589.06 4184.47 4920.88 5995.4 5890.25 4216.44 5700.79 3999.5 4012.92 6710.14 4346.07 4013.86 5759.79 4598.54 4177.47 5218.42 4933.49 4770.63 6139.64 4841.23 4512.07 4896.43 3990.94 5984.8 5477.8 5463.06 4462.35 4639.8 3986.41 4212.15 5260.52 3185.09 6102.49 5114.23 4242.63 5495.0 3269.54 4489.29 7407.91 5836.26 4301.93 6015.22 6061.85 4454.74 5512.44 4826.52 2904.46 6449.06 4685.4 5120.92 3200.6 6240.42 4731.53 3763.9 5146.0 4788.7 5721.14 4608.62 4577.73 4288.45 6127.39 5084.5 5640.12 4918.64 4972.18 6206.98 6638.25 4607.18 2403.72 5078.59 3899.7 5134.33 4147.49 5419.57 5162.67 5760.98 3646.95 4705.68 3629.49 5469.35 5384.86 6334.53 4898.29 4431.06 5730.2 4830.13 3494.16 5370.9 4529.77 4325.13 6172.27 5390.33 5078.73 5278.54 5729.0 5192.92 5275.57 4179.87 4786.66 5891.25 5370.1 6273.6 4763.4 5136.87 5902.67 5638.7 4708.17 5024.32 5393.76 2741.2 4941.02 5806.61 3779.45 4983.1 5784.37 6010.59 3142.09 3682.35 7123.04 2955.36 4618.73 3668.93 5182.13 4009.24 5906.57 3756.96 7541.76 6245.52 3954.77 6793.1 6016.87 3125.13 5077.29 5515.73 6715.73 5209.55 4564.41 5426.4 5866.91 5763.05 5951.86 4659.88 4252.18 5076.84 5357.39 3791.41 5247.01 5853.12 4208.37 4546.44 4841.7 5685.74 5702.4 952.938 5069.9 6740.35 5473.89 6089.45 4678.7 5810.17 3450.07 5265.21 4657.24 4400.14 5191.26 5866.42 3669.32 5544.27 4762.1 3987.69 6502.99 5308.33 3484.81 4287.25 4666.12 6219.34 6023.07 4271.07 5674.63 6506.63 4140.04 3495.3 5322.11 4697.49 5735.08 4726.2 5034.05 4816.51 4711.15 5345.73 3825.48 5188.22 3810.68 4658.59 4756.8 2804.54 4196.62 4357.11 4176.32 5005.6 5486.89 6069.78 4241.68 5532.75 3587.93 6949.65 3469.18 3372.95 4095.83 5695.25 2945.34 5676.61 5846.95 5064.23 5268.15 5716.42 5701.63 5819.0 4620.95 6347.72 4924.07 5368.93 3460.93 4629.02 5124.86 4927.73 5914.5 6006.16 5407.96 5710.33 4987.28 5344.44 4071.75 6562.03 4626.72 4815.47 4759.99 4410.82 4368.12 2646.13 5214.4 4365.58 4636.53 5766.05 5399.43 5034.34 5695.44 5117.64 3422.21 3835.81 3916.42 5265.63 5684.88 6523.78 4645.86 4045.67 5620.88 4941.52 5900.0 4262.74 6241.77 3783.79 4248.14 5317.19 5279.19 4016.6 5821.49 7050.08 5580.44 5998.13 4493.79 5684.05 3667.93 4932.56 4279.44 5813.79 4899.19 4644.88 5058.34 5790.42 4028.22 5293.13 7350.26 5591.77 5003.3 5167.53 6110.48 7145.73 5800.81 4168.52 4795.08 5106.46 4068.31 6562.92 5501.73 5166.05 4697.24 3671.06 3612.44 4983.43 7035.54 4850.5 5233.76 4683.28 6405.69 2820.07 6549.8 5129.68 5679.74 4825.73 5288.33 6296.54 5797.21 5062.77 6019.35 6075.99 6028.63 3673.6 4550.92 5927.2 3306.84 5146.1 6215.87 6485.77 6060.06 5960.5 5393.43 4117.9 6896.55 4685.65 4638.09 5377.01 5330.26 4441.91 6470.23 5939.22 4668.8 4271.93 4215.05 5125.17 4604.1 4859.01 5524.45 7133.44 4426.02 4750.81 3953.26 4474.39 5459.92 6478.35 2809.19 5453.77 4104.04 4916.7 2638.82 5589.53 7208.19 5593.79 4549.51 5196.08 5025.42 4975.85 4517.29 6257.79 5323.95 4495.75 6171.01 6229.83 5796.26 4468.26 4603.04 5578.18 4870.94 5293.37 4488.39 5271.88 6121.56 7168.2 4602.57 3763.85 3565.32 3419.07 3622.48 4096.86 4796.12 5001.51 6432.8 5115.42 5131.77 5549.71 3186.07 4369.86 4967.51 6443.99 3889.98 7212.97 5193.58 3720.7 5490.64 5698.53 3769.2 3604.31 5036.14 4507.46 5764.52 4390.64 3770.22 5150.84 4608.01 5087.97 6005.95 4308.49 4930.17 4581.1 4085.96 4745.44 5762.82 7360.12 6223.98 5462.6 5617.29 3035.06 4262.19 4597.88 5095.52 5537.34 5192.49 3487.31 5726.42 6643.4 4674.9 3918.94 5575.11 3392.26 5487.63 5461.72 3852.82 3768.46 4507.36 6224.85 6406.8 5403.97 4556.19 5368.66 5648.78 6875.73 5226.42 6081.3 5117.52 6311.89 4217.36 6734.39 5942.45 4851.18 4150.76 4165.36 5005.72 5368.52 4871.77 5811.26 5155.28 5205.38 5388.73 4884.93 4764.83 4600.71 5262.79 3957.38 4494.15 5035.71 4419.79 5407.69 4710.88 3869.39 4057.4 5152.78 5534.23 4753.76 4781.9 6815.96 5339.6 5828.25 5917.08 4725.11 5483.37 3626.86 5418.12 6371.96 5076.11 5322.07 5770.07 5990.75 5600.21 4282.11 4656.01 5467.51 5781.62 4625.53 6589.13 2347.41 4096.47 4542.16 5114.67 3543.37 5628.97 5353.66 5527.27 5030.33 5104.39 5234.2 4965.24 4612.13 6379.38 5846.6 5327.05 5438.55 4849.5 5353.23 4434.65 5977.66 4523.81 5209.5 5106.33 5791.25 5198.94 4028.35 5933.54 5559.79 5464.05 5879.24 2980.31 4571.74 3148.79 5740.78 6824.53 5997.91 5385.86 4742.82 4082.4 6791.86 4209.0 4820.68 4930.72 5482.76 5728.58 5173.82 3745.02 4887.73 4211.36 6297.99 5378.24 3856.73 5817.74 4450.49 5887.71 3468.45 3402.44 4848.98 4491.96 5184.98 4467.51 5339.82 4519.03 5460.57 5110.27 5703.34 4612.68 6668.98 6649.52 4232.33 4939.56 4747.68 5770.92 3093.38 4845.91 4878.93 2002.78 6022.78 5884.99 4087.32 6647.85 7025.09 2569.12 4433.12 5161.74 2549.95 7336.37 4361.24 6599.28 5138.93 5099.9 6945.69 5118.86 7086.69 4304.64 6170.9 4436.48 5833.78 4823.06 5758.98 5615.35 3967.76 5288.64 6213.24 5987.88 4228.53 3579.59 3350.99 6123.46 4065.28 5057.59 6142.88 5111.26 5285.6 4949.55 4574.54 5490.54 1969.87 3132.34 5203.54 4841.28 4047.95 5507.38 6889.5 5300.17 4416.87 4052.43 4896.67 3980.46 5383.9 3934.11 5158.44 6025.77 3886.56 4466.22 4496.51 6153.71 6561.94 5259.21 5092.93 5934.05 2803.01 4714.66 4444.0 5101.6 6771.18 4984.17 6182.19 5327.39 4037.86 5602.62 4981.81 2030.03 5714.51 4138.59 4938.33 4484.78 4621.33 5157.73 5847.91 4934.66 4984.01 4109.44 4903.84 4290.49 4557.1 6688.53 5927.1 6175.27 5065.74 5876.51 4873.23 4103.76 6731.89 4733.41 5410.6 5453.2 6348.93 5136.51 3901.53 4332.64 6815.51 4422.23 5232.16 3989.26 6031.22 5485.84 6424.77 4335.79 5453.69 5918.95 5432.04 4538.89 5689.56 6556.86 5537.61 6084.88 4199.44 4397.06 4053.12 4479.5 6261.67 3435.13 5065.78 4431.46 4521.42 3207.84 3977.98 6043.34 4128.93 4959.72 4712.17 3808.04 4723.71 4461.67 4405.61 5517.65 5114.51 4009.68 3303.49 4161.32 4622.73 5256.75 6351.89 5932.28 6530.78 5560.23 2960.5 4975.32 4298.7 3043.77 3902.48 4183.4 3909.94 5088.64 6030.39 6589.8 4733.79 4905.53 3799.01 7392.65 5254.49 5319.1 3757.23 6828.8 6883.86 6161.94 4979.5 4586.82 4745.37 5939.29 4461.14 5575.11 5418.98 5615.06 4034.41 5061.74 4052.49 5326.03 6189.67 6142.94 5001.69 4948.96 5256.82 6581.56 4013.86 4061.87 4645.93 5165.31 5448.64 3798.09 4585.37 4288.5 5715.51 3721.69 4511.05 3456.3 5783.69 6074.39 5317.83 4256.08 5881.93 4460.89 4399.52 4554.24 3939.96 5910.66 7415.84 4637.3 4970.55 5141.03 4840.44 8123.59 5765.14 4541.22 4767.54 4946.08 3539.68 5121.08 4696.03 6217.33 6177.68 4605.39 4698.7 6270.59 2848.44 6045.26 6500.45 4907.55 4286.61 4094.63 5084.76 2932.52 5264.83 4603.66 4757.87 4969.68 6636.43 5431.14 5313.86 4457.05 5178.07 5189.91 5777.26 3618.64 5703.84 4171.02 3530.82 7012.36 5797.32 5028.06 4002.99 4886.99 5159.67 3921.27 3161.1 3572.73 3702.45 3228.27 4721.98 5252.82 3543.98 4142.1 5056.26 5878.55 4014.44 6604.72 6002.77 3794.47 4610.55 4967.02 4614.49 5400.69 4462.5 5573.31 5004.68 4023.88 5348.11 5428.24 5129.4 4746.15 4655.37 3720.38 5585.25 4758.84 4731.37 5023.61 3976.0 4672.86 6463.71 5059.37 4742.35 5783.38 5394.79 4139.39 5645.54 5237.55 6264.03 4526.87 3562.8 4151.74 6920.92 4174.22 3729.16 3573.84 3783.36 3038.91 4181.93 3922.28 6570.43 3820.19 3445.92 5236.69 3133.28 5524.28 6026.04 6200.05 5731.43 5859.17 6353.81 3518.14 3414.67 5522.34 4150.44 5771.98 4420.35 5899.78 5717.45 5117.83 5268.27 4813.81 5244.95 4634.25 5901.8 6417.61 5395.12 3830.7 6210.0 5350.9 3483.61 4262.52 6738.9 5992.06 4157.1 8052.53 4867.12 4970.12 6044.01 6520.19 1458.87 5973.57 5734.07 3997.68 4819.83 6033.28 4801.16 6286.27 5071.38 6327.54 2927.84 5616.66 5688.77 4802.36 5368.28 5466.13 4220.43 6229.64 6263.87 5743.8 6666.34 6605.11 4645.91 6834.92 3557.46 6379.33 5971.95 6298.8 3979.46 3689.24 6321.97 5151.19 6412.84 6509.54 6119.0 3792.06 5128.59 4993.49 4293.3 5587.3 4864.38 6583.37 3688.83 3956.24 7558.99 3393.59 5043.14 5333.04 5445.91 4521.99 4812.59 6842.54 7115.67 5675.45 3361.11 6038.56 2807.46 5599.16 4179.8 3488.34 5658.35 6275.25 6892.33 4505.3 4452.36 4491.26 4511.34 4068.41 5009.21 4574.03 5290.37 5850.38 5264.08 4227.66 4691.01 4730.97 4594.89 5192.82 5245.95 5821.42 4067.89 4515.02 6294.09 3463.53 4924.52 4571.57 6126.03 5131.07 4121.07 2970.24 4197.87 6044.69 5658.05 5105.54 6593.1 5462.1 6032.45 5444.36 5044.68 4026.03 6908.32 2649.69 3467.11 5000.74 4817.75 5772.57 6153.26 5637.53 3882.37 5523.81 4095.4 5648.59 4718.61 5188.57 6351.48 3873.79 5357.33 5717.67 5252.37 5432.4 4499.54 5037.58 7430.48 5640.67 5545.68 6080.69 5555.89 4967.93 6369.66 5678.08 5922.62 6241.48 4414.09 5125.45 5957.82 4188.16 3784.68 3717.22 5507.07 2943.17 5327.71 5257.38 4880.78 5075.23 5625.02 4975.56 7282.36 3826.01 4829.77 5581.01 3928.99 6959.88 4125.75 5749.53 5130.57 5652.73 5090.48 5402.45 3985.93 5945.25 6071.59 2589.19 3856.4 6079.55 5485.61 4137.16 4937.36 5308.4 5310.33 6581.13 4569.32 5580.95 6598.99 3549.92 4032.06 5246.81 5089.1 5888.95 5394.78 3463.34 5122.38 2853.68 5262.85 4998.37 5329.84 6559.82 3879.83 6565.95 4577.98 5043.34 5886.81 5631.32 6126.5 6322.0 5793.14 4609.65 6345.2 5704.61 5488.96 4832.21 5128.03 5410.73 4379.91 4942.63 5087.3 6139.74 4975.57 7066.26 3057.3 6150.31 3677.85 5214.71 4677.84 4811.11 5379.52 4866.8 5314.67 5563.47 5651.46 4066.36 4000.51 3162.27 6033.93 5011.37 5516.37 2827.92 4441.44 5092.44 4232.44 5336.61 5563.09 6381.58 4848.15 4439.09 3282.57 4798.13 5108.42 6697.45 6296.36 4432.32 5515.59 3224.81 3775.38 4046.22 6457.89 4844.2 6572.17 3751.73 3374.62 4926.62 4766.47 4871.1 3917.09 6332.64 6009.93 5872.45 5270.1 5191.29 4947.64 6305.9 6649.21 4997.89 3470.69 4542.62 4654.92 4859.95 5286.55 4322.56 5522.18 5509.09 5223.1 3873.72 5212.05 4592.49 3625.98 5479.86 6474.5 4444.92 4702.32 5971.9 3746.62 5247.73 5034.02 4876.37 5582.28 4769.62 5260.13 4649.5 5181.31 4696.06 5985.75 5475.83 6189.29 5984.55 4329.8 5803.3 4313.38 5827.3 5250.56 3633.58 2468.16 6294.14 4339.97 5203.75 5169.09 4691.15 2459.88 4210.24 5470.67 5901.71 5225.11 5342.9 5252.22 5733.12 4962.35 6436.29 4034.88 5108.84 3511.5 6007.1 5067.92 3188.21 5357.14 3720.92 5919.27 4793.06 6637.38 6188.33 3920.64 6111.23 6916.18 5786.06 5873.62 4996.91 3868.69 3920.44 5447.74 4450.51 6033.72 3768.62 3851.47 6213.74 4966.74 2329.93 4959.94 1635.31 5639.4 6185.73 4083.24 6520.96 5432.2 3771.91 5217.62 4612.4 3312.3 4746.19 4616.81 5715.25 5212.2 4611.21 4362.94 4630.5 6545.78 3354.94 4404.87 5237.27 4451.76 5767.65 7885.41 4750.76 5782.25 4104.97 4575.72 4081.77 5114.61 6118.13 2181.29 4987.01 4420.3 4202.12 2694.25 4735.99 6492.44 4083.1 4613.32 5145.39 3482.73 5130.56 4957.99 4063.26 5195.09 5345.05 5093.28 6131.52 4132.08 6009.88 4699.77 4850.49 5093.41 4981.55 5144.23 6188.62 6153.07 4414.06 4763.04 5908.57 5944.52 4413.56 4532.67 5050.2 5316.05 2513.38 4908.32 3995.08 5019.84 4810.74 3900.93 5784.38 6476.35 4149.17 5728.27 6260.58 4067.24 5672.46 3053.19 5202.33 3074.49 2832.83 4084.87 6036.99 3010.1 3825.98 4589.22 5087.03 4667.84 3906.41 5584.64 4123.08 4512.6 4260.38 4636.45 4932.27 5638.51 6793.49 6060.19 3563.33 5536.0 6786.37 4582.12 4487.51 4295.25 4520.14 7394.47 4850.95 6261.13 5374.09 6271.22 4720.34 3421.81 5244.47 5378.75 5510.89 6186.24 5822.7 3780.07 4137.41 4159.89 5466.49 4038.17 5007.41 4907.48 3692.99 6818.23 4369.87 4488.41 6938.87 5412.07 5512.57 4806.99 4813.55 6578.62 5856.43 3465.03 6178.19 3839.0 5349.85 5799.86 5172.1 6052.22 4469.82 5376.41 4870.14 5003.63 2932.2 5105.72 4082.01 5003.49 3964.03 4907.03 4216.33 5497.27 5617.91 4948.21 4721.2 5161.02 4706.31 3124.49 6265.48 5003.81 4203.68 4739.56 3818.37 3996.93 3352.46 4701.03 6351.95 5434.04 5200.1 7679.2 4881.51 2626.41 4311.92 6729.99 5310.33 6842.35 5464.34 3621.63 4777.96 5801.89 4803.4 6833.5 7296.47 5742.39 4821.41 4780.16 4924.53 5616.11 4499.52 3874.12 4813.24 4028.13 5759.19 4457.73 3113.64 4490.2 4304.75 5480.86 6139.9 6571.26 4474.96 4758.76 4790.63 5259.29 3584.05 4916.75 4818.53 5097.85 6189.04 6224.64 4221.03 3799.55 5082.66 4550.77 4337.93 3550.88 4345.51 4048.73 6223.33 4246.24 6805.02 5354.48 4919.13 5640.63 4900.26 4729.45 5783.88 5002.38 4167.55 4865.11 4731.16 5502.14 6470.87 4495.33 5282.67 5178.55 5747.9 4287.93 5146.69 6203.24 5081.65 6679.12 5652.19 5806.74 3878.8 4698.94 6284.12 4796.04 3948.21 5229.56 5669.15 6011.4 3330.85 4672.34 5056.32 5533.52 5410.33 4747.24 4695.7 4380.86 4944.08 5269.39 5576.16 4305.35 5210.22 5832.72 2451.27 3903.9 4929.35 4444.95 5606.22 3943.77 5242.38 6081.35 5459.52 6262.18 5566.5 5663.36 6225.05 5579.04 5125.53 3997.52 5994.21 4444.54 5779.9 4909.74 5299.03 6664.54 3922.98 4565.36 5161.73 5259.48 4025.08 4008.67 5254.93 6608.94 2613.78 5417.07 3834.01 5656.84 4433.23 5738.37 4739.41 5847.27 5312.2 4706.59 5734.84 3982.31 4950.07 4720.22 5367.05 4449.73 5647.11 4088.72 3945.62 3743.85 6236.46 5342.17 6379.3 5015.67 3795.63 5189.4 4576.71 6538.04 4894.15 6157.59 5201.3 5848.41 4090.28 4246.83 5402.81 4600.81 5561.63 4124.33 5168.97 4358.06 5093.51 5647.93 6705.93 6201.49 5449.09 5154.74 4605.61 4465.56 4131.08 5386.95 3864.19 6540.57 5332.11 5315.71 6004.72 6158.93 5373.78 4823.14 5438.5 4621.32 5699.4 5237.76 4752.94 4994.98 4286.84 6423.96 6058.13 5296.05 5263.86 6988.4 6635.51 4060.17 6051.35 5302.53 4909.13 4287.61 5648.02 3308.75 4604.34 4439.17 5677.42 2701.42 5442.79 5051.39 6673.92 5151.68 4884.94 5362.15 4609.98 4738.72 4752.31 4276.59 5240.97 5569.85 5405.6 3929.35 5403.81 4884.93 5082.25 4759.38 6964.78 4374.05 5036.84 5504.65 5813.68 5732.11 3618.53 5040.9 4770.21 5596.68 8013.28 3846.55 5283.65 3796.73 4644.68 3082.16 2892.36 5981.54 6789.66 5416.41 4694.27 6760.64 2515.5 5177.88 5551.79 3793.83 6981.47 4582.24 4333.23 4328.76 5145.13 3747.96 5611.29 5940.5 6568.45 5004.22 4601.54 4280.92 7263.57 3832.09 4696.92 5705.96 6437.99 6898.8 6632.04 7360.62 4893.72 4985.45 4983.56 4072.4 5345.65 5699.51 4489.18 2489.44 5863.36 5499.37 4632.75 4836.76 5551.09 3950.53 5755.98 4501.1 5581.47 5894.69 6550.61 4987.01 4713.56 6094.34 6779.82 5543.67 3999.81 4867.13 6377.45 4863.27 4502.12 3255.93 6853.07 6327.61 4633.59 5733.59 5575.8 4455.61 5268.93 3695.72 6874.6 5106.9 5306.31 5523.96 4223.53 4733.37 4535.94 6960.97 3037.72 4287.15 4523.9 5282.51 5604.0 5669.41 4951.02 3919.47 4602.7 3783.35 4868.66 4004.39 4037.16 5159.9 6395.63 4987.48 5943.61 4248.58 5479.17 5911.29 4542.25 4414.23 5233.88 4849.21 4785.55 5245.4 3916.15 6189.81 3860.8 5438.6 7370.52 4726.5 4521.88 5103.3 4963.88 4122.2 5175.88 5267.65 5739.69 4790.16 3509.34 5360.88 3731.58 3166.37 4977.64 5369.42 5207.08 4714.52 5205.53 4587.19 5543.05 4883.13 6028.89 5333.16 4888.17 5392.85 4384.91 5077.2 4274.05 5275.27 4277.54 5529.09 4531.46 5925.82 5448.68 4739.5 4072.95 6210.48 4491.62 4182.05 3865.5 5126.08 3760.4 5020.37 5467.05 3724.23 5888.94 4727.98 4516.26 3647.26 
SCALARS Velocity float 1
LOOKUP_TABLE default
1.1925 1.19235 1.19276 1.19276 1.19257 1.19201 1.19216 1.1919 1.1923 1.1918 1.19202 1.1925 1.1922 1.19224 1.19222 1.19209 1.19203 1.1919 1.1923 1.19281 1.19242 1.19198 1.1918 1.19223 1.19238 1.19181 1.19193 1.19269 1.19181 1.1918 1.19214 1.19206 1.19292 1.1931 1.19261 1.19193 1.19217 1.19295 1.19281 1.19285 1.1926 1.19225 1.19184 1.19229 1.19291 1.19373 1.19236 1.19247 1.19272 1.19179 1.19202 1.192 1.19236 1.19294 1.19225 1.19279 1.19178 1.19285 1.19246 1.19243 1.19177 1.19236 1.19253 1.19178 1.19206 1.19178 1.19178 1.19222 1.19178 1.19178 1.19191 1.19178 1.19177 1.19175 1.19178 1.19213 1.19237 1.19177 1.19178 1.19175 1.19189 1.19177 1.19178 1.19183 1.19178 1.19178 1.19183 1.19213 1.19201 1.19219 1.19254 1.19229 1.19227 1.19228 1.19223 1.19178 1.19188 1.19232 1.19191 1.19177 1.19231 1.19178 1.19176 1.19278 1.19198 1.19196 1.19209 1.19215 1.19173 1.19178 1.19266 1.19232 1.19315 1.19318 1.19174 1.19179 1.19191 1.19199 1.19244 1.19177 1.19238 1.19245 1.19175 1.19178 1.19185 1.19232 1.19199 1.19152 1.19305 1.19282 1.19207 1.19278 1.19329 1.19283 1.19288 1.19291 1.19267 1.19194 1.19195 1.19278 1.1929 1.19242 1.19278 1.19248 1.19178 1.19154 1.19289 1.19186 1.19279 1.19178 1.19243 1.19181 1.19252 1.19326 1.19237 1.19239 1.19209 1.19242 1.192 1.19348 1.19285 1.19314 1.19283 1.19286 1.19319 1.19325 1.19263 1.19254 1.19252 1.1919 1.19253 1.19178 1.19176 1.19178 1.19179 1.19178 1.19178 1.19178 1.19193 1.19178 1.19249 1.19249 1.19234 1.19178 1.19195 1.19178 1.19178 1.19178 1.19198 1.19178 1.19178 1.19199 1.19184 1.19182 1.19209 1.19269 1.19245 1.19231 1.19178 1.1921 1.19178 1.19219 1.19229 1.19168 1.19246 1.19248 1.19275 1.1918 1.19274 1.19224 1.19261 1.19205 1.19216 1.19191 1.19278 1.19352 1.19212 1.19175 1.19178 1.19206 1.19261 1.19228 1.19265 1.19245 1.19244 1.19178 1.19178 1.19328 1.19245 1.19178 1.19178 1.19233 1.19193 1.19306 1.192 1.1917 1.1924 1.19202 1.19347 1.19292 1.19279 1.19264 1.19202 1.19186 1.19176 1.19284 1.1927 1.19186 1.19221 1.19328 1.19283 1.1917 1.19377 1.19229 1.19193 1.19274 1.19167 1.19195 1.19213 1.19316 1.19206 1.19243 1.19263 1.19178 1.19288 1.19302 1.19278 1.19323 1.19283 1.19318 1.19246 1.1919 1.19236 1.19208 1.192 1.19192 1.19249 1.19243 1.19235 1.19233 1.19177 1.19238 1.19177 1.19192 1.19178 1.19247 1.19178 1.19231 1.19218 1.19223 1.19206 1.19173 1.19193 1.19167 1.19176 1.19198 1.19205 1.19192 1.19292 1.1922 1.1925 1.1927 1.19233 1.19229 1.19201 1.19235 1.19239 1.19178 1.19225 1.19261 1.19258 1.19198 1.19264 1.1918 1.19206 1.19173 1.19271 1.19223 1.19252 1.19251 1.19306 1.19199 1.19174 1.19209 1.19229 1.19278 1.19286 1.19356 1.19392 1.19247 1.1933 1.19333 1.19203 1.19307 1.19231 1.19216 1.19343 1.1925 1.19267 1.19268 1.19328 1.19178 1.19352 1.1929 1.19272 1.19264 1.19278 1.19381 1.19242 1.19258 1.19425 1.19166 1.19196 1.19341 1.1932 1.19341 1.19203 1.19225 1.19154 1.1924 1.19259 1.19178 1.193 1.19269 1.19266 1.1926 1.19326 1.19351 1.19323 1.19271 1.19222 1.19216 1.19178 1.19179 1.1924 1.19169 1.19252 1.19262 1.19177 1.19214 1.19167 1.1929 1.1924 1.19236 1.19216 1.19182 1.19178 1.19373 1.19212 1.19204 1.1918 1.19193 1.19234 1.19188 1.19213 1.19244 1.19216 1.19243 1.19192 1.19218 1.19247 1.19255 1.19238 1.19234 1.19175 1.19083 1.1921 1.19075 1.19342 1.19202 1.19163 1.19104 1.19312 1.19227 1.19231 1.19252 1.19259 1.19247 1.19368 1.19183 1.19184 1.19226 1.19227 1.19232 1.19245 1.19178 1.19178 1.19178 1.19178 1.19164 1.19318 1.1924 1.19348 1.19344 1.19245 1.19162 1.19325 1.19196 1.19186 1.19337 1.19198 1.19241 1.19245 1.1925 1.19284 1.1925 1.19085 1.19225 1.19396 1.19327 1.19327 1.19353 1.19314 1.19333 1.19241 1.1932 1.1921 1.19245 1.19236 1.19309 1.19331 1.19221 1.19231 1.19249 1.19258 1.19326 1.19264 1.19243 1.19311 1.19315 1.19258 1.19209 1.19348 1.19342 1.19215 1.19065 1.19201 1.19169 1.19352 1.1926 1.19333 1.19224 1.19229 1.19178 1.19271 1.19245 1.19249 1.19171 1.192 1.19239 1.19234 1.19215 1.19171 1.19369 1.19214 1.19198 1.19214 1.19199 1.19246 1.19254 1.19195 1.19251 1.19208 1.19263 1.19236 1.19214 1.19258 1.19211 1.19187 1.19175 1.19148 1.19178 1.19184 1.19186 1.19214 1.19248 1.19267 1.19254 1.19255 1.19376 1.19359 1.19198 1.19187 1.1922 1.19198 1.19235 1.19168 1.19175 1.1931 1.19215 1.19233 1.19414 1.19183 1.19114 1.19252 1.19309 1.19267 1.19226 1.19252 1.19328 1.19321 1.19279 1.1928 1.1909 1.19318 1.1918 1.19229 1.19364 1.19166 1.19393 1.19372 1.19307 1.19281 1.19246 1.19311 1.19317 1.19148 1.19263 1.1923 1.19297 1.19274 1.19148 1.19248 1.19241 1.19252 1.19317 1.19178 1.19243 1.19308 1.1921 1.19341 1.19198 1.1907 1.19211 1.19165 1.19185 1.19119 1.19266 1.1919 1.19226 1.19276 1.19259 1.19232 1.19198 1.19204 1.1921 1.19266 1.19169 1.19181 1.19211 1.19206 1.1918 1.19206 1.19245 1.19241 1.19242 1.19221 1.19208 1.19231 1.19152 1.19131 1.19188 1.19211 1.19199 1.19223 1.19189 1.19317 1.19385 1.19321 1.19375 1.19349 1.19192 1.19213 1.19196 1.19144 1.19137 1.19152 1.19103 1.19178 1.19218 1.19337 1.19708 1.19126 1.19163 1.19157 1.1921 1.19259 1.19307 1.1929 1.19277 1.19144 1.19297 1.19195 1.19329 1.19524 1.19389 1.19358 1.19335 1.19205 1.19216 1.19278 1.19229 1.1921 1.19301 1.19149 1.19152 1.19261 1.19178 1.19235 1.19139 1.19321 1.19275 1.19087 1.19242 1.19216 1.19258 1.19301 1.19287 1.19249 1.19254 1.19261 1.19078 1.19187 1.19183 1.19226 1.1917 1.19265 1.19269 1.19131 1.19219 1.19186 1.19309 1.19302 1.19204 1.19251 1.19207 1.19194 1.19154 1.19246 1.19179 1.19246 1.19207 1.19176 1.19202 1.19226 1.19259 1.1925 1.19246 1.19205 1.19264 1.19208 1.19264 1.19146 1.1936 1.19178 1.19183 1.19177 1.19191 1.1916 1.193 1.19219 1.19346 1.19208 1.19236 1.19367 1.1934 1.19193 1.1937 1.19307 1.19536 1.19068 1.19444 1.19103 1.19133 1.19218 1.19316 1.19348 1.19171 1.19233 1.19128 1.19337 1.19219 1.19155 1.19277 1.19219 1.19208 1.19283 1.19272 1.19171 1.1942 1.19251 1.19328 1.19277 1.19416 1.19262 1.19209 1.19259 1.19243 1.19256 1.19172 1.19101 1.19231 1.19169 1.19271 1.19232 1.19175 1.19166 1.1935 1.19092 1.19183 1.1923 1.19178 1.19185 1.19196 1.19137 1.19246 1.19272 1.19084 1.19252 1.1922 1.1921 1.19229 1.19281 1.19205 1.19192 1.19165 1.19144 1.19246 1.19116 1.19074 1.19339 1.19211 1.19283 1.1921 1.19207 1.19265 1.19226 1.19241 1.19204 1.19102 1.19237 1.19174 1.19213 1.19196 1.192 1.19255 1.19225 1.19262 1.1926 1.19219 1.19251 1.19331 1.19227 1.19161 1.1918 1.19135 1.19241 1.19172 1.19227 1.19339 1.19208 1.19255 1.19309 1.19334 1.1931 1.1919 1.19346 1.19362 1.19362 1.19119 1.19514 1.19178 1.19314 1.19141 1.19297 1.19062 1.19329 1.19221 1.18975 1.19178 1.19351 1.19171 1.19393 1.19233 1.19229 1.19257 1.19206 1.19248 1.19126 1.19231 1.19416 1.1926 1.19391 1.19252 1.19352 1.1932 1.19293 1.19293 1.1925 1.19406 1.19477 1.19204 1.19266 1.19178 1.19229 1.19166 1.19277 1.1919 1.19053 1.19104 1.19297 1.19346 1.1936 1.19221 1.19231 1.19179 1.19069 1.19128 1.19224 1.19116 1.19191 1.1926 1.19113 1.19129 1.19247 1.19319 1.19178 1.19126 1.19198 1.1922 1.19237 1.1914 1.19304 1.19166 1.19243 1.19069 1.19359 1.19178 1.19207 1.1928 1.19189 1.19141 1.19198 1.19139 1.19142 1.19256 1.19221 1.19202 1.19243 1.19255 1.19202 1.19162 1.1918 1.191 1.19082 1.19183 1.19185 1.19184 1.19209 1.19177 1.192 1.1918 1.19224 1.19178 1.19214 1.19217 1.19227 1.19326 1.19178 1.1918 1.19167 1.19452 1.19151 1.1898 1.19331 1.19178 1.19275 1.19331 1.19303 1.19324 1.19189 1.19307 1.1934 1.19371 1.19362 1.19302 1.19214 1.19365 1.19107 1.19096 1.19253 1.19207 1.1931 1.18976 1.18831 1.19383 1.19234 1.19239 1.1921 1.19226 1.19178 1.19368 1.19228 1.1927 1.19243 1.19219 1.19232 1.19242 1.19425 1.19165 1.19215 1.19228 1.19215 1.1915 1.19219 1.19239 1.19271 1.19216 1.19203 1.19124 1.19077 1.19168 1.19187 1.19316 1.19055 1.19068 1.19389 1.19229 1.19171 1.19106 1.19122 1.19102 1.19198 1.19303 1.19096 1.194 1.1916 1.19271 1.19208 1.19178 1.1919 1.1922 1.19151 1.19238 1.19202 1.19277 1.19213 1.19078 1.19259 1.19182 1.19192 1.19134 1.19146 1.19248 1.19216 1.19194 1.1925 1.19191 1.19158 1.19257 1.19153 1.19188 1.19178 1.19129 1.19153 1.19185 1.19213 1.19217 1.19177 1.19179 1.19186 1.19195 1.19223 1.1927 1.19217 1.19451 1.18944 1.193 1.19256 1.19308 1.19218 1.19306 1.19178 1.19218 1.19279 1.19339 1.19344 1.19306 1.19366 1.19328 1.19301 1.19268 1.18986 1.19365 1.19084 1.18938 1.19089 1.19076 1.1921 1.19194 1.19336 1.19011 1.19279 1.19187 1.19176 1.19363 1.19262 1.19225 1.19005 1.18787 1.19251 1.19035 1.19407 1.19226 1.19153 1.19219 1.19138 1.19214 1.19258 1.19225 1.19079 1.19137 1.19254 1.19094 1.19189 1.19065 1.19174 1.19292 1.19074 1.18673 1.19266 1.19442 1.19298 1.19148 1.19136 1.19124 1.19134 1.19115 1.1932 1.19412 1.19164 1.19191 1.1918 1.19141 1.19098 1.19177 1.1914 1.19245 1.19314 1.19167 1.19207 1.19292 1.19163 1.19118 1.19236 1.1921 1.19189 1.19245 1.19178 1.19195 1.19299 1.19298 1.19193 1.19164 1.19235 1.19232 1.19131 1.19189 1.19222 1.1913 1.1914 1.19181 1.19224 1.19284 1.19178 1.19151 1.19151 1.19571 1.19147 1.19252 1.19376 1.19294 1.19288 1.19385 1.19178 1.19472 1.19282 1.19336 1.19332 1.19332 1.19343 1.19315 1.19299 1.19234 1.19361 1.19138 1.19149 1.19192 1.19164 1.19131 1.19193 1.19351 1.19106 1.1913 1.19178 1.19157 1.19168 1.19169 1.19169 1.19073 1.1915 1.19137 1.19194 1.1922 1.19104 1.19189 1.19193 1.19058 1.19181 1.19178 1.19155 1.19178 1.19064 1.1922 1.19113 1.19176 1.18971 1.18994 1.19278 1.19278 1.19388 1.1927 1.19343 1.19109 1.19208 1.19216 1.19216 1.19216 1.1931 1.19236 1.19144 1.19181 1.19174 1.19255 1.19129 1.1921 1.19352 1.19229 1.19196 1.19151 1.19195 1.19133 1.19263 1.19123 1.19089 1.19225 1.19211 1.1919 1.19185 1.19178 1.19165 1.19293 1.1928 1.19206 1.19204 1.19127 1.19183 1.19188 1.19161 1.19119 1.19171 1.19226 1.19193 1.19075 1.19277 1.19344 1.1938 1.19076 1.19582 1.19311 1.19441 1.19338 1.19178 1.19178 1.19432 1.19543 1.19169 1.19505 1.19197 1.19309 1.19275 1.1932 1.18935 1.19152 1.19159 1.19156 1.19214 1.19217 1.19262 1.19179 1.19282 1.18948 1.19159 1.19178 1.19178 1.19156 1.19182 1.19157 1.19223 1.19113 1.19177 1.1915 1.19216 1.19242 1.19141 1.19185 1.19172 1.19104 1.19166 1.19112 1.19055 1.19225 1.1913 1.19176 1.18967 1.19012 1.19266 1.19271 1.19376 1.19264 1.19331 1.19103 1.19193 1.19178 1.19114 1.19185 1.19076 1.19163 1.19164 1.19175 1.19149 1.19159 1.1925 1.19138 1.19211 1.19044 1.19074 1.19346 1.19138 1.19087 1.19256 1.19131 1.19132 1.19187 1.19237 1.19142 1.19155 1.19115 1.19082 1.19219 1.19188 1.1909 1.19099 1.19096 1.19203 1.19326 1.1929 1.19194 1.19253 1.1923 1.19183 1.19162 1.19139 1.19142 1.19241 1.18926 1.191 1.19267 1.19427 1.1921 1.18979 1.19283 1.19278 1.19466 1.1939 1.19249 1.19407 1.1948 1.19414 1.19185 1.19148 1.19395 1.19386 1.19708 1.19435 1.18944 1.18991 1.19164 1.19216 1.19291 1.1914 1.19167 1.19302 1.19381 1.19531 1.19077 1.19134 1.19127 1.19123 1.19146 1.19154 1.19182 1.19218 1.1918 1.191 1.19109 1.19153 1.19156 1.19098 1.19202 1.19113 1.19112 1.19128 1.19097 1.19209 1.19165 1.18966 1.19035 1.19192 1.19179 1.19273 1.1904 1.19301 1.19104 1.19197 1.19194 1.19181 1.19197 1.19178 1.18918 1.18901 1.19023 1.19169 1.19095 1.19187 1.19169 1.19257 1.19176 1.19179 1.19125 1.19146 1.19215 1.1906 1.19058 1.19127 1.19147 1.19176 1.19228 1.19178 1.19131 1.19064 1.19032 1.1905 1.19224 1.19187 1.19087 1.19172 1.19276 1.1923 1.19169 1.19278 1.19135 1.19117 1.19108 1.19103 1.19116 1.1929 1.1942 1.19513 1.19369 1.18965 1.19215 1.19163 1.19468 1.19387 1.19157 1.19155 1.19338 1.19358 1.19531 1.1932 1.1917 1.19337 1.19172 1.19143 1.19453 1.19696 1.19431 1.1906 1.18933 1.1933 1.19211 1.19262 1.18937 1.19056 1.19139 1.19531 1.19123 1.19085 1.1906 1.19101 1.19148 1.19141 1.19183 1.19151 1.19127 1.1921 1.19124 1.19062 1.19142 1.19289 1.19194 1.19115 1.19134 1.19119 1.19127 1.19031 1.19075 1.19124 1.19213 1.19244 1.19 1.19131 1.19197 1.19261 1.19262 1.19271 1.19199 1.19267 1.19195 1.19169 1.18921 1.19065 1.19171 1.19242 1.19152 1.19151 1.19194 1.191 1.19182 1.19131 1.19201 1.19158 1.19141 1.19186 1.19173 1.19107 1.19189 1.19113 1.19085 1.19112 1.19189 1.19202 1.19171 1.19092 1.19169 1.19178 1.19162 1.19106 1.19118 1.19192 1.1924 1.19193 1.19228 1.19318 1.19103 1.18965 1.19469 1.19344 1.19321 1.18778 1.19088 1.19175 1.19493 1.1935 1.19209 1.19167 1.19151 1.19445 1.19404 1.19136 1.19391 1.19405 1.1938 1.19494 1.19218 1.19145 1.19164 1.19105 1.19322 1.19253 1.19137 1.19142 1.19447 1.19519 1.19057 1.19489 1.19361 1.19155 1.19259 1.19178 1.18927 1.1914 1.1913 1.19178 1.19125 1.19258 1.191 1.19132 1.19115 1.1915 1.19072 1.18998 1.19095 1.19089 1.19241 1.19111 1.19177 1.191 1.19029 1.19127 1.19015 1.18988 1.19269 1.19016 1.19178 1.19112 1.19203 1.1924 1.19059 1.19247 1.19104 1.191 1.1919 1.19193 1.19156 1.19203 1.1891 1.1894 1.19029 1.19171 1.19178 1.19144 1.19158 1.19082 1.19207 1.19199 1.19166 1.19139 1.19184 1.19109 1.19178 1.19182 1.19221 1.19176 1.19089 1.19202 1.19095 1.19155 1.19098 1.1923 1.19211 1.19343 1.19238 1.19223 1.19096 1.19184 1.1945 1.19197 1.1943 1.19406 1.19247 1.19235 1.1929 1.19422 1.1939 1.19366 1.19509 1.19304 1.19291 1.19039 1.19406 1.1928 1.19398 1.19466 1.19317 1.19458 1.19381 1.19201 1.19207 1.19354 1.19132 1.19129 1.1912 1.19254 1.19186 1.19037 1.19025 1.18793 1.19109 1.19073 1.19103 1.19126 1.19148 1.19178 1.19161 1.19137 1.18989 1.19067 1.19068 1.19063 1.19257 1.19097 1.19186 1.19146 1.19189 1.19109 1.19036 1.18975 1.19029 1.19027 1.19264 1.19003 1.19178 1.19105 1.19195 1.19233 1.19059 1.1904 1.19173 1.19094 1.19169 1.19206 1.19183 1.19151 1.19203 1.19098 1.18939 1.19031 1.1901 1.19001 1.19012 1.18961 1.1914 1.19144 1.19158 1.19079 1.19186 1.19185 1.19202 1.19143 1.19183 1.191 1.19055 1.19018 1.19189 1.19179 1.19088 1.1916 1.19143 1.1906 1.19098 1.19338 1.19212 1.19178 1.19093 1.19305 1.19248 1.19343 1.19018 1.19178 1.1932 1.19629 1.19112 1.19178 1.19399 1.19404 1.19174 1.19252 1.19662 1.19156 1.19452 1.19352 1.19273 1.19497 1.1932 1.19289 1.19554 1.19267 1.19145 1.19144 1.19403 1.19467 1.19292 1.19202 1.19188 1.1917 1.19328 1.19337 1.19178 1.19133 1.19476 1.1909 1.19019 1.19106 1.18937 1.19125 1.19177 1.19178 1.19161 1.19169 1.19204 1.1908 1.19053 1.19037 1.19143 1.19048 1.19272 1.19298 1.19087 1.19102 1.19048 1.19113 1.18957 1.19031 1.19247 1.19001 1.19103 1.19065 1.19193 1.19222 1.19153 1.19105 1.19178 1.19162 1.19177 1.19186 1.19105 1.18957 1.19054 1.19002 1.19051 1.18971 1.19139 1.19105 1.19195 1.19075 1.19208 1.19119 1.19174 1.1913 1.19114 1.19145 1.19064 1.19063 1.19087 1.19029 1.19075 1.19167 1.19179 1.19192 1.19178 1.19133 1.19153 1.19054 1.19042 1.19132 1.19446 1.19233 1.1905 1.19081 1.19259 1.19247 1.19254 1.19263 1.19232 1.19098 1.19464 1.19688 1.19384 1.19399 1.19265 1.19219 1.19647 1.19127 1.19305 1.19438 1.19336 1.1942 1.19517 1.19284 1.19275 1.19529 1.19239 1.19241 1.19151 1.19427 1.19465 1.19268 1.19171 1.19251 1.19068 1.19239 1.19325 1.18907 1.19112 1.19459 1.19132 1.19088 1.19077 1.18986 1.19097 1.18926 1.19178 1.19112 1.19322 1.19177 1.19211 1.19121 1.19196 1.19027 1.19178 1.19072 1.19046 1.19176 1.19109 1.18987 1.18985 1.1919 1.1914 1.191 1.1916 1.19055 1.19092 1.19075 1.19103 1.19137 1.19178 1.19193 1.19173 1.19187 1.19048 1.19217 1.1921 1.18906 1.18908 1.19009 1.19178 1.18964 1.19099 1.19105 1.19165 1.19195 1.19131 1.19178 1.19197 1.19158 1.19132 1.19149 1.19117 1.1906 1.19119 1.19136 1.19127 1.19178 1.19073 1.1918 1.19177 1.19183 1.1912 1.19091 1.19155 1.19442 1.19212 1.19171 1.19015 1.19332 1.19091 1.19244 1.19246 1.19182 1.19168 1.19622 1.1948 1.1919 1.19438 1.19313 1.19256 1.1964 1.19456 1.19231 1.19188 1.19345 1.19467 1.19323 1.19257 1.1949 1.19262 1.19249 1.19369 1.19212 1.19149 1.1939 1.19163 1.19433 1.18666 1.19178 1.1921 1.19229 1.19091 1.19135 1.19068 1.18985 1.19011 1.19122 1.19181 1.19133 1.19181 1.19177 1.19189 1.19113 1.19106 1.19013 1.19292 1.19018 1.1899 1.19072 1.19115 1.19088 1.19074 1.18985 1.19149 1.19103 1.19113 1.19052 1.19051 1.19155 1.19178 1.19054 1.19103 1.19154 1.1915 1.19201 1.19159 1.1915 1.19192 1.19164 1.18934 1.19063 1.19131 1.18964 1.19141 1.19163 1.19124 1.1918 1.1919 1.19159 1.19135 1.19178 1.19177 1.19196 1.19183 1.19072 1.19284 1.19304 1.19164 1.19179 1.1905 1.19075 1.19192 1.19184 1.19164 1.19218 1.19111 1.19115 1.1915 1.19021 1.19271 1.19215 1.19276 1.19172 1.19339 1.19426 1.19538 1.19458 1.19691 1.19474 1.19299 1.19169 1.19497 1.1945 1.19514 1.19312 1.19194 1.19171 1.19341 1.19354 1.19207 1.19118 1.19387 1.19178 1.19307 1.18777 1.18952 1.19136 1.19168 1.19184 1.1903 1.19001 1.19197 1.19206 1.19125 1.19274 1.19043 1.18951 1.19059 1.1911 1.18967 1.19149 1.19179 1.19127 1.19064 1.19088 1.19016 1.19027 1.19178 1.19067 1.19019 1.19178 1.19129 1.19276 1.19142 1.19179 1.19177 1.19003 1.19022 1.19293 1.19115 1.19051 1.19048 1.1917 1.19022 1.19103 1.1915 1.19181 1.1918 1.19158 1.1915 1.19175 1.19162 1.19164 1.19141 1.19123 1.18953 1.19136 1.19165 1.19128 1.19181 1.19167 1.19128 1.19129 1.19165 1.19186 1.19123 1.19192 1.19201 1.19285 1.19151 1.19166 1.19123 1.19242 1.19149 1.19218 1.19187 1.19038 1.19188 1.19058 1.1911 1.1898 1.19269 1.19275 1.19289 1.192 1.19156 1.19333 1.19392 1.19549 1.1947 1.19551 1.19498 1.19178 1.1922 1.18903 1.19182 1.19161 1.19553 1.20008 1.19204 1.19753 1.19291 1.19178 1.19254 1.19177 1.19408 1.1965 1.19332 1.18791 1.19151 1.19183 1.19188 1.19212 1.1922 1.19075 1.19263 1.19035 1.19034 1.19183 1.19121 1.19144 1.19181 1.1901 1.19145 1.19089 1.18981 1.19002 1.19028 1.19121 1.19128 1.19108 1.18989 1.19108 1.19286 1.19165 1.19179 1.19212 1.19117 1.19183 1.19157 1.19064 1.19204 1.19181 1.19143 1.19052 1.19059 1.19091 1.19187 1.19174 1.19178 1.19178 1.19175 1.19161 1.19163 1.19139 1.19178 1.18965 1.19144 1.19174 1.19178 1.19178 1.19167 1.19178 1.19126 1.19122 1.1916 1.19157 1.19113 1.19179 1.19197 1.19194 1.19183 1.19065 1.19179 1.19213 1.19172 1.19145 1.19199 1.19028 1.19175 1.19059 1.19032 1.18973 1.18998 1.19251 1.19139 1.192 1.19148 1.19332 1.19355 1.19497 1.19187 1.19511 1.19402 1.19319 1.19405 1.19006 1.19247 1.19912 1.19017 1.1929 1.19064 1.1975 1.19246 1.1906 1.19171 1.19208 1.19467 1.19325 1.19084 1.19478 1.19021 1.1909 1.19178 1.19032 1.19173 1.19095 1.19155 1.19228 1.19266 1.1904 1.19186 1.19165 1.1919 1.19132 1.19178 1.19197 1.19178 1.1911 1.19185 1.19122 1.19122 1.19102 1.18973 1.19092 1.19111 1.19166 1.19153 1.19182 1.19112 1.19179 1.19156 1.19074 1.19133 1.19092 1.19033 1.19066 1.19149 1.1915 1.19168 1.19178 1.19178 1.19176 1.19162 1.19165 1.19178 1.19178 1.19178 1.19147 1.19174 1.19178 1.19176 1.19178 1.19124 1.1916 1.19156 1.19181 1.19178 1.19158 1.1914 1.19161 1.19066 1.19162 1.19213 1.19069 1.19048 1.19028 1.18954 1.1911 1.19011 1.18977 1.19068 1.19091 1.1923 1.19101 1.19297 1.19207 1.19368 1.19232 1.19569 1.19374 1.19846 1.19522 1.19114 1.1932 1.19685 1.18983 1.19346 1.1922 1.19758 1.19107 1.19115 1.19419 1.19384 1.19028 1.19068 1.19076 1.19154 1.19137 1.19138 1.19175 1.19104 1.19089 1.1906 1.19187 1.19187 1.19184 1.19206 1.19112 1.19183 1.1913 1.19197 1.19111 1.19092 1.1911 1.19178 1.19175 1.19198 1.1912 1.19157 1.19082 1.18989 1.19094 1.19117 1.19112 1.19083 1.19085 1.19148 1.19149 1.19178 1.19178 1.19178 1.19175 1.19162 1.19165 1.19178 1.19178 1.19178 1.19147 1.19178 1.19178 1.19178 1.19178 1.19178 1.19177 1.19123 1.1916 1.19156 1.19169 1.19169 1.1918 1.19184 1.19082 1.19166 1.1913 1.19192 1.1908 1.19126 1.19182 1.18921 1.19109 1.19027 1.18836 1.19048 1.19184 1.19198 1.19355 1.19238 1.19819 1.19508 1.18788 1.19459 1.19327 1.19759 1.18986 1.19308 1.19357 1.19517 1.19036 1.19159 1.19137 1.18978 1.19311 1.18925 1.18949 1.18793 1.19305 1.1876 1.18777 1.19027 1.1912 1.19188 1.19176 1.19177 1.19097 1.19087 1.19076 1.19108 1.19091 1.19057 1.19118 1.19189 1.19125 1.19193 1.19121 1.19105 1.19165 1.19213 1.19042 1.18963 1.19034 1.19118 1.19148 1.19149 1.19155 1.19119 1.19165 1.19165 1.18974 1.19102 1.19139 1.19167 1.19066 1.19052 1.18997 1.18696 1.18931 1.19013 1.19151 1.19066 1.18995 1.19148 1.19304 1.19266 1.19854 1.19401 1.19461 1.19109 1.19398 1.19483 1.19798 1.19412 1.19138 1.19432 1.19012 1.19151 1.19123 1.18995 1.19289 1.1892 1.19096 1.19178 1.19124 1.19115 1.19177 1.1915 1.19099 1.19097 1.18982 1.19003 1.19435 1.18956 1.19347 1.19331 1.19364 1.19024 1.19318 1.19478 1.19431 1.20123 1.19178 1.19412 1.19788 1.19804 1.19424 1.18954 1.19047 1.18751 1.18902 1.19311 1.19175 1.19422 1.19136 1.19499 1.19398 1.19452 1.19266 1.19265 1.19463 1.19051 1.19867 1.19816 1.19692 1.1983 1.1961 1.19327 1.18726 1.18688 1.19312 1.18926 1.19036 1.19084 1.1923 1.19155 1.19525 1.19331 1.19479 1.19453 1.19256 1.19621 1.19033 1.19904 1.20066 1.19777 1.18857 1.19625 1.19321 1.19553 1.18686 1.18712 1.18681 1.19234 1.19178 1.19314 1.18909 1.19348 1.1933 1.19355 1.19254 1.19737 1.19463 1.19877 1.20083 1.18827 1.19525 1.19841 1.18885 1.18886 1.18963 1.18313 1.18909 1.19673 1.19178 1.19178 1.19178 1.19178 1.19373 1.1927 1.19502 1.19198 1.19239 1.20042 1.19196 1.19681 1.19691 1.1987 1.20328 1.1912 1.19398 1.19477 1.20285 1.18581 1.19216 1.19358 1.19178 1.19178 1.19178 1.19178 1.19178 1.19178 1.19178 1.19178 1.19178 1.19178 1.19178 1.19178 1.19178 1.19178 1.19178 1.19178 1.19178 1.19178 1.19178 1.194 1.1936 1.19471 1.19855 1.1926 1.19392 1.19028 1.19674 1.19594 1.19659 1.20272 1.19062 1.19336 1.1943 1.19929 1.18882 1.19668 1.19197 1.19335 1.19477 1.19178 1.19178 1.19178 1.19178 1.19178 1.19178 1.19178 1.19178 1.19178 1.19178 1.19178 1.19178 1.19178 1.19178 1.19178 1.19178 1.19178 1.19178 1.19178 1.19178 1.19178 1.19178 1.19178 1.19178 1.19178 1.19178 1.19178 1.19178 1.19178 1.19178 1.19197 1.19197 1.19337 1.19574 1.19255 1.19079 1.19944 1.19133 1.19292 1.18827 1.19764 1.20154 1.19522 1.19642 1.19029 1.20271 1.19081 1.1915 1.1964 1.19689 1.2044 1.19543 1.19245 1.193 1.19447 1.18693 1.19178 1.19178 1.19178 1.19178 1.19178 1.19178 1.19178 1.19178 1.19178 1.19178 1.19178 1.19178 1.19178 1.19178 1.19178 1.19178 1.19178 1.19178 1.19178 1.19178 1.19178 1.19178 1.19178 1.19178 1.19178 1.19178 1.19178 1.19178 1.19178 1.19178 1.19178 1.19178 1.19178 1.19283 1.19178 1.19178 1.19178 1.19273 1.19672 1.21001 1.19212 1.19273 1.1929 1.19471 1.19581 1.1984 1.19602 1.18973 1.2007 1.19595 1.19529 1.20324 1.18928 1.19177 1.19298 1.20043 1.19997 1.19068 1.19208 1.19748 1.19578 1.19322 1.19223 1.19176 1.19182 1.19178 1.19178 1.19208 1.19178 1.20663 1.19178 1.19178 1.19178 1.19178 1.19178 1.19178 1.19178 1.19178 1.19178 1.19178 1.19178 1.19178 1.19178 1.19178 1.19178 1.19178 1.19178 1.19178 1.19178 1.19178 1.19178 1.19178 1.19178 1.19178 1.19178 1.19178 1.19178 1.19178 1.19363 1.19199 1.21057 1.19178 1.19178 1.19178 1.19178 1.19212 1.19348 1.18327 1.19888 1.18997 1.21324 1.19513 1.19509 1.19889 1.1989 1.1878 1.19922 1.19605 1.19469 1.19009 1.18787 1.18348 1.19141 1.19595 1.19308 1.19526 1.18867 1.20015 1.1924 1.19178 1.19256 1.19175 1.19016 1.25414 1.19178 1.19178 1.19178 1.19178 1.19178 1.19178 1.19178 1.19178 1.19178 1.19178 1.19178 1.19178 1.19178 1.19178 1.19178 1.19178 1.19177 1.19178 1.19178 1.19178 1.19178 1.19178 1.19178 1.19178 1.19178 1.19178 1.19178 1.19178 1.19178 1.19178 1.19178 1.19178 1.20157 1.25239 1.24971 1.19178 1.19178 1.19178 1.19178 1.19063 1.19178 1.19202 1.19444 1.19466 1.2118 1.17631 1.19332 1.19352 1.19812 1.18679 1.1978 1.19557 1.19563 1.19091 1.19861 1.19178 1.18839 1.19265 1.19419 1.19373 1.20259 1.20518 1.1837 1.19204 1.19196 1.19252 1.19261 1.19178 1.19178 1.19178 1.22135 1.19178 1.19178 1.19178 1.19178 1.19178 1.19178 1.19178 1.19178 1.19178 1.19178 1.19178 1.19178 1.19178 1.19178 1.19178 1.19178 1.19178 1.19178 1.19178 1.19178 1.19178 1.19178 1.19178 1.19172 1.19178 1.32906 1.37828 1.19178 1.19178 1.20026 1.17616 1.15113 1.19178 1.19178 1.22595 1.2439 1.1629 1.19178 1.19178 1.19151 1.19003 1.1906 1.19488 1.16924 1.23394 1.19443 1.2632 1.21226 1.18818 1.20428 1.19081 1.19854 1.19598 1.19478 1.21578 1.19489 1.17823 1.19388 1.18172 1.18935 1.1951 1.23158 1.18949 1.19062 1.18952 1.19161 1.19178 1.18919 1.186 1.1921 1.19178 1.20838 1.17667 1.18831 1.19178 1.19178 1.19178 1.19178 1.19178 1.19178 1.19178 1.19178 1.19178 1.19178 1.19178 1.19179 1.19178 1.19233 1.19178 1.19178 0.284769 0.505682 0.708581 3.37699 0.673343 0.451955 0.423679 0.308455 0.428547 0.932743 1.6007 3.05169 1.24271 0.66312 0.556456 0.538427 1.19178 0.36742 0.28134 1.19177 0.511219 0.458113 0.435463 0.52654 1.46492 1.30083 2.96861 1.88847 0.381699 0.345855 1.24664 0.437579 1.51677 0.569627 1.27588 1.18905 1.11361 1.16421 0.0469296 0.203086 0.222224 0.25426 0.195737 1.16568 1.60369 1.63186 3.6671 1.02986 0.880274 0.474073 0.303382 1.19178 0.275908 0.25711 0.312774 0.348192 0.28623 0.246764 0.240612 1.19178 1.26579 1.20957 1.17227 1.19178 1.21225 1.20891 1.19273 1.19658 1.19499 1.19603 1.215 1.19019 1.18385 1.17421 1.19314 1.20253 1.192 1.24654 1.25673 1.19714 1.19178 1.19317 1.18841 0.860912 0.572703 4.39908 1.02575 0.285676 0.348029 1.19794 0.335758 1.19186 1.20447 1.18385 0.670238 1.19436 1.15393 0.261915 1.18805 1.07675 0.189772 0.423697 0.204316 0.31334 1.19176 0.407496 0.429207 1.19171 0.362912 0.358062 0.296841 0.246606 0.191345 0.111084 0.0900737 0.365453 0.403028 0.250772 1.19177 0.29296 0.292406 1.19178 0.112542 0.052163 0.127412 0.0420968 0.0591933 0.0187097 0.124608 0.145224 0.186389 0.115327 0.101746 0.300642 1.19178 1.19 1.19176 0.296781 0.0660791 0.181152 0.0706604 0.127402 0.0693357 0.25461 0.358089 0.268814 0.161273 2.29823 1.26423 1.58376 0.66212 0.949265 0.641684 0.243655 0.280358 0.382971 0.575307 0.353364 0.782923 1.03839 1.61592 0.982772 1.10504 0.696902 0.485007 0.227726 0.405542 0.343613 0.358678 0.37454 0.119163 0.267066 0.243532 0.524354 0.348307 0.483088 0.340826 0.705482 0.0929519 1.08715 1.61442 1.6388 0.888758 0.67589 0.455157 0.244122 0.0892475 0.453201 0.325079 1.09599 0.756907 0.732619 0.889113 0.741191 0.290076 0.258556 0.355717 0.146671 0.499408 0.504067 0.50301 0.178257 0.639576 0.564767 0.581559 0.428882 1.93745 1.09641 0.743191 0.63057 0.482545 0.655661 0.683559 0.39419 0.40158 0.387247 0.505045 0.544757 0.376298 0.274384 0.312639 0.243955 0.185008 0.218389 1.24927 1.13425 1.24788 1.17247 1.21614 1.20504 1.20503 1.19559 1.19035 1.18727 1.18987 1.18798 1.18423 1.19403 1.19487 1.28572 1.25608 1.18375 1.18329 0.360752 0.422629 0.292946 0.515432 0.398838 0.448025 0.32637 1.65194 0.556143 1.24021 0.128898 0.511534 0.550979 0.700112 0.633285 0.737577 0.252681 0.313701 0.693532 0.713536 0.876508 0.993831 0.135201 0.600619 0.180214 0.457946 0.582276 0.322532 0.291885 0.247136 0.616483 0.388043 0.388447 0.45032 0.419427 0.439662 0.268979 0.395535 0.200184 0.127332 0.195957 0.279502 0.291583 0.191424 0.409237 0.50743 0.386449 0.220484 0.246571 0.374016 0.21955 0.0780682 0.112883 0.0690189 0.0672697 0.0260917 0.107851 0.104807 0.155296 0.0548112 0.230586 0.131827 0.140831 0.260875 0.356333 0.412363 0.174256 0.413101 0.618815 0.758994 0.353345 0.507083 0.147973 0.253909 0.0888326 0.4071 0.324833 0.287667 0.14127 0.268709 0.457991 0.345017 0.918738 0.55489 0.591314 0.371456 0.528915 0.684925 0.593184 0.484685 0.6045 0.674455 0.667928 0.574191 0.535316 0.188722 0.253372 0.340113 0.264349 0.349245 0.238277 0.377239 0.346253 0.320429 0.305637 0.383965 0.243262 0.42081 0.688164 0.479105 1.00213 0.769951 1.16978 0.888863 0.956316 0.639586 0.469168 0.305612 0.391355 0.910263 0.923058 0.975489 0.608558 0.829781 0.76019 0.539997 0.0454477 0.286686 0.385148 0.459968 0.422898 0.828985 0.646087 1.01644 0.111817 0.576527 0.381087 0.489671 0.228799 0.208677 0.380445 0.309133 0.319046 0.287064 0.361983 0.298165 0.182851 0.273518 0.230985 0.237852 1.25691 1.15192 1.15073 1.35342 1.14875 1.17735 1.21588 1.22692 1.19387 1.18578 1.1873 1.19412 1.18862 1.19795 1.21287 1.18735 1.18879 1.15422 1.13226 0.531029 0.475586 0.355022 0.45587 0.43532 0.219995 0.311747 0.531021 0.283743 0.361126 0.212453 0.543756 0.473302 0.248227 1.09424 0.645414 0.732737 0.685326 0.462255 0.896138 0.531049 0.505584 0.246103 0.360504 0.241242 0.253205 0.287785 0.305188 0.335222 0.274791 0.360935 0.289902 0.297225 0.326548 0.321299 0.270544 0.322774 0.238657 0.189892 0.116906 0.341465 0.346155 0.554811 0.245295 0.159858 0.182718 0.139856 0.127384 0.119078 0.207358 0.21602 0.150237 0.126393 0.215542 0.196948 0.142263 0.132909 0.221298 0.27887 0.42173 0.186271 0.263362 0.185064 0.428135 0.295777 0.203292 0.327576 0.345744 0.317026 0.376482 0.307853 0.56363 0.376849 0.392493 0.392511 0.624824 0.137259 0.500932 0.598642 0.416618 0.163053 0.314165 0.425426 0.386847 0.241883 0.30305 0.342284 0.398625 0.344911 0.376682 0.380768 0.414509 0.665443 0.602844 0.824162 0.690524 0.738389 0.717953 0.64607 0.613511 0.512409 0.591337 0.597832 0.552505 0.857887 0.693618 0.705683 0.539283 0.56891 0.459332 0.210413 0.544427 0.555436 0.408243 0.483394 0.461875 0.487134 0.83868 0.352642 0.414301 0.285482 0.339618 0.438481 0.413294 0.164095 0.325325 0.225438 0.325563 0.313239 0.356575 0.332723 0.342665 0.244901 0.324877 1.20964 1.16121 1.14019 1.18599 1.14634 1.14289 1.13971 1.2247 1.17518 1.1874 1.1881 1.17755 1.18713 1.19389 1.21095 1.18691 1.18856 1.18487 1.17046 1.13914 1.144 0.51045 0.529448 0.410224 0.466566 0.289877 0.350394 0.307048 0.275324 0.372044 0.390754 0.293635 0.630735 0.32659 0.494768 0.502249 0.695052 0.68653 0.885071 0.599551 0.478581 0.345375 0.324239 0.325166 0.339185 0.367321 0.26344 0.306198 0.25555 0.200573 0.231399 0.351356 0.369012 0.39038 0.362935 0.392381 0.290913 0.163375 0.353371 0.325225 0.259537 0.28892 0.215426 0.217817 0.250108 0.197578 0.134075 0.232267 0.198248 0.248855 0.27258 0.248174 0.290559 0.38485 0.225175 0.382657 0.146262 0.297156 0.323281 0.231424 0.256744 0.31714 0.321544 0.331533 0.326462 0.287646 0.34367 0.280577 0.348435 0.53175 0.345664 0.483723 0.472595 0.441527 0.553888 0.390062 0.413913 0.402734 0.46318 0.404481 0.395872 0.297365 0.357594 0.369991 0.385393 0.393279 0.398182 0.390937 0.512543 0.424426 0.487392 0.584319 0.67982 0.655386 0.588576 0.644754 0.628264 0.625507 0.673528 0.589784 0.635479 0.540533 0.678811 0.560676 0.509673 0.487126 0.551039 0.482099 0.509222 0.411376 0.530722 0.567129 0.621974 0.552926 0.286164 0.478167 0.203944 0.243725 0.277971 0.382522 0.404886 0.403424 0.415472 0.419954 0.349698 0.4051 0.404134 0.356378 0.365411 0.329726 0.311339 0.261486 1.17159 1.17442 1.14881 1.16303 1.15212 1.13076 1.2712 1.17295 1.17415 1.1754 1.18734 1.18426 1.1924 1.21059 1.18612 1.18578 1.17298 1.17805 1.17786 1.26983 1.19177 0.511791 0.55895 0.555183 0.521936 0.437739 0.493289 0.383942 0.47299 0.458678 0.447048 0.422855 0.542143 0.451658 0.574921 0.52673 0.596157 0.675322 0.584959 0.515229 0.428491 0.449085 0.448972 0.390092 0.374316 0.345777 0.377774 0.354075 0.366803 0.266497 0.290246 0.360275 0.325093 0.374557 0.38595 0.328596 0.296458 0.276776 0.247236 0.331709 0.255539 0.221199 0.305811 0.283344 0.263225 0.293805 0.27033 0.257465 0.259331 0.242294 0.330756 0.323587 0.31184 0.337038 0.326258 0.396451 0.369115 0.413842 0.363039 0.382134 0.234288 0.325893 0.298528 0.305053 0.299974 0.312739 0.316252 0.344081 0.346373 0.39574 0.371068 0.400286 0.394381 0.491707 0.424222 0.451579 0.384157 0.385457 0.400531 0.408234 0.420317 0.40081 0.405489 0.403085 0.401578 0.413241 0.451684 0.449679 0.522709 0.412371 0.567351 0.638293 0.5861 0.665679 0.602881 0.607435 0.569555 0.521299 0.474495 0.492213 0.48107 0.463562 0.521753 0.483656 0.527998 0.518011 0.621982 0.506813 0.287712 0.333162 0.380298 0.453537 0.466323 0.44515 0.44209 0.436831 0.397504 0.415442 0.382281 1.25127 1.18836 1.17958 1.16469 1.14759 1.14876 1.17011 1.17427 1.17416 1.1773 1.18592 1.18454 1.19236 1.17553 1.19082 1.20278 1.18915 1.17462 1.07338 1.18287 1.16344 0.529098 0.529682 0.544536 0.539788 0.475953 0.50381 0.511386 0.515177 0.510513 0.538915 0.618866 0.604696 0.524024 0.411266 0.30684 0.638749 0.647568 0.638223 0.584181 0.619327 0.589539 0.540109 0.49362 0.478139 0.456325 0.419055 0.446034 0.41171 0.396503 0.395566 0.353893 0.414287 0.388883 0.383996 0.394679 0.356853 0.306187 0.307391 0.272552 0.300656 0.280286 0.305694 0.32807 0.31248 0.306464 0.300034 0.35009 0.343383 0.306536 0.335343 0.350852 0.351472 0.338302 0.387386 0.398613 0.389954 0.398471 0.388612 0.395361 0.367387 0.294496 0.379842 0.370816 0.349297 0.301248 0.301879 0.311418 0.311527 0.370691 0.430632 0.436988 0.463017 0.459958 0.41034 0.433694 0.438027 0.430568 0.438145 0.435639 0.453965 0.422323 0.4028 0.421793 0.409927 0.414836 0.395258 0.495694 0.50894 0.548844 0.416664 0.574527 0.558402 0.556423 0.489014 0.533083 0.503408 0.486709 0.477582 0.487294 0.474209 0.47059 0.496306 0.542865 0.562466 0.608192 0.521667 0.255144 0.343601 0.395694 0.491893 0.428567 0.469299 0.503675 0.458924 0.476135 0.474072 0.453876 0.443377 0.423865 0.425041 0.441176 0.403319 1.19177 1.18177 1.14966 1.13068 1.17229 1.15764 1.15905 1.17425 1.18112 1.17197 1.17418 1.18542 1.18815 1.19274 1.17201 1.20472 1.19231 1.193 1.16957 1.09417 1.16122 0.539864 0.536221 0.512299 0.510259 0.502853 0.50351 0.502373 0.519613 0.527383 0.548328 0.567659 0.579171 0.576725 0.609005 0.574256 0.583318 0.693464 0.598724 0.575516 0.559801 0.570922 0.509738 0.501864 0.497994 0.479777 0.480603 0.464618 0.45651 0.439993 0.429968 0.433167 0.42661 0.4487 0.430868 0.412442 0.427692 0.396079 0.35544 0.383972 0.347771 0.36043 0.331411 0.364705 0.322946 0.336681 0.35376 0.337308 0.36925 0.352117 0.37518 0.36511 0.365139 0.372842 0.402092 0.405371 0.399446 0.403051 0.403102 0.42343 0.396332 0.371027 0.403736 0.309796 0.330886 0.351423 0.40116 0.443612 0.449487 0.466272 0.482599 0.445652 0.478638 0.452644 0.444413 0.435304 0.433054 0.446646 0.472102 0.470001 0.492738 0.361701 0.349255 0.402948 0.383074 0.425436 0.477128 0.480316 0.480436 0.539516 0.538024 0.530395 0.487325 0.504029 0.477071 0.466088 0.467667 0.549495 0.558104 0.547638 0.547392 0.531396 0.251868 0.489678 0.436349 0.584163 0.501532 0.490413 0.476106 0.468919 0.46081 0.434634 0.458211 0.455899 1.19175 1.16108 1.18114 1.15944 1.16745 1.17575 1.18291 1.18303 1.17344 1.18521 1.19143 1.21767 1.19681 1.19291 1.18279 1.19177 1.17405 1.12878 0.548193 0.511708 0.497904 0.518662 0.505789 0.534957 0.553124 0.57015 0.575431 0.624303 0.629044 0.572219 0.564283 0.488265 0.520299 0.50343 0.510742 0.500052 0.483041 0.471178 0.465223 0.454174 0.461234 0.466497 0.454506 0.474656 0.461079 0.460343 0.474022 0.447416 0.471032 0.442513 0.418983 0.426111 0.40321 0.391644 0.367564 0.358847 0.389436 0.387406 0.377851 0.384693 0.388992 0.397798 0.395349 0.414682 0.393728 0.390788 0.41424 0.40044 0.425394 0.415779 0.42713 0.423671 0.438721 0.429088 0.451341 0.440087 0.438196 0.457766 0.441201 0.332967 0.3643 0.378467 0.417539 0.456586 0.471155 0.486922 0.487786 0.470398 0.457375 0.46815 0.407977 0.427883 0.441109 0.435105 0.488237 0.354072 0.396838 0.461022 0.487175 0.472995 0.495077 0.503834 0.519769 0.542812 0.51238 0.499724 0.488933 0.505896 0.487306 0.478595 0.464354 0.545852 0.537403 0.551394 0.530375 0.701554 0.557808 0.401412 0.320439 0.411507 0.571458 0.508973 0.507877 0.488817 0.485423 0.474126 0.469809 0.467925 1.16882 1.16227 1.18195 1.19178 1.16062 1.17536 1.17877 1.1853 1.17068 1.17249 1.18734 1.18065 1.18863 1.21608 1.17994 1.19762 1.15197 1.1757 1.12784 1.08029 0.518476 0.496612 0.504776 0.502687 0.519815 0.505077 0.539019 0.524958 0.561765 0.545815 0.564812 0.571002 0.593286 0.571714 0.593796 0.592892 0.564588 0.53023 0.517756 0.501491 0.485915 0.467107 0.461459 0.473343 0.483711 0.486497 0.460243 0.454064 0.435935 0.428038 0.435826 0.417586 0.397551 0.412375 0.402398 0.407751 0.412403 0.414628 0.403496 0.427271 0.431268 0.414273 0.416863 0.429033 0.431469 0.449504 0.438192 0.462595 0.469681 0.460173 0.462566 0.453223 0.458563 0.362827 0.387658 0.397603 0.425816 0.456 0.47586 0.479333 0.48899 0.492908 0.487891 0.493987 0.460371 0.486355 0.429713 0.441118 0.439398 0.552075 0.495366 0.389913 0.625735 0.442594 0.476975 0.483717 0.482241 0.469039 0.509748 0.509269 0.490734 0.514747 0.497276 0.488547 0.539761 0.484706 0.498178 0.514858 0.481931 0.490489 0.523731 0.56888 0.557921 0.604743 0.587806 0.545722 0.519783 0.431579 0.549222 0.45814 0.519609 0.503532 0.495112 0.504094 0.475929 1.16994 1.18031 1.18886 1.1903 1.19265 1.18051 1.18138 1.18787 1.19546 1.17466 1.19178 1.18106 1.18944 1.20027 1.17869 1.19021 1.25118 1.17762 1.13564 1.12621 0.50126 0.472643 0.506228 0.503122 0.500822 0.533011 0.517995 0.553431 0.549356 0.560943 0.577546 0.575696 0.567391 0.573242 0.545425 0.521151 0.501719 0.470025 0.490222 0.452755 0.442704 0.46769 0.47921 0.489662 0.492864 0.50162 0.488379 0.496994 0.468934 0.45897 0.444146 0.435983 0.426555 0.426453 0.42366 0.422041 0.431852 0.421971 0.449383 0.438624 0.44715 0.443465 0.433369 0.442437 0.449689 0.447959 0.46204 0.474681 0.476038 0.477658 0.474962 0.484201 0.471905 0.476253 0.464254 0.394084 0.370247 0.417379 0.416142 0.417251 0.393513 0.430807 0.4741 0.480964 0.490865 0.497875 0.500616 0.489643 0.517684 0.509092 0.499001 0.452611 0.439965 0.441545 0.46269 0.480829 0.554911 0.492725 0.502232 0.46413 0.4858 0.461981 0.465969 0.485789 0.478303 0.522848 0.479634 0.502128 0.485918 0.480772 0.499599 0.501416 0.526719 0.554383 0.569873 0.561441 0.567511 0.557421 0.526956 0.463499 0.489107 0.471514 0.522755 0.524929 0.509952 0.51565 0.509154 0.477649 0.498593 0.470647 0.475046 1.19178 1.20367 1.19227 1.19157 1.19178 1.18529 1.1855 1.19174 1.19292 1.19305 1.18031 1.19563 1.18233 1.1891 1.19327 1.17213 1.19717 1.21491 1.1654 1.11911 1.18612 0.500258 0.475351 0.502042 0.497523 0.500388 0.534126 0.54958 0.556591 0.560303 0.548623 0.570236 0.561722 0.560805 0.558566 0.558356 0.540841 0.516489 0.512227 0.513597 0.503149 0.440754 0.467107 0.484163 0.49171 0.506307 0.495219 0.516913 0.460726 0.435189 0.439415 0.44138 0.425135 0.455054 0.440255 0.449921 0.449582 0.459189 0.451054 0.460006 0.459046 0.452522 0.447994 0.46386 0.484478 0.474354 0.487903 0.482209 0.490548 0.482811 0.480867 0.465703 0.468706 0.406779 0.445584 0.417713 0.438269 0.478891 0.480393 0.49258 0.491434 0.506515 0.508559 0.51659 0.515501 0.503901 0.533865 0.512473 0.454205 0.470635 0.494237 0.508885 0.540261 0.48324 0.486318 0.425106 0.433253 0.479455 0.499019 0.50289 0.491273 0.490494 0.480401 0.508745 0.522858 0.554543 0.567733 0.562256 0.566663 0.56017 0.539545 0.493222 0.520985 0.491095 0.516121 0.502866 0.535071 0.521595 0.514234 0.514444 0.498079 0.471325 1.19178 1.19178 1.19128 1.19178 1.19202 1.18768 1.18643 1.19121 1.18173 1.18724 1.18757 1.18558 1.17591 1.1874 1.19174 1.15547 1.06312 1.16601 1.18049 0.480411 0.496649 0.495193 0.492987 0.494306 0.495388 0.529761 0.555489 0.550035 0.561359 0.556694 0.549218 0.555131 0.546389 0.538045 0.513161 0.53812 0.507301 0.553208 0.459796 0.491573 0.538679 0.491521 0.448433 0.418821 0.461759 0.486093 0.452091 0.460402 0.466912 0.458462 0.466413 0.457895 0.468885 0.465783 0.452782 0.462792 0.47701 0.502208 0.496571 0.503192 0.488991 0.487062 0.496462 0.48019 0.47017 0.423192 0.409849 0.468247 0.487013 0.4294 0.435986 0.471935 0.497264 0.504756 0.513491 0.518513 0.519924 0.540831 0.455867 0.475423 0.49373 0.512133 0.515743 0.508351 0.508047 0.479876 0.4345 0.45805 0.478596 0.47114 0.491267 0.49687 0.491988 0.492271 0.496508 0.525439 0.554651 0.543217 0.562444 0.562538 0.544159 0.567929 0.515602 0.521694 0.514924 0.509144 0.530678 0.507345 0.502377 0.458598 1.14905 1.1814 1.19043 1.19178 1.19182 1.18761 1.18703 1.19116 1.18646 1.18277 1.19178 1.19178 1.19178 1.1769 1.19207 1.18985 1.16152 1.17907 1.19117 1.16895 0.485015 0.494064 0.493324 0.490996 0.483995 0.582033 0.553205 0.531241 0.542079 0.547619 0.548478 0.551305 0.551124 0.539668 0.531158 0.510034 0.527262 0.503315 0.546198 0.572785 0.514998 0.49225 0.364042 0.515562 0.474752 0.445463 0.466594 0.471169 0.471851 0.48065 0.472709 0.47811 0.470398 0.461917 0.459022 0.468192 0.456105 0.471741 0.491492 0.507285 0.515877 0.492058 0.485484 0.475049 0.475219 0.472302 0.482191 0.569652 0.479935 0.434993 0.483985 0.51374 0.505044 0.526498 0.527033 0.513728 0.551642 0.467806 0.542018 0.478985 0.490982 0.480162 0.495346 0.495961 0.477592 0.475748 0.444049 0.434989 0.457122 0.471374 0.486239 0.488882 0.496615 0.494998 0.515468 0.506778 0.502995 0.497337 0.504671 0.546173 0.532261 0.555026 0.552962 0.582181 0.550467 0.512429 0.516865 0.522158 0.501171 0.535995 0.533289 0.540211 0.530142 0.454711 0.489248 0.490943 0.492202 0.492898 0.485881 0.47283 0.581478 0.542201 0.527094 0.534235 0.538513 0.544763 0.547033 0.551676 0.549846 0.537196 0.512828 0.534383 0.560802 0.496155 0.570383 0.519758 0.57226 0.363367 0.526587 0.535254 0.48727 0.501659 0.465748 0.477237 0.480115 0.481565 0.478498 0.479355 0.468633 0.461281 0.464623 0.477328 0.450733 0.476954 0.505978 0.518754 0.487777 0.491144 0.474849 0.473233 0.535221 0.521213 0.456725 0.512446 0.434474 0.511829 0.538329 0.53095 0.538876 0.501818 0.552056 0.499067 0.495928 0.483446 0.487781 0.508865 0.384403 0.453814 0.470794 0.438268 0.447991 0.449532 0.478022 0.488214 0.498376 0.502006 0.506034 0.509619 0.51374 0.503634 0.508757 0.499562 0.496875 0.499892 0.583875 0.50938 0.607558 0.571905 0.514242 0.508278 0.527043 0.529345 0.534562 0.538318 0.449686 0.533606 0.487665 0.489221 0.487187 0.47734 0.518527 0.567719 0.536308 0.549673 0.554264 0.546325 0.542502 0.626151 0.501942 0.592084 0.545914 0.509247 0.449349 0.499043 0.675644 0.551146 0.446217 0.527442 0.488799 0.476208 0.485789 0.477317 0.460465 0.48139 0.463843 0.471398 0.46347 0.464919 0.488267 0.438171 0.485909 0.554354 0.473987 0.501403 0.489391 0.465945 0.475789 0.475631 0.477387 0.454592 0.504523 0.544713 0.52671 0.46575 0.550982 0.532374 0.542096 0.548817 
SCALARS Stress float 1
LOOKUP_TABLE default
-12697700000.0 -12663100000.0 -12953500000.0 -13054200000.0 -12898600000.0 -12638800000.0 -12661400000.0 -12569000000.0 -12787800000.0 -12599100000.0 -12594100000.0 -12707600000.0 -12781400000.0 -12727900000.0 -12695800000.0 -12608000000.0 -12634000000.0 -12623000000.0 -12722900000.0 -12681200000.0 -13066000000.0 -12856600000.0 -12608500000.0 -12729200000.0 -12931900000.0 -12576700000.0 -12647400000.0 -12975800000.0 -12595000000.0 -12578800000.0 -12846600000.0 -12801700000.0 -13392200000.0 -13613200000.0 -13910500000.0 -13769000000.0 -13667500000.0 -13265100000.0 -12734900000.0 -12780800000.0 -12838300000.0 -12662600000.0 -12623100000.0 -12810600000.0 -12897800000.0 -14007500000.0 -13837000000.0 -13846100000.0 -13223700000.0 -12565600000.0 -12835600000.0 -12619200000.0 -12796100000.0 -14312700000.0 -15061000000.0 -16006000000.0 -12549700000.0 -16477700000.0 -15477300000.0 -12872000000.0 -12592700000.0 -12654900000.0 -12900500000.0 -12549700000.0 -12866900000.0 -12549700000.0 -12549700000.0 -12966000000.0 -12549700000.0 -12549700000.0 -12653600000.0 -12549700000.0 -12566000000.0 -12602200000.0 -12549700000.0 -12898300000.0 -13429900000.0 -12754800000.0 -12688600000.0 -12641300000.0 -12577700000.0 -12561100000.0 -12549700000.0 -12559600000.0 -12549700000.0 -12549700000.0 -12779500000.0 -12899900000.0 -12616700000.0 -13221900000.0 -13428300000.0 -13421000000.0 -13544400000.0 -13217700000.0 -13147200000.0 -12549700000.0 -12787000000.0 -12929600000.0 -12920300000.0 -12558300000.0 -12989200000.0 -12556100000.0 -12563500000.0 -13737200000.0 -12674000000.0 -13021300000.0 -12942600000.0 -12998100000.0 -12598100000.0 -12549700000.0 -13174100000.0 -12886000000.0 -12884800000.0 -13789700000.0 -12568800000.0 -12571000000.0 -12615100000.0 -12785800000.0 -12669800000.0 -12563900000.0 -12742900000.0 -12963300000.0 -12588200000.0 -12585800000.0 -12577500000.0 -12703000000.0 -12959300000.0 -12770500000.0 -12716700000.0 -13104400000.0 -13784800000.0 -14054800000.0 -14328700000.0 -13805500000.0 -13805200000.0 -15289000000.0 -12654800000.0 -12772000000.0 -12683300000.0 -13661000000.0 -15773100000.0 -12627100000.0 -13527400000.0 -13360300000.0 -12549700000.0 -13071000000.0 -13524800000.0 -12579300000.0 -13547500000.0 -12549700000.0 -12966500000.0 -12582500000.0 -13441100000.0 -16614000000.0 -13815800000.0 -14816300000.0 -13549700000.0 -15485700000.0 -13237200000.0 -14828500000.0 -17083600000.0 -15577400000.0 -16041400000.0 -16384000000.0 -15142000000.0 -12677400000.0 -13058500000.0 -15698100000.0 -12869200000.0 -13634500000.0 -14139300000.0 -12549700000.0 -12566700000.0 -12549700000.0 -12652400000.0 -12549700000.0 -12549700000.0 -12563600000.0 -12772100000.0 -12549700000.0 -12726500000.0 -13084100000.0 -13694600000.0 -12549700000.0 -12580000000.0 -12549700000.0 -12549700000.0 -12549700000.0 -12727800000.0 -12554600000.0 -12549700000.0 -12813800000.0 -12613400000.0 -12954900000.0 -13214800000.0 -14953200000.0 -13689400000.0 -13584800000.0 -13176800000.0 -13761100000.0 -12560400000.0 -12887400000.0 -13633300000.0 -12660300000.0 -12876500000.0 -13059200000.0 -14258300000.0 -13102000000.0 -13201100000.0 -13057100000.0 -14333800000.0 -12918200000.0 -13106600000.0 -12657800000.0 -13707300000.0 -15700600000.0 -13448200000.0 -12552900000.0 -12549700000.0 -12698200000.0 -13883900000.0 -14245200000.0 -13698000000.0 -12799600000.0 -15854300000.0 -12549700000.0 -12549700000.0 -14470500000.0 -14006400000.0 -12549700000.0 -12549700000.0 -14880600000.0 -14325600000.0 -14812900000.0 -14116200000.0 -12569800000.0 -14193400000.0 -13574200000.0 -15006000000.0 -19680600000.0 -21848800000.0 -13389100000.0 -13139700000.0 -13120300000.0 -12569000000.0 -20143600000.0 -17496300000.0 -15064000000.0 -12839200000.0 -15608100000.0 -15530900000.0 -12571900000.0 -14427700000.0 -14458300000.0 -13847300000.0 -16792900000.0 -14057000000.0 -13763600000.0 -13839800000.0 -12883300000.0 -15129400000.0 -15770700000.0 -16048100000.0 -12549700000.0 -18076800000.0 -12956200000.0 -15072600000.0 -17718100000.0 -16107500000.0 -16561700000.0 -16741200000.0 -13031400000.0 -14045900000.0 -13560200000.0 -13748100000.0 -13295400000.0 -13141400000.0 -13493000000.0 -13433100000.0 -13583100000.0 -12551600000.0 -13451100000.0 -12901000000.0 -13139100000.0 -12549700000.0 -13916300000.0 -12549700000.0 -14393300000.0 -12636700000.0 -12897400000.0 -12870400000.0 -12755300000.0 -12778700000.0 -12731700000.0 -12566900000.0 -12648400000.0 -13292400000.0 -12576700000.0 -12957400000.0 -13949100000.0 -13690700000.0 -16841700000.0 -14778400000.0 -13686500000.0 -16276000000.0 -17366200000.0 -12620400000.0 -12549700000.0 -15614900000.0 -14395800000.0 -16905700000.0 -12744200000.0 -13139600000.0 -12771100000.0 -12883400000.0 -12605100000.0 -14404000000.0 -13714400000.0 -14613000000.0 -12862000000.0 -15335400000.0 -13430500000.0 -13272400000.0 -13158900000.0 -13698800000.0 -17226300000.0 -16071500000.0 -15051600000.0 -14880000000.0 -14520200000.0 -15286500000.0 -14924000000.0 -14269500000.0 -19173100000.0 -15722700000.0 -18319700000.0 -20221600000.0 -23190500000.0 -13391300000.0 -23217300000.0 -12870900000.0 -12554800000.0 -17563500000.0 -17730800000.0 -15998000000.0 -16995600000.0 -18919600000.0 -14346100000.0 -14463500000.0 -13872800000.0 -17196300000.0 -12630100000.0 -13249700000.0 -16029600000.0 -12714900000.0 -16987000000.0 -17669000000.0 -14813700000.0 -14617100000.0 -14545800000.0 -12806900000.0 -12549700000.0 -12683100000.0 -21771300000.0 -13418700000.0 -16541800000.0 -19880700000.0 -13382600000.0 -15662500000.0 -13537100000.0 -17040700000.0 -15241300000.0 -12549700000.0 -13283500000.0 -13652100000.0 -13147200000.0 -13476900000.0 -14022300000.0 -12888300000.0 -13042200000.0 -12818500000.0 -13088600000.0 -14754300000.0 -14107700000.0 -13597500000.0 -13206300000.0 -12549700000.0 -13442600000.0 -13263100000.0 -12792500000.0 -12941400000.0 -12768000000.0 -13616700000.0 -14351300000.0 -13850400000.0 -13248900000.0 -13544900000.0 -16610000000.0 -18936400000.0 -17031200000.0 -16146500000.0 -13089000000.0 -14938600000.0 -13206300000.0 -17376800000.0 -14874300000.0 -13144500000.0 -14402800000.0 -21060400000.0 -13692900000.0 -12664600000.0 -13493900000.0 -15797800000.0 -12658000000.0 -13087700000.0 -16464100000.0 -15706100000.0 -13084500000.0 -18990800000.0 -13216900000.0 -13883100000.0 -15120800000.0 -13174500000.0 -13474400000.0 -17216300000.0 -12549700000.0 -12549700000.0 -12549700000.0 -12549700000.0 -12881800000.0 -16086100000.0 -16309800000.0 -19640100000.0 -13011800000.0 -15163100000.0 -17546100000.0 -17123800000.0 -19157200000.0 -20102200000.0 -17985500000.0 -16231900000.0 -13419700000.0 -17044000000.0 -22248300000.0 -12879400000.0 -16076500000.0 -21276100000.0 -24884100000.0 -18382000000.0 -23821200000.0 -12831800000.0 -19063800000.0 -12701500000.0 -22941800000.0 -21745500000.0 -22938100000.0 -14085900000.0 -16759000000.0 -12902800000.0 -19682800000.0 -19194100000.0 -14229300000.0 -12835100000.0 -16677000000.0 -15759900000.0 -19868600000.0 -19211200000.0 -14686500000.0 -22450600000.0 -16492900000.0 -16881000000.0 -17457600000.0 -15492500000.0 -17336400000.0 -15411400000.0 -13349800000.0 -14866800000.0 -12989000000.0 -12872600000.0 -14009200000.0 -16310000000.0 -16188700000.0 -16397500000.0 -12549700000.0 -15934300000.0 -16693000000.0 -13947300000.0 -12672600000.0 -15381800000.0 -18849000000.0 -16941600000.0 -17063500000.0 -17750900000.0 -18937300000.0 -15903900000.0 -13175700000.0 -15642900000.0 -15727200000.0 -15238900000.0 -16305000000.0 -13982100000.0 -12994100000.0 -12639300000.0 -17594000000.0 -21289600000.0 -14315100000.0 -15286500000.0 -13380100000.0 -12615300000.0 -13383200000.0 -15883700000.0 -12549700000.0 -16273400000.0 -15559800000.0 -16451700000.0 -20284700000.0 -21513300000.0 -26608600000.0 -17858900000.0 -17044400000.0 -20287600000.0 -14415700000.0 -14838400000.0 -19128300000.0 -18596000000.0 -19592600000.0 -16761800000.0 -12629900000.0 -21750000000.0 -12693600000.0 -21468800000.0 -22227800000.0 -12915600000.0 -16080500000.0 -14322200000.0 -18458600000.0 -18068900000.0 -19061600000.0 -19389600000.0 -19999600000.0 -20804300000.0 -13320700000.0 -19287200000.0 -18945900000.0 -20376600000.0 -12556500000.0 -16529800000.0 -23295000000.0 -12578000000.0 -20028800000.0 -17162900000.0 -18389500000.0 -16697800000.0 -14073000000.0 -17287400000.0 -21275300000.0 -17375100000.0 -18741700000.0 -14641400000.0 -13805300000.0 -14792700000.0 -12669000000.0 -18063600000.0 -15418600000.0 -17841600000.0 -26801600000.0 -12549700000.0 -22190400000.0 -23898100000.0 -17688800000.0 -19027300000.0 -13599600000.0 -14308500000.0 -14252400000.0 -12941200000.0 -12904000000.0 -12776400000.0 -19055900000.0 -14451800000.0 -13175900000.0 -14573900000.0 -14915800000.0 -16385100000.0 -13171400000.0 -14694400000.0 -12587300000.0 -17443100000.0 -18697500000.0 -12556200000.0 -21587500000.0 -12630300000.0 -16660900000.0 -17415900000.0 -24542600000.0 -13496500000.0 -12975800000.0 -14254500000.0 -14854000000.0 -15006900000.0 -12983700000.0 -13613400000.0 -13602800000.0 -13475400000.0 -14884700000.0 -21278100000.0 -20933700000.0 -16815300000.0 -12889900000.0 -22934600000.0 -19963200000.0 -22429600000.0 -15285100000.0 -19550300000.0 -16146600000.0 -13402400000.0 -16792300000.0 -18656000000.0 -20199000000.0 -12549700000.0 -12645400000.0 -29329200000.0 -13981400000.0 -15793400000.0 -19648900000.0 -15830900000.0 -25364800000.0 -15951700000.0 -30827400000.0 -14472400000.0 -32168300000.0 -13926100000.0 -16275100000.0 -26554900000.0 -30193500000.0 -19074800000.0 -18793200000.0 -27148700000.0 -22256100000.0 -21548800000.0 -19020500000.0 -25221800000.0 -21369000000.0 -14708300000.0 -21470700000.0 -16422700000.0 -18661100000.0 -16929200000.0 -12549700000.0 -17381300000.0 -14138700000.0 -21965400000.0 -12981600000.0 -17372000000.0 -19551700000.0 -37185500000.0 -18985400000.0 -29788100000.0 -33600000000.0 -19818100000.0 -23755800000.0 -22312600000.0 -13097600000.0 -21158600000.0 -21887000000.0 -19511400000.0 -12630000000.0 -18311900000.0 -14096900000.0 -13760600000.0 -17609500000.0 -15460200000.0 -12845800000.0 -16805000000.0 -16463600000.0 -17599400000.0 -17124100000.0 -18036500000.0 -12573100000.0 -13682400000.0 -12752900000.0 -14626300000.0 -20636100000.0 -18650200000.0 -16980400000.0 -19690700000.0 -15311700000.0 -14271600000.0 -14654900000.0 -14832300000.0 -14365600000.0 -12994900000.0 -14670000000.0 -13348600000.0 -16242300000.0 -17048800000.0 -17491100000.0 -14840100000.0 -16272800000.0 -16610800000.0 -13082100000.0 -13814000000.0 -15211400000.0 -17128400000.0 -16567800000.0 -22757300000.0 -25721900000.0 -20186400000.0 -14141100000.0 -16961900000.0 -13330900000.0 -16481300000.0 -13501000000.0 -15355600000.0 -14287900000.0 -13615200000.0 -24434500000.0 -15052700000.0 -15658200000.0 -15841800000.0 -25605200000.0 -26923300000.0 -14461000000.0 -12666200000.0 -28396600000.0 -26434100000.0 -16235900000.0 -24929800000.0 -16713700000.0 -28913600000.0 -27703500000.0 -26322000000.0 -31679700000.0 -23074600000.0 -21125200000.0 -28661300000.0 -15946500000.0 -26890900000.0 -26209800000.0 -20398200000.0 -15473200000.0 -14229900000.0 -17231100000.0 -12648900000.0 -22414900000.0 -20844000000.0 -12848700000.0 -12711000000.0 -13400200000.0 -12662200000.0 -12580100000.0 -18304300000.0 -12549700000.0 -13900400000.0 -15486200000.0 -32807600000.0 -34761200000.0 -18917000000.0 -23654000000.0 -13925200000.0 -22698300000.0 -24697000000.0 -24620100000.0 -25059200000.0 -26893700000.0 -18130600000.0 -18273900000.0 -21046000000.0 -12953800000.0 -19237300000.0 -14218900000.0 -16605300000.0 -14108100000.0 -16155800000.0 -17632700000.0 -13685100000.0 -16861700000.0 -13319700000.0 -14805300000.0 -15218900000.0 -13118700000.0 -17349100000.0 -19503500000.0 -21873800000.0 -22401200000.0 -18311700000.0 -19846400000.0 -15013300000.0 -15995800000.0 -17475300000.0 -14848300000.0 -23826100000.0 -21486300000.0 -13027900000.0 -14265800000.0 -13467500000.0 -14496600000.0 -22733800000.0 -13859800000.0 -19335100000.0 -21535600000.0 -27906700000.0 -22552200000.0 -26326300000.0 -27047400000.0 -25284200000.0 -24259100000.0 -22803000000.0 -15525400000.0 -12854600000.0 -15033500000.0 -21695400000.0 -12549700000.0 -19167600000.0 -19590000000.0 -28675000000.0 -22085100000.0 -13254000000.0 -13873600000.0 -17361700000.0 -12549700000.0 -18555300000.0 -12624400000.0 -16697300000.0 -18679800000.0 -18202900000.0 -21404200000.0 -18626400000.0 -20223000000.0 -23546900000.0 -17905600000.0 -28284400000.0 -18203200000.0 -23820700000.0 -16069400000.0 -19426400000.0 -22700900000.0 -21539800000.0 -17015500000.0 -24386700000.0 -19743800000.0 -22100600000.0 -17787700000.0 -36478200000.0 -12549700000.0 -16605700000.0 -12594800000.0 -20916500000.0 -15803900000.0 -16398500000.0 -18409400000.0 -20438500000.0 -14623700000.0 -21796300000.0 -19959300000.0 -13478700000.0 -18503400000.0 -23997400000.0 -29876100000.0 -31137300000.0 -12746100000.0 -28125200000.0 -23019200000.0 -15120000000.0 -13750100000.0 -14451400000.0 -15218700000.0 -12549700000.0 -17050300000.0 -18373500000.0 -12658100000.0 -12658900000.0 -17877000000.0 -15678400000.0 -13340100000.0 -13369100000.0 -12789900000.0 -13621000000.0 -12549700000.0 -16634300000.0 -16224200000.0 -17461100000.0 -13266200000.0 -16802900000.0 -15824000000.0 -17213700000.0 -16570500000.0 -14375500000.0 -17410400000.0 -17903100000.0 -16086300000.0 -12597800000.0 -18037300000.0 -13097600000.0 -17207200000.0 -13584000000.0 -12561100000.0 -18954700000.0 -19722800000.0 -22674200000.0 -12560100000.0 -17062900000.0 -13118600000.0 -21287200000.0 -12549700000.0 -23192100000.0 -12671500000.0 -19975800000.0 -21927800000.0 -12549700000.0 -21719400000.0 -12578900000.0 -13116500000.0 -23254500000.0 -18036700000.0 -19808300000.0 -12549700000.0 -20393600000.0 -19799500000.0 -21006400000.0 -12818300000.0 -13971900000.0 -24492500000.0 -18144100000.0 -23047200000.0 -26809800000.0 -23619300000.0 -12709100000.0 -16177300000.0 -13685200000.0 -17576100000.0 -20638800000.0 -22267300000.0 -16107600000.0 -14471700000.0 -17795000000.0 -22202500000.0 -24997700000.0 -22640600000.0 -38661800000.0 -14097500000.0 -12549700000.0 -36783700000.0 -34794200000.0 -36666600000.0 -17402900000.0 -17780000000.0 -39447600000.0 -50180500000.0 -26768100000.0 -22736700000.0 -40244800000.0 -27970600000.0 -23640700000.0 -26472700000.0 -17964400000.0 -12776100000.0 -17364000000.0 -22588500000.0 -22248200000.0 -16206400000.0 -15876800000.0 -12673700000.0 -15086200000.0 -20798000000.0 -15510700000.0 -17284700000.0 -18084100000.0 -13775400000.0 -14968900000.0 -14893900000.0 -16261100000.0 -13345700000.0 -29671600000.0 -24682800000.0 -12803800000.0 -12706600000.0 -12940500000.0 -16118200000.0 -25504300000.0 -12549700000.0 -15887800000.0 -13350700000.0 -14086900000.0 -13948900000.0 -12752000000.0 -16834600000.0 -14583900000.0 -14569500000.0 -16949100000.0 -14291800000.0 -20599600000.0 -15561400000.0 -12722900000.0 -17389400000.0 -15363400000.0 -14815100000.0 -15782200000.0 -12676600000.0 -14267500000.0 -12706100000.0 -12979000000.0 -12599100000.0 -22168400000.0 -17039300000.0 -20495400000.0 -19886900000.0 -19881200000.0 -17910700000.0 -12601200000.0 -12553100000.0 -12674300000.0 -16358000000.0 -16552600000.0 -18994100000.0 -13046500000.0 -15100900000.0 -16608100000.0 -17759200000.0 -17452200000.0 -14907600000.0 -27085500000.0 -29709600000.0 -12549700000.0 -19243500000.0 -24320500000.0 -13277100000.0 -37308100000.0 -28098400000.0 -19360100000.0 -28007200000.0 -14308700000.0 -20806700000.0 -17232800000.0 -19270400000.0 -17807600000.0 -17546000000.0 -14096600000.0 -18396500000.0 -27356900000.0 -20549000000.0 -17836800000.0 -15624500000.0 -27718700000.0 -41537600000.0 -18907000000.0 -16901600000.0 -36144900000.0 -35854800000.0 -13548000000.0 -34789300000.0 -24028300000.0 -20797100000.0 -15266800000.0 -41379500000.0 -28534000000.0 -12923800000.0 -32291700000.0 -30229900000.0 -50449800000.0 -26071000000.0 -20732900000.0 -22742600000.0 -22743800000.0 -13873500000.0 -19719900000.0 -12981900000.0 -12885900000.0 -20536100000.0 -12735800000.0 -13931300000.0 -16763000000.0 -16549800000.0 -18548100000.0 -12787800000.0 -17075500000.0 -14451200000.0 -17000700000.0 -17894000000.0 -21716900000.0 -23511800000.0 -15215400000.0 -24557600000.0 -19451400000.0 -16231800000.0 -19060000000.0 -22070800000.0 -13219200000.0 -20894000000.0 -17665800000.0 -15296300000.0 -19571200000.0 -12927500000.0 -21806800000.0 -13703800000.0 -20853000000.0 -18364200000.0 -19198400000.0 -18212900000.0 -14854700000.0 -14929000000.0 -15151700000.0 -14568500000.0 -13664300000.0 -23786100000.0 -12658500000.0 -13005300000.0 -16470000000.0 -21073500000.0 -21235000000.0 -16959600000.0 -19227000000.0 -16737500000.0 -13000600000.0 -22353700000.0 -12549700000.0 -13075200000.0 -12586800000.0 -15214700000.0 -15106100000.0 -18696700000.0 -16700500000.0 -15210700000.0 -28148300000.0 -24678300000.0 -12549700000.0 -25618500000.0 -31506600000.0 -28458300000.0 -27718500000.0 -13207500000.0 -31406600000.0 -25242100000.0 -22133900000.0 -19382600000.0 -16083500000.0 -16352200000.0 -13944400000.0 -18861600000.0 -24581600000.0 -14965200000.0 -24201400000.0 -26108200000.0 -26326700000.0 -16536600000.0 -12549700000.0 -27820700000.0 -16208400000.0 -19378800000.0 -17628600000.0 -12964500000.0 -31141600000.0 -16237700000.0 -14123700000.0 -15065500000.0 -14061500000.0 -30519700000.0 -33582300000.0 -19280500000.0 -30212700000.0 -12549700000.0 -22252300000.0 -12549700000.0 -24596400000.0 -27068500000.0 -33138600000.0 -36431100000.0 -30631500000.0 -29220500000.0 -34601600000.0 -30351800000.0 -36297300000.0 -29632600000.0 -24880400000.0 -28068300000.0 -18782100000.0 -41426700000.0 -39307000000.0 -33470100000.0 -25293600000.0 -12696300000.0 -27697000000.0 -28941000000.0 -19567300000.0 -17024700000.0 -16099300000.0 -15864400000.0 -13512300000.0 -20385600000.0 -21241200000.0 -16210000000.0 -18171900000.0 -18461100000.0 -23222000000.0 -17374600000.0 -17258900000.0 -20312200000.0 -15281300000.0 -17530700000.0 -19417500000.0 -12549700000.0 -22255200000.0 -22469900000.0 -21573600000.0 -24279400000.0 -20144600000.0 -14826500000.0 -14996000000.0 -20071200000.0 -21673400000.0 -24603000000.0 -17660300000.0 -16328800000.0 -14985700000.0 -16643000000.0 -22224900000.0 -19666500000.0 -23872000000.0 -21990000000.0 -21880600000.0 -29778300000.0 -19599100000.0 -23297800000.0 -12549700000.0 -12549700000.0 -48545200000.0 -30042700000.0 -32892900000.0 -23093600000.0 -25651000000.0 -16738800000.0 -22155700000.0 -21405100000.0 -17017900000.0 -19788400000.0 -19182200000.0 -12562100000.0 -22162700000.0 -27679100000.0 -30347600000.0 -14878500000.0 -15575000000.0 -25660000000.0 -34106600000.0 -12549700000.0 -12549700000.0 -21802400000.0 -25392300000.0 -40685500000.0 -18219900000.0 -25246300000.0 -14278100000.0 -15729600000.0 -16716600000.0 -14985300000.0 -12716100000.0 -13546500000.0 -35912200000.0 -34988900000.0 -21227400000.0 -16336100000.0 -14245000000.0 -19205000000.0 -13121800000.0 -16957500000.0 -14810500000.0 -13089700000.0 -19874200000.0 -20052000000.0 -25176700000.0 -21783400000.0 -19901100000.0 -15469300000.0 -12606600000.0 -12552400000.0 -41598200000.0 -54228100000.0 -32012300000.0 -16473500000.0 -18052600000.0 -16424400000.0 -15555800000.0 -16966300000.0 -18230500000.0 -13416400000.0 -14947800000.0 -13462600000.0 -13102900000.0 -13869200000.0 -12768000000.0 -21160400000.0 -16898500000.0 -18915800000.0 -13842600000.0 -15249900000.0 -16304900000.0 -29753200000.0 -22769800000.0 -16554200000.0 -19048100000.0 -22591900000.0 -20421700000.0 -19842900000.0 -16343700000.0 -23783000000.0 -16985600000.0 -18319300000.0 -13572500000.0 -15835300000.0 -22776800000.0 -18181600000.0 -21048800000.0 -12966500000.0 -23696200000.0 -14233100000.0 -12740700000.0 -16097400000.0 -14798800000.0 -13151800000.0 -26786600000.0 -12628000000.0 -16617500000.0 -15904400000.0 -27358400000.0 -14640500000.0 -17143600000.0 -30869800000.0 -43553200000.0 -28128500000.0 -40150900000.0 -32421200000.0 -17121000000.0 -18419800000.0 -15228200000.0 -12882000000.0 -13005100000.0 -23926700000.0 -13279200000.0 -13142700000.0 -16685200000.0 -27858900000.0 -12724200000.0 -15243200000.0 -21297300000.0 -14316400000.0 -22494200000.0 -21041400000.0 -20970000000.0 -12617900000.0 -29408600000.0 -22393100000.0 -26444200000.0 -20739100000.0 -25162800000.0 -22897900000.0 -23459800000.0 -30512800000.0 -17137200000.0 -12619600000.0 -13805600000.0 -23488800000.0 -28788100000.0 -37776600000.0 -23635400000.0 -37906500000.0 -25422200000.0 -19398000000.0 -17480400000.0 -12799200000.0 -28744800000.0 -22527500000.0 -25770800000.0 -14228300000.0 -21952200000.0 -15347400000.0 -13036700000.0 -12793500000.0 -12563500000.0 -12842800000.0 -12549700000.0 -39952400000.0 -16989200000.0 -43682200000.0 -14633000000.0 -26204100000.0 -16592900000.0 -15943200000.0 -14402300000.0 -21340200000.0 -18008400000.0 -14573200000.0 -14394100000.0 -17301600000.0 -13678600000.0 -12853300000.0 -14175300000.0 -12700900000.0 -14420800000.0 -15630300000.0 -12549700000.0 -22047600000.0 -22267400000.0 -18735800000.0 -13004600000.0 -14957300000.0 -12681900000.0 -14369500000.0 -19637300000.0 -20003200000.0 -32546800000.0 -14701300000.0 -13060600000.0 -12689300000.0 -22478800000.0 -14148600000.0 -15917400000.0 -12923300000.0 -15943900000.0 -14561800000.0 -28161600000.0 -14173100000.0 -16204500000.0 -12647200000.0 -24746700000.0 -36997600000.0 -34894900000.0 -12666800000.0 -29615400000.0 -34947500000.0 -44728400000.0 -28269400000.0 -13367900000.0 -12978800000.0 -48745000000.0 -23777500000.0 -19149800000.0 -13022300000.0 -16993000000.0 -14057900000.0 -14258800000.0 -15836500000.0 -14556100000.0 -16086300000.0 -31294900000.0 -21367500000.0 -19076800000.0 -28332200000.0 -19351600000.0 -18903300000.0 -28295400000.0 -32476400000.0 -14542100000.0 -15172300000.0 -19393900000.0 -12602600000.0 -24483700000.0 -24635400000.0 -20878800000.0 -19955700000.0 -31361500000.0 -17643500000.0 -16907400000.0 -20850700000.0 -12874600000.0 -25924400000.0 -30428500000.0 -31305400000.0 -34949900000.0 -20652100000.0 -19478800000.0 -24452300000.0 -31077300000.0 -33187600000.0 -35232000000.0 -22282300000.0 -19284000000.0 -25158300000.0 -22286200000.0 -13043200000.0 -13347800000.0 -13663100000.0 -12674500000.0 -16179100000.0 -24665800000.0 -15735800000.0 -14816500000.0 -20284500000.0 -18025100000.0 -16069400000.0 -17600700000.0 -19160800000.0 -13379900000.0 -17901400000.0 -18174000000.0 -18784300000.0 -18402200000.0 -14624300000.0 -16205700000.0 -15137400000.0 -22675300000.0 -13569600000.0 -13031800000.0 -12591400000.0 -15236300000.0 -12611700000.0 -13955600000.0 -12602800000.0 -12549700000.0 -17349700000.0 -16587400000.0 -15636400000.0 -27165200000.0 -20380300000.0 -17402800000.0 -17539200000.0 -21185500000.0 -23651400000.0 -15087200000.0 -16118800000.0 -18092200000.0 -15590800000.0 -13689100000.0 -12901400000.0 -13017900000.0 -31671800000.0 -17967400000.0 -19728300000.0 -25929400000.0 -12920000000.0 -23320000000.0 -18600200000.0 -13144600000.0 -38221100000.0 -53056700000.0 -20142800000.0 -45273200000.0 -14860700000.0 -12887100000.0 -12685000000.0 -12617100000.0 -37712700000.0 -38460400000.0 -13720600000.0 -15320900000.0 -15276600000.0 -23461500000.0 -17666600000.0 -14120000000.0 -13525700000.0 -15114100000.0 -33193700000.0 -12549700000.0 -13092900000.0 -21530400000.0 -16087200000.0 -12549700000.0 -17289800000.0 -19665800000.0 -13133300000.0 -17441100000.0 -17895600000.0 -12685400000.0 -16605300000.0 -15082800000.0 -26910500000.0 -18214600000.0 -17131000000.0 -25353600000.0 -22101800000.0 -32523300000.0 -28174200000.0 -26750700000.0 -25473100000.0 -13468600000.0 -14549100000.0 -21340100000.0 -12549700000.0 -17836100000.0 -12605700000.0 -18436000000.0 -20398000000.0 -22894700000.0 -14817000000.0 -14130700000.0 -12661700000.0 -13406900000.0 -12683000000.0 -12834700000.0 -14798800000.0 -36585700000.0 -23582600000.0 -12561200000.0 -12549700000.0 -16382800000.0 -14950700000.0 -16359200000.0 -13883400000.0 -15374900000.0 -13447900000.0 -13936000000.0 -14188300000.0 -13305100000.0 -12549700000.0 -15822000000.0 -18625800000.0 -19432200000.0 -20604400000.0 -21867700000.0 -17385300000.0 -14141700000.0 -14004400000.0 -14876000000.0 -22408700000.0 -15536100000.0 -17192700000.0 -24702000000.0 -18120400000.0 -14848800000.0 -19066300000.0 -15048300000.0 -37868100000.0 -13663100000.0 -22113500000.0 -27116000000.0 -26737900000.0 -20127700000.0 -26200400000.0 -21590100000.0 -74700100000.0 -30319500000.0 -39541500000.0 -30296900000.0 -29936800000.0 -36013900000.0 -20166200000.0 -28337500000.0 -20001100000.0 -23792200000.0 -42751100000.0 -31500800000.0 -21718600000.0 -21392700000.0 -20522900000.0 -20201000000.0 -20649400000.0 -17241800000.0 -16528200000.0 -30534000000.0 -16630500000.0 -15779900000.0 -13038300000.0 -25201000000.0 -20034800000.0 -21065400000.0 -25067800000.0 -12549700000.0 -21882800000.0 -19441700000.0 -17570100000.0 -27568000000.0 -19061300000.0 -21476700000.0 -18806600000.0 -27038200000.0 -15817500000.0 -17153600000.0 -12563400000.0 -30365300000.0 -22106200000.0 -20098100000.0 -12719700000.0 -28609300000.0 -26345900000.0 -28855000000.0 -12549700000.0 -15414100000.0 -15807500000.0 -20833600000.0 -13539000000.0 -12728000000.0 -21644300000.0 -13897900000.0 -13122700000.0 -13458100000.0 -13312900000.0 -13180700000.0 -13538200000.0 -14250600000.0 -23232700000.0 -23454700000.0 -20644800000.0 -22429100000.0 -22048800000.0 -18035300000.0 -20784800000.0 -13536500000.0 -13288200000.0 -14504900000.0 -13078000000.0 -15763600000.0 -13327800000.0 -16714900000.0 -15535000000.0 -19070400000.0 -16762800000.0 -18532600000.0 -12609400000.0 -12711300000.0 -13434100000.0 -20943000000.0 -13341200000.0 -14540300000.0 -18133300000.0 -19969400000.0 -19807100000.0 -12549700000.0 -20695700000.0 -20459500000.0 -17672800000.0 -14782400000.0 -14471600000.0 -12549700000.0 -25239500000.0 -25057000000.0 -21037200000.0 -12549700000.0 -40291500000.0 -23546800000.0 -12657300000.0 -18794800000.0 -15137800000.0 -23808500000.0 -23615900000.0 -29414300000.0 -19365800000.0 -92555600000.0 -33349900000.0 -38664400000.0 -30412100000.0 -59863100000.0 -17400100000.0 -48082500000.0 -37298100000.0 -29238500000.0 -29974700000.0 -40346100000.0 -12685900000.0 -22569900000.0 -14256900000.0 -16594100000.0 -12549700000.0 -17925300000.0 -14559800000.0 -19173900000.0 -25834900000.0 -21032800000.0 -22737000000.0 -15449700000.0 -13016700000.0 -12549700000.0 -12578200000.0 -12634000000.0 -12790200000.0 -16393700000.0 -22061100000.0 -18369900000.0 -15886400000.0 -25486900000.0 -12762300000.0 -18532100000.0 -26014100000.0 -14145500000.0 -17503800000.0 -12818400000.0 -21499000000.0 -16268600000.0 -16717200000.0 -12867900000.0 -26417900000.0 -28832500000.0 -26413100000.0 -29323600000.0 -24912300000.0 -13263200000.0 -12549700000.0 -13264600000.0 -12688300000.0 -12693000000.0 -12895600000.0 -18141000000.0 -12794300000.0 -19606100000.0 -12814500000.0 -17845100000.0 -15286300000.0 -13091400000.0 -13045900000.0 -13869000000.0 -13625400000.0 -12916200000.0 -16626500000.0 -13171900000.0 -15731500000.0 -12874900000.0 -16358100000.0 -13562200000.0 -13567800000.0 -12775100000.0 -14418300000.0 -12679500000.0 -12597400000.0 -12616600000.0 -12549700000.0 -12599300000.0 -16697400000.0 -20093200000.0 -17023200000.0 -12651600000.0 -12937600000.0 -25931700000.0 -18658700000.0 -26817900000.0 -23426200000.0 -29730800000.0 -18434600000.0 -15450400000.0 -22964500000.0 -16597900000.0 -19777900000.0 -30584500000.0 -30771500000.0 -23875600000.0 -12626400000.0 -18671300000.0 -16723100000.0 -12561400000.0 -28713500000.0 -16713300000.0 -41237800000.0 -48450100000.0 -62320800000.0 -13142800000.0 -51908700000.0 -58810900000.0 -39249000000.0 -22087100000.0 -38489300000.0 -26582600000.0 -27511400000.0 -37839100000.0 -47726200000.0 -22863600000.0 -21839000000.0 -22257100000.0 -23114400000.0 -20026100000.0 -14806900000.0 -14217800000.0 -15445400000.0 -15372600000.0 -13179000000.0 -17798700000.0 -16721200000.0 -16884000000.0 -12549700000.0 -15641100000.0 -13675000000.0 -13855300000.0 -14063300000.0 -19744300000.0 -14613100000.0 -21782100000.0 -12549700000.0 -23214000000.0 -13956100000.0 -17026300000.0 -18754900000.0 -17177700000.0 -16031500000.0 -15285600000.0 -18310900000.0 -18134200000.0 -21809500000.0 -22481200000.0 -37415300000.0 -22278500000.0 -18796800000.0 -13093200000.0 -12549700000.0 -13331700000.0 -12697400000.0 -12705500000.0 -13974300000.0 -13480700000.0 -12794800000.0 -16173500000.0 -14368900000.0 -18822900000.0 -12549700000.0 -14228000000.0 -15111400000.0 -14364400000.0 -13026200000.0 -12648800000.0 -13107800000.0 -12549700000.0 -13737800000.0 -16676400000.0 -12821300000.0 -12750000000.0 -13163800000.0 -13078800000.0 -12583400000.0 -12713400000.0 -13075200000.0 -12553200000.0 -13345900000.0 -12596200000.0 -12571000000.0 -12692900000.0 -14370300000.0 -14226100000.0 -19661100000.0 -19398700000.0 -20716200000.0 -27267200000.0 -16438500000.0 -14654900000.0 -15447600000.0 -39965200000.0 -34219000000.0 -33287600000.0 -31308100000.0 -35996300000.0 -32738200000.0 -15205300000.0 -29917300000.0 -29551900000.0 -32688000000.0 -26628900000.0 -21350800000.0 -52505000000.0 -12959300000.0 -34706600000.0 -52840500000.0 -44167900000.0 -54963700000.0 -55332700000.0 -14458400000.0 -32955500000.0 -32648600000.0 -42356200000.0 -23902100000.0 -26394000000.0 -12734600000.0 -22427100000.0 -17867100000.0 -13029200000.0 -19535900000.0 -14802500000.0 -13017800000.0 -14621200000.0 -13865100000.0 -15659500000.0 -15624200000.0 -16438400000.0 -12567300000.0 -15026400000.0 -12675400000.0 -13460300000.0 -13523400000.0 -16902900000.0 -12928100000.0 -22563500000.0 -14210700000.0 -17105100000.0 -15762500000.0 -21833500000.0 -19418500000.0 -13878100000.0 -14713300000.0 -15594300000.0 -15807900000.0 -17958300000.0 -16346100000.0 -19060600000.0 -27644100000.0 -12659100000.0 -12565500000.0 -28521800000.0 -16118500000.0 -13551900000.0 -15143000000.0 -15286800000.0 -15092000000.0 -15138900000.0 -14555200000.0 -14558100000.0 -14463400000.0 -12927800000.0 -17379600000.0 -17517500000.0 -16751900000.0 -15422700000.0 -15420500000.0 -15529600000.0 -15041000000.0 -14504500000.0 -12576500000.0 -12549700000.0 -12570700000.0 -12723000000.0 -13048300000.0 -12767200000.0 -12711800000.0 -13046100000.0 -12696100000.0 -12575500000.0 -12707100000.0 -13440300000.0 -12971800000.0 -18159100000.0 -12610200000.0 -12776200000.0 -17449300000.0 -27459400000.0 -23751500000.0 -26827400000.0 -35848400000.0 -17067000000.0 -14392900000.0 -18648000000.0 -17901800000.0 -59266900000.0 -29643800000.0 -33374200000.0 -32857800000.0 -52423100000.0 -32339100000.0 -47677800000.0 -13955100000.0 -21706100000.0 -70677600000.0 -107622000000.0 -15600900000.0 -15164600000.0 -57602400000.0 -21876800000.0 -42994600000.0 -18176100000.0 -20016600000.0 -12549700000.0 -47468200000.0 -22318000000.0 -13330200000.0 -17174000000.0 -17101400000.0 -19935200000.0 -13933400000.0 -13577100000.0 -13212200000.0 -14360500000.0 -14101600000.0 -12800900000.0 -16921700000.0 -15943700000.0 -13975200000.0 -14987500000.0 -12600900000.0 -13225100000.0 -14096400000.0 -12890500000.0 -12932900000.0 -17654000000.0 -15892300000.0 -15990400000.0 -12549700000.0 -16252400000.0 -20419800000.0 -12549700000.0 -15672200000.0 -14985000000.0 -12653700000.0 -12590100000.0 -12560400000.0 -15537600000.0 -13813400000.0 -13073100000.0 -17098300000.0 -19858300000.0 -18074800000.0 -16979700000.0 -24882700000.0 -14389700000.0 -13563700000.0 -12568500000.0 -12562500000.0 -13191100000.0 -13017900000.0 -12858900000.0 -13108800000.0 -13129600000.0 -12976100000.0 -13249300000.0 -14210300000.0 -13711200000.0 -13245100000.0 -13399200000.0 -13547600000.0 -13765100000.0 -14433000000.0 -14993800000.0 -13576500000.0 -13456500000.0 -13672500000.0 -13820700000.0 -14309000000.0 -13866400000.0 -14113500000.0 -14102900000.0 -13586400000.0 -14503800000.0 -15339800000.0 -16264700000.0 -23380500000.0 -20179900000.0 -20343200000.0 -25081900000.0 -13934900000.0 -17824800000.0 -13056600000.0 -35277100000.0 -30110100000.0 -21129100000.0 -15895000000.0 -20045200000.0 -48980500000.0 -22996000000.0 -23249900000.0 -25195300000.0 -58396500000.0 -12549700000.0 -39021900000.0 -30289300000.0 -22497300000.0 -12775100000.0 -76462900000.0 -18225800000.0 -14373700000.0 -14196500000.0 -57189700000.0 -12549700000.0 -43124900000.0 -25591900000.0 -26278800000.0 -37100100000.0 -37845000000.0 -24353900000.0 -25408400000.0 -22918500000.0 -15920200000.0 -14665400000.0 -15555000000.0 -14629100000.0 -15983600000.0 -18203500000.0 -14855700000.0 -14144500000.0 -14858900000.0 -14602300000.0 -14260400000.0 -13805500000.0 -13916200000.0 -17254500000.0 -14007300000.0 -13939800000.0 -14330700000.0 -13923300000.0 -15481300000.0 -16218200000.0 -23750000000.0 -14126300000.0 -13804700000.0 -18374700000.0 -16721200000.0 -15758000000.0 -15731300000.0 -15433200000.0 -13080000000.0 -15215400000.0 -14922600000.0 -12612500000.0 -14468400000.0 -16071500000.0 -13954900000.0 -14207000000.0 -12686200000.0 -12996800000.0 -12549900000.0 -12550500000.0 -12585700000.0 -12831300000.0 -12726900000.0 -12595300000.0 -12549700000.0 -12886300000.0 -12923500000.0 -12582300000.0 -12551500000.0 -12549700000.0 -12569200000.0 -12549700000.0 -15011200000.0 -13248700000.0 -14442600000.0 -14282600000.0 -14094400000.0 -14011900000.0 -13658300000.0 -13675300000.0 -13467000000.0 -13878300000.0 -14648700000.0 -15901200000.0 -17166200000.0 -21833200000.0 -13291700000.0 -15098400000.0 -14090300000.0 -22985100000.0 -17027400000.0 -18203100000.0 -20065500000.0 -29175600000.0 -12740100000.0 -33696200000.0 -26087300000.0 -30380700000.0 -33808900000.0 -34431200000.0 -13248100000.0 -23843700000.0 -60269200000.0 -42300800000.0 -26405100000.0 -38589000000.0 -80332300000.0 -15238300000.0 -16590000000.0 -84152600000.0 -12678900000.0 -18316800000.0 -72802300000.0 -31051100000.0 -40340600000.0 -26940000000.0 -39770400000.0 -22072000000.0 -25532400000.0 -18778000000.0 -19421300000.0 -12704500000.0 -12549700000.0 -16754900000.0 -17405300000.0 -18636200000.0 -18543400000.0 -19491600000.0 -15766000000.0 -17304800000.0 -12942100000.0 -13546600000.0 -12823800000.0 -12906000000.0 -12552600000.0 -12627900000.0 -12549700000.0 -15265600000.0 -13276200000.0 -13557900000.0 -13557900000.0 -13982900000.0 -19841900000.0 -13760500000.0 -13792300000.0 -14321200000.0 -13292700000.0 -13817100000.0 -15104500000.0 -12795500000.0 -12893000000.0 -14787300000.0 -12677200000.0 -17630400000.0 -21559600000.0 -16702200000.0 -13169000000.0 -12644900000.0 -12804100000.0 -12549700000.0 -12553300000.0 -12583200000.0 -12741100000.0 -12652400000.0 -12549700000.0 -12549700000.0 -12549700000.0 -12737000000.0 -12560600000.0 -12549700000.0 -12575100000.0 -12637600000.0 -13196400000.0 -12763400000.0 -12745700000.0 -12567100000.0 -12773200000.0 -13088500000.0 -13012300000.0 -13679400000.0 -13994200000.0 -13948300000.0 -13716600000.0 -15650100000.0 -16788500000.0 -17147000000.0 -18295600000.0 -19804200000.0 -20170200000.0 -21226500000.0 -21217600000.0 -30451600000.0 -37806400000.0 -13578100000.0 -35298800000.0 -39529800000.0 -47275500000.0 -50712900000.0 -58316400000.0 -87203900000.0 -49146500000.0 -51876300000.0 -73322300000.0 -91267500000.0 -21366600000.0 -40311400000.0 -86667300000.0 -29605700000.0 -48276900000.0 -23742200000.0 -42053900000.0 -48873400000.0 -23391500000.0 -17144300000.0 -14900000000.0 -14259000000.0 -15938500000.0 -12754200000.0 -12908600000.0 -12598300000.0 -19486500000.0 -15307200000.0 -16272900000.0 -13560300000.0 -13405700000.0 -13283600000.0 -13115600000.0 -14530100000.0 -12561200000.0 -12727400000.0 -12608100000.0 -12732400000.0 -12749000000.0 -12631900000.0 -12549700000.0 -12858900000.0 -12895800000.0 -15967300000.0 -15302000000.0 -17459200000.0 -17925800000.0 -13215300000.0 -15470000000.0 -13848000000.0 -14277400000.0 -12635200000.0 -12729000000.0 -12595400000.0 -12549700000.0 -12550000000.0 -12550900000.0 -12558300000.0 -12617000000.0 -12583500000.0 -12549700000.0 -12549700000.0 -12549700000.0 -12618500000.0 -12549700000.0 -12549700000.0 -12549700000.0 -12549700000.0 -12554600000.0 -12590500000.0 -12959100000.0 -12811400000.0 -12808600000.0 -12767100000.0 -12602900000.0 -12629900000.0 -12664100000.0 -12969100000.0 -12691300000.0 -12827100000.0 -12891800000.0 -13450800000.0 -14095600000.0 -12878400000.0 -13815100000.0 -13362200000.0 -13941000000.0 -24080900000.0 -15248200000.0 -45111600000.0 -49594900000.0 -43414600000.0 -12794300000.0 -28267300000.0 -52540900000.0 -27148200000.0 -88952300000.0 -45621000000.0 -57990100000.0 -29274800000.0 -69131400000.0 -44413700000.0 -38065700000.0 -16813700000.0 -37745400000.0 -23946500000.0 -31861800000.0 -65200600000.0 -27353000000.0 -17170300000.0 -15200800000.0 -16797800000.0 -16471500000.0 -14220500000.0 -16110100000.0 -12862400000.0 -12633800000.0 -12597700000.0 -12568800000.0 -13250700000.0 -12850800000.0 -12801100000.0 -12634400000.0 -14972300000.0 -13919400000.0 -13576600000.0 -13917200000.0 -12848900000.0 -12824200000.0 -13001600000.0 -13327700000.0 -13281600000.0 -13506200000.0 -13905500000.0 -16995700000.0 -14210000000.0 -13853600000.0 -14119000000.0 -13028900000.0 -13059800000.0 -12773600000.0 -12697800000.0 -12676700000.0 -15476400000.0 -14603600000.0 -13712100000.0 -12625400000.0 -13142700000.0 -12825600000.0 -14920800000.0 -15380600000.0 -13598100000.0 -14111300000.0 -24634400000.0 -29953800000.0 -21663100000.0 -20435500000.0 -69049800000.0 -37583300000.0 -43554300000.0 -55356300000.0 -57196500000.0 -45905400000.0 -48019500000.0 -47162000000.0 -55177000000.0 -12891000000.0 -36682900000.0 -87054000000.0 -30425100000.0 -36425300000.0 -35845700000.0 -62690900000.0 -14993800000.0 -16001300000.0 -12771400000.0 -12549700000.0 -12861100000.0 -13232700000.0 -12552000000.0 -12691700000.0 -12702000000.0 -13289400000.0 -12662300000.0 -14738700000.0 -24740500000.0 -21846900000.0 -19067600000.0 -55106900000.0 -21537300000.0 -14058800000.0 -65540000000.0 -44141400000.0 -45098600000.0 -48867300000.0 -12549700000.0 -51113800000.0 -90072800000.0 -40184400000.0 -87020200000.0 -56546200000.0 -42111000000.0 -40134900000.0 -41590500000.0 -69801800000.0 -15375500000.0 -29874200000.0 -30937000000.0 -40864900000.0 -40790100000.0 -27840700000.0 -71386600000.0 -95445700000.0 -64891300000.0 -77524500000.0 -47866400000.0 -30837900000.0 -180200000000.0 -81249900000.0 -106990000000.0 -47374000000.0 -44477600000.0 -22129500000.0 -12707100000.0 -96958100000.0 -15337200000.0 -13976100000.0 -31680800000.0 -23714400000.0 -36685200000.0 -39108000000.0 -59686300000.0 -13086300000.0 -41184400000.0 -22116100000.0 -12773700000.0 -119151000000.0 -176294000000.0 -14036700000.0 -47734800000.0 -79732300000.0 -12781200000.0 -33080200000.0 -41651100000.0 -88978800000.0 -14056300000.0 -13705400000.0 -12549700000.0 -44901200000.0 -40406400000.0 -83016700000.0 -90585500000.0 -24690500000.0 -39470900000.0 -18819100000.0 -14086200000.0 -175404000000.0 -60350200000.0 -24821800000.0 -93165800000.0 -25132100000.0 -44778200000.0 -44079700000.0 -66523200000.0 -20584200000.0 -14301000000.0 -16207800000.0 -12549700000.0 -12549700000.0 -12549700000.0 -12549700000.0 -16924800000.0 -39270200000.0 -32306100000.0 -47670500000.0 -72435800000.0 -18568400000.0 -60975900000.0 -48527900000.0 -45008200000.0 -196646000000.0 -46059600000.0 -44350600000.0 -38096600000.0 -82256900000.0 -34181500000.0 -73286300000.0 -41493900000.0 -27026300000.0 -12549700000.0 -12549700000.0 -12549700000.0 -12549700000.0 -12549700000.0 -12549700000.0 -12549700000.0 -12549700000.0 -12549700000.0 -12549700000.0 -12549700000.0 -12549700000.0 -12549700000.0 -12549700000.0 -12549700000.0 -12549700000.0 -12549700000.0 -12549700000.0 -12549700000.0 -17597300000.0 -40252400000.0 -24621900000.0 -23230600000.0 -65726900000.0 -66339100000.0 -60851200000.0 -41313300000.0 -74174600000.0 -234953000000.0 -74547100000.0 -40098000000.0 -23174000000.0 -111880000000.0 -123597000000.0 -121953000000.0 -49256900000.0 -36858800000.0 -25619200000.0 -17336600000.0 -12549700000.0 -12549700000.0 -12549700000.0 -12549700000.0 -12549700000.0 -12549700000.0 -12549700000.0 -12549700000.0 -12549700000.0 -12549700000.0 -12549700000.0 -12549700000.0 -12549700000.0 -12549700000.0 -12549700000.0 -12549700000.0 -12549700000.0 -12549700000.0 -12549700000.0 -12549700000.0 -12549700000.0 -12549700000.0 -12549700000.0 -12549700000.0 -12549700000.0 -12549700000.0 -12549700000.0 -12549700000.0 -12549700000.0 -12554400000.0 -12627600000.0 -12574700000.0 -14651000000.0 -29918500000.0 -33528700000.0 -13651400000.0 -21307300000.0 -78332100000.0 -133862000000.0 -109257000000.0 -79695700000.0 -54038100000.0 -75819900000.0 -151051000000.0 -20234600000.0 -66134100000.0 -19587200000.0 -117152000000.0 -69617300000.0 -15986200000.0 -18162800000.0 -22566900000.0 -58213300000.0 -25172700000.0 -14007300000.0 -16593600000.0 -12549700000.0 -12549700000.0 -12549700000.0 -12549700000.0 -12549700000.0 -12549700000.0 -12549700000.0 -12549700000.0 -12549700000.0 -12549700000.0 -12549700000.0 -12549700000.0 -12549700000.0 -12549700000.0 -12549700000.0 -12549700000.0 -12549700000.0 -12549700000.0 -12549700000.0 -12551400000.0 -12549700000.0 -12549700000.0 -12549700000.0 -12549700000.0 -12549700000.0 -12549700000.0 -12549700000.0 -12549700000.0 -12549700000.0 -12549700000.0 -12549700000.0 -12549700000.0 -12549700000.0 -13510800000.0 -12549700000.0 -12549700000.0 -12549700000.0 -13865200000.0 -22161600000.0 -30563700000.0 -62151600000.0 -48831300000.0 -62583600000.0 -66409100000.0 -57317300000.0 -68387900000.0 -28522300000.0 -39203700000.0 -47698000000.0 -148491000000.0 -229126000000.0 -121087000000.0 -141267000000.0 -99992500000.0 -132206000000.0 -43452500000.0 -59881300000.0 -51707500000.0 -13617900000.0 -19552000000.0 -25032100000.0 -14911700000.0 -12631000000.0 -12641800000.0 -12588000000.0 -12549700000.0 -12549700000.0 -12586800000.0 -12549700000.0 -17082600000.0 -12549700000.0 -12549700000.0 -12549700000.0 -12549700000.0 -12549700000.0 -12549700000.0 -12549700000.0 -12549700000.0 -12549700000.0 -12549700000.0 -12549700000.0 -12549700000.0 -12549700000.0 -12549700000.0 -12549700000.0 -12552300000.0 -12549700000.0 -12549700000.0 -12549700000.0 -12549700000.0 -12549700000.0 -12549700000.0 -12549700000.0 -12549700000.0 -12549700000.0 -12549700000.0 -12549700000.0 -12549700000.0 -15411900000.0 -13484300000.0 -22980400000.0 -12549700000.0 -12549700000.0 -12549700000.0 -12549700000.0 -12670800000.0 -19870700000.0 -26292400000.0 -33543400000.0 -34832800000.0 -61488300000.0 -75732800000.0 -102513000000.0 -100331000000.0 -125395000000.0 -119554000000.0 -181878000000.0 -103700000000.0 -116992000000.0 -141363000000.0 -138188000000.0 -89166800000.0 -130523000000.0 -46382600000.0 -46516700000.0 -57198400000.0 -12859700000.0 -23184900000.0 -12957800000.0 -12549700000.0 -14113900000.0 -13105400000.0 -14649600000.0 -36506900000.0 -12549700000.0 -12549700000.0 -12549700000.0 -12549700000.0 -12549700000.0 -12549700000.0 -12549700000.0 -12549700000.0 -12549700000.0 -12549700000.0 -12549700000.0 -12549700000.0 -12549700000.0 -12549700000.0 -12549700000.0 -12549700000.0 -12551000000.0 -12550400000.0 -12550300000.0 -12550200000.0 -12549900000.0 -12549700000.0 -12549700000.0 -12549700000.0 -12549700000.0 -12549700000.0 -12549700000.0 -12549700000.0 -12549700000.0 -12549700000.0 -12549700000.0 -12549700000.0 -22757000000.0 -38120300000.0 -57611100000.0 -12549700000.0 -12549700000.0 -12549700000.0 -12549700000.0 -12950100000.0 -12549700000.0 -16571100000.0 -13542700000.0 -42397200000.0 -68378700000.0 -29822100000.0 -109278000000.0 -13815600000.0 -83334700000.0 -94825300000.0 -158492000000.0 -67529400000.0 -47391000000.0 -151607000000.0 -15156300000.0 -12549700000.0 -100567000000.0 -174398000000.0 -55453600000.0 -63228500000.0 -39805200000.0 -53935700000.0 -15417600000.0 -13357200000.0 -12922700000.0 -13124300000.0 -14471700000.0 -12549700000.0 -12549700000.0 -12549700000.0 -70933500000.0 -12549700000.0 -12549700000.0 -12549700000.0 -12549700000.0 -12549700000.0 -12549700000.0 -12549700000.0 -12549700000.0 -12549700000.0 -12549700000.0 -12549700000.0 -12549700000.0 -12549700000.0 -12549700000.0 -12549700000.0 -12549700000.0 -12549700000.0 -12549700000.0 -12549700000.0 -12549700000.0 -12549700000.0 -12549600000.0 -12549700000.0 -12548400000.0 -12549700000.0 -44767800000.0 -137552000000.0 -12549700000.0 -12549700000.0 -81229400000.0 -17383700000.0 -11708100000.0 -12549700000.0 -12549700000.0 -19562100000.0 -23124100000.0 -15119300000.0 -12549700000.0 -12549700000.0 -12544000000.0 -13393800000.0 -19080200000.0 -24020600000.0 -30251000000.0 -46338400000.0 -77330100000.0 -87014100000.0 -61384300000.0 -176861000000.0 -156598000000.0 -103502000000.0 -158243000000.0 -242077000000.0 -44000100000.0 -74838100000.0 -173174000000.0 -185242000000.0 -145956000000.0 -184937000000.0 -300093000000.0 -165455000000.0 -106093000000.0 -15112800000.0 -13607800000.0 -13010600000.0 -12713900000.0 -12549700000.0 -13735600000.0 -12453500000.0 -12581600000.0 -12549700000.0 -67153400000.0 -24043300000.0 -16036400000.0 -12549700000.0 -12549700000.0 -12549700000.0 -12549700000.0 -12549700000.0 -12549700000.0 -12549700000.0 -12549700000.0 -12549700000.0 -12549700000.0 -12549700000.0 -12549900000.0 -12549600000.0 -12561400000.0 -12549700000.0 -12549700000.0 -2.82428e+12 -5.02817e+12 -6.85682e+12 -2.25046e+12 -4.25432e+12 -3.27717e+12 -2.89132e+12 -2.97493e+12 -4.41637e+12 -2.35491e+12 -146331000000.0 -948722000000.0 -3.55252e+12 -3.45613e+12 -3.74559e+12 -4.23454e+12 -12549600000.0 -2.10942e+12 -4.16611e+12 -12549600000.0 -5.9409e+12 -3.94872e+12 -3.66347e+12 -5.92805e+12 -325005000000.0 -598692000000.0 -1.59992e+12 -814536000000.0 -6.12612e+12 -5.73189e+12 -223356000000.0 -3.16754e+12 -215144000000.0 -3.66114e+12 -49635700000.0 -12492400000.0 -52333500000.0 -4.75284e+12 -4.64178e+12 -4.00575e+12 -3.08866e+12 -4.07589e+12 -5.21354e+12 -44704700000.0 -310095000000.0 -472043000000.0 -1.71257e+12 -5.25999e+12 -2.8502e+12 -3.86926e+12 -6.54961e+12 -12549700000.0 -3.70011e+12 -3.86097e+12 -3.69898e+12 -6.70678e+12 -5.02342e+12 -3.41765e+12 -2.59624e+12 -12549700000.0 -247514000000.0 -176768000000.0 -152214000000.0 -12549700000.0 -41982900000.0 -79460100000.0 -146868000000.0 -64181300000.0 -27639200000.0 -190750000000.0 -86110200000.0 -83554400000.0 -94190100000.0 -36722900000.0 -20500400000.0 -98096100000.0 -237367000000.0 -327815000000.0 -73578400000.0 -18263600000.0 -12549700000.0 -12578900000.0 -12478900000.0 -3.58659e+12 -4.72717e+12 -3.34206e+12 -2.91355e+12 -3.53284e+12 -3.08925e+12 -12679900000.0 -3.14805e+12 -12551500000.0 -12818300000.0 -12383400000.0 -3.1355e+12 -12604100000.0 -14297600000.0 -4.74836e+12 -12993200000.0 -38572400000.0 -4.13547e+12 -4.06422e+12 -3.55509e+12 -2.19536e+12 -12549300000.0 -3.6097e+12 -3.09238e+12 -12548300000.0 -3.71144e+12 -3.44794e+12 -3.07056e+12 -5.21825e+12 -5.98458e+12 -4.16861e+12 -4.7492e+12 -4.38177e+12 -4.41341e+12 -4.76275e+12 -12549500000.0 -4.79598e+12 -3.80471e+12 -12549700000.0 -3.6623e+12 -5.82367e+12 -4.2573e+12 -4.64931e+12 -5.19219e+12 -4.64034e+12 -4.29237e+12 -4.52307e+12 -2.99349e+12 -5.83663e+12 -4.80715e+12 -4.73206e+12 -12549600000.0 -12512200000.0 -12549400000.0 -3.48415e+12 -4.06873e+12 -2.85404e+12 -3.50652e+12 -4.84937e+12 -2.87309e+12 -4.77837e+12 -4.16183e+12 -6.41157e+12 -7.88866e+12 -4.45497e+12 -7.6979e+12 -4.12762e+12 -4.61189e+12 -9.73657e+12 -4.73269e+12 -4.07226e+12 -7.71772e+12 -5.46611e+12 -4.3432e+12 -6.4289e+12 -6.16659e+12 -5.81023e+12 -6.53409e+12 -5.43254e+12 -5.36544e+12 -6.15483e+12 -4.12316e+12 -8.3567e+12 -7.317e+12 -7.45003e+12 -5.42092e+12 -5.74491e+12 -4.5275e+12 -3.25505e+12 -6.68424e+12 -3.35602e+12 -9.01665e+12 -6.81767e+12 -3.45147e+12 -6.68695e+12 -2.35988e+12 -5.16698e+12 -9.3571e+12 -6.083e+12 -5.10323e+12 -6.95091e+12 -8.48999e+12 -5.16487e+12 -6.96087e+12 -3.89369e+12 -2.84818e+12 -6.9005e+12 -4.77793e+12 -6.29172e+12 -2.78484e+12 -8.36413e+12 -5.7103e+12 -4.08599e+12 -6.69039e+12 -5.62928e+12 -7.34168e+12 -4.99503e+12 -5.01286e+12 -4.91056e+12 -5.8469e+12 -6.57022e+12 -5.00405e+12 -6.08646e+12 -5.83957e+12 -8.85515e+12 -1.0077e+13 -4.69288e+12 -2.25162e+12 -6.45336e+12 -3.99252e+12 -5.6596e+12 -4.64417e+12 -6.80554e+12 -6.22042e+12 -7.01086e+12 -3.62773e+12 -5.81596e+12 -3.81558e+12 -7.12083e+12 -6.90155e+12 -6.63279e+12 -250723000000.0 -102165000000.0 -182531000000.0 -98075700000.0 -67062400000.0 -126676000000.0 -16582200000.0 -50143900000.0 -100862000000.0 -69888700000.0 -78535700000.0 -70267800000.0 -63076400000.0 -149176000000.0 -43357800000.0 -37898100000.0 -96867600000.0 -459511000000.0 -412685000000.0 -4.38447e+12 -3.97275e+12 -6.75962e+12 -5.93894e+12 -7.17607e+12 -5.73242e+12 -6.28669e+12 -6.3479e+12 -2.76544e+12 -5.30816e+12 -7.63104e+12 -3.65209e+12 -6.14338e+12 -7.91079e+12 -5.35044e+12 -2.8625e+12 -3.9209e+12 -8.58883e+12 -2.86396e+12 -3.49724e+12 -3.39878e+12 -6.45797e+12 -4.13128e+12 -6.00105e+12 -4.069e+12 -8.6562e+12 -8.82322e+12 -4.63339e+12 -1.01881e+13 -8.26596e+12 -3.0639e+12 -6.05728e+12 -6.97868e+12 -1.00775e+13 -6.47988e+12 -5.72574e+12 -7.88171e+12 -8.00101e+12 -8.34148e+12 -8.2983e+12 -5.5249e+12 -4.94167e+12 -6.01581e+12 -7.03053e+12 -4.28615e+12 -6.92599e+12 -8.29797e+12 -4.82719e+12 -3.87934e+12 -6.0075e+12 -7.7552e+12 -7.9359e+12 -1.03461e+12 -6.56521e+12 -1.01726e+13 -7.70936e+12 -8.6019e+12 -6.11862e+12 -8.16089e+12 -3.56155e+12 -6.97205e+12 -5.76723e+12 -5.68265e+12 -6.89903e+12 -8.15316e+12 -4.31794e+12 -7.54352e+12 -5.76882e+12 -4.6345e+12 -5.84944e+12 -7.13412e+12 -3.74324e+12 -4.41264e+12 -5.59444e+12 -8.99792e+12 -8.81221e+12 -5.22536e+12 -8.05207e+12 -7.58925e+12 -3.02993e+12 -3.34285e+12 -6.30352e+12 -5.30603e+12 -7.60102e+12 -5.69378e+12 -6.15264e+12 -5.20959e+12 -4.92995e+12 -6.56679e+12 -4.0112e+12 -5.95026e+12 -3.76346e+12 -4.97624e+12 -5.68589e+12 -2.34876e+12 -4.4222e+12 -4.83498e+12 -4.79634e+12 -5.84237e+12 -6.99711e+12 -8.39435e+12 -4.93062e+12 -7.19457e+12 -3.94465e+12 -1.01024e+13 -3.77758e+12 -3.06644e+12 -4.21133e+12 -6.31676e+12 -2.48781e+12 -6.96603e+12 -7.64127e+12 -6.13163e+12 -6.08951e+12 -7.13368e+12 -7.2928e+12 -7.5443e+12 -5.16011e+12 -8.43262e+12 -5.46737e+12 -6.31994e+12 -3.18666e+12 -5.21444e+12 -5.64179e+12 -5.8935e+12 -7.5548e+12 -7.20024e+12 -6.66667e+12 -6.46066e+12 -5.82753e+12 -6.2799e+12 -4.55754e+12 -9.06324e+12 -5.2297e+12 -5.80332e+12 -5.09525e+12 -4.42274e+12 -4.38892e+12 -2.35851e+12 -5.94825e+12 -4.5683e+12 -5.19582e+12 -7.40022e+12 -6.3907e+12 -5.93447e+12 -6.64546e+12 -5.92259e+12 -3.08306e+12 -2.89192e+12 -2.65699e+12 -899653000000.0 -702174000000.0 -648706000000.0 -251913000000.0 -246264000000.0 -98454100000.0 -81417200000.0 -44120300000.0 -104170000000.0 -65204100000.0 -37096600000.0 -112988000000.0 -41478600000.0 -40175700000.0 -78491000000.0 -108514000000.0 -139109000000.0 -302128000000.0 -106265000000.0 -3.19606e+12 -5.09752e+12 -3.7732e+12 -5.48373e+12 -4.47492e+12 -7.58356e+12 -5.6558e+12 -4.97339e+12 -5.77765e+12 -7.37117e+12 -4.15308e+12 -6.67371e+12 -1.00339e+13 -7.12027e+12 -5.96087e+12 -6.24022e+12 -8.26976e+12 -1.01017e+13 -7.56982e+12 -4.75532e+12 -5.40046e+12 -6.4655e+12 -5.06056e+12 -9.65508e+12 -6.95685e+12 -6.27263e+12 -5.12601e+12 -3.5285e+12 -3.98756e+12 -5.75451e+12 -1.03742e+13 -6.3961e+12 -6.90539e+12 -5.86551e+12 -9.33863e+12 -2.95643e+12 -9.19e+12 -6.69283e+12 -7.30764e+12 -5.5976e+12 -6.41999e+12 -8.85747e+12 -7.8085e+12 -6.05853e+12 -8.79344e+12 -8.29677e+12 -8.01706e+12 -3.79964e+12 -5.18301e+12 -7.01307e+12 -3.69783e+12 -6.01305e+12 -8.78541e+12 -9.08572e+12 -8.39004e+12 -7.9648e+12 -6.84482e+12 -4.47998e+12 -9.6325e+12 -5.75005e+12 -5.23602e+12 -6.44789e+12 -6.53444e+12 -4.90551e+12 -1.00865e+13 -6.0089e+12 -3.62211e+12 -4.4598e+12 -3.21074e+12 -5.50755e+12 -4.96839e+12 -5.40997e+12 -6.97885e+12 -9.95037e+12 -4.63416e+12 -4.74646e+12 -3.53136e+12 -4.61816e+12 -6.58717e+12 -8.18032e+12 -2.39857e+12 -6.11159e+12 -3.84354e+12 -5.56301e+12 -2.32518e+12 -6.9509e+12 -1.06929e+13 -6.78839e+12 -5.36394e+12 -6.05011e+12 -5.78629e+12 -5.85296e+12 -4.93636e+12 -7.90379e+12 -6.37987e+12 -4.75573e+12 -8.05012e+12 -7.876e+12 -6.44544e+12 -4.49091e+12 -5.00299e+12 -6.0623e+12 -5.3169e+12 -6.09079e+12 -4.75846e+12 -5.81423e+12 -8.06692e+12 -1.00436e+13 -4.74238e+12 -3.51507e+12 -2.94218e+12 -2.72343e+12 -3.44182e+12 -4.04201e+12 -5.05839e+12 -5.54665e+12 -8.37594e+12 -5.58907e+12 -5.53953e+12 -6.67386e+12 -2.68322e+12 -4.27179e+12 -5.25449e+12 -8.32691e+12 -4.18487e+12 -8.70666e+12 -5.44441e+12 -3.62146e+12 -6.23577e+12 -6.28047e+12 -3.52949e+12 -2.62581e+12 -3.72446e+12 -4.17184e+12 -44814400000.0 -143599000000.0 -33059900000.0 -14256300000.0 -276010000000.0 -195468000000.0 -204118000000.0 -212175000000.0 -199682000000.0 -127506000000.0 -144976000000.0 -127097000000.0 -214789000000.0 -305111000000.0 -234884000000.0 -254349000000.0 -174781000000.0 -99032500000.0 -224453000000.0 -25670300000.0 -27970300000.0 -4.82647e+12 -5.56931e+12 -3.25421e+12 -6.8582e+12 -8.76581e+12 -4.72522e+12 -3.72146e+12 -6.36638e+12 -2.60916e+12 -5.74993e+12 -6.22566e+12 -4.25684e+12 -3.19991e+12 -4.90232e+12 -7.89525e+12 -8.4881e+12 -6.26939e+12 -5.34999e+12 -6.09161e+12 -7.01971e+12 -9.25315e+12 -5.84662e+12 -7.70559e+12 -6.06689e+12 -8.45835e+12 -5.0383e+12 -8.85091e+12 -6.7058e+12 -5.2277e+12 -3.81877e+12 -4.38405e+12 -5.44925e+12 -6.46329e+12 -5.68923e+12 -7.21561e+12 -5.78622e+12 -6.01669e+12 -6.33153e+12 -5.45736e+12 -5.04585e+12 -4.44359e+12 -6.04856e+12 -4.30595e+12 -5.07126e+12 -5.52185e+12 -4.71348e+12 -5.77603e+12 -4.71183e+12 -3.97175e+12 -2.67392e+12 -5.69586e+12 -6.0619e+12 -5.38587e+12 -5.11053e+12 -8.62655e+12 -6.32646e+12 -7.11906e+12 -7.23019e+12 -3.81219e+12 -4.38826e+12 -2.51132e+12 -4.64899e+12 -7.49736e+12 -5.47361e+12 -5.85158e+12 -5.8377e+12 -7.3829e+12 -6.49591e+12 -4.22957e+12 -4.48704e+12 -6.56416e+12 -6.14392e+12 -4.85356e+12 -8.47793e+12 -2.08247e+12 -3.61326e+12 -4.24613e+12 -5.11877e+12 -2.95791e+12 -5.41089e+12 -5.46931e+12 -4.79368e+12 -5.27703e+12 -4.833e+12 -5.46132e+12 -5.21107e+12 -4.65814e+12 -7.98994e+12 -5.89101e+12 -5.5731e+12 -5.16359e+12 -4.98978e+12 -6.17466e+12 -4.42859e+12 -6.70455e+12 -4.04839e+12 -5.01607e+12 -5.09088e+12 -5.76449e+12 -4.77107e+12 -4.16842e+12 -6.4705e+12 -6.51902e+12 -5.33438e+12 -5.75742e+12 -2.67262e+12 -4.26483e+12 -2.85688e+12 -6.38397e+12 -7.9915e+12 -6.93915e+12 -5.9389e+12 -4.39511e+12 -3.9343e+12 -7.36835e+12 -3.61511e+12 -4.1888e+12 -4.4088e+12 -5.94032e+12 -6.19503e+12 -5.52718e+12 -3.08198e+12 -4.43557e+12 -4.20686e+12 -7.14915e+12 -5.68461e+12 -3.37591e+12 -5.56523e+12 -4.10379e+12 -4.87958e+12 -2.25913e+12 -14347300000.0 -157391000000.0 -39686400000.0 -98561800000.0 -21015100000.0 -192453000000.0 -68468000000.0 -153659000000.0 -185432000000.0 -114620000000.0 -133210000000.0 -54120300000.0 -107199000000.0 -35633000000.0 -186814000000.0 -91131900000.0 -138604000000.0 -225922000000.0 -222215000000.0 -41540800000.0 -12549500000.0 -4.75831e+12 -7.20413e+12 -3.98112e+12 -7.63931e+12 -7.951e+12 -2.3212e+12 -3.79319e+12 -4.52006e+12 -2.15974e+12 -8.39033e+12 -4.32962e+12 -7.25741e+12 -5.28696e+12 -5.15689e+12 -8.51813e+12 -4.98231e+12 -8.29601e+12 -4.29171e+12 -7.61678e+12 -4.29082e+12 -5.85498e+12 -5.09324e+12 -6.14487e+12 -6.39491e+12 -3.76879e+12 -5.39939e+12 -6.6599e+12 -6.99956e+12 -4.15676e+12 -3.24001e+12 -2.53524e+12 -6.60437e+12 -3.80254e+12 -4.92069e+12 -6.95335e+12 -5.49343e+12 -5.82654e+12 -5.3192e+12 -4.86314e+12 -5.71545e+12 -1.55198e+12 -2.45991e+12 -4.76974e+12 -4.32251e+12 -3.99363e+12 -5.77593e+12 -8.81551e+12 -5.65843e+12 -4.75202e+12 -3.69097e+12 -4.53002e+12 -3.10211e+12 -5.20741e+12 -3.51251e+12 -5.05019e+12 -6.62304e+12 -3.67928e+12 -4.17997e+12 -4.63282e+12 -6.85784e+12 -7.28732e+12 -4.0552e+12 -3.89281e+12 -6.34747e+12 -1.76074e+12 -4.79295e+12 -3.84452e+12 -5.02337e+12 -7.645e+12 -5.48578e+12 -6.2562e+12 -5.39429e+12 -3.99605e+12 -6.09988e+12 -4.40101e+12 -1.55059e+12 -5.84307e+12 -3.24987e+12 -5.58874e+12 -4.53886e+12 -4.54796e+12 -4.58491e+12 -5.40127e+12 -4.13601e+12 -4.54697e+12 -3.76099e+12 -4.42257e+12 -3.07277e+12 -4.32261e+12 -7.25855e+12 -5.4488e+12 -6.89001e+12 -5.53115e+12 -5.34583e+12 -4.83735e+12 -3.41675e+12 -7.18031e+12 -3.85424e+12 -4.66658e+12 -4.79413e+12 -7.19214e+12 -4.56648e+12 -3.08409e+12 -4.21668e+12 -7.51581e+12 -3.68576e+12 -5.00713e+12 -2.70285e+12 -5.07404e+12 -5.18427e+12 -6.45749e+12 -4.05384e+12 -5.63568e+12 -6.56125e+12 -5.13032e+12 -3.88716e+12 -5.87931e+12 -4.68404e+12 -357636000000.0 -339015000000.0 -106757000000.0 -125332000000.0 -87741800000.0 -160950000000.0 -93314300000.0 -62835900000.0 -68518000000.0 -40314800000.0 -53806900000.0 -19271100000.0 -26627400000.0 -128957000000.0 -77861600000.0 -33253000000.0 -44154500000.0 -72679700000.0 -372240000000.0 -396897000000.0 -34705200000.0 -3.60625e+12 -4.11437e+12 -3.5131e+12 -2.65154e+12 -3.35395e+12 -4.29831e+12 -5.60248e+12 -6.44775e+12 -6.28775e+12 -7.11854e+12 -5.9526e+12 -2.58047e+12 -4.25187e+12 -3.75751e+12 -2.25777e+12 -3.40727e+12 -3.24698e+12 -3.40218e+12 -4.40588e+12 -6.61939e+12 -5.98539e+12 -3.9096e+12 -3.95366e+12 -3.23552e+12 -8.62049e+12 -5.27595e+12 -5.33106e+12 -3.20464e+12 -7.69906e+12 -7.93404e+12 -5.86845e+12 -4.30895e+12 -3.89599e+12 -4.56381e+12 -6.86638e+12 -3.96327e+12 -5.30601e+12 -5.46608e+12 -5.46828e+12 -2.91746e+12 -4.95936e+12 -3.59131e+12 -5.19729e+12 -6.40467e+12 -7.06089e+12 -5.16189e+12 -5.25423e+12 -5.43294e+12 -7.37598e+12 -3.76186e+12 -3.71189e+12 -4.04747e+12 -4.68794e+12 -4.63052e+12 -3.57589e+12 -4.07142e+12 -4.15204e+12 -5.73306e+12 -2.83196e+12 -3.89593e+12 -2.59124e+12 -5.33435e+12 -6.58562e+12 -3.48363e+12 -2.921e+12 -5.75762e+12 -3.81551e+12 -3.30468e+12 -4.42649e+12 -4.20872e+12 -5.87441e+12 -8.86654e+12 -3.29987e+12 -4.14189e+12 -3.84416e+12 -3.44169e+12 -8.52658e+12 -4.81249e+12 -3.78811e+12 -3.40673e+12 -2.8636e+12 -2.40757e+12 -3.48294e+12 -3.87753e+12 -6.23826e+12 -6.13259e+12 -3.32755e+12 -2.78732e+12 -5.89034e+12 -1.97503e+12 -5.69426e+12 -6.64135e+12 -3.61159e+12 -3.81963e+12 -2.6538e+12 -4.36715e+12 -1.92334e+12 -5.65631e+12 -3.77696e+12 -3.77136e+12 -4.52669e+12 -6.71443e+12 -5.97383e+12 -4.88441e+12 -3.60001e+12 -4.41906e+12 -3.46838e+12 -3.76423e+12 -2.48542e+12 -5.41149e+12 -3.36456e+12 -2.51483e+12 -6.21414e+12 -5.23208e+12 -4.15604e+12 -3.13259e+12 -3.99788e+12 -4.72663e+12 -3.26566e+12 -1.9198e+12 -1.61732e+12 -1.75641e+12 -12549500000.0 -100880000000.0 -182322000000.0 -76308200000.0 -82285400000.0 -90186500000.0 -122225000000.0 -85251800000.0 -105171000000.0 -77610000000.0 -93597300000.0 -87638100000.0 -102788000000.0 -96563000000.0 -138303000000.0 -48140600000.0 -73044600000.0 -14553800000.0 -21317700000.0 -266979000000.0 -21428000000.0 -3.1413e+12 -4.61375e+12 -3.93979e+12 -2.86872e+12 -4.8626e+12 -3.74426e+12 -3.61867e+12 -4.61057e+12 -3.14659e+12 -3.45566e+12 -5.33454e+12 -3.79912e+12 -2.84436e+12 -5.12088e+12 -4.66184e+12 -3.0976e+12 -4.64639e+12 -4.8605e+12 -5.66093e+12 -2.66632e+12 -2.54511e+12 -2.83944e+12 -7.61107e+12 -2.82876e+12 -3.14504e+12 -2.58176e+12 -2.52611e+12 -1.82807e+12 -2.93076e+12 -3.0104e+12 -7.22794e+12 -3.14599e+12 -2.49709e+12 -3.98281e+12 -2.66917e+12 -4.59645e+12 -6.19548e+12 -6.8559e+12 -5.31094e+12 -6.2518e+12 -5.72839e+12 -2.57384e+12 -2.03978e+12 -5.58709e+12 -2.84425e+12 -4.90916e+12 -3.91888e+12 -5.25727e+12 -4.7828e+12 -4.30461e+12 -4.86491e+12 -3.83817e+12 -3.74465e+12 -3.89428e+12 -4.47768e+12 -6.39142e+12 -4.90827e+12 -3.03641e+12 -7.13303e+12 -5.42733e+12 -1.71626e+12 -2.04972e+12 -5.13578e+12 -5.41467e+12 -2.27392e+12 -8.67905e+12 -3.67472e+12 -3.12734e+12 -5.93038e+12 -6.99432e+12 -666133000000.0 -4.66738e+12 -5.16045e+12 -3.89145e+12 -4.46759e+12 -4.56079e+12 -4.38871e+12 -4.23081e+12 -4.56183e+12 -5.36157e+12 -2.14928e+12 -4.23548e+12 -4.57955e+12 -3.20301e+12 -4.16169e+12 -3.41026e+12 -3.41516e+12 -5.03787e+12 -4.21529e+12 -4.78959e+12 -6.04244e+12 -6.2289e+12 -3.12591e+12 -5.82892e+12 -2.15236e+12 -4.91954e+12 -5.06029e+12 -5.86845e+12 -3.06473e+12 -2.73289e+12 -4.36527e+12 -4.343e+12 -5.01188e+12 -5.37582e+12 -5.8339e+12 -2.4119e+12 -3.99739e+12 -3.80144e+12 -2.39419e+12 -4.85256e+12 -2.34831e+12 -5.30845e+12 -1.57885e+12 -12549200000.0 -167600000000.0 -29403000000.0 -85582500000.0 -88119900000.0 -45527100000.0 -67313200000.0 -57478700000.0 -107192000000.0 -56797700000.0 -22892700000.0 -16343900000.0 -131025000000.0 -13427800000.0 -69818500000.0 -12549400000.0 -13997600000.0 -271178000000.0 -4.19172e+12 -5.07358e+12 -3.69993e+12 -3.02801e+12 -2.57819e+12 -3.20034e+12 -3.00404e+12 -3.37371e+12 -2.6699e+12 -3.96114e+12 -4.82381e+12 -3.55339e+12 -2.23845e+12 -2.67422e+12 -3.12293e+12 -2.90746e+12 -4.33055e+12 -4.30373e+12 -4.59537e+12 -2.55891e+12 -2.72222e+12 -4.98881e+12 -2.04335e+12 -4.55569e+12 -3.3014e+12 -4.93788e+12 -4.44028e+12 -2.66536e+12 -1.4693e+12 -3.16255e+12 -4.85695e+12 -3.49912e+12 -5.02931e+12 -5.77104e+12 -4.05236e+12 -3.51671e+12 -3.35647e+12 -3.50998e+12 -2.14975e+12 -5.68849e+12 -2.04551e+12 -2.48258e+12 -3.52191e+12 -3.34979e+12 -5.18108e+12 -5.58403e+12 -3.88662e+12 -2.59692e+12 -4.46319e+12 -2.31908e+12 -4.62122e+12 -3.34325e+12 -5.09474e+12 -5.41995e+12 -2.59209e+12 -4.15295e+12 -4.85287e+12 -3.49708e+12 -4.53796e+12 -2.84266e+12 -2.42031e+12 -5.62469e+12 -3.35201e+12 -3.52594e+12 -5.02379e+12 -3.13857e+12 -4.25887e+12 -5.16989e+12 -4.67184e+12 -4.98836e+12 -4.91114e+12 -2.87317e+12 -3.39227e+12 -4.15127e+12 -2.12325e+12 -2.40442e+12 -2.40034e+12 -3.23796e+12 -1.95339e+12 -3.15187e+12 -3.26502e+12 -2.58888e+12 -2.58668e+12 -2.02069e+12 -4.21448e+12 -7.37358e+12 -2.773e+12 -3.39423e+12 -4.47685e+12 -2.4709e+12 -5.42298e+12 -2.3935e+12 -4.08922e+12 -3.62411e+12 -4.91992e+12 -3.00369e+12 -3.83289e+12 -3.48849e+12 -4.41295e+12 -4.62016e+12 -1.53709e+12 -2.1783e+12 -3.28127e+12 -4.47514e+12 -2.85566e+12 -3.49569e+12 -3.65213e+12 -3.50233e+12 -3.90276e+12 -1.84106e+12 -56496100000.0 -63355000000.0 -23476100000.0 -12549700000.0 -26011900000.0 -52417800000.0 -41077600000.0 -19601300000.0 -18084800000.0 -55832400000.0 -32528700000.0 -50419300000.0 -58651200000.0 -67010000000.0 -195947000000.0 -43989600000.0 -93126500000.0 -106609000000.0 -54780500000.0 -246451000000.0 -3.82162e+12 -3.67556e+12 -4.07205e+12 -4.30542e+12 -2.6611e+12 -4.3146e+12 -4.89698e+12 -3.43338e+12 -2.11488e+12 -2.652e+12 -3.62886e+12 -3.46711e+12 -3.17994e+12 -3.07956e+12 -5.49742e+12 -2.51511e+12 -6.7472e+12 -2.39022e+12 -4.45992e+12 -2.23129e+12 -4.00378e+12 -2.87609e+12 -3.11959e+12 -2.73948e+12 -3.01649e+12 -4.2177e+12 -5.34607e+12 -3.2791e+12 -3.28805e+12 -3.19309e+12 -1.54414e+12 -4.1512e+12 -3.63652e+12 -3.92493e+12 -1.82251e+12 -2.62128e+12 -2.58886e+12 -1.68916e+12 -3.6372e+12 -3.29926e+12 -4.13161e+12 -2.808e+12 -2.42114e+12 -1.23477e+12 -3.03288e+12 -2.72138e+12 -5.96875e+12 -3.54197e+12 -3.4979e+12 -3.55729e+12 -2.51163e+12 -2.16499e+12 -2.1602e+12 -3.84708e+12 -1.63609e+12 -3.76241e+12 -2.09077e+12 -1.73485e+12 -2.62088e+12 -2.48552e+12 -4.23959e+12 -2.22909e+12 -3.00674e+12 -4.01187e+12 -3.66131e+12 -1.8646e+12 -3.31171e+12 -3.1503e+12 -3.50911e+12 -4.83184e+12 -3.79831e+12 -665404000000.0 -2.38501e+12 -2.90827e+12 -2.69673e+12 -3.58477e+12 -3.02099e+12 -2.68586e+12 -2.80198e+12 -4.34118e+12 -1.67878e+12 -3.09367e+12 -1.83595e+12 -1.48258e+12 -3.06483e+12 -3.50999e+12 -2.31291e+12 -2.50473e+12 -3.30668e+12 -2.13611e+12 -3.18242e+12 -2.47507e+12 -1.40594e+12 -3.57444e+12 -2.61455e+12 -2.59376e+12 -3.21931e+12 -3.66967e+12 -2.15371e+12 -3.01342e+12 -2.77932e+12 -4.21832e+12 -4.17763e+12 -2.9485e+12 -2.53049e+12 -22390500000.0 -36731800000.0 -27585900000.0 -14096000000.0 -12781200000.0 -30317200000.0 -21769100000.0 -14741800000.0 -16315400000.0 -37434700000.0 -12549700000.0 -24577700000.0 -31108600000.0 -31437100000.0 -100967000000.0 -124401000000.0 -145636000000.0 -57431100000.0 -43339500000.0 -115424000000.0 -2.83303e+12 -2.54038e+12 -1.38764e+12 -3.49701e+12 -3.69339e+12 -800239000000.0 -3.21317e+12 -2.61687e+12 -3.1199e+12 -2.38554e+12 -5.26831e+12 -4.62163e+12 -1.98778e+12 -4.94135e+12 -5.4046e+12 -3.24625e+12 -3.56276e+12 -3.16638e+12 -1.96111e+12 -1.95077e+12 -1.79764e+12 -2.10778e+12 -3.6558e+12 -1.805e+12 -2.46706e+12 -3.76354e+12 -2.55737e+12 -896759000000.0 -2.69889e+12 -545464000000.0 -3.66475e+12 -3.89121e+12 -2.76221e+12 -4.59566e+12 -3.74551e+12 -1.89877e+12 -3.15203e+12 -2.70831e+12 -2.17349e+12 -2.40731e+12 -2.67494e+12 -3.33441e+12 -3.06274e+12 -2.14311e+12 -1.54539e+12 -3.1861e+12 -3.12052e+12 -1.6866e+12 -2.33958e+12 -3.73675e+12 -3.40335e+12 -3.28187e+12 -5.45753e+12 -3.61072e+12 -2.92422e+12 -1.77266e+12 -1.90695e+12 -2.01915e+12 -2.43434e+12 -4.14795e+12 -142476000000.0 -2.04327e+12 -2.44707e+12 -1.68626e+12 -1.55548e+12 -2.212e+12 -3.86327e+12 -1.45565e+12 -2.22758e+12 -1.45748e+12 -1.17656e+12 -2.42538e+12 -2.56588e+12 -2.34059e+12 -2.39012e+12 -2.79756e+12 -2.62666e+12 -3.90577e+12 -2.34398e+12 -2.44334e+12 -2.61528e+12 -2.47463e+12 -1.943e+12 -2.395e+12 -2.25206e+12 -3.37517e+12 -4.25253e+12 -1.64598e+12 -2.28171e+12 -2.37461e+12 -3.6217e+12 -3.04916e+12 -2.25417e+12 -2.3585e+12 -1.94195e+12 -1.20711e+12 -2.22432e+12 -1.92623e+12 -1.82382e+12 -2.17704e+12 -1.89437e+12 -3.2023e+12 -3.65589e+12 -2.45772e+12 -2.97724e+12 -3.41524e+12 -2.16277e+12 -3.73318e+12 -1.03497e+12 -1.73524e+12 -645920000000.0 -12549700000.0 -44571000000.0 -28970900000.0 -14022400000.0 -12549700000.0 -22686100000.0 -18287500000.0 -13171600000.0 -12772700000.0 -15480500000.0 -31958100000.0 -15552600000.0 -23899700000.0 -25226000000.0 -15360200000.0 -55689500000.0 -75322600000.0 -201617000000.0 -78887900000.0 -299210000000.0 -353639000000.0 -2.50735e+12 -1.32946e+12 -1.43517e+12 -2.76332e+12 -4.15276e+12 -2.41253e+12 -2.53689e+12 -2.57737e+12 -3.7508e+12 -1.72864e+12 -2.16212e+12 -1.84413e+12 -1.73574e+12 -2.47412e+12 -4.42557e+12 -2.82872e+12 -1.27135e+12 -1.79167e+12 -1.80201e+12 -2.65883e+12 -1.97565e+12 -1.61559e+12 -2.00925e+12 -1.97687e+12 -3.78002e+12 -1.67629e+12 -2.64092e+12 -4.67717e+12 -2.31424e+12 -3.15796e+12 -3.85307e+12 -2.26839e+12 -2.36174e+12 -2.94668e+12 -1.3834e+12 -2.73605e+12 -1.93307e+12 -2.5912e+12 -3.18701e+12 -3.37166e+12 -2.98656e+12 -2.55732e+12 -2.68604e+12 -2.48881e+12 -1.77701e+12 -1.01035e+12 -3.00129e+12 -1.33706e+12 -2.73406e+12 -924572000000.0 -2.19628e+12 -1.52762e+12 -2.28753e+12 -1.69986e+12 -2.02518e+12 -1.56727e+12 -1.88812e+12 -2.06238e+12 -1.09797e+12 -3.22092e+12 -1.37252e+12 -1.88558e+12 -1.44177e+12 -1.09973e+12 -927582000000.0 -654759000000.0 -1.69827e+12 -2.47117e+12 -1.63965e+12 -1.57572e+12 -2.99405e+12 -2.47679e+12 -387518000000.0 -2.41887e+12 -4.17408e+12 -1.87766e+12 -3.27328e+12 -2.52233e+12 -1.13098e+12 -1.83435e+12 -3.5194e+12 -867340000000.0 -2.66871e+12 -3.80794e+12 -1.61953e+12 -2.31388e+12 -1.03823e+12 -1.85746e+12 -1.76726e+12 -1.53543e+12 -1.32745e+12 -1.34735e+12 -1.5345e+12 -2.37322e+12 -1.04315e+12 -414683000000.0 -1.45542e+12 -1.52255e+12 -1.39999e+12 -3.28494e+12 -2.05448e+12 -12549700000.0 -46439400000.0 -13891200000.0 -12549700000.0 -12666200000.0 -15020200000.0 -20449100000.0 -15352200000.0 -35490600000.0 -24619700000.0 -19778200000.0 -26676500000.0 -40873300000.0 -15334200000.0 -13148600000.0 -49795500000.0 -54511100000.0 -32029300000.0 -31461800000.0 -871130000000.0 -2.89113e+12 -2.22669e+12 -1.92768e+12 -2.00215e+12 -1.62475e+12 -2.21257e+12 -2.50631e+12 -1.22524e+12 -1.45159e+12 -1.48694e+12 -959840000000.0 -2.5285e+12 -2.66469e+12 -1.64535e+12 -2.23173e+12 -2.88313e+12 -956579000000.0 -1.6267e+12 -1.68334e+12 -3.28488e+12 -1.86734e+12 -3.53067e+12 -2.55982e+12 -2.84484e+12 -1.0801e+12 -1.87038e+12 -2.89248e+12 -2.38103e+12 -1.65444e+12 -2.28971e+12 -2.13539e+12 -3.40714e+12 -1.05195e+12 -1.69973e+12 -3.21344e+12 -2.85694e+12 -2.69695e+12 -1.17868e+12 -1.68254e+12 -1.70379e+12 -1.86569e+12 -2.00783e+12 -2.13274e+12 -1.3036e+12 -1.8582e+12 -1.62087e+12 -283265000000.0 -1.1135e+12 -1.22989e+12 -710543000000.0 -1.99199e+12 -1.34042e+12 -1.07281e+12 -1.84976e+12 -1.25442e+12 -1.27966e+12 -1.37825e+12 -2.34635e+12 -2.10017e+12 -2.22958e+12 -1.3274e+12 -1.06012e+12 -1.09674e+12 -698254000000.0 -2.56865e+12 -1.97445e+12 -1.15209e+12 -2.31274e+12 -1.13193e+12 -1.5654e+12 -1.74415e+12 -1.33504e+12 -587050000000.0 -1.34236e+12 -1.515e+12 -2.28153e+12 -652657000000.0 -1.05488e+12 -1.04742e+12 -701998000000.0 -1.44756e+12 -2.04332e+12 -1.86813e+12 -1.05056e+12 -1.31835e+12 -1.65276e+12 -1.91546e+12 -1.04585e+12 -1.44701e+12 -1.11279e+12 -63149900000.0 -15065800000.0 -13164700000.0 -12568300000.0 -12596100000.0 -13152200000.0 -14841900000.0 -14198500000.0 -19026400000.0 -15269900000.0 -12549700000.0 -12549700000.0 -12549700000.0 -21160900000.0 -15101900000.0 -17317700000.0 -29540800000.0 -22819900000.0 -13304600000.0 -16907800000.0 -1.10006e+12 -1.4741e+12 -2.13732e+12 -883633000000.0 -1.82712e+12 -928786000000.0 -1.18764e+12 -2.01747e+12 -2.1489e+12 -2.35804e+12 -1.87373e+12 -1.17984e+12 -1.60308e+12 -1.12438e+12 -1.93025e+12 -1.01292e+12 -1.3829e+12 -1.44255e+12 -1.77528e+12 -1.85822e+12 -1.54722e+12 -3.31005e+12 -1.49346e+12 -2.26345e+12 -2.01039e+12 -1.64764e+12 -1.11345e+12 -1.96754e+12 -1.18642e+12 -1.03559e+12 -1.27382e+12 -2.08131e+12 -1.7541e+12 -1.48296e+12 -1.92681e+12 -2.32399e+12 -1.5455e+12 -1.15838e+12 -2.21425e+12 -1.50247e+12 -1.07832e+12 -1.50388e+12 -1.19429e+12 -749333000000.0 -546261000000.0 -924189000000.0 -1.89606e+12 -364241000000.0 -948232000000.0 -258516000000.0 -1.71224e+12 -483115000000.0 -1.07668e+12 -977381000000.0 -990179000000.0 -1.30062e+12 -1.27569e+12 -1.42386e+12 -1.23393e+12 -852039000000.0 -1.48418e+12 -670732000000.0 -1.64472e+12 -772093000000.0 -385021000000.0 -478138000000.0 -2.50622e+12 -1.46048e+12 -972517000000.0 -962354000000.0 -1.49916e+12 -1.08428e+12 -769639000000.0 -973683000000.0 -1.49977e+12 -761164000000.0 -1.878e+12 -1.21795e+12 -399240000000.0 -893598000000.0 -776835000000.0 -57709600000.0 -89644600000.0 -953474000000.0 -2.36133e+12 -867982000000.0 -602687000000.0 -1.82595e+12 -371806000000.0 -729490000000.0 -1.38324e+12 -651325000000.0 -811162000000.0 -575480000000.0 -383222000000.0 -761711000000.0 -1.08968e+12 -1.0633e+12 -1.45671e+12 -1.70195e+12 -1.66752e+12 -1.00284e+12 -439841000000.0 -1.23405e+12 -1.09792e+12 -670434000000.0 -1.15069e+12 -909143000000.0 -1.31261e+12 -2.17229e+12 -1.4282e+12 -1.18745e+12 -645239000000.0 -948029000000.0 -615195000000.0 -676898000000.0 -994601000000.0 -417819000000.0 -912471000000.0 -276699000000.0 -1.34999e+12 -776706000000.0 -928676000000.0 -877893000000.0 -364733000000.0 -841164000000.0 -746949000000.0 -983590000000.0 -623621000000.0 -1.89888e+12 -1.23547e+12 -778997000000.0 -387019000000.0 -892599000000.0 -1.37213e+12 -1.27342e+12 -980617000000.0 -704923000000.0 -1.26982e+12 -787118000000.0 -173218000000.0 -65761200000.0 -552321000000.0 -618363000000.0 -531451000000.0 -577603000000.0 -325251000000.0 -730846000000.0 -195496000000.0 -227994000000.0 -479800000000.0 -362210000000.0 -198208000000.0 -420791000000.0 -312411000000.0 -395385000000.0 -377158000000.0 -1.23023e+12 -122152000000.0 -485303000000.0 -272708000000.0 -736346000000.0 -359703000000.0 -907503000000.0 -239431000000.0 -524921000000.0 -155717000000.0 -92121200000.0 -655235000000.0 -380385000000.0 -92409700000.0 -843926000000.0 -400312000000.0 -493650000000.0 -676639000000.0 -615055000000.0 -263256000000.0 -638157000000.0 -238724000000.0 -121666000000.0 -191245000000.0 -324688000000.0 -187393000000.0 -406165000000.0 -370820000000.0 -483039000000.0 -369836000000.0 -189609000000.0 -472703000000.0 -428908000000.0 -466791000000.0 -364683000000.0 -597844000000.0 -334851000000.0 -291339000000.0 -576772000000.0 -923048000000.0 -249302000000.0 -321603000000.0 -712125000000.0 -145201000000.0 -130980000000.0 -381432000000.0 -193743000000.0 -206673000000.0 -450607000000.0 -262299000000.0 -150111000000.0 -217452000000.0 -749369000000.0 -360761000000.0 -378641000000.0 -351319000000.0 -171209000000.0 -480944000000.0 -181457000000.0 -140727000000.0 -349435000000.0 -437927000000.0 -305488000000.0 -426701000000.0 -348119000000.0 -267299000000.0 -427686000000.0 -113570000000.0 -818867000000.0 -153591000000.0 -218453000000.0 -99754900000.0 -285915000000.0 -131158000000.0 -166284000000.0 -197929000000.0 -104415000000.0 -472582000000.0 -269717000000.0 -132961000000.0 -71852100000.0 