# vtk DataFile Version 2.0
Time step 48
ASCII
DATASET UNSTRUCTURED_GRID
POINTS 5000 float
27669.3 80348.1 0
2398.29 83439.5 0
8533.81 82813.0 0
12438.9 82647.1 0
16747.6 81965.0 0
22243.6 83612.8 0
33204.8 83035.5 0
38185.1 83619.3 0
42703.7 83772.5 0
47472.3 83678.7 0
52137.1 83778.3 0
57005.0 82617.9 0
62763.5 83693.7 0
67994.7 83827.2 0
72702.5 82959.7 0
77500.0 83706.6 0
82500.0 83695.8 0
87407.7 82994.1 0
92500.0 83734.0 0
97192.6 83755.5 0
101292.0 83672.5 0
105946.0 83062.1 0
111936.0 83541.4 0
117850.0 83726.4 0
123330.0 83803.1 0
128345.0 83924.0 0
133428.0 83172.7 0
138124.0 83856.2 0
142500.0 83777.3 0
147500.0 83710.9 0
152501.0 83680.6 0
157589.0 83308.2 0
162561.0 83463.5 0
167010.0 83005.2 0
171830.0 81888.1 0
177734.0 81926.4 0
182938.0 81112.7 0
187393.0 82967.4 0
192498.0 84129.1 0
196079.0 83291.6 0
201747.0 82651.9 0
207650.0 83416.1 0
212985.0 82751.6 0
218128.0 83837.5 0
222479.0 83850.0 0
225794.0 83079.2 0
230434.0 82951.2 0
235810.0 83949.1 0
241170.0 82653.4 0
246502.0 84654.8 0
252680.0 82638.8 0
259052.0 83113.4 0
263773.0 84201.9 0
268740.0 83110.9 0
273935.0 83406.2 0
278881.0 82057.5 0
282030.0 85390.0 0
286325.0 83697.7 0
291717.0 84153.7 0
297319.0 82022.2 0
303664.0 82806.4 0
307730.0 85376.8 0
312126.0 83231.2 0
317928.0 83848.3 0
323245.0 83753.6 0
327581.0 84024.5 0
332206.0 83623.1 0
337223.0 83332.3 0
341019.0 84543.2 0
345896.0 82878.2 0
350686.0 84801.3 0
355258.0 83784.6 0
361815.0 82424.9 0
372012.0 80442.8 0
367954.0 83758.3 0
377031.0 82414.4 0
382609.0 83288.6 0
388132.0 82589.2 0
394019.0 81905.1 0
399200.0 83573.9 0
403650.0 80831.2 0
408587.0 82043.3 0
412474.0 83693.9 0
417500.0 83739.7 0
422737.0 81850.6 0
427271.0 83559.3 0
432478.0 81362.6 0
437540.0 83716.0 0
442088.0 82657.6 0
446251.0 82238.3 0
450665.0 83006.2 0
455208.0 82946.0 0
460242.0 82789.9 0
465794.0 83179.0 0
471628.0 82435.5 0
477063.0 81239.0 0
481305.0 84102.2 0
485844.0 81171.1 0
491674.0 82709.8 0
497601.0 81203.3 0
2284.53 88454.2 0
6062.38 86133.1 0
11087.2 87165.0 0
17332.5 87867.2 0
23005.4 89123.0 0
28519.4 86699.8 0
34969.2 88310.0 0
40341.7 88628.5 0
44464.6 88970.2 0
48279.7 87673.3 0
52500.0 88738.5 0
57995.2 88059.2 0
62849.9 88793.2 0
67505.2 88465.0 0
72115.9 88079.3 0
77500.0 88864.6 0
82116.1 88510.8 0
87907.8 87751.9 0
92500.0 88873.7 0
97183.5 88502.5 0
102467.0 88407.2 0
108243.0 87653.3 0
112500.0 88810.0 0
117500.0 88891.5 0
122500.0 88814.4 0
127727.0 88357.1 0
132494.0 88707.9 0
137520.0 88722.7 0
142774.0 88199.9 0
146926.0 88547.9 0
151937.0 88425.5 0
156861.0 87357.5 0
161296.0 88177.7 0
166509.0 87676.9 0
172971.0 87457.1 0
178375.0 87338.7 0
183532.0 86180.7 0
188603.0 87413.0 0
193571.0 88273.3 0
198250.0 87636.3 0
203920.0 88271.6 0
213692.0 87301.9 0
209357.0 88486.0 0
217601.0 88908.3 0
222032.0 88674.4 0
226801.0 87314.2 0
232205.0 88376.0 0
237686.0 89200.4 0
243283.0 89024.7 0
248462.0 88728.4 0
252678.0 89199.0 0
257263.0 87751.9 0
262325.0 88377.5 0
267062.0 87953.8 0
271610.0 87257.2 0
277075.0 87661.0 0
282828.0 89076.7 0
287500.0 88788.0 0
292913.0 88644.8 0
298250.0 87532.6 0
303118.0 88476.9 0
307441.0 88669.7 0
312501.0 88982.5 0
317475.0 88723.5 0
322433.0 88221.6 0
327500.0 88768.2 0
332500.0 88840.6 0
337713.0 88173.8 0
343308.0 87568.4 0
347752.0 87964.7 0
352668.0 88691.2 0
361441.0 87737.6 0
357755.0 88204.7 0
365114.0 87430.0 0
372930.0 87243.5 0
378819.0 86965.3 0
382004.0 88103.6 0
388375.0 87677.5 0
393554.0 88052.2 0
402999.0 87030.7 0
398136.0 88486.9 0
408388.0 86324.1 0
412864.0 87636.0 0
417520.0 88255.3 0
422128.0 86487.3 0
428326.0 88501.6 0
433429.0 86595.8 0
437510.0 88784.4 0
443214.0 86939.9 0
447602.0 86248.3 0
451946.0 87483.7 0
457176.0 87673.1 0
462429.0 89162.8 0
466599.0 87748.7 0
470193.0 88928.9 0
475181.0 87728.5 0
480797.0 89377.1 0
486589.0 87360.3 0
492077.0 89610.7 0
496837.0 86712.4 0
2238.62 94377.6 0
6738.98 91178.3 0
11843.3 92994.6 0
16323.4 93074.4 0
20502.9 93084.5 0
27043.7 93532.4 0
32615.9 93365.8 0
38263.7 93141.2 0
42970.6 93528.1 0
47588.9 92394.3 0
51800.6 94159.2 0
56554.6 93679.4 0
62115.1 93649.3 0
67697.7 93308.9 0
73695.4 93622.0 0
78211.1 94062.1 0
81954.5 93236.9 0
86960.3 93267.7 0
92531.5 93624.6 0
97548.4 93021.8 0
102630.0 94169.2 0
107924.0 92433.2 0
116732.0 93494.6 0
112494.0 93706.8 0
120857.0 93344.7 0
125864.0 92725.1 0
131158.0 94423.9 0
136445.0 94376.2 0
140992.0 92320.7 0
146305.0 93439.2 0
151834.0 95037.0 0
156244.0 91918.1 0
161703.0 93868.3 0
166528.0 95686.6 0
169996.0 92243.5 0
176294.0 93096.4 0
182187.0 91319.7 0
188048.0 93574.6 0
194261.0 93299.5 0
199972.0 92741.3 0
208111.0 93394.5 0
204288.0 93736.5 0
213300.0 92112.8 0
217709.0 93842.0 0
222564.0 92948.8 0
226872.0 92319.1 0
232444.0 93840.8 0
237422.0 93626.3 0
241792.0 94279.6 0
246841.0 92796.5 0
251784.0 94090.1 0
257738.0 92503.9 0
262719.0 93155.1 0
267489.0 92408.4 0
273047.0 92497.3 0
279878.0 91724.1 0
283554.0 94009.5 0
287216.0 94077.3 0
291017.0 92951.3 0
296734.0 92576.1 0
302234.0 93711.8 0
307700.0 93099.5 0
313207.0 94224.7 0
318188.0 93213.5 0
322509.0 92226.8 0
326812.0 94108.4 0
336512.0 92838.3 0
331856.0 93824.2 0
341414.0 91773.7 0
346846.0 92351.2 0
351893.0 93526.2 0
356026.0 92078.7 0
361261.0 92439.6 0
366513.0 91511.0 0
371101.0 93384.2 0
377673.0 92900.2 0
384354.0 91441.1 0
392424.0 92874.9 0
388338.0 94629.5 0
397217.0 92834.6 0
402858.0 93271.7 0
409243.0 91968.9 0
414413.0 94523.3 0
419145.0 92944.6 0
424121.0 91304.5 0
427685.0 94340.7 0
432249.0 92219.0 0
437342.0 92956.4 0
442358.0 92176.8 0
448275.0 91321.2 0
454178.0 92887.8 0
458992.0 93937.3 0
463188.0 93700.4 0
467519.0 93807.6 0
472372.0 92251.0 0
477746.0 93199.3 0
482622.0 94072.0 0
487506.0 95174.8 0
491506.0 93672.1 0
496591.0 93281.2 0
2182.12 98791.7 0
8050.24 97018.8 0
13471.9 97621.3 0
17752.3 96918.8 0
22417.3 97458.1 0
26988.9 99455.4 0
32072.8 97653.2 0
37589.4 98345.9 0
43206.0 98591.2 0
49063.6 97185.6 0
53807.2 98859.9 0
59223.0 98358.2 0
63617.0 97980.9 0
68064.9 98980.8 0
72603.0 98497.6 0
77068.8 97981.4 0
82136.1 98257.9 0
87334.0 98441.4 0
92269.2 98955.2 0
97732.1 98374.0 0
102767.0 99625.6 0
107685.0 97931.4 0
113113.0 98036.1 0
118139.0 97970.7 0
123420.0 97332.3 0
127500.0 98888.8 0
137738.0 98290.2 0
132691.0 99251.9 0
142524.0 98439.6 0
148002.0 98047.4 0
156828.0 97312.2 0
153419.0 99690.4 0
160406.0 98681.2 0
164429.0 99390.0 0
170842.0 98272.6 0
177032.0 99664.4 0
182233.0 96798.3 0
186625.0 99208.9 0
191646.0 98695.9 0
197223.0 98026.7 0
203055.0 97880.6 0
208748.0 99740.6 0
214360.0 97783.6 0
218717.0 99090.8 0
222020.0 97206.4 0
227505.0 97869.4 0
234332.0 98220.2 0
237874.0 96950.3 0
241749.0 98880.4 0
246211.0 97981.7 0
251518.0 99348.5 0
255872.0 97219.3 0
260336.0 96889.0 0
262636.0 100463.0 0
266349.0 97090.6 0
271756.0 98766.1 0
278361.0 97227.0 0
284358.0 98748.5 0
288758.0 97230.7 0
292983.0 98946.4 0
298941.0 98876.1 0
303985.0 99108.4 0
307500.0 98932.2 0
316257.0 97927.9 0
312166.0 98751.0 0
321079.0 97452.2 0
325851.0 99041.1 0
329893.0 97650.6 0
334357.0 99647.4 0
339780.0 97164.7 0
346088.0 98605.9 0
352844.0 99101.8 0
357349.0 96036.2 0
361674.0 98427.4 0
366551.0 96203.6 0
371934.0 99018.1 0
377880.0 100351.0 0
382813.0 96957.1 0
387369.0 98814.8 0
393045.0 99546.8 0
399508.0 98441.5 0
408059.0 97317.8 0
404321.0 98468.1 0
412346.0 98987.2 0
416948.0 98326.7 0
421365.0 99573.4 0
425658.0 97968.0 0
431066.0 98410.9 0
437115.0 97151.3 0
441812.0 97762.5 0
446524.0 96318.2 0
450849.0 96815.7 0
455407.0 98660.4 0
461200.0 98349.8 0
466976.0 98133.5 0
472594.0 97210.4 0
478847.0 98698.5 0
484704.0 99213.0 0
489148.0 99937.2 0
492124.0 97527.6 0
496754.0 99923.7 0
1482.51 103466.0 0
7155.16 103327.0 0
11905.5 101361.0 0
12671.3 105867.0 0
17161.7 102098.0 0
23053.2 102842.0 0
30224.4 102193.0 0
34875.1 102987.0 0
39764.4 102410.0 0
43683.3 104244.0 0
48583.0 102410.0 0
53135.1 104861.0 0
57213.5 102750.0 0
63064.7 102756.0 0
68310.3 104156.0 0
73401.4 102556.0 0
78302.4 103130.0 0
83593.8 103199.0 0
88398.1 103259.0 0
92508.8 103797.0 0
97237.0 103789.0 0
101195.0 103855.0 0
105585.0 103448.0 0
111306.0 102620.0 0
116640.0 103229.0 0
122098.0 102522.0 0
126931.0 102931.0 0
131218.0 103632.0 0
136577.0 102840.0 0
142212.0 104133.0 0
147012.0 102325.0 0
151801.0 104257.0 0
157942.0 103250.0 0
167047.0 102265.0 0
163657.0 103875.0 0
171003.0 104281.0 0
182933.0 103718.0 0
193693.0 102782.0 0
189204.0 103614.0 0
198249.0 103914.0 0
203174.0 102981.0 0
207321.0 105121.0 0
212115.0 103992.0 0
216320.0 102401.0 0
221175.0 102740.0 0
226331.0 104507.0 0
231983.0 102719.0 0
237943.0 101686.0 0
242843.0 103537.0 0
248029.0 103060.0 0
252898.0 103377.0 0
257727.0 102401.0 0
267587.0 103042.0 0
272697.0 104651.0 0
278480.0 103881.0 0
283573.0 103335.0 0
288835.0 102551.0 0
293487.0 103544.0 0
297506.0 104922.0 0
302639.0 103414.0 0
307115.0 103774.0 0
311941.0 103492.0 0
316965.0 102365.0 0
322296.0 103048.0 0
330937.0 103166.0 0
327150.0 103912.0 0
341522.0 102658.0 0
337123.0 103544.0 0
346658.0 104573.0 0
351577.0 104752.0 0
357892.0 102614.0 0
367104.0 101111.0 0
362982.0 103402.0 0
370164.0 104559.0 0
374541.0 104574.0 0
383272.0 102969.0 0
388210.0 102995.0 0
392170.0 105793.0 0
397892.0 104379.0 0
403054.0 102444.0 0
408162.0 102168.0 0
414685.0 102635.0 0
417929.0 103888.0 0
422500.0 104434.0 0
427477.0 102418.0 0
431263.0 103840.0 0
436128.0 102136.0 0
441996.0 103423.0 0
448331.0 101829.0 0
454028.0 103821.0 0
459446.0 103962.0 0
464982.0 103240.0 0
473889.0 102427.0 0
469647.0 104092.0 0
477663.0 105500.0 0
481986.0 103652.0 0
486773.0 103548.0 0
492177.0 104105.0 0
497457.0 105659.0 0
2749.66 107505.0 0
7838.89 109847.0 0
18088.5 107868.0 0
23745.6 108600.0 0
28648.6 106239.0 0
33633.2 108543.0 0
39135.4 107251.0 0
43746.2 108454.0 0
48694.9 108380.0 0
54182.2 109565.0 0
59720.5 107762.0 0
64872.0 108862.0 0
68290.0 108346.0 0
72212.3 106435.0 0
76319.2 108025.0 0
81940.3 108619.0 0
87885.7 108328.0 0
96906.3 108362.0 0
92636.6 108724.0 0
101491.0 108492.0 0
106437.0 108784.0 0
111043.0 107469.0 0
115385.0 107945.0 0
120870.0 108547.0 0
127441.0 108195.0 0
133301.0 108086.0 0
138726.0 108572.0 0
143744.0 108740.0 0
148389.0 108342.0 0
152799.0 108847.0 0
157000.0 108948.0 0
161442.0 107725.0 0
166774.0 107616.0 0
172235.0 110065.0 0
176728.0 105956.0 0
177078.0 110281.0 0
181363.0 110329.0 0
186882.0 108616.0 0
192411.0 108122.0 0
197843.0 109622.0 0
202629.0 107557.0 0
206637.0 109733.0 0
210631.0 108520.0 0
216384.0 108295.0 0
222686.0 108383.0 0
228326.0 110052.0 0
236017.0 106669.0 0
240938.0 109104.0 0
246423.0 109655.0 0
250904.0 107527.0 0
256764.0 108609.0 0
262829.0 106043.0 0
268273.0 108399.0 0
272894.0 109548.0 0
277851.0 109891.0 0
282084.0 107266.0 0
287109.0 108637.0 0
293046.0 107964.0 0
297883.0 110279.0 0
301871.0 107341.0 0
306177.0 109254.0 0
311437.0 109220.0 0
316864.0 107490.0 0
322340.0 108968.0 0
328008.0 108523.0 0
333887.0 107395.0 0
337522.0 110822.0 0
342203.0 108639.0 0
347981.0 109325.0 0
355550.0 106878.0 0
352292.0 109030.0 0
360517.0 108143.0 0
366514.0 108253.0 0
372525.0 109516.0 0
378546.0 107924.0 0
383421.0 107107.0 0
387240.0 107466.0 0
390731.0 110427.0 0
396042.0 110202.0 0
400401.0 108678.0 0
405311.0 107685.0 0
411971.0 106752.0 0
417777.0 108623.0 0
422969.0 109303.0 0
427294.0 106671.0 0
432240.0 108430.0 0
437085.0 107467.0 0
441852.0 109029.0 0
447111.0 107994.0 0
452640.0 109010.0 0
458109.0 109324.0 0
462539.0 108921.0 0
466555.0 107922.0 0
471813.0 108658.0 0
476954.0 110219.0 0
482254.0 109009.0 0
487738.0 108396.0 0
492469.0 109961.0 0
497459.0 110743.0 0
3058.04 113304.0 0
8752.24 115731.0 0
13610.0 111714.0 0
18380.3 115450.0 0
23880.5 114302.0 0
28782.7 111582.0 0
33719.9 114247.0 0
38542.1 112436.0 0
43271.8 112711.0 0
49672.4 113273.0 0
53687.1 114310.0 0
58566.5 113630.0 0
63416.7 112808.0 0
67007.3 113271.0 0
71705.4 111770.0 0
77975.1 113355.0 0
83400.1 114701.0 0
88019.0 113361.0 0
93070.7 113343.0 0
98000.1 112832.0 0
105783.0 113220.0 0
102078.0 114485.0 0
110766.0 112823.0 0
116642.0 112724.0 0
126500.0 113456.0 0
122654.0 114015.0 0
131193.0 112780.0 0
135218.0 114606.0 0
139747.0 114124.0 0
145104.0 113334.0 0
150850.0 113393.0 0
156884.0 114305.0 0
162036.0 112388.0 0
167180.0 112713.0 0
171462.0 115390.0 0
176185.0 114006.0 0
180973.0 115931.0 0
185795.0 113900.0 0
191577.0 114001.0 0
197331.0 115152.0 0
202645.0 112994.0 0
207608.0 113756.0 0
212134.0 112901.0 0
217212.0 114683.0 0
223347.0 114353.0 0
228979.0 116047.0 0
233994.0 111208.0 0
233411.0 115675.0 0
238461.0 114868.0 0
243836.0 114146.0 0
248991.0 113758.0 0
252376.0 111800.0 0
255537.0 114710.0 0
262544.0 113204.0 0
268735.0 113367.0 0
273495.0 114095.0 0
278387.0 115280.0 0
282796.0 112644.0 0
287975.0 114628.0 0
293224.0 113297.0 0
297717.0 115558.0 0
302610.0 113188.0 0
308389.0 114170.0 0
313173.0 113763.0 0
317438.0 113244.0 0
325879.0 112503.0 0
322202.0 114544.0 0
329964.0 113686.0 0
335029.0 114232.0 0
340296.0 114640.0 0
345917.0 115363.0 0
351083.0 113496.0 0
356010.0 111474.0 0
360813.0 114020.0 0
366436.0 113998.0 0
371143.0 114452.0 0
377226.0 115181.0 0
383496.0 111554.0 0
387807.0 114730.0 0
392749.0 114756.0 0
398356.0 115717.0 0
403887.0 113721.0 0
409494.0 112350.0 0
414469.0 112599.0 0
417767.0 112758.0 0
420956.0 113115.0 0
427626.0 113182.0 0
433303.0 112796.0 0
437889.0 112447.0 0
442650.0 113922.0 0
448517.0 113879.0 0
453997.0 113876.0 0
458539.0 114294.0 0
462991.0 114074.0 0
467794.0 112902.0 0
472983.0 114404.0 0
479982.0 114123.0 0
484310.0 113977.0 0
488548.0 113523.0 0
492635.0 114115.0 0
497770.0 115503.0 0
2142.5 119208.0 0
13671.7 119358.0 0
18604.0 120392.0 0
22344.6 118788.0 0
27492.2 119235.0 0
32330.1 118499.0 0
37272.1 119046.0 0
42440.5 120369.0 0
46373.4 117074.0 0
51408.6 119461.0 0
57400.4 119760.0 0
63645.3 117978.0 0
68689.4 116553.0 0
73557.9 119622.0 0
79821.2 118834.0 0
85124.6 119625.0 0
90126.8 117842.0 0
95037.8 119698.0 0
98603.5 117007.0 0
101293.0 120364.0 0
105637.0 117730.0 0
111337.0 119160.0 0
118204.0 118294.0 0
123812.0 118543.0 0
128387.0 116873.0 0
133268.0 118950.0 0
137790.0 118064.0 0
141902.0 118916.0 0
147422.0 118645.0 0
152993.0 118600.0 0
157246.0 120219.0 0
161786.0 117956.0 0
167144.0 117684.0 0
170762.0 119421.0 0
176881.0 119000.0 0
182321.0 120752.0 0
186887.0 118927.0 0
191537.0 119306.0 0
196349.0 120599.0 0
201626.0 118467.0 0
207153.0 118724.0 0
212987.0 118411.0 0
219801.0 119771.0 0
224910.0 119674.0 0
228653.0 120140.0 0
232797.0 119456.0 0
236990.0 120109.0 0
242102.0 118397.0 0
246558.0 118122.0 0
251470.0 117722.0 0
257766.0 119976.0 0
262740.0 119278.0 0
268253.0 118984.0 0
274071.0 119056.0 0
279358.0 120803.0 0
284549.0 118677.0 0
289724.0 119558.0 0
293312.0 117655.0 0
296527.0 120479.0 0
302306.0 118874.0 0
307427.0 119434.0 0
312021.0 117935.0 0
316759.0 117838.0 0
321330.0 119677.0 0
326427.0 118129.0 0
331733.0 118637.0 0
337285.0 119940.0 0
342892.0 119971.0 0
346828.0 119930.0 0
351163.0 118672.0 0
356391.0 117042.0 0
361677.0 120125.0 0
366973.0 118869.0 0
371655.0 118935.0 0
382201.0 119106.0 0
386894.0 119454.0 0
391451.0 119264.0 0
395529.0 120016.0 0
400529.0 120826.0 0
405863.0 119495.0 0
411605.0 117873.0 0
416991.0 116483.0 0
422627.0 118114.0 0
428258.0 119267.0 0
432998.0 117440.0 0
438724.0 118093.0 0
444698.0 118803.0 0
450508.0 120558.0 0
455670.0 118270.0 0
461373.0 119162.0 0
468722.0 118127.0 0
465833.0 120806.0 0
473166.0 119977.0 0
477805.0 118634.0 0
482449.0 118805.0 0
486594.0 117678.0 0
490650.0 118130.0 0
495005.0 119484.0 0
2239.97 123781.0 0
7229.67 121809.0 0
12440.6 125421.0 0
18049.6 124848.0 0
23275.1 123642.0 0
29083.4 125208.0 0
32590.8 121973.0 0
35952.2 124865.0 0
40991.9 124587.0 0
47008.4 123556.0 0
52812.1 124205.0 0
57603.0 125920.0 0
62195.8 123373.0 0
67964.0 123439.0 0
73651.7 126328.0 0
78090.1 123430.0 0
82804.1 124342.0 0
88774.1 124164.0 0
93972.9 124541.0 0
97844.2 123065.0 0
101251.0 124649.0 0
105727.0 123223.0 0
110243.0 124599.0 0
115522.0 124174.0 0
121623.0 123375.0 0
128112.0 122912.0 0
137500.0 122005.0 0
133715.0 123784.0 0
142031.0 124184.0 0
148122.0 125226.0 0
153546.0 123420.0 0
157983.0 124398.0 0
163103.0 123794.0 0
173356.0 122668.0 0
168439.0 122954.0 0
177762.0 123442.0 0
181596.0 125324.0 0
186463.0 124194.0 0
191579.0 123818.0 0
201124.0 124059.0 0
207148.0 124785.0 0
212098.0 123344.0 0
216813.0 124557.0 0
221590.0 125375.0 0
226069.0 124202.0 0
231021.0 123488.0 0
235877.0 124747.0 0
241284.0 123306.0 0
246730.0 123059.0 0
252429.0 123234.0 0
257588.0 125224.0 0
263719.0 124782.0 0
269612.0 124648.0 0
274591.0 124038.0 0
279916.0 126147.0 0
284011.0 123138.0 0
288600.0 124573.0 0
292658.0 122980.0 0
298743.0 125182.0 0
303661.0 123827.0 0
307812.0 123752.0 0
312334.0 123163.0 0
317611.0 122876.0 0
323360.0 124666.0 0
328006.0 122793.0 0
332710.0 123750.0 0
337436.0 125253.0 0
345477.0 123645.0 0
341914.0 123900.0 0
349518.0 122864.0 0
355327.0 123242.0 0
360664.0 125313.0 0
366485.0 123589.0 0
373420.0 124085.0 0
378335.0 121787.0 0
378300.0 126283.0 0
383175.0 124751.0 0
392581.0 123635.0 0
388072.0 123859.0 0
397114.0 123874.0 0
408059.0 124252.0 0
403354.0 124973.0 0
412514.0 123119.0 0
417168.0 121611.0 0
421019.0 123662.0 0
425370.0 123300.0 0
431956.0 123084.0 0
437683.0 124332.0 0
443668.0 124385.0 0
454498.0 123516.0 0
458799.0 124453.0 0
463933.0 124278.0 0
469297.0 123614.0 0
474376.0 124513.0 0
479087.0 123522.0 0
483695.0 125206.0 0
486587.0 121882.0 0
491385.0 123950.0 0
497411.0 124101.0 0
2127.57 128148.0 0
6960.51 127694.0 0
12581.6 130829.0 0
16008.7 128855.0 0
20037.4 129133.0 0
24885.0 128893.0 0
32222.1 129573.0 0
37673.6 130466.0 0
43318.3 129010.0 0
48686.4 129553.0 0
53579.8 128733.0 0
57459.1 130831.0 0
62542.2 128605.0 0
67219.3 128690.0 0
71133.0 131096.0 0
79099.0 128949.0 0
84542.8 128940.0 0
88606.5 129200.0 0
92508.1 128648.0 0
97466.4 127457.0 0
102445.0 129075.0 0
107194.0 127975.0 0
111837.0 128762.0 0
117994.0 129682.0 0
123247.0 128607.0 0
127766.0 128300.0 0
132819.0 128854.0 0
138522.0 128109.0 0
143145.0 129013.0 0
151877.0 129012.0 0
147994.0 131202.0 0
156564.0 129230.0 0
161568.0 128727.0 0
166875.0 127830.0 0
173249.0 128889.0 0
178608.0 129038.0 0
183533.0 129975.0 0
189457.0 129044.0 0
195892.0 126350.0 0
193908.0 130173.0 0
199741.0 129075.0 0
203874.0 129657.0 0
208359.0 129924.0 0
212779.0 128003.0 0
219058.0 129305.0 0
223358.0 128874.0 0
227641.0 128904.0 0
232481.0 128198.0 0
237724.0 129209.0 0
242286.0 129628.0 0
246691.0 127896.0 0
251864.0 129484.0 0
257453.0 129521.0 0
262305.0 131009.0 0
267688.0 128837.0 0
271757.0 128400.0 0
276114.0 128867.0 0
284286.0 127551.0 0
288580.0 129812.0 0
293601.0 127522.0 0
298814.0 129943.0 0
302642.0 128772.0 0
306701.0 127623.0 0
311690.0 128856.0 0
316843.0 127708.0 0
321345.0 129600.0 0
324883.0 128558.0 0
328697.0 127505.0 0
334154.0 129373.0 0
339612.0 129161.0 0
344143.0 127861.0 0
350100.0 128520.0 0
356712.0 130088.0 0
363252.0 129978.0 0
369396.0 128377.0 0
374924.0 129404.0 0
379745.0 130254.0 0
384038.0 130379.0 0
388067.0 128359.0 0
397920.0 128054.0 0
393144.0 128707.0 0
401987.0 129300.0 0
406595.0 128876.0 0
412747.0 129015.0 0
418441.0 127045.0 0
423545.0 128464.0 0
428715.0 127106.0 0
433882.0 129568.0 0
440195.0 130498.0 0
445499.0 129103.0 0
450715.0 126990.0 0
456148.0 128597.0 0
463205.0 128322.0 0
460062.0 129062.0 0
467453.0 128879.0 0
472541.0 128812.0 0
477866.0 128851.0 0
482744.0 129454.0 0
487589.0 128449.0 0
492465.0 129139.0 0
497811.0 128862.0 0
3067.49 133258.0 0
8555.34 132194.0 0
12197.8 135376.0 0
16421.0 133028.0 0
21312.4 134037.0 0
27466.2 134248.0 0
32650.3 133381.0 0
37797.6 135833.0 0
42306.3 134162.0 0
47951.1 135063.0 0
53255.7 133689.0 0
58928.8 134722.0 0
62499.3 133027.0 0
66930.3 133127.0 0
71359.1 135277.0 0
76176.4 134141.0 0
82351.5 132545.0 0
86393.3 132881.0 0
91254.1 133731.0 0
96601.8 132578.0 0
101325.0 133737.0 0
106448.0 133143.0 0
112395.0 134274.0 0
118078.0 135109.0 0
123220.0 133859.0 0
128379.0 132802.0 0
133236.0 134338.0 0
138695.0 133841.0 0
143897.0 133055.0 0
146817.0 135440.0 0
152641.0 133444.0 0
158024.0 133708.0 0
162828.0 132861.0 0
168108.0 133282.0 0
172596.0 134567.0 0
177246.0 134325.0 0
182427.0 134932.0 0
187087.0 133929.0 0
192265.0 134197.0 0
197934.0 133796.0 0
202908.0 133640.0 0
207315.0 134626.0 0
212051.0 132947.0 0
217205.0 134375.0 0
222464.0 133097.0 0
227444.0 134447.0 0
232440.0 132905.0 0
237065.0 133522.0 0
241372.0 134100.0 0
246106.0 132912.0 0
254522.0 133955.0 0
250344.0 134495.0 0
258823.0 134583.0 0
267465.0 134173.0 0
272517.0 132286.0 0
277260.0 134148.0 0
283204.0 132944.0 0
288223.0 134368.0 0
292774.0 133127.0 0
297384.0 133896.0 0
302106.0 133913.0 0
306892.0 132351.0 0
316042.0 132602.0 0
311368.0 134372.0 0
320406.0 134020.0 0
326139.0 133346.0 0
332573.0 135425.0 0
338274.0 134421.0 0
343317.0 132806.0 0
348163.0 134006.0 0
353179.0 134560.0 0
358609.0 135605.0 0
363217.0 135469.0 0
372382.0 133546.0 0
367630.0 133936.0 0
377383.0 134908.0 0
382002.0 133436.0 0
387377.0 132984.0 0
391838.0 133423.0 0
396415.0 132636.0 0
401430.0 134202.0 0
406578.0 133739.0 0
411926.0 135376.0 0
417742.0 132970.0 0
422243.0 135897.0 0
428007.0 133314.0 0
435853.0 134840.0 0
440095.0 135449.0 0
448654.0 131653.0 0
444884.0 134257.0 0
448961.0 134766.0 0
453284.0 133371.0 0
458570.0 132485.0 0
463270.0 132515.0 0
468255.0 133936.0 0
473568.0 133994.0 0
478469.0 133764.0 0
481959.0 134296.0 0
485370.0 132910.0 0
490340.0 133025.0 0
495332.0 133117.0 0
2830.07 139164.0 0
7503.88 136613.0 0
9657.76 140466.0 0
12525.1 139015.0 0
17165.8 138568.0 0
23591.8 139470.0 0
28519.6 139335.0 0
32917.3 137488.0 0
37937.0 141499.0 0
44154.4 139522.0 0
48947.1 141212.0 0
51665.9 138178.0 0
56222.5 138269.0 0
61495.5 138701.0 0
67362.5 138628.0 0
73114.9 139644.0 0
80897.4 136806.0 0
78025.0 140649.0 0
86724.0 138506.0 0
92877.4 139715.0 0
98368.7 137951.0 0
103676.0 137892.0 0
108521.0 138539.0 0
113657.0 139656.0 0
118711.0 140411.0 0
123558.0 138893.0 0
128426.0 137978.0 0
133081.0 138859.0 0
137596.0 139218.0 0
143072.0 137180.0 0
146707.0 139486.0 0
150635.0 137380.0 0
155609.0 137461.0 0
161150.0 137744.0 0
167133.0 139360.0 0
172930.0 138855.0 0
178054.0 139835.0 0
183653.0 139697.0 0
189253.0 138670.0 0
194195.0 138718.0 0
203778.0 137858.0 0
199079.0 139446.0 0
208282.0 139667.0 0
213126.0 138205.0 0
217850.0 139680.0 0
222500.0 138849.0 0
227501.0 139024.0 0
231364.0 137039.0 0
231614.0 141226.0 0
235334.0 137566.0 0
241012.0 138491.0 0
246229.0 138761.0 0
252669.0 139241.0 0
257745.0 138374.0 0
262636.0 137505.0 0
268649.0 138890.0 0
272487.0 136938.0 0
276647.0 139197.0 0
282613.0 138722.0 0
287963.0 138780.0 0
293356.0 138607.0 0
298042.0 137764.0 0
302181.0 139821.0 0
306759.0 137225.0 0
311374.0 139594.0 0
317139.0 138290.0 0
322855.0 138556.0 0
326676.0 138296.0 0
331450.0 139838.0 0
335630.0 140322.0 0
340794.0 139117.0 0
345207.0 137205.0 0
349873.0 138628.0 0
355448.0 140792.0 0
361543.0 140184.0 0
367147.0 139334.0 0
372564.0 138461.0 0
377583.0 140643.0 0
382879.0 138091.0 0
389047.0 137957.0 0
397277.0 137817.0 0
393442.0 140109.0 0
402363.0 139841.0 0
407528.0 138448.0 0
411988.0 140682.0 0
417012.0 138670.0 0
421587.0 140525.0 0
426096.0 139421.0 0
432010.0 138710.0 0
437798.0 139796.0 0
443151.0 139278.0 0
447788.0 138448.0 0
452656.0 139289.0 0
457751.0 137334.0 0
463133.0 137688.0 0
468194.0 139081.0 0
473084.0 139157.0 0
478097.0 138602.0 0
482741.0 138912.0 0
487708.0 137816.0 0
493259.0 137853.0 0
497790.0 137407.0 0
2518.37 144507.0 0
7270.19 143909.0 0
12117.1 144242.0 0
17593.1 144843.0 0
23417.6 145529.0 0
28810.3 143844.0 0
32723.8 142187.0 0
39402.4 146467.0 0
43274.0 144953.0 0
47709.1 145032.0 0
52884.3 143872.0 0
58210.7 143045.0 0
64170.2 144304.0 0
71362.0 143187.0 0
69258.6 145251.0 0
75108.0 145016.0 0
81048.6 144815.0 0
87053.8 145168.0 0
96751.4 143771.0 0
92020.5 144297.0 0
101923.0 142245.0 0
107424.0 144634.0 0
113364.0 144652.0 0
118426.0 145671.0 0
123398.0 143959.0 0
128618.0 143142.0 0
133599.0 143389.0 0
141641.0 141750.0 0
137995.0 145027.0 0
145474.0 144347.0 0
150726.0 143092.0 0
156814.0 142687.0 0
162657.0 143810.0 0
170995.0 143721.0 0
175347.0 145448.0 0
183159.0 143649.0 0
179617.0 144521.0 0
187240.0 143752.0 0
192617.0 143326.0 0
197965.0 145086.0 0
202934.0 142867.0 0
206811.0 145226.0 0
210961.0 143776.0 0
215629.0 143995.0 0
221239.0 144070.0 0
227185.0 144385.0 0
237589.0 143257.0 0
243850.0 143962.0 0
248904.0 143733.0 0
254146.0 145370.0 0
257368.0 141713.0 0
260306.0 143751.0 0
265515.0 142674.0 0
272406.0 143243.0 0
279500.0 143966.0 0
285572.0 142850.0 0
290284.0 142722.0 0
293632.0 146093.0 0
297351.0 142960.0 0
302309.0 144924.0 0
306882.0 142700.0 0
312363.0 145645.0 0
318328.0 144108.0 0
323488.0 143505.0 0
328118.0 141796.0 0
332371.0 144291.0 0
340946.0 143696.0 0
337053.0 144908.0 0
345692.0 142496.0 0
350919.0 144606.0 0
359291.0 144989.0 0
364354.0 144680.0 0
368943.0 143998.0 0
373329.0 143331.0 0
377200.0 145727.0 0
381329.0 143917.0 0
386962.0 144100.0 0
393352.0 144963.0 0
398527.0 143396.0 0
402914.0 144781.0 0
407775.0 143849.0 0
415878.0 144480.0 0
421177.0 145784.0 0
424598.0 143457.0 0
428963.0 143994.0 0
434131.0 143689.0 0
438737.0 144979.0 0
442788.0 143640.0 0
447718.0 143712.0 0
453045.0 144311.0 0
458330.0 143139.0 0
463624.0 142506.0 0
468161.0 144408.0 0
473597.0 143568.0 0
478149.0 143760.0 0
482808.0 143112.0 0
487497.0 143398.0 0
492502.0 142804.0 0
497556.0 142055.0 0
2475.48 149501.0 0
7677.11 148931.0 0
12004.6 148443.0 0
15771.7 149876.0 0
20838.9 150574.0 0
26808.4 149916.0 0
34065.1 147578.0 0
40054.4 150710.0 0
44705.9 149419.0 0
48760.2 148743.0 0
53066.0 149045.0 0
59516.2 148137.0 0
63885.5 149441.0 0
67606.6 148701.0 0
71692.2 148641.0 0
78263.4 148523.0 0
82471.7 149805.0 0
87140.6 150758.0 0
91999.1 148937.0 0
96999.9 148886.0 0
102128.0 148137.0 0
106970.0 150512.0 0
111124.0 148946.0 0
115819.0 150315.0 0
121102.0 150318.0 0
126570.0 148664.0 0
132454.0 148362.0 0
137140.0 149498.0 0
142292.0 148629.0 0
147728.0 148097.0 0
152626.0 148746.0 0
157521.0 147771.0 0
162025.0 149380.0 0
167210.0 147811.0 0
172467.0 148869.0 0
178178.0 149780.0 0
183468.0 147572.0 0
190430.0 148343.0 0
195416.0 149788.0 0
203351.0 148222.0 0
199786.0 150405.0 0
208223.0 149207.0 0
212606.0 148275.0 0
217696.0 148680.0 0
223411.0 148920.0 0
227691.0 149382.0 0
232728.0 148608.0 0
237914.0 149275.0 0
242249.0 148153.0 0
246577.0 148048.0 0
251457.0 149833.0 0
257659.0 149642.0 0
262657.0 147873.0 0
268086.0 147931.0 0
273563.0 149952.0 0
279476.0 150161.0 0
284060.0 147109.0 0
289117.0 147821.0 0
293860.0 150313.0 0
298812.0 148708.0 0
302795.0 148389.0 0
302713.0 151548.0 0
307469.0 148257.0 0
312804.0 151464.0 0
316382.0 149027.0 0
321289.0 149127.0 0
327598.0 147673.0 0
333607.0 149273.0 0
340751.0 147829.0 0
337889.0 150781.0 0
346463.0 149050.0 0
352479.0 149425.0 0
358046.0 150571.0 0
362684.0 148544.0 0
367601.0 149273.0 0
373234.0 148456.0 0
377756.0 150461.0 0
383127.0 149328.0 0
388874.0 149980.0 0
397598.0 147813.0 0
393912.0 150241.0 0
401996.0 149398.0 0
407554.0 149651.0 0
417737.0 148641.0 0
413357.0 149675.0 0
420740.0 149926.0 0
426079.0 149370.0 0
432064.0 148467.0 0
436732.0 148822.0 0
442765.0 148661.0 0
448812.0 150811.0 0
453409.0 148482.0 0
458511.0 149666.0 0
463599.0 147047.0 0
467767.0 149724.0 0
471813.0 147267.0 0
476449.0 148792.0 0
481100.0 147103.0 0
485658.0 148063.0 0
490710.0 149098.0 0
496002.0 147335.0 0
3211.13 154629.0 0
8257.71 154030.0 0
12763.1 153667.0 0
17406.5 154635.0 0
22006.4 155170.0 0
26229.4 154700.0 0
30952.7 153201.0 0
35932.7 153316.0 0
40009.4 156440.0 0
43630.0 153404.0 0
47755.4 152775.0 0
51809.2 153104.0 0
56829.8 153324.0 0
62579.5 153455.0 0
67171.0 153879.0 0
72520.9 153828.0 0
77992.0 152621.0 0
82526.3 154231.0 0
86294.0 154825.0 0
90159.8 154072.0 0
95222.1 153909.0 0
101125.0 153806.0 0
106555.0 155534.0 0
111795.0 153809.0 0
118333.0 154985.0 0
123281.0 154744.0 0
132214.0 153679.0 0
127624.0 153784.0 0
137231.0 154097.0 0
141708.0 155369.0 0
146469.0 153092.0 0
151573.0 155557.0 0
156132.0 152714.0 0
161834.0 155681.0 0
169286.0 154194.0 0
175976.0 155555.0 0
181606.0 154589.0 0
186112.0 151974.0 0
190993.0 153648.0 0
195754.0 154463.0 0
200539.0 155585.0 0
204962.0 152742.0 0
208467.0 154989.0 0
211617.0 152841.0 0
216503.0 154000.0 0
221704.0 153325.0 0
226694.0 153874.0 0
231955.0 152879.0 0
236065.0 154161.0 0
241435.0 152647.0 0
246762.0 153160.0 0
251417.0 154084.0 0
256142.0 154749.0 0
261549.0 153215.0 0
266315.0 152370.0 0
270640.0 154833.0 0
276599.0 154909.0 0
284957.0 152249.0 0
290186.0 152687.0 0
293756.0 154934.0 0
297271.0 153131.0 0
304641.0 156256.0 0
307445.0 152191.0 0
310130.0 154773.0 0
313928.0 156225.0 0
316961.0 153171.0 0
326197.0 153057.0 0
321557.0 155102.0 0
331854.0 154256.0 0
336696.0 154795.0 0
341784.0 153707.0 0
346628.0 154924.0 0
350388.0 153356.0 0
354412.0 154637.0 0
363421.0 153887.0 0
368528.0 154496.0 0
372652.0 153147.0 0
376987.0 155609.0 0
381262.0 153838.0 0
385749.0 154447.0 0
391603.0 154995.0 0
397805.0 153895.0 0
403436.0 154375.0 0
408193.0 154768.0 0
412655.0 154841.0 0
417328.0 153341.0 0
422294.0 153672.0 0
427069.0 156059.0 0
433144.0 154401.0 0
438898.0 152882.0 0
443938.0 154252.0 0
448492.0 156658.0 0
453765.0 153436.0 0
457909.0 155580.0 0
463038.0 154127.0 0
468113.0 154491.0 0
472249.0 152310.0 0
476531.0 153828.0 0
481591.0 152371.0 0
487406.0 152975.0 0
492246.0 155510.0 0
497268.0 152987.0 0
2743.24 160058.0 0
8042.84 159053.0 0
14921.8 158868.0 0
11765.3 161534.0 0
19909.6 159446.0 0
25329.1 159543.0 0
32699.8 159997.0 0
42538.4 161410.0 0
47202.1 158050.0 0
52669.7 157299.0 0
57753.5 159566.0 0
63751.4 158815.0 0
69579.4 159171.0 0
74694.7 159708.0 0
78841.1 157376.0 0
82761.4 158998.0 0
87411.8 159257.0 0
93077.7 159332.0 0
98832.4 159166.0 0
103893.0 159719.0 0
107222.0 159541.0 0
111638.0 159680.0 0
120398.0 159713.0 0
124184.0 159011.0 0
128406.0 158409.0 0
132872.0 158013.0 0
136853.0 158787.0 0
141100.0 159552.0 0
146522.0 159060.0 0
151900.0 160947.0 0
156635.0 159154.0 0
160656.0 161222.0 0
166704.0 160462.0 0
172255.0 159179.0 0
179233.0 159169.0 0
184127.0 159793.0 0
189315.0 158163.0 0
193668.0 159065.0 0
197503.0 158646.0 0
202966.0 159432.0 0
206275.0 157308.0 0
212256.0 158679.0 0
216806.0 158531.0 0
220975.0 158158.0 0
225739.0 158843.0 0
230981.0 157275.0 0
235664.0 159084.0 0
240542.0 157894.0 0
248381.0 157938.0 0
252558.0 157727.0 0
259972.0 157807.0 0
256057.0 159753.0 0
265489.0 157621.0 0
270071.0 161650.0 0
272928.0 158302.0 0
275665.0 158888.0 0
278053.0 161929.0 0
281961.0 157762.0 0
288337.0 157441.0 0
293477.0 159607.0 0
298770.0 157529.0 0
309148.0 158438.0 0
312953.0 160968.0 0
317699.0 158137.0 0
323366.0 160290.0 0
327810.0 157566.0 0
332500.0 158913.0 0
336870.0 159406.0 0
342208.0 159281.0 0
351679.0 158178.0 0
347217.0 159296.0 0
354428.0 161794.0 0
357651.0 158176.0 0
363233.0 160242.0 0
368505.0 158758.0 0
373400.0 159974.0 0
382576.0 157870.0 0
379099.0 160015.0 0
387079.0 160046.0 0
392324.0 161180.0 0
395893.0 158626.0 0
400749.0 159090.0 0
405935.0 158713.0 0
411228.0 160016.0 0
416962.0 159169.0 0
422189.0 158573.0 0
426356.0 161617.0 0
431391.0 160098.0 0
437982.0 158306.0 0
443845.0 160133.0 0
453591.0 158663.0 0
449070.0 161007.0 0
458351.0 159778.0 0
462239.0 159117.0 0
467266.0 159496.0 0
472251.0 157455.0 0
478242.0 158592.0 0
483445.0 157496.0 0
482524.0 161959.0 0
487729.0 157647.0 0
492458.0 160499.0 0
497114.0 158588.0 0
2122.1 164883.0 0
6629.65 163987.0 0
10874.6 165187.0 0
16445.0 164113.0 0
22132.9 164245.0 0
26805.2 164118.0 0
38046.4 165440.0 0
44045.7 165928.0 0
47182.2 163180.0 0
52162.2 162727.0 0
57345.5 165664.0 0
62695.8 164194.0 0
67631.1 164514.0 0
72734.0 164254.0 0
77869.6 163628.0 0
83358.2 163712.0 0
88734.2 164217.0 0
93487.7 164191.0 0
97430.6 163801.0 0
102461.0 164929.0 0
107419.0 162792.0 0
111801.0 166046.0 0
116413.0 162370.0 0
120437.0 165575.0 0
125857.0 163334.0 0
131745.0 162737.0 0
137377.0 163667.0 0
143319.0 164451.0 0
148470.0 164010.0 0
152878.0 165478.0 0
157300.0 164154.0 0
163242.0 163579.0 0
168107.0 165876.0 0
170863.0 162614.0 0
175911.0 163187.0 0
181671.0 165002.0 0
189133.0 163410.0 0
194264.0 163809.0 0
199454.0 162997.0 0
203612.0 165019.0 0
207411.0 162093.0 0
210865.0 165770.0 0
216143.0 164056.0 0
221749.0 162404.0 0
221800.0 167067.0 0
226488.0 164114.0 0
232442.0 163260.0 0
238431.0 163014.0 0
244736.0 162217.0 0
251357.0 162718.0 0
256819.0 164279.0 0
261841.0 162391.0 0
266226.0 165739.0 0
274196.0 164387.0 0
283491.0 164078.0 0
289033.0 162768.0 0
293268.0 165117.0 0
297213.0 162411.0 0
303005.0 162733.0 0
308805.0 163644.0 0
318356.0 163415.0 0
324039.0 165740.0 0
328792.0 162790.0 0
334066.0 164539.0 0
339592.0 163947.0 0
344932.0 163746.0 0
349989.0 163281.0 0
358650.0 164899.0 0
363897.0 165835.0 0
368161.0 163473.0 0
372314.0 164710.0 0
376962.0 164550.0 0
382471.0 163511.0 0
387497.0 164526.0 0
392129.0 165287.0 0
396150.0 164000.0 0
401229.0 164558.0 0
406693.0 163875.0 0
411220.0 164888.0 0
415490.0 164207.0 0
421158.0 164159.0 0
428523.0 165124.0 0
430960.0 164527.0 0
435835.0 164327.0 0
442045.0 166072.0 0
446665.0 164498.0 0
451287.0 165724.0 0
456077.0 163449.0 0
461499.0 164168.0 0
466931.0 164904.0 0
472915.0 162654.0 0
478057.0 164062.0 0
487864.0 162776.0 0
493643.0 164401.0 0
498089.0 163270.0 0
2813.63 169676.0 0
8165.93 168931.0 0
12894.5 168296.0 0
16332.1 168945.0 0
20384.5 168823.0 0
25268.7 170053.0 0
31181.1 167798.0 0
37228.6 170781.0 0
41794.8 169791.0 0
47446.1 169911.0 0
53101.7 169221.0 0
58687.7 170954.0 0
63565.5 169347.0 0
68267.9 168910.0 0
72453.5 169103.0 0
77185.4 168741.0 0
86321.9 167836.0 0
82034.7 168821.0 0
91303.7 168756.0 0
96817.5 168202.0 0
101396.0 170821.0 0
107501.0 171020.0 0
116464.0 168779.0 0
113002.0 170873.0 0
121274.0 170311.0 0
126005.0 169495.0 0
132122.0 169121.0 0
137819.0 169307.0 0
142840.0 169841.0 0
147532.0 168563.0 0
152628.0 170120.0 0
157561.0 169142.0 0
162712.0 168081.0 0
167292.0 170905.0 0
172608.0 168377.0 0
177851.0 168483.0 0
182304.0 170098.0 0
186374.0 167744.0 0
192083.0 168279.0 0
196621.0 168973.0 0
201111.0 168477.0 0
206767.0 168277.0 0
212749.0 168889.0 0
214027.0 172244.0 0
217643.0 169971.0 0
226799.0 169221.0 0
231546.0 168888.0 0
236388.0 167916.0 0
241207.0 167487.0 0
240055.0 170860.0 0
243733.0 171768.0 0
245772.0 167566.0 0
250430.0 168610.0 0
255178.0 168461.0 0
260749.0 168570.0 0
266799.0 171260.0 0
271141.0 168045.0 0
278166.0 167640.0 0
283291.0 170916.0 0
288465.0 168063.0 0
293486.0 170017.0 0
298393.0 167619.0 0
303462.0 168285.0 0
308194.0 168653.0 0
314357.0 168761.0 0
319272.0 168366.0 0
322913.0 171489.0 0
328968.0 168349.0 0
333146.0 168750.0 0
336742.0 168698.0 0
342592.0 169109.0 0
347881.0 168252.0 0
346990.0 171807.0 0
353212.0 167964.0 0
357776.0 170580.0 0
362517.0 170649.0 0
367793.0 169122.0 0
373566.0 169340.0 0
382651.0 168763.0 0
378336.0 169056.0 0
387500.0 169062.0 0
390840.0 168864.0 0
394209.0 168455.0 0
397989.0 168460.0 0
405861.0 169907.0 0
412257.0 169522.0 0
417885.0 169026.0 0
423011.0 169424.0 0
427877.0 169014.0 0
432790.0 169484.0 0
437676.0 169972.0 0
441768.0 170741.0 0
447083.0 168752.0 0
452131.0 170886.0 0
456331.0 168397.0 0
461274.0 169823.0 0
466168.0 169487.0 0
470975.0 167647.0 0
476162.0 169089.0 0
482656.0 167961.0 0
488909.0 168342.0 0
492846.0 171195.0 0
497008.0 168052.0 0
2316.31 174117.0 0
7488.63 173778.0 0
11899.3 172263.0 0
13296.2 176661.0 0
17721.6 173187.0 0
22192.4 173781.0 0
25713.9 174579.0 0
29624.7 176368.0 0
33500.7 173382.0 0
36829.5 175804.0 0
41261.1 175019.0 0
46266.3 175140.0 0
51637.2 174566.0 0
56874.3 175216.0 0
62241.2 174803.0 0
67515.7 173626.0 0
72506.4 173715.0 0
81266.9 173942.0 0
76625.2 174777.0 0
87014.7 172858.0 0
92308.8 174024.0 0
97255.4 174045.0 0
102435.0 175970.0 0
106772.0 176165.0 0
111799.0 174849.0 0
117643.0 174320.0 0
123436.0 174047.0 0
128783.0 174549.0 0
134059.0 174162.0 0
137961.0 173893.0 0
142163.0 173842.0 0
147504.0 174362.0 0
152870.0 175054.0 0
158962.0 173529.0 0
162909.0 173452.0 0
167203.0 175544.0 0
171989.0 172816.0 0
177728.0 174020.0 0
183253.0 174779.0 0
188242.0 172719.0 0
193898.0 173575.0 0
199055.0 173296.0 0
204158.0 173734.0 0
209492.0 173345.0 0
213592.0 176511.0 0
217434.0 174354.0 0
222151.0 172558.0 0
226340.0 173083.0 0
225384.0 176931.0 0
230558.0 174414.0 0
235731.0 172659.0 0
240026.0 174816.0 0
250365.0 174003.0 0
256477.0 173889.0 0
262642.0 174197.0 0
267377.0 176777.0 0
272519.0 173687.0 0
278324.0 173454.0 0
282852.0 176455.0 0
289988.0 173560.0 0
294960.0 174464.0 0
299386.0 172974.0 0
303668.0 172283.0 0
307824.0 173811.0 0
313037.0 174952.0 0
317923.0 173169.0 0
324620.0 176058.0 0
327989.0 173386.0 0
333197.0 173035.0 0
338999.0 174402.0 0
344324.0 174390.0 0
351177.0 174063.0 0
358163.0 174961.0 0
362969.0 175555.0 0
367649.0 174486.0 0
372887.0 174970.0 0
377591.0 173734.0 0
387666.0 173517.0 0
383033.0 173929.0 0
390579.0 174405.0 0
394661.0 173074.0 0
400640.0 172844.0 0
400517.0 177222.0 0
404214.0 176147.0 0
409727.0 175370.0 0
416361.0 174807.0 0
422812.0 175082.0 0
428624.0 173846.0 0
433383.0 174304.0 0
438577.0 175224.0 0
448820.0 173613.0 0
444221.0 174537.0 0
452094.0 174876.0 0
457220.0 174655.0 0
462827.0 174302.0 0
466793.0 175572.0 0
470795.0 172836.0 0
476400.0 175468.0 0
482885.0 174700.0 0
488671.0 173864.0 0
492895.0 174917.0 0
497140.0 173916.0 0
2879.41 177949.0 0
2104.65 182105.0 0
7660.86 178239.0 0
12523.0 182021.0 0
17519.5 178079.0 0
21981.6 178067.0 0
25924.8 178472.0 0
33841.2 179234.0 0
38550.9 179271.0 0
43314.6 180080.0 0
47500.0 178875.0 0
51975.4 180213.0 0
58911.3 179770.0 0
64498.5 179994.0 0
69008.4 178722.0 0
73877.9 178184.0 0
77217.7 178601.0 0
80691.7 179045.0 0
77191.5 182219.0 0
86321.8 179165.0 0
92811.4 179031.0 0
98242.8 179306.0 0
103094.0 179935.0 0
109028.0 179344.0 0
113212.0 178960.0 0
122442.0 178830.0 0
117544.0 180030.0 0
126563.0 179441.0 0
131864.0 178899.0 0
136845.0 178441.0 0
140199.0 180754.0 0
144006.0 179130.0 0
150411.0 178925.0 0
157085.0 178749.0 0
162990.0 177839.0 0
167631.0 180208.0 0
173048.0 178450.0 0
183029.0 179389.0 0
178837.0 180085.0 0
186680.0 178098.0 0
191842.0 178454.0 0
196806.0 177648.0 0
201799.0 178744.0 0
207325.0 178451.0 0
212321.0 182342.0 0
216949.0 179548.0 0
220483.0 177393.0 0
222870.0 181853.0 0
229373.0 179448.0 0
235824.0 178138.0 0
240223.0 179837.0 0
245170.0 177850.0 0
252493.0 179013.0 0
257217.0 179348.0 0
262355.0 178978.0 0
272615.0 179795.0 0
277797.0 178475.0 0
281554.0 182202.0 0
289758.0 178333.0 0
285974.0 179957.0 0
293416.0 178038.0 0
297870.0 178974.0 0
303739.0 177435.0 0
309258.0 179376.0 0
315431.0 180371.0 0
320305.0 177494.0 0
323692.0 181017.0 0
328767.0 179039.0 0
334659.0 178347.0 0
338217.0 180602.0 0
342802.0 179536.0 0
348333.0 178867.0 0
354571.0 178784.0 0
358832.0 178922.0 0
362305.0 179608.0 0
366732.0 179525.0 0
371988.0 180355.0 0
376885.0 177556.0 0
377264.0 181859.0 0
380638.0 178209.0 0
386648.0 178705.0 0
391380.0 177790.0 0
396438.0 178782.0 0
401632.0 182297.0 0
407475.0 180833.0 0
413219.0 180664.0 0
418109.0 179849.0 0
422107.0 180237.0 0
426878.0 178690.0 0
431420.0 178591.0 0
436288.0 180569.0 0
442100.0 179879.0 0
447549.0 178794.0 0
452803.0 179063.0 0
457499.0 180728.0 0
461585.0 178520.0 0
465841.0 179628.0 0
470827.0 178631.0 0
476634.0 181392.0 0
480519.0 179118.0 0
485119.0 179744.0 0
491128.0 179710.0 0
497364.0 179407.0 0
6793.28 183735.0 0
12819.2 187447.0 0
18520.4 183117.0 0
24345.7 182843.0 0
30115.2 183213.0 0
35415.9 184651.0 0
39873.4 183327.0 0
43534.7 185365.0 0
47481.9 183050.0 0
51744.6 185051.0 0
56705.4 184799.0 0
61964.4 184810.0 0
66638.3 184490.0 0
71690.8 183070.0 0
82291.5 184032.0 0
88449.9 185482.0 0
93313.1 183138.0 0
94100.2 187352.0 0
97500.0 183909.0 0
107094.0 183483.0 0
102236.0 183709.0 0
112290.0 183211.0 0
117489.0 184645.0 0
122392.0 187290.0 0
122473.0 182898.0 0
132589.0 183658.0 0
127669.0 184407.0 0
137654.0 183383.0 0
135399.0 187138.0 0
142126.0 183818.0 0
147636.0 183601.0 0
153045.0 182935.0 0
157497.0 184629.0 0
161579.0 182776.0 0
165667.0 184464.0 0
171229.0 184317.0 0
176234.0 184310.0 0
180327.0 184758.0 0
184960.0 183177.0 0
190262.0 182744.0 0
188825.0 186847.0 0
195404.0 183231.0 0
201311.0 184198.0 0
206583.0 184523.0 0
218105.0 183877.0 0
221939.0 187193.0 0
227523.0 184463.0 0
232628.0 183011.0 0
238165.0 183823.0 0
243791.0 184185.0 0
248620.0 182753.0 0
254995.0 183073.0 0
251702.0 186081.0 0
259925.0 183244.0 0
266658.0 183819.0 0
272632.0 184740.0 0
276489.0 183342.0 0
287001.0 184547.0 0
292799.0 182859.0 0
298711.0 184841.0 0
303424.0 182730.0 0
307680.0 184031.0 0
312791.0 185647.0 0
319111.0 184737.0 0
323805.0 185241.0 0
328218.0 184682.0 0
332685.0 182985.0 0
337214.0 184383.0 0
341746.0 184774.0 0
346957.0 184264.0 0
352960.0 184063.0 0
358289.0 182741.0 0
363852.0 184001.0 0
368575.0 183636.0 0
372516.0 184232.0 0
378061.0 186959.0 0
383137.0 183178.0 0
392796.0 182526.0 0
388492.0 184410.0 0
392116.0 187481.0 0
396697.0 184305.0 0
408624.0 185426.0 0
412939.0 185627.0 0
417500.0 183808.0 0
423655.0 184137.0 0
429096.0 182888.0 0
432842.0 184068.0 0
439598.0 184220.0 0
445091.0 183871.0 0
449570.0 183525.0 0
453928.0 183871.0 0
458053.0 185291.0 0
461735.0 183075.0 0
462487.0 187310.0 0
466235.0 184337.0 0
472008.0 184657.0 0
477068.0 186009.0 0
481396.0 183741.0 0
487086.0 184962.0 0
492809.0 185607.0 0
497596.0 184441.0 0
3506.58 189187.0 0
8912.79 189000.0 0
18045.9 189327.0 0
23734.8 188210.0 0
29009.0 189009.0 0
33721.4 188813.0 0
38524.6 189133.0 0
43678.4 190085.0 0
47741.0 187813.0 0
52003.7 189609.0 0
56979.3 190206.0 0
61796.1 189518.0 0
66399.9 189082.0 0
71634.1 188955.0 0
78211.2 189436.0 0
84122.9 188777.0 0
87688.2 190558.0 0
99300.4 188606.0 0
103853.0 190043.0 0
108319.0 188448.0 0
113637.0 188052.0 0
118188.0 189089.0 0
121263.0 192580.0 0
126888.0 189352.0 0
131334.0 188503.0 0
139961.0 188089.0 0
145194.0 188735.0 0
151682.0 189044.0 0
157461.0 189797.0 0
162224.0 188206.0 0
167837.0 188781.0 0
173461.0 189954.0 0
178656.0 188732.0 0
183497.0 188724.0 0
193401.0 189476.0 0
198163.0 187943.0 0
202226.0 189522.0 0
207011.0 189692.0 0
212376.0 188742.0 0
217313.0 188342.0 0
226296.0 189259.0 0
231236.0 188406.0 0
236066.0 189005.0 0
240758.0 188849.0 0
247330.0 188223.0 0
251815.0 190088.0 0
256818.0 188224.0 0
262021.0 188361.0 0
266299.0 191146.0 0
272433.0 189484.0 0
277769.0 187772.0 0
276853.0 192339.0 0
282670.0 187700.0 0
287574.0 190031.0 0
294279.0 189476.0 0
299741.0 189656.0 0
304166.0 187739.0 0
308989.0 189011.0 0
315365.0 190549.0 0
311332.0 192063.0 0
320388.0 189749.0 0
326100.0 189980.0 0
333160.0 189148.0 0
339147.0 189669.0 0
343440.0 188793.0 0
347374.0 189063.0 0
351811.0 189610.0 0
357563.0 188092.0 0
363014.0 189037.0 0
368208.0 188477.0 0
372172.0 192505.0 0
373386.0 187890.0 0
382809.0 189328.0 0
388002.0 190133.0 0
397057.0 188654.0 0
402872.0 188969.0 0
407559.0 188976.0 0
411392.0 189920.0 0
416297.0 188772.0 0
421524.0 188568.0 0
427086.0 187953.0 0
431837.0 190217.0 0
436283.0 187731.0 0
442626.0 189136.0 0
449563.0 189151.0 0
454946.0 188540.0 0
459033.0 189573.0 0
462382.0 191779.0 0
466447.0 189199.0 0
470794.0 189824.0 0
475071.0 189565.0 0
479813.0 190056.0 0
485458.0 190623.0 0
491394.0 189815.0 0
496535.0 189918.0 0
3164.77 195849.0 0
7860.69 193064.0 0
13198.5 193358.0 0
18016.5 195301.0 0
22913.6 193840.0 0
28302.8 194153.0 0
33684.9 193722.0 0
38744.3 194071.0 0
42462.6 193916.0 0
47500.0 193684.0 0
52557.9 194005.0 0
57797.6 195520.0 0
62773.9 193984.0 0
67039.9 193883.0 0
72935.3 195005.0 0
78321.3 195235.0 0
82589.4 193829.0 0
87056.7 194473.0 0
92062.4 192667.0 0
97669.7 193895.0 0
102295.0 193715.0 0
107409.0 194280.0 0
113346.0 193470.0 0
117556.0 194821.0 0
125792.0 195273.0 0
129829.0 192768.0 0
135551.0 192938.0 0
141806.0 192956.0 0
147624.0 195086.0 0
152815.0 194394.0 0
156959.0 194274.0 0
162562.0 194319.0 0
168612.0 194300.0 0
178545.0 193817.0 0
173681.0 195327.0 0
183146.0 195449.0 0
188006.0 192734.0 0
193371.0 194284.0 0
190721.0 197670.0 0
197865.0 192968.0 0
202704.0 193718.0 0
202302.0 197404.0 0
206537.0 194081.0 0
210414.0 193324.0 0
212684.0 197544.0 0
215936.0 192864.0 0
217357.0 197291.0 0
222030.0 193335.0 0
227890.0 193724.0 0
232868.0 192875.0 0
237576.0 193481.0 0
243286.0 193330.0 0
240965.0 197576.0 0
248665.0 193697.0 0
254448.0 193759.0 0
259269.0 193063.0 0
257957.0 197116.0 0
262859.0 194865.0 0
267435.0 196842.0 0
270744.0 193767.0 0
277837.0 197036.0 0
282832.0 193856.0 0
288071.0 195363.0 0
292397.0 195032.0 0
298265.0 193950.0 0
306027.0 193335.0 0
310185.0 194883.0 0
314051.0 195570.0 0
318485.0 193800.0 0
322500.0 193970.0 0
328894.0 194648.0 0
333249.0 195524.0 0
337018.0 193537.0 0
341124.0 193457.0 0
346186.0 193588.0 0
357136.0 193410.0 0
352140.0 195718.0 0
361938.0 193950.0 0
367473.0 195246.0 0
377871.0 192952.0 0
383977.0 195373.0 0
389039.0 194891.0 0
392970.0 192697.0 0
398548.0 194076.0 0
404604.0 194128.0 0
408305.0 194132.0 0
411601.0 194213.0 0
415648.0 193567.0 0
420774.0 194057.0 0
427258.0 194507.0 0
432708.0 194287.0 0
437828.0 194338.0 0
443855.0 195385.0 0
448897.0 195273.0 0
453712.0 193375.0 0
458584.0 193664.0 0
455863.0 197643.0 0
466455.0 194079.0 0
471665.0 194481.0 0
476743.0 194144.0 0
482111.0 194928.0 0
489724.0 193941.0 0
493000.0 195930.0 0
497149.0 195912.0 0
2175.08 201097.0 0
6289.98 200048.0 0
11599.4 199474.0 0
17536.7 199764.0 0
22463.8 199512.0 0
27690.2 199213.0 0
32846.4 199102.0 0
37849.1 198605.0 0
42860.5 198706.0 0
47500.0 198767.0 0
52500.0 198687.0 0
57471.1 199981.0 0
62273.8 199041.0 0
67614.2 198269.0 0
72220.4 200726.0 0
81627.4 198734.0 0
77001.1 199123.0 0
86238.9 198594.0 0
91741.1 199080.0 0
97809.6 199284.0 0
102672.0 198262.0 0
106903.0 200426.0 0
111197.0 198354.0 0
115541.0 199151.0 0
120820.0 198471.0 0
126021.0 200105.0 0
131558.0 198756.0 0
137589.0 199125.0 0
135063.0 202630.0 0
143032.0 199565.0 0
152333.0 198382.0 0
148507.0 200893.0 0
156773.0 198954.0 0
161249.0 200169.0 0
165865.0 198831.0 0
170814.0 199258.0 0
176299.0 199901.0 0
181147.0 198964.0 0
186185.0 200967.0 0
191882.0 202409.0 0
195905.0 198605.0 0
201236.0 202362.0 0
207015.0 199096.0 0
217582.0 202009.0 0
221317.0 198839.0 0
226105.0 198554.0 0
231885.0 197929.0 0
236932.0 200040.0 0
246406.0 199664.0 0
252566.0 199028.0 0
257179.0 201585.0 0
262513.0 199911.0 0
268885.0 202825.0 0
272736.0 197857.0 0
276233.0 201262.0 0
283411.0 200894.0 0
290026.0 199880.0 0
296067.0 199133.0 0
302093.0 198001.0 0
305287.0 202518.0 0
308498.0 198850.0 0
313707.0 200701.0 0
318496.0 198368.0 0
325750.0 198335.0 0
322152.0 201091.0 0
331013.0 200086.0 0
336305.0 199209.0 0
342218.0 198857.0 0
347988.0 199788.0 0
352469.0 201375.0 0
357716.0 199276.0 0
363372.0 198872.0 0
372128.0 198624.0 0
367626.0 201355.0 0
377596.0 198916.0 0
382670.0 201643.0 0
388203.0 199762.0 0
393858.0 198372.0 0
397810.0 202234.0 0
403548.0 199927.0 0
409206.0 200671.0 0
413408.0 198400.0 0
418015.0 199009.0 0
422331.0 199099.0 0
427432.0 201259.0 0
432985.0 198544.0 0
437053.0 199264.0 0
442560.0 200874.0 0
447415.0 198648.0 0
451703.0 199228.0 0
461826.0 198957.0 0
468601.0 199657.0 0
474668.0 199566.0 0
480001.0 199035.0 0
486586.0 199156.0 0
493164.0 200306.0 0
498364.0 200232.0 0
2648.31 205378.0 0
6704.61 203918.0 0
11883.7 206261.0 0
17237.5 204261.0 0
21689.6 204386.0 0
26625.8 204416.0 0
32269.6 204557.0 0
37800.7 203675.0 0
42911.0 203821.0 0
48373.5 203641.0 0
53049.3 203869.0 0
57491.6 204266.0 0
62500.0 203854.0 0
67351.0 203877.0 0
72974.1 205063.0 0
77089.9 204051.0 0
80945.2 204038.0 0
86598.3 203766.0 0
92662.8 205674.0 0
98143.0 204328.0 0
102893.0 203279.0 0
107106.0 205781.0 0
112144.0 203655.0 0
117789.0 203521.0 0
127517.0 203821.0 0
123040.0 205189.0 0
131675.0 205561.0 0
139792.0 205258.0 0
146644.0 206128.0 0
153455.0 204177.0 0
159439.0 204714.0 0
162838.0 207701.0 0
165968.0 204045.0 0
171465.0 204484.0 0
177279.0 206120.0 0
183204.0 206249.0 0
188838.0 206556.0 0
195937.0 206258.0 0
201229.0 207797.0 0
206403.0 205830.0 0
211858.0 203313.0 0
216416.0 207755.0 0
222973.0 203491.0 0
228683.0 203514.0 0
233716.0 202896.0 0
233920.0 207722.0 0
236982.0 204586.0 0
241134.0 202925.0 0
246166.0 206091.0 0
251684.0 204469.0 0
258379.0 206574.0 0
263481.0 205501.0 0
274515.0 205504.0 0
279024.0 204322.0 0
284480.0 207274.0 0
288598.0 204629.0 0
293685.0 204828.0 0
300199.0 204170.0 0
305012.0 206499.0 0
308889.0 204769.0 0
313480.0 205709.0 0
316786.0 203523.0 0
320577.0 205230.0 0
326685.0 204771.0 0
333861.0 205041.0 0
338665.0 203583.0 0
342799.0 204320.0 0
347415.0 204759.0 0
352858.0 206200.0 0
357815.0 205061.0 0
362633.0 203693.0 0
367022.0 205701.0 0
371864.0 204097.0 0
377441.0 204842.0 0
382625.0 206002.0 0
386622.0 205292.0 0
391984.0 204553.0 0
396543.0 206351.0 0
401644.0 206648.0 0
406986.0 204875.0 0
411808.0 204373.0 0
417019.0 203549.0 0
422567.0 204836.0 0
427263.0 206963.0 0
432185.0 205137.0 0
437979.0 204484.0 0
442951.0 206427.0 0
448193.0 203703.0 0
452071.0 206873.0 0
455966.0 203555.0 0
461566.0 205515.0 0
466226.0 204168.0 0
471899.0 205884.0 0
477523.0 204366.0 0
481988.0 203012.0 0
481329.0 206853.0 0
486495.0 206474.0 0
491854.0 205414.0 0
497014.0 204995.0 0
199566.0 212716.0 0
204475.0 210361.0 0
210790.0 208978.0 0
222470.0 209222.0 0
227959.0 208919.0 0
231461.0 212264.0 0
236554.0 211048.0 0
240340.0 208706.0 0
244603.0 211761.0 0
248995.0 210638.0 0
253470.0 209233.0 0
257902.0 212131.0 0
261359.0 209640.0 0
262175.0 212723.0 0
265890.0 210392.0 0
270707.0 208345.0 0
278604.0 209801.0 0
283463.0 211918.0 0
289821.0 209175.0 0
297138.0 209540.0 0
302388.0 210086.0 0
204440.0 214494.0 0
209450.0 213966.0 0
215731.0 213861.0 0
221139.0 214603.0 0
226643.0 214638.0 0
231814.0 217571.0 0
235319.0 214219.0 0
236723.0 217884.0 0
240447.0 214805.0 0
245799.0 216910.0 0
252387.0 214170.0 0
262924.0 216793.0 0
268034.0 217628.0 0
271471.0 213483.0 0
276419.0 215169.0 0
280938.0 215054.0 0
284566.0 216349.0 0
287256.0 213484.0 0
293225.0 214056.0 0
299486.0 214909.0 0
200566.0 219003.0 0
206824.0 218981.0 0
212342.0 218181.0 0
213592.0 223262.0 0
218217.0 219537.0 0
223359.0 218522.0 0
227341.0 220596.0 0
231676.0 222944.0 0
236090.0 221945.0 0
240956.0 220527.0 0
246377.0 222778.0 0
250599.0 218471.0 0
252213.0 223206.0 0
256857.0 218531.0 0
261597.0 221934.0 0
266660.0 222858.0 0
273345.0 219850.0 0
278895.0 219071.0 0
283257.0 219935.0 0
281085.0 222992.0 0
288821.0 218774.0 0
294306.0 219653.0 0
298362.0 219615.0 0
202162.0 225381.0 0
208341.0 224480.0 0
218680.0 224912.0 0
223708.0 224530.0 0
228230.0 225159.0 0
231212.0 227551.0 0
237005.0 227378.0 0
240598.0 224607.0 0
243163.0 227380.0 0
248814.0 228155.0 0
254688.0 228355.0 0
257463.0 224423.0 0
261854.0 227249.0 0
271774.0 224611.0 0
274604.0 227880.0 0
276906.0 223836.0 0
279543.0 226696.0 0
285902.0 223976.0 0
291469.0 223714.0 0
293918.0 227815.0 0
297266.0 224213.0 0
341742.0 226475.0 0
10310.7 228810.0 0
201805.0 232506.0 0
206114.0 229882.0 0
210329.0 228485.0 0
211438.0 233330.0 0
215194.0 228801.0 0
220809.0 229139.0 0
226488.0 230104.0 0
232131.0 232622.0 0
237053.0 232761.0 0
241905.0 232816.0 0
258639.0 232022.0 0
268410.0 229330.0 0
278616.0 230778.0 0
283537.0 228907.0 0
282870.0 233164.0 0
289171.0 228506.0 0
293025.0 233018.0 0
297981.0 230368.0 0
309756.0 230340.0 0
48261.5 236235.0 0
167796.0 238483.0 0
174681.0 235259.0 0
201361.0 237283.0 0
206247.0 235192.0 0
216915.0 234339.0 0
222263.0 234004.0 0
220078.0 238456.0 0
228037.0 234614.0 0
225519.0 238106.0 0
237507.0 237675.0 0
247659.0 234053.0 0
253229.0 233504.0 0
258819.0 237216.0 0
262729.0 234581.0 0
267373.0 235607.0 0
273142.0 234194.0 0
279213.0 236500.0 0
287188.0 234733.0 0
292821.0 238300.0 0
297889.0 236877.0 0
317421.0 238560.0 0
357807.0 238067.0 0
362467.0 236484.0 0
368610.0 236266.0 0
389098.0 235331.0 0
404603.0 233597.0 0
421499.0 234868.0 0
437044.0 238157.0 0
443009.0 234515.0 0
455114.0 234897.0 0
472319.0 235640.0 0
492537.0 236617.0 0
497243.0 234465.0 0
6878.9 238621.0 0
14254.8 243174.0 0
56374.4 240148.0 0
63868.7 240158.0 0
68827.6 241177.0 0
75161.9 243213.0 0
79658.9 241911.0 0
85031.3 242609.0 0
96187.4 240424.0 0
100416.0 239872.0 0
107589.0 241609.0 0
111005.0 243453.0 0
115161.0 241911.0 0
121008.0 241803.0 0
126005.0 239592.0 0
137504.0 242928.0 0
154054.0 242214.0 0
158565.0 241608.0 0
177286.0 239312.0 0
178735.0 242679.0 0
191569.0 240465.0 0
196244.0 241393.0 0
200884.0 241641.0 0
205139.0 240086.0 0
207997.0 243083.0 0
210418.0 239000.0 0
215508.0 239030.0 0
217845.0 242698.0 0
222321.0 242622.0 0
227456.0 243405.0 0
231418.0 238754.0 0
238127.0 243629.0 0
242307.0 240694.0 0
248058.0 240118.0 0
253775.0 238850.0 0
259057.0 241624.0 0
255503.0 243387.0 0
263576.0 239771.0 0
269202.0 240725.0 0
274268.0 239454.0 0
277796.0 243168.0 0
284341.0 239709.0 0
282146.0 243491.0 0
288860.0 239331.0 0
287764.0 243483.0 0
292968.0 243304.0 0
297460.0 241880.0 0
309917.0 241846.0 0
322450.0 239950.0 0
374583.0 238908.0 0
391311.0 242009.0 0
396056.0 243448.0 0
423600.0 242819.0 0
461586.0 238758.0 0
471850.0 242616.0 0
476569.0 238883.0 0
481239.0 239976.0 0
17655.2 246490.0 0
22442.4 244489.0 0
30433.9 244394.0 0
36537.1 244927.0 0
48339.7 247138.0 0
53010.0 247136.0 0
88220.9 248599.0 0
93065.2 246526.0 0
97919.2 248650.0 0
124379.0 246699.0 0
131855.0 243915.0 0
142262.0 245180.0 0
146000.0 248632.0 0
150902.0 246503.0 0
173221.0 244336.0 0
178042.0 246180.0 0
204079.0 244730.0 0
213357.0 243900.0 0
209313.0 247456.0 0
220060.0 246691.0 0
225948.0 248387.0 0
233019.0 244486.0 0
241699.0 245480.0 0
245359.0 244627.0 0
251060.0 244991.0 0
257880.0 247271.0 0
261792.0 244071.0 0
262773.0 248300.0 0
267220.0 245772.0 0
273097.0 243749.0 0
271753.0 248199.0 0
284677.0 245983.0 0
280753.0 247724.0 0
287948.0 248439.0 0
292568.0 248216.0 0
296828.0 246387.0 0
308760.0 248479.0 0
318278.0 248684.0 0
322451.0 244663.0 0
326630.0 245421.0 0
330913.0 245696.0 0
335045.0 248355.0 0
339605.0 245040.0 0
345114.0 247232.0 0
388726.0 246524.0 0
393964.0 248331.0 0
407296.0 247601.0 0
417127.0 244514.0 0
422388.0 248285.0 0
426612.0 246388.0 0
431907.0 247091.0 0
439714.0 245379.0 0
444222.0 247637.0 0
449230.0 244530.0 0
458451.0 247396.0 0
462790.0 245207.0 0
466760.0 244020.0 0
479717.0 245260.0 0
484429.0 245340.0 0
489239.0 248265.0 0
497839.0 243916.0 0
2631.23 251780.0 0
8033.11 248810.0 0
14588.8 249998.0 0
18911.2 252325.0 0
30589.4 250595.0 0
37311.7 252927.0 0
40985.6 249331.0 0
45936.2 250807.0 0
54909.3 253796.0 0
85759.2 253815.0 0
92904.6 251534.0 0
96476.5 252972.0 0
102310.0 250758.0 0
105708.0 253848.0 0
113050.0 250816.0 0
119140.0 248801.0 0
126262.0 250906.0 0
137141.0 252366.0 0
155278.0 249869.0 0
166524.0 253643.0 0
169989.0 249587.0 0
177569.0 250349.0 0
183085.0 252003.0 0
188923.0 250653.0 0
194746.0 251926.0 0
199532.0 249252.0 0
204404.0 249869.0 0
208773.0 252665.0 0
215065.0 249434.0 0
222083.0 250957.0 0
226654.0 253218.0 0
230700.0 249242.0 0
236386.0 248980.0 0
241423.0 249255.0 0
247380.0 250052.0 0
253469.0 249499.0 0
257611.0 253055.0 0
262741.0 252999.0 0
267283.0 251108.0 0
276232.0 249653.0 0
278428.0 253785.0 0
284102.0 252624.0 0
290977.0 253568.0 0
300502.0 248800.0 0
296386.0 251132.0 0
304860.0 249294.0 0
305457.0 253228.0 0
309713.0 252642.0 0
314014.0 251385.0 0
342101.0 250633.0 0
348027.0 250787.0 0
360423.0 253591.0 0
364943.0 249789.0 0
368691.0 252423.0 0
377600.0 250651.0 0
383597.0 249442.0 0
390690.0 250454.0 0
394399.0 253121.0 0
398809.0 250482.0 0
403236.0 251354.0 0
412976.0 249922.0 0
431773.0 252613.0 0
436080.0 248928.0 0
473827.0 252044.0 0
478880.0 250479.0 0
492521.0 252263.0 0
497266.0 252019.0 0
4198.95 256883.0 0
10165.2 255033.0 0
8211.08 258840.0 0
21754.5 258480.0 0
27252.5 254648.0 0
31965.1 257133.0 0
44551.6 256288.0 0
49617.5 257224.0 0
53511.7 258766.0 0
60744.6 254845.0 0
65233.2 257989.0 0
73247.1 256882.0 0
79797.4 257381.0 0
91010.0 253948.0 0
100409.0 255141.0 0
97591.4 258576.0 0
118044.0 256105.0 0
122206.0 258104.0 0
127597.0 255634.0 0
132697.0 254284.0 0
140009.0 256592.0 0
145853.0 256610.0 0
157949.0 258779.0 0
169946.0 257348.0 0
175196.0 255684.0 0
182125.0 257245.0 0
204248.0 255384.0 0
208492.0 258148.0 0
212998.0 255827.0 0
218415.0 254522.0 0
222786.0 254854.0 0
221535.0 258792.0 0
226387.0 258159.0 0
231894.0 254432.0 0
237319.0 254395.0 0
242504.0 253891.0 0
242597.0 258954.0 0
247180.0 256425.0 0
252149.0 254421.0 0
255658.0 258285.0 0
261566.0 258395.0 0
265988.0 256865.0 0
272535.0 253900.0 0
281572.0 257236.0 0
286619.0 258188.0 0
296247.0 257264.0 0
301919.0 256262.0 0
308862.0 257259.0 0
312813.0 256636.0 0
329672.0 258953.0 0
335177.0 255862.0 0
341691.0 255527.0 0
350533.0 258280.0 0
368277.0 257926.0 0
373639.0 254842.0 0
380959.0 255432.0 0
385630.0 254174.0 0
388242.0 257412.0 0
398411.0 254500.0 0
402468.0 256256.0 0
406830.0 258869.0 0
411664.0 257363.0 0
415149.0 254366.0 0
440796.0 257867.0 0
462565.0 255027.0 0
468005.0 256686.0 0
472750.0 257720.0 0
483291.0 254078.0 0
488293.0 255526.0 0
494690.0 256970.0 0
1396.57 259874.0 0
9024.03 263719.0 0
11918.4 260315.0 0
16619.4 259784.0 0
22141.1 263966.0 0
31750.6 261875.0 0
40529.6 260754.0 0
36111.9 261125.0 0
55082.9 262868.0 0
71070.6 263217.0 0
75981.4 261770.0 0
101262.0 259691.0 0
115988.0 262933.0 0
121376.0 263741.0 0
125707.0 259327.0 0
127453.0 262773.0 0
132217.0 260368.0 0
137709.0 261848.0 0
150246.0 260026.0 0
162385.0 259558.0 0
166757.0 262135.0 0
170964.0 263942.0 0
178322.0 259197.0 0
173828.0 260503.0 0
178095.0 263460.0 0
182575.0 262022.0 0
188423.0 263952.0 0
198191.0 263609.0 0
203599.0 260965.0 0
208334.0 263189.0 0
212185.0 260724.0 0
217001.0 261391.0 0
221885.0 264042.0 0
227461.0 263898.0 0
231035.0 259773.0 0
236952.0 260343.0 0
247334.0 260879.0 0
251017.0 259552.0 0
259256.0 262937.0 0
265044.0 261660.0 0
270040.0 260684.0 0
276311.0 259636.0 0
282381.0 262168.0 0
291670.0 260730.0 0
296089.0 262901.0 0
305267.0 260038.0 0
310186.0 263640.0 0
315851.0 260463.0 0
321609.0 260230.0 0
326129.0 263429.0 0
332766.0 263346.0 0
345721.0 260687.0 0
355714.0 259773.0 0
359390.0 263442.0 0
365233.0 262485.0 0
371514.0 262394.0 0
376826.0 259885.0 0
382983.0 262725.0 0
392773.0 261878.0 0
397327.0 259715.0 0
402414.0 261015.0 0
405524.0 263978.0 0
417627.0 259177.0 0
430432.0 261926.0 0
435876.0 260261.0 0
443743.0 262156.0 0
448497.0 260225.0 0
457751.0 263666.0 0
463509.0 263777.0 0
472922.0 262043.0 0
477904.0 262165.0 0
490331.0 260110.0 0
492549.0 263965.0 0
498185.0 260062.0 0
27556.0 264991.0 0
35807.4 268490.0 0
42506.5 264396.0 0
47221.1 265110.0 0
57767.4 266607.0 0
62118.7 268114.0 0
66580.1 266256.0 0
78232.9 267143.0 0
87177.6 264713.0 0
92596.4 267161.0 0
101304.0 264914.0 0
105416.0 265322.0 0
110427.0 267204.0 0
115498.0 269035.0 0
119859.0 267395.0 0
125026.0 266173.0 0
134374.0 264725.0 0
136926.0 265022.0 0
142940.0 264481.0 0
145130.0 268486.0 0
149278.0 266613.0 0
154955.0 265415.0 0
159503.0 264138.0 0
162950.0 266454.0 0
175791.0 268209.0 0
179935.0 266860.0 0
193802.0 266782.0 0
202876.0 266568.0 0
208375.0 268653.0 0
213345.0 265383.0 0
218054.0 267895.0 0
223604.0 268974.0 0
229037.0 268880.0 0
232907.0 264780.0 0
238285.0 266560.0 0
244005.0 264396.0 0
249419.0 264247.0 0
247734.0 269005.0 0
253932.0 264480.0 0
252004.0 267861.0 0
263833.0 265671.0 0
260652.0 268883.0 0
268011.0 265077.0 0
272690.0 265156.0 0
278030.0 265966.0 0
283191.0 267512.0 0
287571.0 264353.0 0
292514.0 266167.0 0
296867.0 266909.0 0
305811.0 267516.0 0
301395.0 268057.0 0
309214.0 268640.0 0
315912.0 266330.0 0
329885.0 265372.0 0
332502.0 268270.0 0
337497.0 268163.0 0
344487.0 269079.0 0
350089.0 268619.0 0
354804.0 267156.0 0
359342.0 268971.0 0
363529.0 267095.0 0
368250.0 267549.0 0
375763.0 265787.0 0
379842.0 268356.0 0
383935.0 268425.0 0
388117.0 266259.0 0
418256.0 264343.0 0
420703.0 268069.0 0
423877.0 264394.0 0
428710.0 267904.0 0
448865.0 265100.0 0
453540.0 266421.0 0
469551.0 265161.0 0
473869.0 266159.0 0
480010.0 267638.0 0
485101.0 266241.0 0
497345.0 264960.0 0
12432.9 269354.0 0
18261.9 269315.0 0
19755.7 273839.0 0
31572.7 271489.0 0
40409.5 269198.0 0
42563.5 273116.0 0
73236.5 273229.0 0
83627.7 269409.0 0
88025.0 270221.0 0
98112.3 270862.0 0
103476.0 274290.0 0
119756.0 271284.0 0
124322.0 270203.0 0
137186.0 272280.0 0
152637.0 269852.0 0
157044.0 269962.0 0
203858.0 271658.0 0
208072.0 274143.0 0
213629.0 270953.0 0
220713.0 271286.0 0
226282.0 271966.0 0
233879.0 269938.0 0
230318.0 273799.0 0
238180.0 271580.0 0
242503.0 270088.0 0
251494.0 273007.0 0
255720.0 269788.0 0
265215.0 269676.0 0
262262.0 273719.0 0
269724.0 269226.0 0
267761.0 274030.0 0
274714.0 270656.0 0
281330.0 271849.0 0
288142.0 270172.0 0
293577.0 270963.0 0
297770.0 270564.0 0
320548.0 270420.0 0
327915.0 272928.0 0
332244.0 272204.0 0
373783.0 273525.0 0
391305.0 273868.0 0
396224.0 270427.0 0
401114.0 272384.0 0
443848.0 270592.0 0
460614.0 271605.0 0
468386.0 273358.0 0
475351.0 271362.0 0
482264.0 274153.0 0
486287.0 271791.0 0
491602.0 273379.0 0
2385.26 274407.0 0
6006.39 278103.0 0
11457.4 275491.0 0
23726.9 275066.0 0
28043.2 275822.0 0
31549.5 278795.0 0
37894.0 275347.0 0
44669.6 277769.0 0
48901.4 275945.0 0
53337.5 278039.0 0
59411.4 274474.0 0
57735.5 277947.0 0
78992.8 275058.0 0
81396.5 279376.0 0
84814.0 275274.0 0
108327.0 275718.0 0
127047.0 274506.0 0
131487.0 279039.0 0
133529.0 274989.0 0
141682.0 275034.0 0
147366.0 276940.0 0
157006.0 279296.0 0
162148.0 278994.0 0
166764.0 277953.0 0
172721.0 278115.0 0
178009.0 275277.0 0
182816.0 274950.0 0
188845.0 274877.0 0
195076.0 277140.0 0
203963.0 277202.0 0
208985.0 279385.0 0
212465.0 275714.0 0
217762.0 274660.0 0
223042.0 274578.0 0
220830.0 278921.0 0
226900.0 278102.0 0
232157.0 278616.0 0
235414.0 274875.0 0
240555.0 275044.0 0
242700.0 278764.0 0
245780.0 274553.0 0
251771.0 277586.0 0
256395.0 274845.0 0
259937.0 277878.0 0
264650.0 278571.0 0
269298.0 278655.0 0
272922.0 275814.0 0
278143.0 275340.0 0
284671.0 274844.0 0
290898.0 275566.0 0
296526.0 275383.0 0
320417.0 276013.0 0
324961.0 275937.0 0
339112.0 278128.0 0
349617.0 275338.0 0
356286.0 276256.0 0
361855.0 279069.0 0
366109.0 276506.0 0
370489.0 276799.0 0
405441.0 274502.0 0
410203.0 276423.0 0
415232.0 274905.0 0
420447.0 275555.0 0
424465.0 278401.0 0
429055.0 277951.0 0
436061.0 276365.0 0
441300.0 274857.0 0
447423.0 274444.0 0
452098.0 276224.0 0
463371.0 275925.0 0
472620.0 276255.0 0
478625.0 276522.0 0
488314.0 275662.0 0
497634.0 277196.0 0
10345.6 280917.0 0
14356.5 281851.0 0
17628.4 279535.0 0
21198.9 281721.0 0
73587.4 284491.0 0
88732.2 280613.0 0
94616.0 281317.0 0
99836.4 284352.0 0
115852.0 281822.0 0
124424.0 283144.0 0
129417.0 283457.0 0
151889.0 280703.0 0
182877.0 283856.0 0
190151.0 284074.0 0
204533.0 282984.0 0
209812.0 284354.0 0
215424.0 280323.0 0
219383.0 284235.0 0
223890.0 282006.0 0
228552.0 283885.0 0
233632.0 282999.0 0
237585.0 279616.0 0
241571.0 283039.0 0
247669.0 280466.0 0
255609.0 280031.0 0
260839.0 283612.0 0
267630.0 283496.0 0
275667.0 280589.0 0
282089.0 280170.0 0
288380.0 280720.0 0
294169.0 280644.0 0
304833.0 284056.0 0
307859.0 279628.0 0
313339.0 281188.0 0
318165.0 280270.0 0
333604.0 281707.0 0
344315.0 280271.0 0
348224.0 282238.0 0
373349.0 279802.0 0
375332.0 283169.0 0
382120.0 279867.0 0
377846.0 280404.0 0
386421.0 280095.0 0
412280.0 282909.0 0
425494.0 282344.0 0
434661.0 281366.0 0
439140.0 283170.0 0
444448.0 280877.0 0
456662.0 281325.0 0
461427.0 282773.0 0
475464.0 279541.0 0
478873.0 282206.0 0
484076.0 280609.0 0
2520.43 286597.0 0
23712.7 285069.0 0
27712.7 285983.0 0
35470.8 288674.0 0
31330.3 289088.0 0
38957.8 287053.0 0
64003.3 287182.0 0
69034.9 287094.0 0
78890.1 286318.0 0
83595.1 288769.0 0
106851.0 287467.0 0
102136.0 289081.0 0
111993.0 286934.0 0
115838.0 287584.0 0
122579.0 289218.0 0
132091.0 286869.0 0
137331.0 285036.0 0
141484.0 286673.0 0
178121.0 285309.0 0
173534.0 286694.0 0
187621.0 289510.0 0
198863.0 285505.0 0
194183.0 287312.0 0
206165.0 287463.0 0
214272.0 286046.0 0
210207.0 288957.0 0
219003.0 289117.0 0
223634.0 286565.0 0
227926.0 289526.0 0
232406.0 287468.0 0
237508.0 285512.0 0
241300.0 288809.0 0
249634.0 285241.0 0
245266.0 285884.0 0
254552.0 285490.0 0
251079.0 289343.0 0
268059.0 288707.0 0
273080.0 285603.0 0
278626.0 285483.0 0
282938.0 285140.0 0
286583.0 285301.0 0
286579.0 288979.0 0
291010.0 285148.0 0
295789.0 285958.0 0
296350.0 289462.0 0
320801.0 287516.0 0
326082.0 286501.0 0
339966.0 287508.0 0
345237.0 284788.0 0
344226.0 288734.0 0
348323.0 286568.0 0
353398.0 287740.0 0
377578.0 289273.0 0
387759.0 286799.0 0
391971.0 287997.0 0
396070.0 285054.0 0
405148.0 285074.0 0
416387.0 284564.0 0
417562.0 288956.0 0
422843.0 287229.0 0
431748.0 285361.0 0
448734.0 288458.0 0
452878.0 284783.0 0
457920.0 286280.0 0
465643.0 284825.0 0
488519.0 288547.0 0
493893.0 287233.0 0
58276.5 291819.0 0
62760.5 291970.0 0
79117.6 291137.0 0
85357.4 293440.0 0
89677.3 294608.0 0
118035.0 291099.0 0
148593.0 294378.0 0
182265.0 293126.0 0
186511.0 293211.0 0
204357.0 290560.0 0
209786.0 294408.0 0
214471.0 290863.0 0
219173.0 293806.0 0
223352.0 291335.0 0
226786.0 294301.0 0
232142.0 294684.0 0
236316.0 290568.0 0
241630.0 293886.0 0
246217.0 291066.0 0
251264.0 293907.0 0
256302.0 291472.0 0
262861.0 290319.0 0
267903.0 294173.0 0
272177.0 290725.0 0
277010.0 290408.0 0
282246.0 289909.0 0
288281.0 292565.0 0
292295.0 289708.0 0
296140.0 292688.0 0
334097.0 291753.0 0
338749.0 290715.0 0
367860.0 293651.0 0
374256.0 293986.0 0
383309.0 291408.0 0
388742.0 293866.0 0
429251.0 290003.0 0
440415.0 290953.0 0
444373.0 290030.0 0
449043.0 293508.0 0
472532.0 293636.0 0
476982.0 293086.0 0
483950.0 290677.0 0
18980.9 299650.0 0
23860.2 295735.0 0
57656.8 298501.0 0
114635.0 294804.0 0
119205.0 295259.0 0
154063.0 295455.0 0
160451.0 296169.0 0
172783.0 296705.0 0
177642.0 294938.0 0
175845.0 298577.0 0
204006.0 295017.0 0
207137.0 299193.0 0
212541.0 299362.0 0
215089.0 295264.0 0
216903.0 298796.0 0
222789.0 295793.0 0
226469.0 299470.0 0
231406.0 299769.0 0
237492.0 294858.0 0
242994.0 299250.0 0
247322.0 296028.0 0
251624.0 298459.0 0
257637.0 296227.0 0
261118.0 295338.0 0
260920.0 299630.0 0
265927.0 299543.0 0
273126.0 295159.0 0
270797.0 298769.0 0
279255.0 294711.0 0
276141.0 298959.0 0
284088.0 294859.0 0
281425.0 299199.0 0
287844.0 296870.0 0
292285.0 295185.0 0
295740.0 298168.0 0
343860.0 296061.0 0
347413.0 298547.0 0
351113.0 299569.0 0
354633.0 296074.0 0
359569.0 299247.0 0
362728.0 295243.0 0
378320.0 297762.0 0
441465.0 297145.0 0
447200.0 297540.0 0
487877.0 296241.0 0
496741.0 298755.0 0
24601.3 300861.0 0
29372.6 302035.0 0
34198.8 303995.0 0
41944.7 302213.0 0
46285.1 300169.0 0
49720.9 304496.0 0
59419.7 302403.0 0
125705.0 303106.0 0
131308.0 301760.0 0
136308.0 301629.0 0
164978.0 299898.0 0
169679.0 301101.0 0
203274.0 300785.0 0
203607.0 304366.0 0
216026.0 302538.0 0
221028.0 300010.0 0
230480.0 304408.0 0
236716.0 299817.0 0
240005.0 304483.0 0
247799.0 300201.0 0
256146.0 300033.0 0
259145.0 304459.0 0
263538.0 303393.0 0
269639.0 303894.0 0
273818.0 302446.0 0
277560.0 304362.0 0
282425.0 303681.0 0
285814.0 300256.0 0
286250.0 303986.0 0
291086.0 300102.0 0
295575.0 303082.0 0
300752.0 300008.0 0
354750.0 302861.0 0
374379.0 303802.0 0
378180.0 302145.0 0
382647.0 304690.0 0
388980.0 303450.0 0
441425.0 303553.0 0
463934.0 304643.0 0
3000.82 305300.0 0
5576.43 309701.0 0
38189.5 307048.0 0
44756.1 305669.0 0
40981.1 309792.0 0
78998.1 305196.0 0
78850.0 308650.0 0
109302.0 306420.0 0
199008.0 306894.0 0
204506.0 309190.0 0
209616.0 305061.0 0
213854.0 309440.0 0
215005.0 306165.0 0
217595.0 308825.0 0
219940.0 304941.0 0
222169.0 309600.0 0
225127.0 305035.0 0
227333.0 309804.0 0
232822.0 309746.0 0
235397.0 305222.0 0
238449.0 309343.0 0
242878.0 309374.0 0
245797.0 305128.0 0
252776.0 305046.0 0
251330.0 309817.0 0
264996.0 307487.0 0
260318.0 309673.0 0
275508.0 308648.0 0
280916.0 309434.0 0
290629.0 305586.0 0
286405.0 308477.0 0
295370.0 308880.0 0
303327.0 305405.0 0
318205.0 306423.0 0
321222.0 308694.0 0
324319.0 307617.0 0
344872.0 306190.0 0
399809.0 307983.0 0
412274.0 309947.0 0
420030.0 309900.0 0
425901.0 308446.0 0
430527.0 306532.0 0
435600.0 305884.0 0
30674.9 312943.0 0
104572.0 310246.0 0
110496.0 311179.0 0
114684.0 312642.0 0
194107.0 313737.0 0
199280.0 312615.0 0
203762.0 314081.0 0
209705.0 312361.0 0
215563.0 313615.0 0
222849.0 313398.0 0
219946.0 314338.0 0
231988.0 314792.0 0
236793.0 314383.0 0
241917.0 313582.0 0
247483.0 310868.0 0
252118.0 313998.0 0
255291.0 310701.0 0
259938.0 314896.0 0
270308.0 310158.0 0
265584.0 314221.0 0
275365.0 313296.0 0
285529.0 313567.0 0
290401.0 311156.0 0
294636.0 315030.0 0
306624.0 311680.0 0
349594.0 313038.0 0
389404.0 313641.0 0
394819.0 311473.0 0
406576.0 310268.0 0
466754.0 311100.0 0
470906.0 312457.0 0
13308.9 316391.0 0
118920.0 315133.0 0
123167.0 317388.0 0
190052.0 316809.0 0
207021.0 317965.0 0
213627.0 318916.0 0
218154.0 318917.0 0
222500.0 318781.0 0
226713.0 315462.0 0
233102.0 319372.0 0
237975.0 319176.0 0
242687.0 318129.0 0
246392.0 315652.0 0
247738.0 319848.0 0
251699.0 318130.0 0
255128.0 315435.0 0
255829.0 319612.0 0
260264.0 319955.0 0
265036.0 319610.0 0
270872.0 316081.0 0
280266.0 315308.0 0
275872.0 319427.0 0
284133.0 319436.0 0
289387.0 317272.0 0
336311.0 317010.0 0
351904.0 318452.0 0
355596.0 315838.0 0
417609.0 316025.0 0
431254.0 317352.0 0
4937.82 320619.0 0
2103.89 323178.0 0
9627.86 320871.0 0
187646.0 323047.0 0
203371.0 320295.0 0
204452.0 323929.0 0
209713.0 322127.0 0
213389.0 324612.0 0
218306.0 323577.0 0
222726.0 323690.0 0
228118.0 320719.0 0
226681.0 325249.0 0
231449.0 324041.0 0
236417.0 323965.0 0
241624.0 322776.0 0
247090.0 324963.0 0
253246.0 324174.0 0
258473.0 324230.0 0
262430.0 323575.0 0
269992.0 321445.0 0
273824.0 324802.0 0
280221.0 322238.0 0
282084.0 325268.0 0
288836.0 322826.0 0
294886.0 321658.0 0
329037.0 323465.0 0
341778.0 320477.0 0
361777.0 322192.0 0
367623.0 322244.0 0
378832.0 320972.0 0
385884.0 324993.0 0
208611.0 326409.0 0
204665.0 329581.0 0
213534.0 329829.0 0
218165.0 328331.0 0
222182.0 328406.0 0
225758.0 329817.0 0
230740.0 329522.0 0
236519.0 329184.0 0
242380.0 329123.0 0
252047.0 329039.0 0
256535.0 328838.0 0
261403.0 328456.0 0
266448.0 325467.0 0
271274.0 328777.0 0
278168.0 325743.0 0
281975.0 329730.0 0
285751.0 326731.0 0
289876.0 327504.0 0
294931.0 328415.0 0
315116.0 328926.0 0
320148.0 326802.0 0
325382.0 327192.0 0
371598.0 325807.0 0
375018.0 327740.0 0
390115.0 327349.0 0
35193.8 331027.0 0
68661.0 330584.0 0
68580.0 334958.0 0
74935.4 332187.0 0
90847.8 334542.0 0
139476.0 331287.0 0
144683.0 331987.0 0
149546.0 334923.0 0
154306.0 333117.0 0
161601.0 334003.0 0
208958.0 331962.0 0
247901.0 330530.0 0
266160.0 331329.0 0
276404.0 330832.0 0
287124.0 331735.0 0
292000.0 332691.0 0
295743.0 334526.0 0
302840.0 333325.0 0
61778.3 336343.0 0
71617.3 336472.0 0
81810.3 339010.0 0
132100.0 339352.0 0
137181.0 336001.0 0
157366.0 337275.0 0
300503.0 337455.0 0
306217.0 336635.0 0
78448.2 341824.0 0
135499.0 342875.0 0
309713.0 341799.0 0
185974.0 349559.0 0
305097.0 347276.0 0
308845.0 346341.0 0
142495.0 355472.0 0
197715.0 353362.0 0
138284.0 358099.0 0
193738.0 361598.0 0
1674.8 375615.0 0
5464.89 375228.0 0
9919.83 375285.0 0
14382.3 375202.0 0
18543.3 375144.0 0
23084.9 375106.0 0
26979.5 375425.0 0
30846.4 375246.0 0
34515.8 375526.0 0
37431.8 375616.0 0
41324.5 375478.0 0
45994.3 375120.0 0
49375.6 375248.0 0
53080.5 375814.0 0
57180.1 375453.0 0
61229.0 375917.0 0
65959.9 375036.0 0
69532.5 375481.0 0
72933.9 375647.0 0
76712.6 375175.0 0
80878.3 375348.0 0
85460.8 375216.0 0
90450.0 375325.0 0
94850.0 375264.0 0
99450.8 375298.0 0
103531.0 375355.0 0
107433.0 375279.0 0
111444.0 375257.0 0
115776.0 375173.0 0
119905.0 375549.0 0
124094.0 375108.0 0
129572.0 375489.0 0
133449.0 375559.0 0
136247.0 375528.0 0
142518.0 375550.0 0
139468.0 375468.0 0
145814.0 375363.0 0
150403.0 375870.0 0
154666.0 375163.0 0
158500.0 375862.0 0
162488.0 375722.0 0
166290.0 375296.0 0
170316.0 375333.0 0
173493.0 375426.0 0
177426.0 375061.0 0
182058.0 375129.0 0
179591.0 376811.0 0
185634.0 375400.0 0
189443.0 375137.0 0
193015.0 375571.0 0
195816.0 375391.0 0
198579.0 375120.0 0
300816.0 376281.0 0
304639.0 375608.0 0
308255.0 376326.0 0
311675.0 375291.0 0
316353.0 375691.0 0
320466.0 375839.0 0
323707.0 375593.0 0
327168.0 375467.0 0
331281.0 375354.0 0
335573.0 375061.0 0
339502.0 375666.0 0
343403.0 375383.0 0
348427.0 375741.0 0
352560.0 375986.0 0
356178.0 375017.0 0
360788.0 375279.0 0
365663.0 375912.0 0
370360.0 375269.0 0
375905.0 375296.0 0
373077.0 377289.0 0
379889.0 375748.0 0
383804.0 375468.0 0
388188.0 375997.0 0
393392.0 375223.0 0
396909.0 375511.0 0
399883.0 375344.0 0
403832.0 375351.0 0
408152.0 375057.0 0
410198.0 377482.0 0
412753.0 375145.0 0
417453.0 375179.0 0
421684.0 375482.0 0
425891.0 375662.0 0
429561.0 375278.0 0
433548.0 375463.0 0
437885.0 375096.0 0
442451.0 375222.0 0
440648.0 377230.0 0
445835.0 375216.0 0
450886.0 375499.0 0
455617.0 375612.0 0
460564.0 375660.0 0
464842.0 375548.0 0
469522.0 375461.0 0
473762.0 375143.0 0
479095.0 375185.0 0
483965.0 375478.0 0
487758.0 375306.0 0
492712.0 375527.0 0
497575.0 375379.0 0
4053.94 378773.0 0
1268.29 378716.0 0
1387.55 381463.0 0
7746.66 378070.0 0
10028.2 380697.0 0
5662.26 382308.0 0
12127.7 378244.0 0
13868.8 382166.0 0
16158.7 379050.0 0
20692.7 378548.0 0
25245.4 378455.0 0
23301.0 382284.0 0
27018.0 381083.0 0
29009.5 378372.0 0
30220.7 381725.0 0
32890.3 378711.0 0
37368.8 378963.0 0
38798.7 382199.0 0
40778.8 379900.0 0
44826.0 377974.0 0
43893.9 381138.0 0
48704.4 377942.0 0
47834.7 381142.0 0
50963.7 382086.0 0
51936.6 379258.0 0
54481.4 382048.0 0
56519.1 379043.0 0
60105.5 380404.0 0
65122.9 379112.0 0
69446.4 378263.0 0
68451.9 382298.0 0
72092.6 380127.0 0
75062.1 378216.0 0
76029.4 382606.0 0
78757.1 378385.0 0
81219.4 381830.0 0
83358.0 378472.0 0
85663.2 381886.0 0
87868.9 378848.0 0
92779.1 379407.0 0
96969.4 378830.0 0
101219.0 378593.0 0
98880.1 381662.0 0
105084.0 378527.0 0
102662.0 382018.0 0
107251.0 382248.0 0
109386.0 378505.0 0
111645.0 382176.0 0
113462.0 378586.0 0
115415.0 381904.0 0
117764.0 378887.0 0
121818.0 379312.0 0
126630.0 379038.0 0
122873.0 382207.0 0
131017.0 379300.0 0
130158.0 381824.0 0
133711.0 378486.0 0
137465.0 378776.0 0
142454.0 379076.0 0
146707.0 378935.0 0
144443.0 382581.0 0
148073.0 381954.0 0
151312.0 379998.0 0
155101.0 378337.0 0
161128.0 378485.0 0
158676.0 379546.0 0
162266.0 380786.0 0
167978.0 377902.0 0
164743.0 378975.0 0
168264.0 381081.0 0
171412.0 378591.0 0
172143.0 382248.0 0
175470.0 378571.0 0
179599.0 379219.0 0
181342.0 381940.0 0
183005.0 378410.0 0
184708.0 381067.0 0
187172.0 378306.0 0
188073.0 382454.0 0
191385.0 378918.0 0
193928.0 381253.0 0
195432.0 378082.0 0
196801.0 381222.0 0
199152.0 377837.0 0
199641.0 381050.0 0
301197.0 380409.0 0
304654.0 379184.0 0
308399.0 380608.0 0
312502.0 378973.0 0
312528.0 382139.0 0
320713.0 379233.0 0
316856.0 380844.0 0
323565.0 378050.0 0
323779.0 381170.0 0
326026.0 378771.0 0
326823.0 381154.0 0
329655.0 379112.0 0
329392.0 382637.0 0
333748.0 378479.0 0
340621.0 378794.0 0
337595.0 377893.0 0
337526.0 380939.0 0
340697.0 382560.0 0
344735.0 379845.0 0
349306.0 380046.0 0
353539.0 380119.0 0
357548.0 377927.0 0
357921.0 381643.0 0
361724.0 379676.0 0
366469.0 380619.0 0
369702.0 379078.0 0
373047.0 380832.0 0
377021.0 379792.0 0
381293.0 379127.0 0
385069.0 378772.0 0
383450.0 382454.0 0
387865.0 381457.0 0
392103.0 379575.0 0
395481.0 381796.0 0
397413.0 378705.0 0
400278.0 381845.0 0
401807.0 378157.0 0
406035.0 377831.0 0
404017.0 380414.0 0
408337.0 381155.0 0
412409.0 380029.0 0
415224.0 377810.0 0
416390.0 382323.0 0
419231.0 378945.0 0
421252.0 382513.0 0
427211.0 379310.0 0
423497.0 379298.0 0
428365.0 382634.0 0
430538.0 378356.0 0
430362.0 380982.0 0
432340.0 381078.0 0
434080.0 378759.0 0
436840.0 378374.0 0
435619.0 382114.0 0
439280.0 380550.0 0
443868.0 379232.0 0
447750.0 382655.0 0
447941.0 378135.0 0
451466.0 379748.0 0
454383.0 379321.0 0
456239.0 382465.0 0
458611.0 379258.0 0
460179.0 382433.0 0
462840.0 379800.0 0
467238.0 378958.0 0
470258.0 381729.0 0
471769.0 378423.0 0
475443.0 378021.0 0
474590.0 381803.0 0
478615.0 379777.0 0
482174.0 378298.0 0
482427.0 382496.0 0
485704.0 378783.0 0
489520.0 378687.0 0
494376.0 379676.0 0
490884.0 382454.0 0
498515.0 378571.0 0
497992.0 382082.0 0
1884.48 384853.0 0
10104.9 384143.0 0
6198.65 387162.0 0
14530.3 386252.0 0
10392.4 387653.0 0
18512.1 383273.0 0
19341.7 387116.0 0
23113.4 386001.0 0
26958.6 384271.0 0
30817.6 385442.0 0
34886.4 382698.0 0
34790.6 387017.0 0
38413.7 385774.0 0
41212.2 386555.0 0
45087.3 383514.0 0
41479.2 383511.0 0
44175.9 386858.0 0
48598.0 384955.0 0
52245.7 384500.0 0
55810.6 385913.0 0
57446.4 382702.0 0
59847.0 384746.0 0
63707.7 383513.0 0
63251.8 387742.0 0
67173.5 385881.0 0
70433.1 387579.0 0
71727.0 384216.0 0
74888.9 387478.0 0
79271.5 385969.0 0
83738.5 385597.0 0
90297.2 382840.0 0
87478.4 385100.0 0
91339.7 387575.0 0
95085.3 383808.0 0
99801.3 385059.0 0
104596.0 385342.0 0
109438.0 385616.0 0
114496.0 385986.0 0
119095.0 383218.0 0
119287.0 387397.0 0
126449.0 383378.0 0
122688.0 385515.0 0
130189.0 385382.0 0
134065.0 382751.0 0
136801.0 386715.0 0
133251.0 387205.0 0
139480.0 382924.0 0
142541.0 386866.0 0
147310.0 385505.0 0
151126.0 384137.0 0
155481.0 382719.0 0
153742.0 386542.0 0
158112.0 387163.0 0
160043.0 382986.0 0
162405.0 385947.0 0
164990.0 383312.0 0
168978.0 385314.0 0
172930.0 385802.0 0
177004.0 383330.0 0
180959.0 386559.0 0
183867.0 383565.0 0
186081.0 386585.0 0
191538.0 382906.0 0
190315.0 386020.0 0
194778.0 385078.0 0
199140.0 384833.0 0
301288.0 384669.0 0
304734.0 382839.0 0
305121.0 386793.0 0
307423.0 384499.0 0
310788.0 384391.0 0
309130.0 387477.0 0
314205.0 384292.0 0
317590.0 386026.0 0
320885.0 383563.0 0
325859.0 385265.0 0
330881.0 386936.0 0
333576.0 382896.0 0
335612.0 387276.0 0
337519.0 384220.0 0
340006.0 386810.0 0
344122.0 384391.0 0
346435.0 386522.0 0
347848.0 383482.0 0
351292.0 383618.0 0
349416.0 386894.0 0
355266.0 384089.0 0
352967.0 386131.0 0
359646.0 384847.0 0
363440.0 383397.0 0
364341.0 386838.0 0
366879.0 384525.0 0
369974.0 383209.0 0
374619.0 385395.0 0
379302.0 383296.0 0
379028.0 387642.0 0
382067.0 385927.0 0
386240.0 386447.0 0
391958.0 385203.0 0
397130.0 384995.0 0
401098.0 385755.0 0
404649.0 384440.0 0
408677.0 385104.0 0
412282.0 383891.0 0
415267.0 386680.0 0
419213.0 385624.0 0
423224.0 386993.0 0
424868.0 383209.0 0
427683.0 386640.0 0
431919.0 384199.0 0
435862.0 386113.0 0
438796.0 384154.0 0
442497.0 383350.0 0
445181.0 386948.0 0
452505.0 383087.0 0
450361.0 386372.0 0
455120.0 386947.0 0
462674.0 383852.0 0
459047.0 385208.0 0
461600.0 386660.0 0
465799.0 382752.0 0
465606.0 386863.0 0
468709.0 384913.0 0
472366.0 385661.0 0
476366.0 385415.0 0
478510.0 383486.0 0
484256.0 386227.0 0
480107.0 387504.0 0
486746.0 382466.0 0
488421.0 386794.0 0
494106.0 385302.0 0
498380.0 385957.0 0
1903.65 388814.0 0
1448.63 392451.0 0
8837.15 390251.0 0
5555.96 391852.0 0
12174.0 390316.0 0
16666.8 390751.0 0
22572.8 390510.0 0
26893.5 388198.0 0
31879.4 390451.0 0
37218.9 389990.0 0
40976.0 389268.0 0
44530.5 391257.0 0
47882.0 388867.0 0
51845.2 387817.0 0
54818.7 389872.0 0
59077.7 388927.0 0
62332.6 391863.0 0
66998.1 390487.0 0
71817.1 390872.0 0
76076.8 391777.0 0
78774.3 389541.0 0
82450.0 389114.0 0
86666.5 388507.0 0
85079.4 391658.0 0
88722.7 391705.0 0
96661.5 388428.0 0
93507.6 392241.0 0
101757.0 388779.0 0
106893.0 388854.0 0
111101.0 388886.0 0
109495.0 392336.0 0
116620.0 389626.0 0
113485.0 390933.0 0
119732.0 390550.0 0
126375.0 387896.0 0
122828.0 389613.0 0
126533.0 391973.0 0
129992.0 389667.0 0
134113.0 391380.0 0
138870.0 390084.0 0
142953.0 392458.0 0
146858.0 389544.0 0
150689.0 387802.0 0
150727.0 391658.0 0
154600.0 389998.0 0
161731.0 389187.0 0
158936.0 392032.0 0
163427.0 391622.0 0
165843.0 388414.0 0
171038.0 389647.0 0
175809.0 387796.0 0
175083.0 391336.0 0
179054.0 390519.0 0
183912.0 390933.0 0
188709.0 390051.0 0
193166.0 389023.0 0
198234.0 389650.0 0
195111.0 392579.0 0
301053.0 388699.0 0
304519.0 390671.0 0
307486.0 390285.0 0
310580.0 391317.0 0
313394.0 388113.0 0
314538.0 392442.0 0
317485.0 390082.0 0
320477.0 392296.0 0
321961.0 388374.0 0
323983.0 392540.0 0
327655.0 390704.0 0
333048.0 390813.0 0
337457.0 390916.0 0
341713.0 390905.0 0
343925.0 387883.0 0
346713.0 390526.0 0
356089.0 387846.0 0
352052.0 390463.0 0
356447.0 391803.0 0
360604.0 389549.0 0
365122.0 390252.0 0
369383.0 388198.0 0
371580.0 392705.0 0
373473.0 389899.0 0
376574.0 390244.0 0
374742.0 392593.0 0
379470.0 391020.0 0
382381.0 389406.0 0
385230.0 391013.0 0
389616.0 390293.0 0
395874.0 388248.0 0
393700.0 389395.0 0
393599.0 392285.0 0
397069.0 391774.0 0
399492.0 388721.0 0
401733.0 392541.0 0
403283.0 388600.0 0
405368.0 391096.0 0
407050.0 388417.0 0
411291.0 388042.0 0
409309.0 392543.0 0
414475.0 391401.0 0
418514.0 389356.0 0
422194.0 391440.0 0
425915.0 390423.0 0
428960.0 390250.0 0
432042.0 388118.0 0
432065.0 392395.0 0
435981.0 390156.0 0
440425.0 387988.0 0
439399.0 392098.0 0
443957.0 391848.0 0
448102.0 389659.0 0
452128.0 390375.0 0
456292.0 391261.0 0
459027.0 388827.0 0
459910.0 392220.0 0
463027.0 389916.0 0
467589.0 391160.0 0
469339.0 387935.0 0
472176.0 389668.0 0
475447.0 387923.0 0
476827.0 391470.0 0
481376.0 391176.0 0
484408.0 389531.0 0
487777.0 390570.0 0
492329.0 389552.0 0
497665.0 389595.0 0
2778.77 396665.0 0
9753.09 393181.0 0
7518.14 395740.0 0
13058.8 393913.0 0
11206.6 397073.0 0
19926.4 393447.0 0
16785.5 397273.0 0
22552.8 395583.0 0
26754.2 392858.0 0
26413.1 397577.0 0
31504.8 395736.0 0
36075.7 393785.0 0
40351.5 392968.0 0
38164.1 395401.0 0
40805.7 397205.0 0
44555.5 394955.0 0
50488.2 393075.0 0
47393.5 396858.0 0
54243.2 396565.0 0
57304.8 393154.0 0
58169.4 397357.0 0
61498.8 395552.0 0
65702.3 394546.0 0
69736.7 394280.0 0
73499.0 393896.0 0
73271.3 397173.0 0
76935.9 395734.0 0
80768.2 393433.0 0
85449.0 395868.0 0
89922.6 395174.0 0
96164.9 394841.0 0
93795.4 397732.0 0
99147.1 392971.0 0
98020.2 397209.0 0
104372.0 393175.0 0
107577.0 396568.0 0
117261.0 392962.0 0
113066.0 395336.0 0
122155.0 393984.0 0
118074.0 396764.0 0
127209.0 396872.0 0
130036.0 393368.0 0
133027.0 396753.0 0
138052.0 394783.0 0
142126.0 397486.0 0
147268.0 393141.0 0
145731.0 395856.0 0
150041.0 396429.0 0
154406.0 394142.0 0
158000.0 397036.0 0
162927.0 395871.0 0
167474.0 392999.0 0
172668.0 395319.0 0
177048.0 393907.0 0
177525.0 397525.0 0
180609.0 394316.0 0
184283.0 395140.0 0
187520.0 394063.0 0
191732.0 393269.0 0
190679.0 397257.0 0
196929.0 394274.0 0
194640.0 396004.0 0
198387.0 397289.0 0
199421.0 393746.0 0
301266.0 393466.0 0
306858.0 395125.0 0
311699.0 394839.0 0
315157.0 396480.0 0
318043.0 394344.0 0
322027.0 395573.0 0
326061.0 395582.0 0
330609.0 394864.0 0
335324.0 394429.0 0
339541.0 394349.0 0
337432.0 397514.0 0
343970.0 394412.0 0
348922.0 394583.0 0
353418.0 394979.0 0
360005.0 393452.0 0
357647.0 394975.0 0
361237.0 396860.0 0
363454.0 393507.0 0
365527.0 396714.0 0
367650.0 392992.0 0
369952.0 396462.0 0
374419.0 396423.0 0
377733.0 393582.0 0
378671.0 397326.0 0
382052.0 393940.0 0
384908.0 397481.0 0
386967.0 394156.0 0
391197.0 394736.0 0
395225.0 395143.0 0
393236.0 397488.0 0
399069.0 395266.0 0
402704.0 397780.0 0
405394.0 394435.0 0
412884.0 396012.0 0
418460.0 394590.0 0
422725.0 395522.0 0
425126.0 393699.0 0
426239.0 397282.0 0
428125.0 393547.0 0
430871.0 396499.0 0
435718.0 394854.0 0
437677.0 397609.0 0
440890.0 395759.0 0
445395.0 396313.0 0
448573.0 393398.0 0
450218.0 397375.0 0
453322.0 394060.0 0
457389.0 394996.0 0
461019.0 395717.0 0
463876.0 397784.0 0
464097.0 393824.0 0
467502.0 395877.0 0
471453.0 393533.0 0
475534.0 396288.0 0
480459.0 394863.0 0
484928.0 393592.0 0
486836.0 397120.0 0
490049.0 393822.0 0
494335.0 396993.0 0
498821.0 392954.0 0
495148.0 393029.0 0
498356.0 396068.0 0
2890.65 402398.0 0
7818.28 399840.0 0
12409.3 401469.0 0
17591.4 402822.0 0
21839.6 399909.0 0
25756.1 401816.0 0
30714.6 400919.0 0
36009.2 398376.0 0
40146.4 402022.0 0
44969.7 400211.0 0
50515.3 399569.0 0
55543.7 400986.0 0
61149.3 400813.0 0
64561.1 398152.0 0
65372.1 402102.0 0
68812.8 398849.0 0
73571.8 401437.0 0
76602.0 398981.0 0
80614.1 398491.0 0
77953.7 402125.0 0
81450.5 402448.0 0
84798.9 400677.0 0
89208.7 399439.0 0
93190.7 402299.0 0
102022.0 398021.0 0
97777.0 401164.0 0
105515.0 400743.0 0
110878.0 400775.0 0
115383.0 399165.0 0
115739.0 402991.0 0
122045.0 398996.0 0
118360.0 400389.0 0
125510.0 402781.0 0
130013.0 400657.0 0
134082.0 401624.0 0
137981.0 399392.0 0
142279.0 401962.0 0
146411.0 399829.0 0
150884.0 401688.0 0
153687.0 398280.0 0
155993.0 401754.0 0
161188.0 401464.0 0
164368.0 399734.0 0
167615.0 398055.0 0
165530.0 402334.0 0
171512.0 399437.0 0
169621.0 402998.0 0
174712.0 401143.0 0
182129.0 398107.0 0
179559.0 401302.0 0
186476.0 398056.0 0
184486.0 401607.0 0
189368.0 401517.0 0
194626.0 400524.0 0
199108.0 400864.0 0
302209.0 398009.0 0
301452.0 402573.0 0
306702.0 401148.0 0
311049.0 398902.0 0
315545.0 400935.0 0
319197.0 398006.0 0
320232.0 402336.0 0
323879.0 399339.0 0
328610.0 398808.0 0
330972.0 401730.0 0
327024.0 402654.0 0
333579.0 399015.0 0
337874.0 401356.0 0
341276.0 398033.0 0
346137.0 398575.0 0
342714.0 402757.0 0
350915.0 399019.0 0
356208.0 399094.0 0
360221.0 400084.0 0
363831.0 400957.0 0
367952.0 399432.0 0
371914.0 400664.0 0
376183.0 400675.0 0
380200.0 401321.0 0
381843.0 398458.0 0
384549.0 401845.0 0
389023.0 398592.0 0
389042.0 403055.0 0
393184.0 400958.0 0
397236.0 398856.0 0
400789.0 401788.0 0
405336.0 402708.0 0
408281.0 398234.0 0
409781.0 402394.0 0
412730.0 400538.0 0
416360.0 398676.0 0
416891.0 403046.0 0
421273.0 399325.0 0
425547.0 401499.0 0
428383.0 402876.0 0
429435.0 400125.0 0
434342.0 400225.0 0
439029.0 399519.0 0
442470.0 399924.0 0
446965.0 400765.0 0
451785.0 401844.0 0
454866.0 398521.0 0
455828.0 402624.0 0
459484.0 399183.0 0
463532.0 401925.0 0
467216.0 399968.0 0
471079.0 398249.0 0
474566.0 400497.0 0
479025.0 399544.0 0
483324.0 398428.0 0
482120.0 402877.0 0
486585.0 401500.0 0
490195.0 398368.0 0
490358.0 401653.0 0
493644.0 401020.0 0
497826.0 399959.0 0
3387.4 407994.0 0
8291.72 404900.0 0
13460.7 406761.0 0
18506.4 406696.0 0
22449.9 404680.0 0
27465.9 405337.0 0
31478.4 405413.0 0
35454.0 403303.0 0
34526.8 407553.0 0
39049.7 407104.0 0
44020.4 405726.0 0
47909.1 403629.0 0
48707.8 408032.0 0
51730.7 404224.0 0
55491.9 405036.0 0
58858.0 404172.0 0
58077.4 407743.0 0
63222.6 406250.0 0
69256.8 404391.0 0
75062.9 405939.0 0
79864.3 405607.0 0
84347.1 404994.0 0
88584.0 403706.0 0
91875.6 405890.0 0
96664.0 405708.0 0
101804.0 403659.0 0
100530.0 407614.0 0
106976.0 404659.0 0
104357.0 407818.0 0
111932.0 405943.0 0
108379.0 408184.0 0
117241.0 407437.0 0
120195.0 403323.0 0
122229.0 406742.0 0
126209.0 408033.0 0
130497.0 405320.0 0
135092.0 405424.0 0
138581.0 403856.0 0
142357.0 406609.0 0
138070.0 408019.0 0
146210.0 404165.0 0
150019.0 405820.0 0
154277.0 405876.0 0
158812.0 405593.0 0
163623.0 405878.0 0
168480.0 407787.0 0
173247.0 405879.0 0
177039.0 404358.0 0
181587.0 405587.0 0
187260.0 405673.0 0
192883.0 405942.0 0
198033.0 404208.0 0
304784.0 405213.0 0
301452.0 407482.0 0
307774.0 405849.0 0
311456.0 404302.0 0
316653.0 405667.0 0
321344.0 406819.0 0
323732.0 403719.0 0
325718.0 407016.0 0
330307.0 405809.0 0
334421.0 403714.0 0
338673.0 406563.0 0
343141.0 406956.0 0
348082.0 403446.0 0
350686.0 407121.0 0
353223.0 403489.0 0
359071.0 404458.0 0
364054.0 406378.0 0
368166.0 403450.0 0
370902.0 405947.0 0
368027.0 408115.0 0
374175.0 404650.0 0
377900.0 404171.0 0
381356.0 405347.0 0
385952.0 406692.0 0
390361.0 406482.0 0
392854.0 404492.0 0
396857.0 403963.0 0
398154.0 406959.0 0
401347.0 405930.0 0
405673.0 405955.0 0
409166.0 406354.0 0
412643.0 403819.0 0
414211.0 407739.0 0
419009.0 406805.0 0
422169.0 404289.0 0
426922.0 405967.0 0
431082.0 403774.0 0
431106.0 407891.0 0
434795.0 405248.0 0
438288.0 407062.0 0
438881.0 403108.0 0
441452.0 407505.0 0
443459.0 404350.0 0
448790.0 405701.0 0
453427.0 405100.0 0
457078.0 406978.0 0
459421.0 403449.0 0
461953.0 406396.0 0
466160.0 405533.0 0
470889.0 403326.0 0
473825.0 406975.0 0
477246.0 403974.0 0
481228.0 407391.0 0
485160.0 405358.0 0
490958.0 406149.0 0
495528.0 403657.0 0
498596.0 403564.0 0
497390.0 407550.0 0
1631.07 411989.0 0
8703.75 409519.0 0
5574.28 412647.0 0
12807.9 412003.0 0
17656.8 410769.0 0
21278.0 408348.0 0
25105.8 408671.0 0
22156.8 411667.0 0
30239.9 409912.0 0
26024.6 412654.0 0
36053.5 411785.0 0
41194.7 411253.0 0
44831.5 410009.0 0
47639.9 411904.0 0
53441.1 408290.0 0
51556.2 412244.0 0
56336.2 411725.0 0
60507.4 410389.0 0
64168.2 411922.0 0
67345.8 408949.0 0
71517.6 408700.0 0
74479.2 410106.0 0
78225.0 409476.0 0
82845.0 409060.0 0
85513.6 412144.0 0
88039.6 408470.0 0
93064.1 409417.0 0
94743.3 413215.0 0
97714.1 410276.0 0
102020.0 411450.0 0
106752.0 411633.0 0
112083.0 410912.0 0
117272.0 412669.0 0
121599.0 410570.0 0
125750.0 412843.0 0
130327.0 410658.0 0
134104.0 408437.0 0
135847.0 413268.0 0
140776.0 411124.0 0
146887.0 408784.0 0
143660.0 409622.0 0
144622.0 412898.0 0
151750.0 409639.0 0
148919.0 413033.0 0
156031.0 409562.0 0
158133.0 412717.0 0
160360.0 409255.0 0
161752.0 413191.0 0
164636.0 410379.0 0
168355.0 412460.0 0
172697.0 410876.0 0
177030.0 408377.0 0
180921.0 410114.0 0
184609.0 409129.0 0
188954.0 410600.0 0
193890.0 411274.0 0
198073.0 408562.0 0
305442.0 408868.0 0
301880.0 411596.0 0
309512.0 408978.0 0
313408.0 408378.0 0
312337.0 412618.0 0
318003.0 411192.0 0
323696.0 410932.0 0
329091.0 410950.0 0
334136.0 408596.0 0
333651.0 412733.0 0
337795.0 411592.0 0
342230.0 410634.0 0
346624.0 408420.0 0
346230.0 413148.0 0
350700.0 411220.0 0
355171.0 408489.0 0
360477.0 410246.0 0
365002.0 410519.0 0
368503.0 411626.0 0
372382.0 409454.0 0
375082.0 412996.0 0
377360.0 408255.0 0
378978.0 412156.0 0
382060.0 409529.0 0
386334.0 411632.0 0
389644.0 409415.0 0
394455.0 408451.0 0
396552.0 412539.0 0
399411.0 409701.0 0
404765.0 409779.0 0
410277.0 411398.0 0
415124.0 413038.0 0
418440.0 410312.0 0
423337.0 409540.0 0
427784.0 410295.0 0
431285.0 413067.0 0
435218.0 409721.0 0
440234.0 411622.0 0
444692.0 408772.0 0
448609.0 410514.0 0
445337.0 413138.0 0
452903.0 409038.0 0
456550.0 412108.0 0
460186.0 409675.0 0
464357.0 409799.0 0
469427.0 409332.0 0
474394.0 410831.0 0
477262.0 408183.0 0
478515.0 411189.0 0
482395.0 412092.0 0
485993.0 409576.0 0
493996.0 410811.0 0
489976.0 412059.0 0
497931.0 412251.0 0
2425.47 416012.0 0
9155.26 413647.0 0
7233.38 417664.0 0
12031.4 416639.0 0
19782.8 414232.0 0
16424.4 415355.0 0
22919.5 415414.0 0
28947.8 413616.0 0
27644.5 417345.0 0
32071.8 414846.0 0
35834.8 416604.0 0
39848.7 415410.0 0
44443.7 414329.0 0
42596.1 418189.0 0
48767.0 415154.0 0
50472.2 418083.0 0
54722.5 416546.0 0
59911.7 414521.0 0
64218.2 416709.0 0
69948.4 414058.0 0
75949.2 413441.0 0
74836.2 417549.0 0
80949.0 413797.0 0
85513.8 415939.0 0
82594.2 417257.0 0
89836.6 413652.0 0
93983.8 418059.0 0
98801.1 414920.0 0
104123.0 416479.0 0
109662.0 415613.0 0
113762.0 415353.0 0
117132.0 417524.0 0
121683.0 415489.0 0
130271.0 416565.0 0
141059.0 416350.0 0
146145.0 416897.0 0
150200.0 416659.0 0
153817.0 413790.0 0
157896.0 416588.0 0
162182.0 417159.0 0
165171.0 414231.0 0
167388.0 417881.0 0
171179.0 415251.0 0
177727.0 413668.0 0
174343.0 416445.0 0
181152.0 417277.0 0
183952.0 413633.0 0
188233.0 415086.0 0
191353.0 414152.0 0
198103.0 413667.0 0
194422.0 415287.0 0
301845.0 415550.0 0
306720.0 413548.0 0
310899.0 416930.0 0
315773.0 416813.0 0
320865.0 415742.0 0
325879.0 415138.0 0
330937.0 415998.0 0
336655.0 416653.0 0
341948.0 415102.0 0
346041.0 417892.0 0
350478.0 415868.0 0
355830.0 413929.0 0
360722.0 414818.0 0
365277.0 414616.0 0
362568.0 418111.0 0
370479.0 415484.0 0
374791.0 417015.0 0
378511.0 415999.0 0
382501.0 414130.0 0
386823.0 416889.0 0
391507.0 413611.0 0
395845.0 416819.0 0
400977.0 414637.0 0
406739.0 415220.0 0
411751.0 416543.0 0
416392.0 417215.0 0
420691.0 414815.0 0
426203.0 414147.0 0
435841.0 413394.0 0
434504.0 416912.0 0
438248.0 415669.0 0
442294.0 416690.0 0
447517.0 417635.0 0
451588.0 414083.0 0
455586.0 416585.0 0
461424.0 413894.0 0
466666.0 413886.0 0
471544.0 414294.0 0
479415.0 414494.0 0
475990.0 414634.0 0
478382.0 417906.0 0
482442.0 416358.0 0
486277.0 414295.0 0
490339.0 416425.0 0
494375.0 414676.0 0
497984.0 416196.0 0
2731.83 420996.0 0
7247.19 422099.0 0
11015.4 420966.0 0
15306.0 419716.0 0
19856.4 418514.0 0
18533.7 422389.0 0
23707.5 418962.0 0
22986.7 422653.0 0
28476.9 422825.0 0
32640.0 419401.0 0
38426.4 420591.0 0
43873.0 422450.0 0
46550.2 418377.0 0
49407.0 422156.0 0
54975.7 422323.0 0
59729.7 419299.0 0
64268.4 421625.0 0
67641.5 419128.0 0
71368.3 419519.0 0
74871.7 422535.0 0
79195.5 419222.0 0
84167.8 420138.0 0
88739.6 419069.0 0
99375.6 420513.0 0
104228.0 421613.0 0
108304.0 420381.0 0
112958.0 419487.0 0
116717.0 421558.0 0
120916.0 420290.0 0
125414.0 418921.0 0
129696.0 423478.0 0
135845.0 419652.0 0
140079.0 420159.0 0
139593.0 423162.0 0
143665.0 421053.0 0
148893.0 420988.0 0
153832.0 418977.0 0
158817.0 421824.0 0
163939.0 421154.0 0
167948.0 423235.0 0
172362.0 420192.0 0
177125.0 418704.0 0
176542.0 422999.0 0
181019.0 421598.0 0
185749.0 418936.0 0
191373.0 418408.0 0
189267.0 422508.0 0
193537.0 423249.0 0
197232.0 418988.0 0
302252.0 419950.0 0
305919.0 422921.0 0
306682.0 418718.0 0
310562.0 421489.0 0
315209.0 421560.0 0
319460.0 420327.0 0
323577.0 418985.0 0
327888.0 419870.0 0
332637.0 420709.0 0
336931.0 422005.0 0
341421.0 420321.0 0
345914.0 422818.0 0
350219.0 420846.0 0
354241.0 418639.0 0
358500.0 418575.0 0
361728.0 423103.0 0
366700.0 419538.0 0
372041.0 420981.0 0
377470.0 420383.0 0
381137.0 423515.0 0
382135.0 418956.0 0
386375.0 422697.0 0
391670.0 419825.0 0
395788.0 423523.0 0
398929.0 419795.0 0
403687.0 419359.0 0
405654.0 423290.0 0
408446.0 419946.0 0
414313.0 421171.0 0
419628.0 420172.0 0
424249.0 418412.0 0
426138.0 422066.0 0
429513.0 418371.0 0
434027.0 420852.0 0
438572.0 420018.0 0
443686.0 421492.0 0
452083.0 418411.0 0
449858.0 421961.0 0
455469.0 422157.0 0
459541.0 418510.0 0
464318.0 418400.0 0
469229.0 418333.0 0
466810.0 422165.0 0
473953.0 418438.0 0
471571.0 423135.0 0
476922.0 422169.0 0
481694.0 420822.0 0
486212.0 418961.0 0
494104.0 418501.0 0
490506.0 421697.0 0
494615.0 422205.0 0
497866.0 420325.0 0
1120.23 424655.0 0
4807.31 425936.0 0
1167.5 427188.0 0
9798.35 425466.0 0
14511.5 424423.0 0
19620.9 427266.0 0
25339.9 427201.0 0
30285.7 427680.0 0
33922.4 424087.0 0
38507.3 425766.0 0
42725.1 427212.0 0
47040.5 426391.0 0
51821.0 426879.0 0
56395.3 427257.0 0
60118.3 424461.0 0
64804.3 426703.0 0
69279.1 423712.0 0
73034.5 427264.0 0
81341.4 423870.0 0
77573.2 426540.0 0
87140.8 424755.0 0
91472.0 428030.0 0
92926.6 423552.0 0
97435.2 425648.0 0
102095.0 425091.0 0
107036.0 425323.0 0
111481.0 423672.0 0
115482.0 425526.0 0
119380.0 424017.0 0
120392.0 428117.0 0
123543.0 424060.0 0
125455.0 428249.0 0
135397.0 424494.0 0
133676.0 428482.0 0
142875.0 425751.0 0
138555.0 427466.0 0
146303.0 424321.0 0
149112.0 425085.0 0
153322.0 424464.0 0
157927.0 427987.0 0
163081.0 425874.0 0
167411.0 428071.0 0
172597.0 426477.0 0
177064.0 426456.0 0
180705.0 426798.0 0
185248.0 424254.0 0
189867.0 427821.0 0
198079.0 424228.0 0
195330.0 427580.0 0
301975.0 424556.0 0
305462.0 427516.0 0
301492.0 428562.0 0
308909.0 425506.0 0
313225.0 425925.0 0
318425.0 425430.0 0
324061.0 423920.0 0
329559.0 424659.0 0
334289.0 425390.0 0
340020.0 426583.0 0
345404.0 426890.0 0
349889.0 425946.0 0
355260.0 423541.0 0
358490.0 428359.0 0
367851.0 425382.0 0
375989.0 426288.0 0
383509.0 427346.0 0
390988.0 424471.0 0
388235.0 427848.0 0
393425.0 428403.0 0
398327.0 427811.0 0
401084.0 423925.0 0
401761.0 427618.0 0
405550.0 427915.0 0
410166.0 424679.0 0
414192.0 427497.0 0
417714.0 424591.0 0
422302.0 424208.0 0
426192.0 425965.0 0
430742.0 424340.0 0
436695.0 425004.0 0
442142.0 426707.0 0
446710.0 425033.0 0
451570.0 427342.0 0
457609.0 427564.0 0
461837.0 423617.0 0
467108.0 427008.0 0
475486.0 427833.0 0
480900.0 425475.0 0
484836.0 427534.0 0
485381.0 423556.0 0
488918.0 426430.0 0
493534.0 425686.0 0
497840.0 424725.0 0
2475.72 430414.0 0
4938.38 433357.0 0
7810.05 430144.0 0
12930.5 429333.0 0
17232.1 433019.0 0
22532.2 431916.0 0
27559.4 432053.0 0
34980.6 429152.0 0
39543.8 430121.0 0
43338.2 431323.0 0
48497.9 431830.0 0
54370.1 431305.0 0
60498.5 429853.0 0
65661.8 431945.0 0
68932.4 428582.0 0
71635.3 431544.0 0
76038.1 430903.0 0
82340.8 429615.0 0
85784.8 433197.0 0
87810.9 430192.0 0
91380.9 432574.0 0
95524.9 430164.0 0
100733.0 429673.0 0
106123.0 430685.0 0
111427.0 428748.0 0
109973.0 433229.0 0
116080.0 429780.0 0
114235.0 433652.0 0
118941.0 432896.0 0
123082.0 431845.0 0
126902.0 432432.0 0
129485.0 429458.0 0
136999.0 433012.0 0
142195.0 430888.0 0
147019.0 428754.0 0
151879.0 429078.0 0
154758.0 432712.0 0
159858.0 433051.0 0
163792.0 430665.0 0
167823.0 432514.0 0
172596.0 432339.0 0
177043.0 430080.0 0
181559.0 431627.0 0
184638.0 428731.0 0
186432.0 432775.0 0
198290.0 430330.0 0
193980.0 432750.0 0
303861.0 432459.0 0
310157.0 431386.0 0
316024.0 430089.0 0
319836.0 433307.0 0
322064.0 428958.0 0
324304.0 432390.0 0
326767.0 428827.0 0
331547.0 429105.0 0
336087.0 431651.0 0
340956.0 433498.0 0
344000.0 430472.0 0
348468.0 431080.0 0
353432.0 429868.0 0
356995.0 433164.0 0
363420.0 428624.0 0
366988.0 430343.0 0
368379.0 433579.0 0
371277.0 430176.0 0
376052.0 431465.0 0
380033.0 430778.0 0
384973.0 432136.0 0
390148.0 432550.0 0
396960.0 432468.0 0
401633.0 431054.0 0
406194.0 433242.0 0
410164.0 429912.0 0
414637.0 432777.0 0
418402.0 429068.0 0
423256.0 429291.0 0
428710.0 429978.0 0
432916.0 433600.0 0
433488.0 428841.0 0
438050.0 430580.0 0
443065.0 432075.0 0
446560.0 429165.0 0
449578.0 432783.0 0
454969.0 431344.0 0
462183.0 428993.0 0
459434.0 433114.0 0
465521.0 432033.0 0
470671.0 431698.0 0
477234.0 433528.0 0
481175.0 430365.0 0
486313.0 432155.0 0
492347.0 430747.0 0
497605.0 429081.0 0
11115.2 435006.0 0
32746.5 433972.0 0
38082.6 434588.0 0
58253.0 434665.0 0
79116.5 434275.0 0
97191.2 434926.0 0
102503.0 434840.0 0
373719.0 433943.0 0
420222.0 433709.0 0
425316.0 433987.0 0
481847.0 434640.0 0
490267.0 435676.0 0
494424.0 435349.0 0
497933.0 433470.0 0
POINT_DATA 5000
SCALARS Radius float 1
LOOKUP_TABLE default
5782.6 4796.58 3979.26 3471.03 5253.55 5820.48 4862.21 5113.21 3929.19 4107.03 4478.15 5379.87 5925.6 4501.51 4792.73 4736.58 4931.38 3485.26 4329.05 4151.94 4049.23 5337.48 6124.89 5708.81 5252.48 4780.03 5495.39 3996.0 3856.1 4665.12 3383.4 4133.88 4834.9 3850.77 6044.04 5415.48 5120.0 3863.18 2356.98 4998.37 6182.6 5492.18 5258.36 5061.3 3642.12 3163.97 5812.43 5122.66 5906.14 5484.19 7513.1 5254.28 4436.4 5733.48 4672.91 5580.89 3588.44 5645.7 5176.86 6810.52 5840.26 3672.51 6110.27 5561.06 5073.35 3615.22 5670.04 4380.59 3589.27 6716.79 3607.45 5759.91 7613.27 5529.52 4951.03 5255.32 6037.08 5096.78 6756.95 4129.43 6324.23 3843.58 3320.52 4194.5 4270.53 5344.25 5191.63 4593.7 4150.99 4216.92 4742.68 4344.58 5634.83 5495.84 6268.1 4861.06 5374.51 5320.28 6739.08 4797.52 4569.12 4298.67 5960.66 6608.73 5011.84 7034.11 6261.42 4502.5 3771.48 4043.57 4271.69 5681.38 4138.42 3708.04 5513.6 3240.09 4556.36 6082.81 3191.99 4685.34 5601.05 4929.8 3586.91 3103.0 3554.9 4015.92 5542.21 4487.31 3936.02 4044.71 5980.74 4094.62 4927.02 5546.39 5325.36 5484.83 5085.53 5351.6 4730.36 4715.55 5867.73 3951.75 5013.56 4499.64 4375.68 5542.27 5054.98 6030.06 5170.02 3557.27 4927.31 4688.68 4402.52 4517.56 4182.53 5903.42 3955.56 3761.32 4118.05 4366.19 5553.16 2938.66 4940.78 4231.61 4008.92 3942.53 3379.84 4827.82 3997.1 3260.67 5123.52 3038.33 4392.68 4333.2 7199.21 4523.7 2240.39 5091.39 5293.9 6142.94 3912.37 4727.24 4602.25 4790.08 5082.47 4763.45 5445.87 3815.26 4704.72 4177.94 4571.7 5896.46 5022.8 3784.5 3780.23 6481.79 5224.12 7042.12 4819.73 6326.39 4471.58 5873.69 4962.09 3999.48 4359.62 6946.21 2586.12 5433.8 4011.77 5499.11 3633.87 5922.5 5198.77 5987.17 6013.14 2765.2 4901.41 5110.37 5664.98 4382.74 5927.43 4651.28 3693.63 4384.42 4516.43 5481.78 5637.59 4937.14 5043.05 5816.2 5693.81 5109.54 6483.19 3829.13 5945.65 6759.9 5538.89 7021.47 5416.38 6059.59 4955.55 2720.68 5701.86 3563.63 4238.81 4468.59 5885.03 2837.58 5325.02 5200.76 5017.13 4862.64 5185.34 4432.58 6684.56 3968.64 4688.67 2635.86 5292.64 6166.5 5065.13 5936.02 5305.17 4861.08 4003.05 5390.22 4805.87 4712.33 5227.21 5697.78 4667.36 4091.31 6372.62 4295.38 5615.42 7565.34 5923.5 4612.68 4281.49 4973.83 6342.25 6691.39 4840.84 5135.69 5344.0 4020.32 6045.46 4245.72 5908.1 6048.7 6133.92 3719.84 4178.4 3095.48 4166.08 4123.6 4850.14 5163.55 3382.7 6817.32 4319.79 6098.14 4472.17 4203.26 5188.81 4730.41 6057.22 5062.71 6125.34 4527.08 5347.48 4850.01 3970.25 5147.67 3979.82 5011.31 5138.31 5264.06 4659.59 6327.9 4048.37 6355.42 4362.19 5690.56 4948.92 3115.91 3307.12 4493.48 5924.89 4002.16 4174.52 4138.16 3486.22 4684.5 6230.49 6458.82 5418.62 4601.27 5493.32 5740.68 5926.61 6051.14 5836.15 3261.21 4345.55 6704.06 3653.41 3871.88 3856.01 5246.2 4390.66 5279.39 3673.74 4827.23 5205.43 6116.18 7447.37 4924.6 4385.06 4733.32 7184.19 2899.43 2924.37 4290.3 3867.67 5399.73 4660.72 3888.21 5891.05 6038.78 6902.81 6644.76 4254.17 5629.19 5090.24 5740.84 6445.94 5530.87 4310.18 7134.64 5978.9 4187.56 3629.62 4997.27 4301.06 4877.67 4290.14 6562.18 4156.38 5316.75 4541.21 4164.68 5669.65 5934.22 5624.49 5762.59 7092.87 4666.81 3703.1 3954.91 6471.55 2965.01 6643.85 3637.61 5501.93 6222.42 5654.31 3745.84 5690.26 4156.2 4497.59 5965.78 4374.35 4810.12 5643.58 5215.05 4292.06 5577.04 5006.58 4602.86 3688.8 4548.16 3369.23 5449.18 5492.26 5244.78 5762.84 3937.74 4749.8 6084.86 5478.92 4778.34 5551.36 6894.71 3091.3 4414.54 5789.98 7054.71 3641.64 5489.43 5747.75 4277.89 5054.25 4796.33 4195.44 5539.32 5360.19 6496.85 5600.93 4874.39 5541.59 4124.71 5728.85 4911.47 5803.39 5863.59 4381.97 6257.19 3255.82 5242.73 2812.98 4065.69 5603.15 4695.45 6052.7 3921.18 3798.62 5308.1 3666.57 4907.89 4937.02 5655.21 4786.6 4645.41 4433.59 4320.28 5542.14 4218.06 5480.13 6308.71 4716.19 5514.76 3456.98 3498.2 5105.16 3066.13 4302.5 6006.16 6009.88 7055.53 5013.67 5826.04 5339.78 4970.88 4143.78 4763.66 4636.5 4940.42 5923.4 5085.71 5499.39 5644.82 5463.38 5945.21 4938.74 5696.88 5607.14 3923.03 5975.63 5252.34 6396.74 4138.46 2775.04 3821.72 4986.77 6318.18 5586.81 4621.75 3948.17 4551.24 5358.59 4220.88 4515.71 6519.71 6640.13 5082.6 5810.84 4230.54 5094.44 3748.24 4655.49 4467.94 4850.81 6038.14 6138.47 2540.31 6029.66 5527.54 5573.7 5697.4 4727.62 4270.95 4055.8 7325.81 5280.17 6425.26 4794.96 6186.19 4839.34 5083.08 6834.49 6337.56 5525.39 3998.5 5938.34 4024.3 6394.38 5555.28 5169.36 4737.14 4686.65 5834.74 5556.96 5788.23 5581.75 6392.01 3599.45 6730.19 4907.06 4073.93 3735.44 6043.3 5952.75 6332.36 6122.55 2739.94 4931.53 4223.33 5911.67 3323.28 6695.82 6405.76 5794.24 4678.38 5448.61 5050.65 4827.33 5206.48 5513.57 5729.23 5226.0 3365.82 4538.95 5965.15 4780.2 6090.91 4946.42 5019.93 5081.78 6116.33 6263.44 6343.14 5774.97 5462.21 5750.71 5470.77 4831.47 4643.85 4004.04 4289.17 5564.02 4274.61 2965.79 6898.19 6035.6 5137.34 4481.53 5330.45 4581.13 3610.4 4219.07 6387.01 5367.52 3092.35 4322.15 5210.03 3629.96 5478.47 5351.39 6142.37 6061.47 4933.21 5375.47 4723.12 5120.49 5201.36 5262.61 6302.8 5409.61 6038.2 4005.44 5206.78 5555.88 6732.43 5028.96 5143.58 3866.16 6362.12 4484.76 4840.01 2980.99 5611.2 7933.0 4455.12 5173.87 4894.16 5380.13 5711.87 5118.27 4941.22 5932.23 5791.61 3369.13 4479.66 3043.85 5367.2 5461.13 4726.76 5839.13 5495.68 5489.34 5163.9 5708.14 5537.72 3920.42 8332.24 6155.31 4553.56 5329.64 6049.55 5709.62 5835.78 4127.74 2476.04 3942.07 7443.72 3937.08 5260.34 4709.35 6586.45 4373.3 4750.78 4163.5 5724.64 5078.86 5100.1 3561.29 4963.34 3295.83 4459.28 4260.92 5960.56 4118.84 4020.95 6313.06 3474.39 6470.3 4200.03 6062.05 5082.74 6915.83 6072.45 4410.55 7099.43 5526.14 5198.29 5423.0 5077.33 3856.59 4746.52 5413.79 6338.89 6202.55 5025.39 4714.54 5893.5 3320.11 5030.91 6022.17 5119.37 3982.23 6163.38 4566.18 3459.9 4964.09 4809.42 5024.9 4306.53 5659.17 5094.81 5972.06 5713.22 5861.71 4359.04 3183.98 3794.63 4524.28 3778.1 5152.36 4511.82 5826.64 4220.65 6820.42 4816.2 6321.41 4896.52 4751.02 3372.79 5184.56 5282.64 4715.72 4669.66 4808.52 5046.33 5607.24 5053.92 6352.26 3847.38 3818.59 4863.72 5002.48 6623.85 4262.82 5102.36 4342.9 5069.84 4051.44 4241.89 5054.74 5941.72 5991.09 5133.97 6600.94 4788.58 5371.02 6155.1 5876.71 6262.72 5029.78 6515.84 4888.6 2990.77 4739.14 4918.77 4371.99 4219.78 3885.86 5235.29 4479.94 6250.23 6413.02 4863.27 5862.86 6049.79 3493.7 5374.98 4719.7 6939.12 4735.33 5411.85 5092.37 6444.77 6314.07 4287.63 5315.4 6449.45 3975.31 3689.45 3824.16 5572.95 3868.18 6723.16 5584.06 7111.16 4547.19 3817.13 5507.24 6851.54 4583.31 4503.89 5806.08 4853.39 4997.27 4093.08 4449.22 5543.27 4717.05 6135.57 5998.38 4312.67 5423.8 4270.24 4989.15 5017.78 5015.69 6175.81 4727.24 6677.09 4305.57 6959.81 4829.35 5201.67 4424.7 4089.76 5526.55 3192.41 5215.15 4987.87 3315.57 5804.71 4764.96 5727.3 4242.52 5356.51 4277.88 4087.15 3057.03 4143.08 7500.97 3948.23 5228.18 5787.31 5065.11 3927.99 5868.82 4978.31 4050.9 4099.77 4537.32 4981.9 4656.78 5126.91 3600.43 5131.24 5196.67 6496.67 5474.8 3664.11 5117.47 4925.63 5882.65 4434.19 5187.7 4623.61 4188.3 6261.75 5177.64 4255.31 5453.3 4407.9 3492.19 4584.5 5122.63 4703.08 6345.13 5274.19 5516.95 4406.4 4413.85 4844.57 4027.46 4470.98 5776.37 4516.28 3627.82 4044.45 5125.78 5344.43 4373.47 5045.38 5350.88 5372.61 3686.21 6480.17 5023.15 4377.07 3813.22 5101.59 5570.3 4336.42 5243.29 7589.94 3130.65 5628.24 5856.11 5287.2 3327.49 4109.88 4234.94 4562.29 5013.13 5080.66 3417.33 4926.42 4164.13 4642.34 4520.1 4947.52 5874.89 4293.03 5813.4 4389.21 3791.79 4925.44 4754.05 4951.47 6084.93 4307.28 3697.96 4739.42 5538.93 5020.12 4745.45 2631.9 5281.28 6255.18 4668.71 4758.21 7228.46 6362.14 6719.88 5978.82 5266.5 4523.88 4066.38 4948.98 4414.48 5227.52 4092.24 5163.02 7144.24 4906.82 5687.83 5004.23 6442.69 6320.71 4648.04 6607.87 4721.32 3293.56 3163.78 5274.14 4903.82 5746.28 4082.47 5511.6 4338.08 4378.3 6134.99 4094.73 4718.54 4440.57 5548.29 6766.43 2315.64 4390.41 5226.56 5599.49 5313.22 3905.51 3999.94 4864.22 3901.8 5759.46 3921.08 4190.31 5678.96 5262.19 4244.9 6070.58 6034.41 5452.83 5130.91 5402.24 4519.22 6445.22 3844.9 3695.36 3963.86 3848.93 4306.11 5935.47 3402.32 5903.66 4528.49 5004.67 5365.89 5992.26 3960.8 5070.39 4980.85 5714.58 5110.45 5208.32 5248.77 4083.97 4607.02 5153.74 4528.09 3895.51 4165.81 6291.51 4128.98 5882.89 6246.22 4188.32 5246.61 4100.38 5344.77 4723.48 4899.11 5097.87 4278.07 7267.18 6256.02 5320.92 5269.18 4406.1 5034.59 4942.77 4263.33 4454.63 5080.18 5912.61 3279.1 4403.98 4560.84 4729.43 5776.57 4562.74 5683.26 5598.74 5139.5 7493.3 4814.55 3527.05 3464.83 5698.77 2477.07 6413.11 4305.16 5092.28 4965.89 5659.95 4152.85 2908.7 4453.64 4517.73 5469.47 5660.16 4989.56 3838.47 2588.37 6736.03 6235.57 3623.87 5916.16 6934.37 6113.95 4050.08 4097.57 5017.5 5563.79 6171.13 5511.88 5083.41 4512.11 7055.42 5486.68 6048.86 4285.32 5490.43 5022.28 5197.52 4959.34 4948.5 4527.02 4531.14 4564.34 3838.56 4871.44 5076.35 6020.48 6375.99 5200.05 5234.29 5313.66 5419.37 4466.03 4511.54 5409.33 5196.0 4923.9 4973.78 3329.99 3947.47 3296.27 5091.68 4713.25 4204.84 6243.0 6673.96 3556.85 5441.96 3435.9 5174.89 4288.3 5370.52 4652.29 5774.81 3746.31 5498.32 5027.98 5346.27 6475.1 4969.21 2691.29 2845.98 5289.52 5314.85 4305.43 5450.44 6510.17 5742.65 5592.32 5381.16 5565.13 6193.35 6086.96 5233.78 3701.27 5653.9 5046.21 4929.14 5894.61 3979.54 5304.13 5944.09 5833.06 4923.41 4497.31 5384.76 5529.42 5257.12 5243.43 4537.14 5551.9 3757.34 6415.61 4687.64 4419.71 5037.06 4541.8 5175.29 5842.56 5887.15 5412.31 3087.09 3423.15 4890.5 3981.07 5452.42 5328.22 6853.85 2395.5 3497.9 5941.61 5782.48 6248.6 5683.61 3836.45 5100.25 6894.26 4986.51 5339.38 5178.99 5383.07 4591.87 5013.42 4790.78 4247.15 6552.22 5651.07 6248.81 5273.35 4091.8 2651.49 4645.58 5512.23 5275.32 5985.29 4898.94 4178.15 4613.31 4733.04 6119.09 5788.66 7531.29 5069.25 5048.89 5935.03 3161.47 3991.03 6390.78 7435.25 6826.57 4788.87 4495.87 3702.37 6022.72 4643.31 5527.33 6917.52 5402.21 4989.09 4880.14 4982.31 3848.54 4307.48 5941.4 5331.02 4871.96 4863.23 4402.67 4470.61 4631.83 4384.88 6887.27 6008.49 4806.34 4287.53 5612.21 5945.08 4968.03 3306.14 5490.58 4863.79 4702.06 3830.46 6031.67 4689.15 6138.12 4428.78 5409.66 4345.67 4765.72 4642.66 4752.14 5329.59 4888.12 4950.97 5512.16 3197.63 4863.96 5191.08 5203.08 7480.41 5163.77 4488.85 3731.84 4901.07 5186.3 3436.15 4151.76 4020.4 3493.47 4596.75 4933.65 5443.58 4558.46 5805.86 4049.02 4470.4 5311.03 5255.12 6169.11 5615.35 4027.09 6422.84 4502.18 5379.09 4602.85 4962.77 5872.05 4853.02 6259.23 5181.4 5670.2 4711.62 4247.23 4114.24 4268.65 4694.83 5509.42 4354.08 4256.43 5936.36 4520.62 3903.75 4755.47 4485.99 5127.16 5475.8 5314.69 6050.81 5543.46 4249.46 5965.81 4750.17 5660.85 2330.66 3990.25 4177.19 4752.51 3587.05 6229.37 6718.19 5282.91 4425.84 3797.33 7256.35 4800.69 6566.1 3555.86 6386.78 4996.99 4896.39 6081.14 5480.83 4220.46 4607.85 5128.57 6000.7 3169.67 5604.21 3361.92 6710.88 5395.14 3967.48 6213.04 6622.11 3685.13 6790.73 4655.16 5251.4 3867.19 5857.79 4039.91 5276.7 5036.58 6119.63 5411.02 4752.9 4287.16 5199.44 4062.5 4435.51 5374.07 4588.7 5683.95 3766.55 4579.69 3554.48 6496.52 5005.85 4216.17 6484.17 4721.02 4254.37 3374.08 4031.78 6098.1 5708.99 5687.85 5346.68 5296.29 4611.53 4896.11 4285.66 5172.53 4135.62 5801.99 5534.94 5210.48 7644.38 7552.94 6101.92 5323.3 5088.44 4998.21 4662.56 5166.79 5349.31 2976.22 4649.22 5394.55 5094.52 4946.74 2682.24 5928.32 5229.48 5475.7 4016.18 5526.75 5435.74 4244.99 5327.45 5560.26 6185.89 3997.96 4439.35 3460.94 6184.4 3691.0 3758.07 4373.45 4236.14 4407.87 5733.62 5282.51 4460.92 5945.89 4042.28 4105.55 4340.76 6065.22 4221.28 4456.39 5514.84 3633.79 5421.53 5937.08 6070.3 5233.29 4312.56 4612.06 5204.04 4750.58 5926.11 6667.68 5235.11 5211.38 5089.62 4590.55 4741.26 5920.32 4255.85 5097.69 3988.3 6543.13 5149.72 5776.96 5464.25 5486.48 5301.47 4617.55 3645.12 5424.88 5415.85 8659.64 5469.13 6027.62 5010.2 6123.03 5966.61 5711.11 4575.94 4938.72 3546.71 5768.57 5564.23 5950.04 4231.83 2435.33 6401.43 5020.71 2681.29 5094.48 3872.61 4238.4 4318.48 6132.95 5266.22 4860.33 3685.13 6004.68 4051.34 3627.55 6239.84 4635.6 4256.67 3457.48 3931.07 3405.98 5417.15 3688.16 4681.72 4945.39 5996.33 3950.63 5415.19 4612.62 3619.07 4275.57 4467.04 6385.23 5817.25 2983.99 2614.4 5061.98 6363.92 6205.93 4923.24 5830.72 3828.81 5309.98 4082.57 5255.18 5169.9 3004.16 4767.78 5235.17 4421.12 4779.5 4435.36 5254.49 6649.96 4303.19 5784.3 3914.2 4256.57 6088.68 4643.56 4135.08 5620.74 4778.82 6124.08 5467.84 5053.95 5266.01 5253.37 5767.9 6515.8 5869.4 3685.65 3701.16 4186.6 5895.77 4732.09 6136.49 4356.25 4757.74 4216.95 4209.49 5742.74 4244.21 4947.24 3875.05 6200.54 5148.58 4199.45 6599.66 4055.54 4233.8 5765.42 6098.95 4997.83 4893.49 5325.44 5021.88 5956.65 4498.25 4188.87 3735.24 6574.95 4074.48 6333.29 4558.47 5731.57 5997.88 5839.71 5576.92 6408.83 3930.79 4004.35 5226.97 3312.06 5180.76 3361.26 6799.4 5278.36 5865.39 4427.28 6079.11 3082.32 6430.39 3658.37 7440.72 3949.6 5376.71 5703.6 6326.18 5661.62 6631.19 6648.68 4713.74 5626.61 5407.78 4084.49 6632.99 4537.6 5147.36 4419.61 7177.44 4563.46 6553.94 5726.66 5460.65 5652.0 5463.41 5225.33 4929.75 6045.22 4614.3 5134.39 3532.3 5769.98 5442.32 2221.99 3580.58 4863.01 5356.79 5657.36 3619.79 5029.47 6306.21 2978.76 2040.66 7016.27 5884.9 3876.21 5689.26 4916.22 6022.7 4940.84 5750.07 4809.67 6045.67 3946.28 3821.94 5439.9 5367.73 3540.11 3456.47 4652.01 5421.64 7234.66 4207.54 4886.12 6419.12 4976.12 4817.16 5453.98 3991.42 4388.63 5102.75 4200.09 4597.29 5931.77 5151.21 5398.64 6817.57 4477.04 3614.96 3886.68 5703.74 5662.55 5737.92 4360.23 5365.24 5293.51 4763.96 5754.18 5008.63 3418.99 4480.95 4993.35 4409.63 5521.25 3661.9 5370.85 5949.46 3178.54 3776.94 4765.02 4448.13 5070.29 4807.28 4867.08 2261.36 5075.55 4266.03 5280.69 4220.03 6923.84 5227.59 5449.46 6179.96 5703.07 6113.54 4662.43 6260.79 3963.76 5528.53 6799.88 3062.43 5990.52 5426.78 2967.38 4159.35 6477.91 4237.98 3091.67 6439.37 4081.97 5401.99 5580.92 5973.33 5067.46 3583.21 2511.46 4011.37 2775.69 4785.25 6519.43 5876.64 5424.46 4857.84 4908.49 4962.21 4858.44 3468.42 4673.35 4771.13 4992.42 5297.19 4351.38 4833.46 5933.7 7248.4 5280.12 4444.97 5984.81 3498.16 4409.27 4640.06 4588.99 5471.74 3548.39 3673.28 4928.27 4858.51 3375.28 5625.65 4301.61 6107.89 4446.84 5660.55 5148.08 4834.87 5760.22 3672.21 5938.17 4795.43 5097.95 5108.06 3573.73 4693.52 6853.04 4745.43 5831.96 4747.55 3056.7 3755.95 6234.32 4586.19 4446.06 3450.93 4270.74 5132.68 6595.03 4558.15 6218.95 5222.16 5107.23 5136.08 5558.68 4802.32 4010.57 5629.39 2684.03 5246.47 6157.04 4768.61 4522.21 5506.19 6719.94 4950.67 5832.37 6166.29 5453.6 5409.63 5294.77 4709.05 4630.82 4043.66 4813.08 5860.67 4540.86 3764.1 4835.83 5604.35 6316.56 4332.87 6420.81 4715.58 4450.7 5151.52 5369.08 4347.74 4009.62 5291.9 2081.58 6505.78 5461.55 3298.2 4270.15 6865.76 6449.64 6464.8 4684.44 4749.59 5799.69 3809.69 5571.72 3208.96 7051.9 4184.23 4144.57 5550.75 6834.41 6226.14 5466.33 3000.29 5721.05 4247.69 4209.31 4514.39 6242.79 4321.21 4344.34 3583.49 5052.84 4366.74 5297.16 3184.64 5206.33 5530.49 5653.03 3718.69 4514.79 2216.82 4509.89 4940.28 6752.75 5269.38 5607.3 2928.82 4222.4 4000.43 3420.08 4568.41 4912.04 4539.07 5464.68 2685.81 5591.76 4585.31 6625.18 5323.91 5097.45 6293.89 2761.07 5737.75 4983.39 5366.52 4690.55 5533.72 5533.42 7132.12 3678.08 4599.38 5518.57 4187.31 6191.29 3240.51 7422.36 5161.01 4298.15 4628.4 6051.83 4642.93 5941.9 4263.16 3973.12 3077.84 6024.75 6109.49 5567.93 5987.42 5332.65 4442.22 6451.33 5413.31 3012.99 6400.08 4743.59 5208.14 3317.83 3763.05 5092.24 5549.49 3101.75 5423.42 4518.04 4766.06 4874.18 5435.19 7093.13 4953.1 5818.95 4093.99 3940.49 4406.05 4680.94 5828.35 5876.72 5236.43 5285.07 4680.14 4608.41 4187.94 5980.59 5021.77 3796.15 4801.8 7216.98 5271.02 5718.28 4601.74 5950.45 5713.03 5849.65 5134.67 4165.21 4215.0 4936.96 4481.76 5452.78 5065.26 4304.41 6192.0 5885.28 6579.31 3004.34 5323.55 3022.6 4914.45 4811.76 4698.87 4661.03 5160.59 3624.7 4691.91 5262.35 4475.83 4255.34 4510.8 5889.35 5010.04 4394.56 4570.98 4275.07 5825.38 4185.61 4047.87 5742.47 3778.02 4917.99 6552.21 5417.8 5146.37 4836.16 5300.96 5151.11 5463.48 5730.33 5545.46 4527.99 4376.7 4543.1 5190.61 8325.01 3764.06 4440.81 5434.47 6642.76 5829.22 4497.78 4243.79 5811.18 5433.65 4008.15 4887.76 4669.06 4811.32 4286.49 6184.88 5829.32 4396.25 5551.95 3918.87 2275.45 4901.2 6605.86 5012.5 4383.56 4990.79 3562.79 4516.53 4122.92 3604.14 4452.54 5089.1 2711.19 4028.32 4099.92 4884.59 3858.06 4511.7 4083.79 4304.63 5263.27 6300.92 4173.54 5599.29 6038.68 5046.12 4807.4 7013.17 3805.67 6506.86 5088.57 5580.34 3852.6 5775.31 4706.5 4603.5 4647.67 5375.12 4356.36 4892.44 5578.94 7610.49 4286.17 3684.56 5375.1 4172.6 5313.12 5351.56 3984.88 5318.53 4732.09 4320.42 5064.79 5480.3 7509.24 4146.81 5896.26 5388.78 6101.13 4573.72 5099.21 5636.4 4367.78 4350.12 5227.02 5670.0 4232.16 4344.51 5680.94 3781.77 5581.55 5193.01 3474.5 6550.44 3860.83 6348.03 5732.27 4523.39 4792.39 5278.56 5146.37 6917.62 4013.38 5631.14 4343.78 5263.3 3352.35 4909.65 6523.86 7693.4 4326.48 4437.07 3449.37 5491.9 6405.0 4659.16 5789.55 4909.31 4633.05 5711.62 4798.17 5166.79 6479.39 2895.63 4997.91 5079.22 5381.54 5810.77 4714.83 5474.15 7519.2 6355.68 4478.6 3953.55 4063.9 4469.54 4314.56 3928.53 5606.51 5740.65 3834.47 6349.67 6329.53 4590.01 6101.86 4227.41 5993.0 4803.57 5966.42 4110.59 3332.49 5354.66 4214.44 5378.23 4787.97 3746.36 6789.23 3989.7 4777.03 4246.61 6028.09 5452.36 3804.5 6486.37 5498.42 3344.57 5220.76 4281.98 7165.9 5344.83 7046.11 3427.63 4863.97 6342.48 5756.75 5599.7 4587.67 4163.74 6969.28 3665.95 4296.69 5698.96 4095.75 3319.67 3603.51 4298.45 5283.8 5222.51 4076.59 6609.84 5135.96 3834.43 5658.37 4707.06 4972.17 6074.94 5491.37 4250.88 4222.77 3783.54 5268.38 3475.67 4805.33 7038.89 3863.67 4814.12 5067.56 6137.8 2735.53 5116.6 3747.03 2783.85 4356.49 4526.81 3994.07 4219.94 5907.46 4264.91 6740.71 5399.29 5971.22 6522.59 6602.43 3568.28 5425.98 5996.66 4405.42 2995.67 3598.08 4599.81 5698.23 7300.58 3608.06 6633.61 5217.95 4867.7 5484.36 4277.24 4075.28 5291.05 5161.1 4619.2 5166.41 5067.56 2596.96 5701.75 4350.15 4139.3 6541.45 4750.49 5078.31 5391.48 4923.43 5131.15 4847.14 3950.27 5116.66 3566.79 5374.67 4981.43 4741.28 5069.89 4215.2 4157.29 6813.72 5327.75 4609.02 4896.65 4638.18 4196.37 6448.66 4453.97 6945.98 5138.2 3503.41 5783.48 4449.98 4701.5 4504.35 4771.65 4840.44 5093.82 5951.81 3924.14 6918.35 4834.3 6238.32 6804.79 6471.42 5369.5 4428.14 5164.1 6464.15 4479.11 6685.4 5699.53 4850.06 6332.01 7044.29 5527.23 4234.18 7085.01 5980.95 6193.08 6069.3 3862.77 5887.01 5168.35 5388.39 5335.47 3728.18 5633.61 5048.19 6799.23 4888.27 4592.15 6487.56 4854.11 5533.19 4998.22 5417.21 6104.26 5583.61 6063.64 4986.71 7382.3 4022.56 5522.21 3772.3 4855.01 6208.9 4923.57 3340.09 6061.63 2279.05 4829.35 8137.11 5484.32 6650.77 4067.96 7104.73 6162.3 3272.75 4264.54 3516.27 7043.44 4263.78 4643.9 5228.75 6047.14 5009.83 5210.38 5717.8 3629.44 5003.78 3299.24 6246.56 4061.6 2603.64 5107.0 6212.15 6502.97 4783.07 4946.23 4852.58 6083.28 5211.6 3556.79 5806.31 5456.71 7317.04 6412.67 7001.83 5012.97 4036.91 5589.37 5439.49 6639.64 5212.43 5454.12 6348.54 4066.57 5642.35 6372.13 6357.47 5404.01 6016.19 4124.49 5535.91 3230.13 5714.25 6176.67 5325.96 5412.24 5016.02 4920.21 4049.16 5851.61 3936.95 6153.94 6836.82 3858.17 4631.99 4740.98 3185.39 5128.77 7122.87 5797.36 4243.26 4153.84 5119.86 5089.26 5084.17 4901.44 3776.8 5096.43 6156.21 2460.79 4653.83 6171.71 3628.89 6589.82 4668.88 5027.43 5522.75 5867.64 4438.58 6059.93 5602.53 5073.02 6545.43 3472.91 6760.92 4989.2 4711.04 7144.05 4506.18 4824.12 2970.9 6542.5 4383.47 5971.21 6318.23 4206.98 5156.76 6101.57 4891.38 4793.65 2949.12 5955.86 4532.89 4533.37 4848.46 5742.09 2779.99 2884.65 5887.38 4581.37 6942.34 3658.05 5478.11 5526.31 5030.15 4058.87 5174.75 5932.07 4984.46 5948.71 5844.72 3856.53 3992.97 5460.89 6040.74 5260.85 5393.65 4961.99 5807.46 4648.21 4393.16 3311.29 4549.69 6423.81 6192.77 6413.15 6103.11 5048.55 5416.45 6459.51 4024.31 4955.16 4904.51 4147.31 5989.05 5751.15 4054.22 5950.88 7228.94 4441.22 5853.89 6551.93 4595.12 3110.13 4386.8 6484.43 4625.67 3485.54 6735.97 5305.59 4330.58 5754.6 3288.01 4355.83 6870.97 2202.77 5351.86 6056.87 5474.01 4149.55 6201.86 3380.69 5166.89 4140.4 3639.44 5446.4 4725.01 3868.62 5966.75 4729.42 3104.96 4844.83 5244.78 3636.15 5652.87 6114.89 5135.63 6384.7 5952.38 3896.27 5807.52 5307.35 7554.58 4731.21 5491.63 3124.7 5725.37 6102.98 5138.33 3477.1 4811.22 6379.14 5216.26 4749.96 5377.37 5483.7 5018.69 4899.73 3152.86 5457.66 5973.89 5963.36 5230.02 5087.14 4342.18 5169.48 6016.08 6776.22 6064.71 4467.13 6060.17 5934.82 5415.45 4385.81 6592.93 5096.24 5769.14 3381.82 7107.63 4831.93 4023.93 5494.28 4834.39 5493.89 5261.19 3831.52 4918.76 4208.41 5826.78 2856.55 6214.73 4553.68 3758.22 4268.19 4532.7 3205.68 5561.74 6100.73 4788.08 6556.26 4593.7 4349.13 3687.65 3634.5 5478.95 3851.85 4019.34 4658.24 3623.19 5869.67 4311.48 4387.39 4564.1 5825.55 6394.19 4848.14 5366.22 6193.73 5518.11 3742.11 4192.21 5712.35 5701.52 4743.9 5311.55 5321.17 3360.86 3719.11 4869.25 5545.21 3877.8 6418.11 4501.78 6350.71 5039.12 4824.81 5135.5 5868.89 5545.59 4099.26 5206.47 4263.65 6106.43 6761.81 5467.63 4127.53 5210.75 5175.89 5361.87 5232.85 4473.29 4908.75 3971.08 6204.65 4482.9 6818.91 3503.65 4869.48 4906.11 5510.96 4745.16 4584.81 5509.51 3199.4 4316.5 5254.24 4914.03 3597.43 5086.29 5144.56 4158.91 5139.18 3034.16 5551.43 5049.99 4201.03 4333.87 3657.69 6015.02 4922.49 3572.94 5001.58 4820.17 6456.58 5244.98 5366.11 4384.28 5944.3 7307.21 5640.72 3619.72 4565.93 5615.84 4464.73 5788.97 6440.38 3274.85 5007.21 4580.06 4835.97 6419.64 4057.17 5262.47 7066.96 4587.7 5196.92 5644.81 4568.64 5666.95 4642.2 6555.44 6358.93 3894.64 3703.49 4374.74 4757.2 5975.23 6816.66 4745.79 4211.82 6550.4 4891.67 5513.8 4887.52 6631.28 5350.88 6571.31 4392.65 5429.3 4944.51 6653.07 4697.91 5179.17 5071.98 5719.79 4371.08 7261.51 4968.14 5949.73 4312.48 5527.13 4278.57 5081.08 6318.25 6864.06 4458.64 5001.87 4312.15 3644.78 4883.63 4078.93 3814.65 3886.72 7778.01 4034.05 5127.82 5798.38 6436.74 3419.87 4456.26 3908.98 5113.6 6328.42 5851.63 4504.52 4954.81 5610.53 3926.11 5464.83 5414.58 4991.35 3512.94 5601.55 4807.35 5334.36 5750.35 4489.99 3683.86 5293.75 5658.14 5473.72 7124.45 2205.51 5144.44 2617.39 5034.69 4198.94 5079.64 5470.04 6003.78 5684.25 3766.69 5188.53 4882.66 4027.63 5603.68 4526.34 5610.95 5532.72 3220.8 5042.75 4598.92 5579.39 5270.51 5148.1 4979.52 5490.75 5224.64 5214.63 3495.68 5783.94 6370.33 4202.77 5836.14 6008.81 5510.9 4505.28 3492.83 5585.14 7039.98 6006.89 5792.98 5910.86 5690.96 5805.1 3862.91 4456.11 4027.33 4810.98 5026.76 5091.22 3563.14 5212.92 5556.0 5748.9 3742.31 5755.15 4608.34 5695.79 2781.96 4431.23 4467.0 4994.65 4258.98 3903.91 3919.62 4929.6 4548.45 5730.61 4508.18 4062.56 5969.37 4928.35 3217.67 4509.46 6163.54 5212.37 5438.92 5110.11 5036.98 4120.07 4521.75 4813.33 3840.21 5569.2 6746.66 5420.67 5635.32 4827.61 4316.45 5409.08 5481.64 5673.75 5241.22 6647.08 3422.29 4407.79 6548.29 3990.96 5352.24 7362.42 5793.12 5473.05 4373.2 4583.52 6711.21 6280.13 5244.22 5832.29 4438.76 4960.64 4983.3 5401.4 5053.15 5124.17 6239.68 7320.78 4234.88 5782.43 4708.31 3873.92 6282.38 5657.55 5727.79 5188.82 5043.14 5072.5 4749.18 3663.0 6304.49 4420.6 4475.38 3622.8 6545.99 4728.55 4368.28 4945.0 4658.11 4551.26 5114.07 7142.95 5064.67 6618.21 3717.47 4504.86 6200.63 4583.94 1937.5 3844.54 3538.53 996.652 6500.49 2628.22 5965.58 5058.51 4244.49 4050.03 4952.52 3429.57 5410.33 5661.6 6099.28 5285.75 5385.03 4169.15 4778.37 5360.67 5968.54 6263.3 4501.05 5592.54 4537.03 3247.97 4114.2 4904.37 4326.06 5034.46 5757.29 5016.46 5469.17 5061.75 3769.24 3743.76 5153.18 3425.69 4971.29 2606.51 3864.92 6119.99 4159.81 4446.58 5372.82 4402.17 4775.49 4681.29 5749.6 3845.9 4174.44 4834.44 4092.07 4213.05 5347.9 4224.3 4717.73 4928.85 4546.96 4316.0 5424.55 5134.72 5287.25 5917.34 5740.98 3787.08 5630.9 4554.68 4140.92 6570.35 4559.74 4383.68 6666.67 6063.44 5046.31 4337.32 4680.69 3352.34 4901.29 3242.31 4898.29 5372.25 3234.26 3494.16 5134.17 5370.9 4074.16 4904.35 5390.33 5124.34 4358.81 5278.54 4651.64 5729.0 5729.92 4179.87 6224.13 4761.84 3661.67 5510.45 4730.14 3994.39 5499.59 5667.51 6331.74 4198.9 5235.87 3904.07 5553.94 6502.99 4392.75 4921.1 4191.01 4770.51 5577.41 6511.37 4462.87 4218.16 4933.49 6139.64 4692.32 4474.83 5236.24 4585.04 3127.83 4242.63 3269.54 7407.91 4051.18 5849.53 4651.99 4420.11 5863.0 6127.39 4972.18 5329.76 4124.76 7200.89 4802.98 4833.55 7224.99 3908.56 5265.63 5684.88 4431.06 5730.2 4830.13 4645.86 5620.88 4941.52 4529.77 4325.13 4262.74 6172.27 3783.79 5078.73 4248.14 5279.19 4016.6 5192.92 5275.57 4786.66 5891.25 5370.1 5393.76 3684.15 7123.04 5906.57 7541.76 4932.29 4990.23 3784.94 5431.29 4833.67 5325.91 5157.38 4646.51 4546.44 6203.03 4700.07 5273.37 4732.37 5713.36 4704.92 4287.25 3814.16 4589.06 4216.44 3999.5 4012.92 4346.07 6102.49 5836.26 6015.22 6061.85 6449.06 5241.75 4731.53 5640.12 5760.98 4954.76 5764.52 4390.64 6523.78 4608.01 4045.67 6005.95 4308.49 5900.0 4581.1 6241.77 5317.19 7360.12 6223.98 5821.49 7050.08 5580.44 5998.13 4763.4 5902.67 5454.11 4236.86 6010.59 4128.1 4618.73 4506.66 3220.29 4439.71 4141.21 4064.58 5023.41 952.938 4184.21 5473.89 6089.45 4985.3 4966.07 3987.69 4666.12 6219.34 4920.88 4013.86 4177.47 2918.64 5345.73 4770.63 5678.58 4385.49 5114.23 5495.0 5512.44 4454.74 4826.52 2904.46 4685.4 3763.9 4577.73 4288.45 4147.49 5419.57 4081.34 4642.74 5384.86 3770.22 5150.84 4848.98 5184.98 5087.97 5339.82 4519.03 4930.17 5110.27 4085.96 4745.44 5762.82 4612.68 4232.33 5462.6 5617.29 3035.06 4262.19 3093.38 4597.88 5095.52 2002.78 4941.02 5806.61 3682.35 2955.36 5182.13 3965.3 6110.48 5515.73 4125.9 4564.41 5426.4 5951.86 3791.41 5247.01 5853.12 5702.4 5810.17 5265.21 4657.24 4400.14 5674.63 5340.05 4639.8 4212.15 4263.18 4489.29 4301.93 5120.92 4918.64 4636.53 3646.95 3402.44 6084.88 4491.96 4199.44 4467.51 4479.5 6261.67 5460.57 5065.78 5703.34 4521.42 6668.98 6649.52 6043.34 4939.56 4747.68 5770.92 4845.91 4878.93 4461.67 5784.37 3142.09 6793.1 6016.87 6715.73 5209.55 4841.7 4678.7 3450.07 3306.84 3484.81 5308.33 4271.07 6710.14 5759.79 4462.35 4924.07 3200.6 6206.98 6638.25 4775.04 5162.67 2403.72 5537.61 4721.98 5252.82 4397.06 3543.98 4053.12 5878.55 4014.44 3435.13 6002.77 4431.46 4610.55 3207.84 3977.98 4614.49 5400.69 4128.93 4462.5 4959.72 5573.31 4712.17 5004.68 3808.04 4723.71 4405.61 5003.3 3668.93 4009.24 3756.96 6245.52 3954.77 5077.29 6740.35 4550.92 6023.07 6506.63 4598.54 5218.42 5188.22 4512.07 4896.43 5984.8 3986.41 6240.42 5146.0 4788.7 5078.59 4607.18 3228.27 3956.24 4142.1 5056.26 5445.91 6604.72 4812.59 3794.47 4967.02 5675.45 3361.11 6038.56 2807.46 5599.16 4179.8 4023.88 3488.34 5348.11 5428.24 6273.6 5800.81 5166.05 3125.13 7035.54 5866.91 6075.99 5191.26 5995.4 4184.47 4841.23 4196.62 2804.54 3469.18 3372.95 6347.72 6334.53 5580.95 7558.99 3549.92 3393.59 4032.06 5043.14 5246.81 5333.04 5089.1 5888.95 4521.99 5394.78 3463.34 6842.54 7115.67 2853.68 5329.84 4998.37 3879.83 6565.95 5658.35 4577.98 5886.81 5684.05 4708.17 2741.2 3779.45 5167.53 5763.05 4252.18 6296.54 5797.21 4208.37 6019.35 3825.48 5819.0 3460.93 5124.86 5469.35 5117.64 4313.38 6598.99 5250.56 2468.16 3633.58 4339.97 5203.75 5169.09 5122.38 2459.88 5262.85 5470.67 6559.82 5901.71 5342.9 5733.12 5043.34 6436.29 5136.87 7145.73 5233.76 6405.69 5357.39 3669.32 4762.1 5700.79 4629.02 4927.73 4705.68 5827.3 6036.99 3010.1 3825.98 6294.14 5087.03 4667.84 3906.41 4691.15 4123.08 4512.6 4210.24 4260.38 4636.45 4932.27 5225.11 5252.22 6793.49 6060.19 4962.35 7350.26 4556.19 4168.52 4659.88 5685.74 3495.3 4140.04 5890.25 5766.05 2832.83 4474.96 4084.87 4790.63 5259.29 3584.05 4589.22 4916.75 4818.53 5097.85 5584.64 6189.04 6224.64 4221.03 3799.55 5638.51 4550.77 3563.33 3550.88 5536.0 6786.37 5790.42 5591.77 5106.46 6562.92 3612.44 4850.5 4758.76 5367.05 5647.11 4088.72 3945.62 3743.85 6236.46 5342.17 6379.3 3795.63 5189.4 4576.71 5082.66 4894.15 4337.93 5201.3 4345.51 4048.73 6223.33 5024.32 5813.79 4644.88 4068.31 3671.06 4683.28 4658.59 5532.75 3185.09 6949.65 5064.23 4608.62 5407.96 5084.5 4987.28 6562.03 4449.73 5015.67 6538.04 6157.59 5848.41 4090.28 4246.83 4932.56 4176.32 3587.93 5676.61 6006.16 5721.14 4071.75 4493.79 4279.44 2945.34 3565.32 5638.7 5399.43 3667.93 3487.31 5710.33 3835.81 4096.86 5695.44 4668.8 5322.11 4697.49 5735.08 4726.2 5034.05 4816.51 4711.15 4474.39 3810.68 6478.35 3990.94 4756.8 5477.8 5463.06 6069.78 5260.52 4241.68 4975.85 4095.83 5323.95 5846.95 5716.42 5268.15 5701.63 4603.04 4620.95 4870.94 5368.93 4488.39 6121.56 5914.5 4602.57 3419.07 3622.48 4796.12 5344.44 6432.8 4626.72 5131.77 5549.71 4815.47 4759.99 3899.7 5134.33 5214.4 2646.13 3629.49 5034.34 3769.2 3422.21 3916.42 5537.34 5884.99 5192.49 4899.19 6643.4 5058.34 4028.22 5575.11 4983.1 5293.13 4507.36 6224.85 6406.8 5403.97 4795.08 5648.78 6875.73 5501.73 6081.3 4697.24 4983.43 5117.52 6311.89 6549.8 2820.07 5129.68 4825.73 5076.84 4165.36 5288.33 4871.77 5811.26 5062.77 4884.93 5069.9 6028.63 3673.6 4494.15 5146.1 6215.87 6485.77 6060.06 5866.42 5544.27 5393.43 6896.55 4685.65 5377.01 6470.23 5939.22 4271.93 4215.05 3626.86 5125.17 4604.1 6371.96 4859.01 5076.11 5524.45 7133.44 4426.02 5600.21 3953.26 4750.81 4282.11 5467.51 5459.92 2347.41 4625.53 5453.77 4096.47 4357.11 5114.67 2809.19 5005.6 4916.7 5486.89 5589.53 7208.19 4549.51 5025.42 5196.08 4517.29 6379.38 5695.25 6257.79 4495.75 4849.5 6171.01 6229.83 5796.26 4468.26 4523.81 5578.18 5106.33 5791.25 5293.37 5198.94 5271.88 4028.35 5933.54 5559.79 7168.2 2980.31 3763.85 3148.79 4571.74 5740.78 5997.91 5001.51 4332.64 4742.82 5385.86 5115.42 3186.07 4082.4 4209.0 4410.82 4369.86 4967.51 4368.12 5173.82 6443.99 4365.58 3889.98 5193.58 3720.7 5490.64 5378.24 5698.53 3604.31 4507.46 4450.49 5036.14 3468.45 6022.78 4087.32 6647.85 5726.42 2569.12 4674.9 7025.09 3392.26 4433.12 3918.94 2549.95 5461.72 4361.24 5487.63 3768.46 3852.82 5138.93 5099.9 6945.69 5118.86 7086.69 5368.66 4304.64 6170.9 5833.78 4436.48 5226.42 5758.98 5615.35 3967.76 5288.64 6213.24 6734.39 4217.36 5679.74 5942.45 4150.76 4851.18 4228.53 6123.46 5005.72 5368.52 6142.88 5155.28 5111.26 5205.38 5388.73 4949.55 4764.83 1969.87 3132.34 4600.71 3957.38 4841.28 5262.79 5927.2 6889.5 5035.71 4710.88 4419.79 5300.17 5407.69 3869.39 5152.78 5960.5 5534.23 4117.9 4753.76 6025.77 4781.9 4638.09 6815.96 4441.91 5330.26 5828.25 5917.08 4725.11 5483.37 5418.12 5322.07 5934.05 5770.07 4714.66 5990.75 5101.6 4984.17 4656.01 5781.62 6589.13 4037.86 5602.62 2030.03 3543.37 4542.16 5714.51 5628.97 4104.04 5353.66 2638.82 5030.33 5593.79 5104.39 5234.2 4612.13 4965.24 5846.6 5327.05 5438.55 5353.23 4434.65 6688.53 5977.66 5209.5 5065.74 4873.23 6731.89 5464.05 4733.41 5879.24 5410.6 5453.2 6348.93 5136.51 3901.53 6824.53 6815.51 5232.16 4422.23 6791.86 3989.26 6031.22 4820.68 4930.72 5482.76 5728.58 3745.02 7212.97 6297.99 4211.36 5918.95 3856.73 4538.89 5817.74 5887.71 5517.65 4009.68 5114.51 3303.49 4622.73 4655.37 4161.32 5256.75 5161.74 7336.37 5932.28 6599.28 5560.23 2960.5 5783.38 4975.32 3043.77 4298.7 3902.48 5237.55 4183.4 3909.94 6030.39 4733.79 4905.53 3799.01 4823.06 7392.65 5254.49 5319.1 3757.23 6828.8 6883.86 5987.88 3579.59 6161.94 4065.28 5057.59 4461.14 5285.6 5575.11 4574.54 5615.06 5490.54 5203.54 4047.95 5507.38 6142.94 4416.87 5001.69 6581.56 4057.4 4052.43 3980.46 4896.67 5383.9 3934.11 5158.44 3886.56 4466.22 4496.51 5715.51 5339.6 6153.71 6561.94 5259.21 5092.93 4256.08 2803.01 5881.93 4444.0 6771.18 6182.19 5327.39 7415.84 4981.81 4138.59 4970.55 4938.33 4484.78 4621.33 5527.27 5157.73 5847.91 4934.66 4984.01 4109.44 4903.84 4290.49 4557.1 4605.39 5927.1 6270.59 6175.27 5876.51 4103.76 4907.55 4286.61 4094.63 2932.52 5264.83 4603.66 4757.87 4969.68 6636.43 5431.14 6298.8 5313.86 4457.05 5178.07 5189.91 3618.64 5777.26 4171.02 5485.84 6424.77 4887.73 4335.79 5453.69 5797.32 5432.04 5689.56 6556.86 3921.27 5129.4 4746.15 3720.38 4758.84 5585.25 4731.37 5023.61 3976.0 6351.89 4672.86 6530.78 5059.37 4742.35 5394.79 4139.39 5645.54 5088.64 6264.03 4526.87 6589.8 4151.74 6920.92 4174.22 3729.16 3783.36 3573.84 3038.91 4181.93 3922.28 6570.43 3350.99 3820.19 3445.92 5236.69 4979.5 5524.28 4586.82 3133.28 4745.37 5939.29 6026.04 6200.05 5418.98 5859.17 4034.41 4052.49 5061.74 5522.34 5326.03 6189.67 4420.35 5717.45 4948.96 5256.82 4013.86 4061.87 4645.93 5165.31 5448.64 3798.09 4585.37 4288.5 6417.61 3721.69 4511.05 3456.3 6074.39 5317.83 6738.9 4399.52 4460.89 4554.24 4157.1 3939.96 8052.53 4867.12 5910.66 6044.01 6520.19 4637.3 5141.03 1458.87 5734.07 4840.44 8123.59 3997.68 4819.83 5765.14 4801.16 4767.54 4541.22 4946.08 3539.68 5121.08 4696.03 6217.33 6177.68 4698.7 2848.44 6229.64 6045.26 4220.43 6500.45 5743.8 5084.76 6666.34 6605.11 4645.91 6834.92 3557.46 6379.33 5971.95 5652.73 3689.24 3979.46 6321.97 5151.19 6412.84 6509.54 5703.84 7012.36 3530.82 5128.59 5028.06 4002.99 4886.99 5159.67 5587.3 3161.1 3572.73 4864.38 3702.45 6275.25 6892.33 4505.3 4491.26 4452.36 4511.34 4068.41 6463.71 5009.21 4574.03 4379.91 5290.37 5850.38 5264.08 3562.8 4227.66 4730.97 4691.01 4594.89 5192.82 5245.95 5821.42 4067.89 4515.02 6294.09 4924.52 4571.57 5131.07 4121.07 2970.24 4197.87 5658.05 5105.54 5731.43 6353.81 3414.67 3518.14 5444.36 4150.44 5044.68 5771.98 2649.69 5899.78 5000.74 5117.83 5772.57 5268.27 4813.81 3882.37 4095.4 5244.95 4634.25 5901.8 6351.48 5395.12 5783.69 3830.7 6210.0 5432.4 3483.61 5350.9 4262.52 7430.48 5992.06 5545.68 6080.69 4970.12 4967.93 6369.66 5973.57 5922.62 6241.48 6033.28 5957.82 6286.27 5071.38 3717.22 6327.54 5616.66 2927.84 5688.77 4802.36 2943.17 5368.28 5466.13 5257.38 6263.87 5075.23 4975.56 7282.36 3826.01 4829.77 5581.01 3928.99 6959.88 4125.75 5749.53 5130.57 5090.48 5402.45 5582.28 3985.93 5945.25 6071.59 2589.19 6119.0 3856.4 3792.06 6079.55 5485.61 4993.49 4937.36 4293.3 5308.4 5310.33 6583.37 3688.83 5631.32 6126.5 6322.0 5793.14 6345.2 4609.65 5488.96 5704.61 4832.21 3720.92 5128.03 5410.73 5087.3 4942.63 6139.74 6637.38 4975.57 7066.26 3057.3 6150.31 3677.85 5214.71 4677.84 4811.11 3463.53 5379.52 6126.03 4866.8 5314.67 6044.69 5563.47 5651.46 6593.1 4066.36 4000.51 5462.1 6033.93 6032.45 5011.37 2827.92 4026.03 6908.32 3467.11 4817.75 6153.26 4848.15 5637.53 4439.09 5523.81 5648.59 4718.61 5188.57 3873.79 5717.67 5357.33 4432.32 5515.59 5252.37 3224.81 4499.54 5037.58 6457.89 5640.67 6572.17 3751.73 5555.89 4766.47 4871.1 5678.08 3917.09 6009.93 5872.45 4414.09 5270.1 5125.45 3784.68 4188.16 4947.64 6305.9 6649.21 5507.07 4654.92 5327.71 4880.78 4322.56 5509.09 5625.02 3873.72 5212.05 4592.49 5479.86 3625.98 6474.5 4444.92 4702.32 4763.04 5971.9 3746.62 5247.73 4876.37 4532.67 5034.02 4769.62 5260.13 4649.5 5181.31 5985.75 4696.06 4137.16 6189.29 5984.55 6581.13 4569.32 4034.88 5108.84 3511.5 6007.1 5067.92 5357.14 3188.21 4850.95 5919.27 4793.06 6271.22 3421.81 6188.33 3920.64 6111.23 6916.18 5786.06 5873.62 3868.69 4137.41 4996.91 3920.44 4450.51 6033.72 3768.62 3851.47 4966.74 2329.93 4959.94 1635.31 5639.4 3162.27 6185.73 4083.24 5516.37 5092.44 4441.44 5432.2 4232.44 4612.4 5336.61 3312.3 5563.09 6381.58 3282.57 5212.2 4798.13 4611.21 5108.42 6697.45 4630.5 6296.36 5237.27 4451.76 7885.41 3775.38 4046.22 5782.25 4104.97 4844.2 4575.72 5114.61 6118.13 3374.62 4926.62 4420.3 6332.64 4202.12 6492.44 4613.32 4083.1 3482.73 5191.29 5130.56 4957.99 4063.26 5345.05 4997.89 4542.62 3470.69 4859.95 5286.55 4132.08 5522.18 5223.1 4699.77 4850.49 4981.55 5144.23 6188.62 6153.07 4414.06 5908.57 5944.52 4413.56 7296.47 5050.2 5316.05 2513.38 4821.41 4908.32 4924.53 3995.08 4499.52 5019.84 3874.12 4810.74 3900.93 5784.38 5475.83 4149.17 4329.8 5728.27 5672.46 5803.3 4582.12 4487.51 4295.25 4520.14 5354.48 7394.47 4729.45 6261.13 5374.09 4167.55 4720.34 5244.47 5378.75 4731.16 5510.89 6186.24 5822.7 3780.07 4159.89 5466.49 5178.55 5447.74 4038.17 5007.41 4907.48 3692.99 6213.74 4488.41 4369.87 6938.87 5412.07 5512.57 4806.99 6520.96 3771.91 5856.43 5217.62 6178.19 4746.19 4616.81 5349.85 5715.25 5172.1 4362.94 4469.82 6545.78 4870.14 3354.94 4404.87 5105.72 5767.65 4750.76 5003.49 4907.03 5497.27 4081.77 5617.91 4948.21 2181.29 4987.01 4706.31 2694.25 6265.48 4735.99 4203.68 4739.56 5145.39 3818.37 3996.93 3352.46 6351.95 5195.09 5200.1 7679.2 5093.28 4881.51 6131.52 4311.92 2626.41 6009.88 6729.99 5093.41 6842.35 5464.34 3621.63 4777.96 5801.89 6833.5 5742.39 4780.16 3834.01 5616.11 4433.23 4813.24 4028.13 5759.19 4457.73 6476.35 3113.64 4304.75 6260.58 4067.24 3053.19 5202.33 3074.49 4246.24 6805.02 4919.13 5640.63 4900.26 5783.88 5002.38 6705.93 4865.11 5449.09 5502.14 6470.87 4495.33 5282.67 4131.08 5747.9 3864.19 4287.93 5146.69 6203.24 6818.23 5081.65 6679.12 5652.19 5806.74 3878.8 6578.62 4813.55 3465.03 4796.04 3839.0 5229.56 6011.4 5799.86 4672.34 6052.22 5376.41 5003.63 2932.2 4695.7 4380.86 4944.08 4082.01 5269.39 3964.03 4216.33 5832.72 3903.9 4444.95 4721.2 5161.02 3943.77 3124.49 5242.38 6081.35 5003.81 6262.18 5566.5 4701.03 5663.36 6225.05 5434.04 5125.53 3997.52 4444.54 5403.81 5779.9 4909.74 5310.33 6664.54 3922.98 5161.73 5259.48 4008.67 5254.93 4803.4 8013.28 6608.94 2613.78 3796.73 5417.07 5656.84 5738.37 6789.66 4739.41 5312.2 5847.27 4490.2 4706.59 5734.84 5480.86 6139.9 3982.31 4950.07 6571.26 5402.81 4328.76 4600.81 5561.63 4124.33 5168.97 4358.06 5093.51 5647.93 4280.92 6201.49 4696.92 5154.74 4605.61 4465.56 6898.8 5386.95 6540.57 5332.11 4893.72 5315.71 6004.72 6158.93 5373.78 4823.14 5438.5 4489.18 4621.32 5699.4 5237.76 4698.94 4286.84 6284.12 3948.21 5669.15 5296.05 3330.85 5263.86 6988.4 5056.32 5533.52 5410.33 4060.17 4747.24 6051.35 5302.53 4909.13 5576.16 4305.35 5648.02 3308.75 5210.22 2451.27 5677.42 2701.42 4929.35 5606.22 6673.92 5151.68 4884.94 5459.52 4609.98 4738.72 4752.31 5240.97 4276.59 5579.04 5405.6 5994.21 4884.93 5082.25 4759.38 6964.78 4374.05 5299.03 5036.84 4565.36 5813.68 4025.08 5040.9 3618.53 5596.68 4770.21 4868.66 3846.55 5159.9 4644.68 5283.65 3082.16 2892.36 5981.54 5911.29 5416.41 4694.27 6760.64 2515.5 5177.88 5551.79 6981.47 4720.22 4582.24 4333.23 5145.13 3860.8 3747.96 5611.29 5940.5 6568.45 5004.22 4601.54 7263.57 3832.09 5705.96 6437.99 5739.69 6632.04 7360.62 4985.45 4072.4 4983.56 5699.51 4714.52 5345.65 2489.44 5499.37 5863.36 4632.75 4752.94 4994.98 3950.53 6423.96 6058.13 5894.69 4384.91 6550.61 4987.01 6635.51 6094.34 6779.82 5543.67 3999.81 4287.61 4867.13 4604.34 4439.17 4502.12 3255.93 5442.79 5051.39 6327.61 4633.59 5733.59 5362.15 4455.61 3695.72 6874.6 5106.9 5569.85 5523.96 3929.35 4223.53 4733.37 6960.97 3037.72 4287.15 4523.9 5282.51 5504.65 5669.41 5732.11 3760.4 3919.47 4951.02 4602.7 3783.35 4037.16 4004.39 6395.63 4987.48 5943.61 4248.58 5479.17 5020.37 4542.25 4414.23 5233.88 4849.21 4785.55 3793.83 5245.4 3916.15 6189.81 5438.6 7370.52 4726.5 5467.05 4521.88 3724.23 5103.3 4963.88 5888.94 4727.98 4122.2 5175.88 5267.65 4516.26 4790.16 3509.34 3647.26 5360.88 3166.37 4977.64 5369.42 5207.08 5205.53 4587.19 5543.05 4883.13 6028.89 4836.76 5551.09 5755.98 5392.85 4501.1 5581.47 5077.2 4274.05 5275.27 4277.54 4713.56 5529.09 4531.46 5925.82 5448.68 4739.5 6210.48 6377.45 4863.27 6853.07 5575.8 5268.93 5306.31 4535.94 5126.08 5604.0 3731.58 5333.16 4888.17 4072.95 4491.62 3865.5 4182.05 
SCALARS Velocity float 1
LOOKUP_TABLE default
1.19179 1.19178 1.19179 1.19179 1.19179 1.19178 1.19179 1.19179 1.19178 1.19179 1.19178 1.19178 1.19178 1.19178 1.19178 1.19178 1.19178 1.19178 1.19178 1.19178 1.19178 1.19178 1.19178 1.19178 1.19178 1.19178 1.19178 1.19178 1.19178 1.19178 1.19178 1.19178 1.19178 1.19178 1.19178 1.19178 1.19178 1.19178 1.19178 1.19178 1.19178 1.19178 1.19178 1.19178 1.19178 1.19179 1.19178 1.19178 1.19178 1.19178 1.19178 1.19178 1.19178 1.19179 1.19179 1.19178 1.19178 1.19178 1.19178 1.19178 1.19179 1.19179 1.19178 1.1918 1.19178 1.19177 1.19178 1.19178 1.19178 1.19178 1.19177 1.1918 1.19178 1.1918 1.1918 1.1918 1.19179 1.19178 1.19178 1.1918 1.1918 1.19179 1.19179 1.19178 1.19179 1.19179 1.1918 1.19178 1.19178 1.19178 1.19178 1.1918 1.19181 1.19179 1.19179 1.19179 1.19179 1.19178 1.19178 1.19178 1.19181 1.1918 1.19178 1.19179 1.1918 1.1918 1.19179 1.19179 1.19179 1.19179 1.19178 1.19178 1.19178 1.19178 1.19178 1.19178 1.19178 1.19178 1.19178 1.19179 1.19178 1.19178 1.19178 1.19178 1.19178 1.19178 1.19178 1.19178 1.19178 1.19178 1.19178 1.19178 1.19178 1.19178 1.19178 1.19178 1.19178 1.19178 1.19178 1.19178 1.19178 1.19178 1.19178 1.19177 1.19179 1.19179 1.19178 1.19177 1.19179 1.19179 1.19178 1.19178 1.19178 1.19179 1.19181 1.19181 1.19178 1.19178 1.19178 1.19178 1.19179 1.19179 1.19178 1.1918 1.19179 1.19178 1.19178 1.19179 1.19178 1.1918 1.19177 1.19178 1.19179 1.19181 1.1918 1.1918 1.1918 1.19178 1.19178 1.1918 1.19178 1.19179 1.19179 1.19177 1.19178 1.1918 1.1918 1.19178 1.19179 1.19178 1.19179 1.1918 1.19177 1.19179 1.19178 1.19179 1.19179 1.19178 1.19178 1.19178 1.19178 1.1918 1.1918 1.19179 1.1918 1.19179 1.1918 1.19179 1.19178 1.19179 1.19178 1.19178 1.1918 1.19178 1.19178 1.19178 1.19178 1.19178 1.19178 1.19179 1.19178 1.19178 1.19178 1.19179 1.19178 1.19178 1.19178 1.19177 1.19178 1.19178 1.19178 1.19178 1.19178 1.19179 1.19179 1.19178 1.19178 1.19178 1.19178 1.19178 1.19178 1.19178 1.19178 1.19178 1.19179 1.19179 1.19178 1.19177 1.19178 1.19179 1.19178 1.19178 1.19178 1.19179 1.19182 1.19179 1.19178 1.19179 1.1918 1.19179 1.19179 1.19179 1.19179 1.19181 1.19179 1.19179 1.19179 1.19181 1.19178 1.1918 1.19178 1.19179 1.19178 1.19181 1.1918 1.1918 1.1918 1.19178 1.1918 1.19178 1.1918 1.19179 1.19179 1.19178 1.19179 1.19179 1.1918 1.19183 1.19178 1.19177 1.19179 1.19177 1.19178 1.19182 1.19179 1.19181 1.19179 1.19177 1.19178 1.19179 1.19178 1.1918 1.19179 1.19179 1.1918 1.1918 1.1918 1.19179 1.19178 1.19179 1.19178 1.19178 1.1918 1.19178 1.19178 1.19179 1.19178 1.19178 1.19177 1.19179 1.19178 1.19178 1.19179 1.19178 1.19178 1.19178 1.19178 1.19178 1.19178 1.19178 1.1918 1.19179 1.19178 1.19178 1.19179 1.19178 1.19178 1.19178 1.19179 1.19178 1.19178 1.19178 1.19178 1.19176 1.19179 1.19179 1.19179 1.19178 1.19179 1.19179 1.19178 1.19178 1.1918 1.19179 1.1918 1.19182 1.19179 1.19178 1.19179 1.19179 1.19179 1.19178 1.19178 1.19181 1.19178 1.19183 1.19179 1.19181 1.19178 1.19178 1.1918 1.19178 1.19179 1.19178 1.19181 1.19179 1.19179 1.19179 1.1918 1.19176 1.19181 1.1918 1.19179 1.19181 1.19177 1.19184 1.19178 1.1918 1.19183 1.19179 1.19179 1.19182 1.19178 1.19181 1.19182 1.19178 1.19181 1.19178 1.19179 1.19179 1.19179 1.19181 1.19179 1.19179 1.19178 1.19179 1.1918 1.1918 1.19179 1.19178 1.1918 1.19178 1.19176 1.19177 1.1918 1.19178 1.19178 1.19179 1.19178 1.19178 1.19178 1.19179 1.19178 1.19178 1.19179 1.19178 1.19178 1.1918 1.19178 1.19178 1.19178 1.19178 1.19179 1.19178 1.19178 1.19178 1.19179 1.19178 1.19179 1.19179 1.19178 1.19178 1.19177 1.19177 1.19178 1.19176 1.19178 1.1918 1.19178 1.19177 1.19179 1.19178 1.19178 1.1918 1.19182 1.19179 1.19178 1.19179 1.19178 1.19179 1.19178 1.19178 1.19177 1.1918 1.19182 1.19181 1.19178 1.19177 1.1918 1.19178 1.19179 1.19178 1.19181 1.19178 1.19179 1.19181 1.19182 1.19181 1.19176 1.1918 1.1918 1.1918 1.1918 1.19177 1.19184 1.19181 1.1918 1.19182 1.19179 1.1918 1.19176 1.19179 1.1918 1.19179 1.19179 1.19177 1.19182 1.19179 1.19179 1.19178 1.19181 1.19178 1.19179 1.1918 1.1918 1.19179 1.19178 1.1918 1.19178 1.19175 1.19178 1.19178 1.1918 1.19179 1.1918 1.19178 1.19178 1.19179 1.19179 1.19178 1.19178 1.19179 1.19178 1.19177 1.1918 1.19178 1.19178 1.19178 1.19179 1.19178 1.19178 1.19178 1.19178 1.19178 1.19178 1.19178 1.19178 1.19178 1.19179 1.19178 1.19178 1.19177 1.19178 1.19178 1.19178 1.19178 1.19178 1.19178 1.19178 1.19178 1.19178 1.19179 1.1918 1.19181 1.19178 1.19178 1.19179 1.19178 1.19177 1.19178 1.19178 1.19177 1.1918 1.19181 1.19179 1.19182 1.19178 1.19176 1.1918 1.1918 1.19179 1.1918 1.19177 1.1918 1.19182 1.19181 1.19181 1.19178 1.1918 1.19179 1.1918 1.19181 1.19183 1.19184 1.19181 1.19177 1.19181 1.19179 1.1918 1.19177 1.1918 1.19178 1.19179 1.19178 1.19178 1.19181 1.19179 1.19176 1.19178 1.19181 1.19179 1.19178 1.19178 1.1918 1.1918 1.19179 1.19178 1.1918 1.19178 1.19175 1.19178 1.19178 1.19177 1.19179 1.19178 1.19178 1.19178 1.19179 1.19179 1.19178 1.19177 1.19178 1.19178 1.19178 1.19179 1.19179 1.19178 1.19178 1.19178 1.19178 1.19178 1.19177 1.19178 1.19178 1.19179 1.19178 1.19178 1.19179 1.19178 1.19179 1.19177 1.19178 1.19178 1.19178 1.19178 1.19178 1.19178 1.19177 1.1918 1.1918 1.19183 1.19178 1.19181 1.19181 1.19181 1.19178 1.19178 1.19179 1.19178 1.19175 1.19177 1.19176 1.19178 1.19179 1.1919 1.19181 1.19177 1.19178 1.19177 1.19181 1.1918 1.1918 1.19179 1.19177 1.1918 1.19179 1.19181 1.19182 1.1918 1.1918 1.19179 1.19181 1.19185 1.19182 1.19183 1.1918 1.19176 1.19181 1.19178 1.1918 1.19177 1.19179 1.19181 1.19179 1.19178 1.1918 1.19177 1.19179 1.19176 1.19178 1.19178 1.19177 1.19178 1.19179 1.19176 1.19179 1.1918 1.19177 1.19179 1.1918 1.19178 1.19178 1.19177 1.19177 1.19178 1.19177 1.19179 1.1918 1.19179 1.19178 1.19178 1.19178 1.19178 1.19179 1.19178 1.19178 1.19177 1.19178 1.19178 1.19178 1.19176 1.19178 1.19178 1.19178 1.19178 1.19178 1.19178 1.19179 1.19178 1.19179 1.19177 1.19181 1.19177 1.19177 1.19179 1.19177 1.19177 1.19178 1.19181 1.19177 1.19179 1.19181 1.19181 1.19181 1.19177 1.19182 1.1918 1.19185 1.19177 1.19182 1.19178 1.19176 1.19179 1.19181 1.1918 1.19179 1.19174 1.19178 1.19181 1.1918 1.19177 1.19179 1.19177 1.1918 1.19178 1.19181 1.19179 1.1918 1.19179 1.19178 1.1918 1.19183 1.19181 1.19178 1.19176 1.19181 1.19179 1.19179 1.19178 1.1918 1.19179 1.1918 1.19175 1.19181 1.19178 1.19181 1.19178 1.19179 1.19178 1.19178 1.19177 1.19178 1.19179 1.19176 1.19179 1.19177 1.19178 1.19178 1.19178 1.19178 1.19178 1.19177 1.19177 1.19179 1.19177 1.19176 1.1918 1.19179 1.19178 1.19178 1.19177 1.19177 1.19178 1.19178 1.19178 1.19178 1.19178 1.19177 1.19178 1.19176 1.19178 1.19178 1.19178 1.19178 1.19178 1.19178 1.19179 1.19179 1.19178 1.1918 1.19178 1.19179 1.19178 1.19179 1.19177 1.19179 1.19181 1.19178 1.19178 1.1918 1.1918 1.1918 1.19178 1.19181 1.19181 1.19182 1.19181 1.19183 1.19181 1.19177 1.19175 1.1918 1.1918 1.19179 1.19174 1.19181 1.19177 1.1918 1.19178 1.19179 1.19177 1.19179 1.19179 1.19179 1.19178 1.19179 1.1918 1.19179 1.19178 1.19179 1.19179 1.19183 1.19182 1.1918 1.19178 1.19182 1.19179 1.19178 1.19181 1.1918 1.19174 1.19177 1.19181 1.19177 1.19181 1.19182 1.19179 1.19177 1.19176 1.19177 1.19177 1.19177 1.19179 1.19175 1.19178 1.1918 1.19177 1.19177 1.19178 1.19178 1.19178 1.19177 1.19179 1.19178 1.19176 1.19178 1.19179 1.19178 1.19178 1.19177 1.19177 1.19178 1.19178 1.19178 1.19178 1.19178 1.19177 1.19177 1.19176 1.19178 1.19178 1.19178 1.19178 1.19177 1.19177 1.19178 1.19178 1.19178 1.19178 1.19178 1.19178 1.19178 1.19178 1.19178 1.19181 1.19175 1.1918 1.1918 1.19178 1.19178 1.19179 1.1918 1.19183 1.1918 1.19181 1.19181 1.19182 1.19181 1.19178 1.19182 1.19177 1.19175 1.19176 1.1918 1.1918 1.19179 1.19172 1.1918 1.1918 1.19177 1.19179 1.19178 1.1918 1.19178 1.1917 1.1918 1.19178 1.19178 1.19179 1.19178 1.19179 1.1918 1.19175 1.19178 1.1918 1.1918 1.1918 1.19179 1.19182 1.19179 1.19175 1.19175 1.19178 1.19181 1.19177 1.19178 1.19182 1.19179 1.19177 1.19176 1.19177 1.19176 1.19177 1.19179 1.19181 1.19178 1.19179 1.19177 1.19178 1.19177 1.19178 1.19178 1.19177 1.19178 1.19179 1.19178 1.19176 1.19178 1.19178 1.19178 1.19177 1.19177 1.19178 1.19178 1.19178 1.19178 1.19178 1.19177 1.19178 1.19177 1.19178 1.19178 1.19178 1.19177 1.19177 1.19177 1.19178 1.19178 1.19178 1.19177 1.19178 1.19178 1.19178 1.19177 1.19181 1.19174 1.1918 1.1918 1.19179 1.19178 1.19182 1.19179 1.19183 1.19181 1.1918 1.1918 1.19181 1.19179 1.19172 1.19182 1.19175 1.19172 1.19174 1.19179 1.19179 1.19177 1.1918 1.19177 1.19176 1.19178 1.19179 1.19179 1.19182 1.19178 1.19174 1.19178 1.19175 1.19181 1.19178 1.19178 1.19179 1.19179 1.19179 1.19178 1.19179 1.19178 1.19176 1.19176 1.19178 1.19183 1.19175 1.19179 1.19175 1.19178 1.1918 1.19166 1.19182 1.19184 1.1918 1.19176 1.19177 1.19178 1.19177 1.19176 1.19177 1.19179 1.19181 1.19177 1.19177 1.19177 1.19177 1.19177 1.19177 1.19178 1.19178 1.19179 1.19178 1.19177 1.19177 1.19178 1.19179 1.19177 1.19177 1.19177 1.19178 1.19178 1.19178 1.19178 1.19177 1.19178 1.19179 1.19179 1.19178 1.19178 1.19178 1.19177 1.19178 1.19177 1.19178 1.19177 1.19177 1.19178 1.19178 1.19178 1.19178 1.19177 1.19183 1.19183 1.19177 1.19179 1.19179 1.19178 1.19178 1.19182 1.1918 1.19183 1.19181 1.19181 1.1918 1.1918 1.19177 1.19179 1.19182 1.19172 1.19178 1.19177 1.19178 1.19178 1.19179 1.19178 1.19181 1.19175 1.19178 1.19177 1.19178 1.19178 1.19178 1.19176 1.19177 1.19177 1.19179 1.19177 1.19178 1.19179 1.19178 1.19173 1.19178 1.19172 1.19177 1.19177 1.19174 1.19172 1.19176 1.19179 1.19169 1.1917 1.1918 1.19179 1.19184 1.19177 1.1918 1.19176 1.19179 1.19178 1.19176 1.19177 1.19179 1.19178 1.19177 1.19177 1.19177 1.19179 1.19177 1.19178 1.1918 1.19176 1.1918 1.19176 1.19177 1.19178 1.19177 1.19178 1.19177 1.19177 1.19177 1.19178 1.19178 1.19178 1.19177 1.19176 1.19178 1.19179 1.19179 1.19178 1.19178 1.19178 1.19178 1.19177 1.19177 1.19177 1.19177 1.19178 1.19174 1.19176 1.19179 1.1918 1.19176 1.1918 1.19181 1.19179 1.19178 1.19178 1.19178 1.19183 1.19183 1.19179 1.19183 1.19177 1.1918 1.1918 1.19182 1.19181 1.19173 1.19178 1.19175 1.19179 1.1918 1.19178 1.19177 1.1918 1.19183 1.19178 1.19177 1.19177 1.19178 1.19178 1.19175 1.19177 1.19178 1.19176 1.19177 1.19177 1.19178 1.19174 1.19178 1.19176 1.19171 1.19178 1.19176 1.19174 1.19173 1.19176 1.1918 1.19169 1.1917 1.1918 1.19179 1.19182 1.19176 1.1918 1.19176 1.19178 1.19178 1.19177 1.19178 1.19174 1.19176 1.19177 1.19177 1.19177 1.19179 1.19177 1.19178 1.19177 1.19177 1.19179 1.19176 1.19177 1.19177 1.19178 1.19178 1.19178 1.19177 1.19176 1.19176 1.19178 1.19178 1.19176 1.19177 1.19178 1.19179 1.19178 1.19178 1.19179 1.19178 1.19177 1.19177 1.19177 1.19177 1.19178 1.19177 1.19177 1.19178 1.19181 1.19181 1.19175 1.1918 1.19179 1.19181 1.1918 1.1918 1.19181 1.19181 1.19182 1.19179 1.19179 1.19182 1.19177 1.1918 1.19181 1.19188 1.19188 1.19181 1.19172 1.19174 1.19181 1.19177 1.19181 1.19177 1.19175 1.1918 1.19184 1.19178 1.19177 1.19174 1.19177 1.19177 1.19177 1.19176 1.19176 1.19178 1.19177 1.19177 1.19176 1.19178 1.19175 1.19174 1.19178 1.19177 1.19176 1.19174 1.19172 1.19179 1.1918 1.19169 1.1917 1.19179 1.19177 1.1918 1.1918 1.19179 1.19176 1.19178 1.19178 1.19178 1.19177 1.19174 1.19175 1.19176 1.19176 1.19178 1.19177 1.19179 1.19178 1.19177 1.19177 1.19177 1.19178 1.19176 1.19177 1.19177 1.19177 1.19178 1.19177 1.19177 1.19177 1.19176 1.19178 1.19178 1.19176 1.19178 1.19178 1.19177 1.19179 1.19178 1.19178 1.19178 1.19179 1.19177 1.19177 1.19177 1.19179 1.19179 1.19173 1.19181 1.19182 1.19179 1.19174 1.19178 1.19178 1.19182 1.1918 1.1918 1.19183 1.1918 1.1918 1.19178 1.19177 1.1918 1.19177 1.19177 1.19181 1.19184 1.19181 1.19173 1.19182 1.19181 1.19177 1.19181 1.1918 1.19171 1.19176 1.19177 1.19184 1.19178 1.19175 1.19174 1.19177 1.19177 1.19178 1.19176 1.19177 1.19177 1.19176 1.19177 1.19175 1.19175 1.19176 1.19177 1.19177 1.19176 1.19176 1.19174 1.19177 1.19177 1.19178 1.19175 1.19177 1.19177 1.19177 1.1918 1.19176 1.19178 1.19176 1.19178 1.19179 1.19178 1.19178 1.19174 1.19175 1.19175 1.19177 1.19179 1.19177 1.19177 1.19178 1.19176 1.19178 1.19178 1.19177 1.19177 1.19178 1.19177 1.19178 1.19177 1.19177 1.19178 1.19178 1.19178 1.19176 1.19178 1.19178 1.19177 1.19177 1.19178 1.19178 1.19179 1.19178 1.19179 1.19177 1.19175 1.19181 1.19179 1.19176 1.19178 1.19182 1.19179 1.19178 1.19176 1.19177 1.19181 1.19181 1.1918 1.19182 1.1918 1.19179 1.19176 1.19177 1.19177 1.19175 1.19179 1.19179 1.19177 1.1918 1.19173 1.19182 1.19182 1.19181 1.19178 1.19178 1.19171 1.19176 1.19178 1.19176 1.19179 1.1918 1.19175 1.19174 1.19175 1.19175 1.19177 1.19176 1.19177 1.19176 1.19175 1.19176 1.19175 1.19179 1.19176 1.19175 1.19177 1.19176 1.19174 1.19177 1.19174 1.19177 1.19178 1.19175 1.19178 1.19175 1.19176 1.19176 1.1918 1.19176 1.19177 1.19176 1.19178 1.19178 1.19177 1.19178 1.19174 1.19176 1.19175 1.19177 1.19178 1.19177 1.19177 1.19178 1.19177 1.19178 1.19178 1.19178 1.19177 1.19178 1.19177 1.19178 1.19177 1.19178 1.19176 1.19178 1.19178 1.19176 1.19178 1.19177 1.19177 1.19177 1.1918 1.19178 1.19179 1.19178 1.19179 1.19178 1.19177 1.19181 1.19178 1.19178 1.19176 1.19181 1.19181 1.19181 1.19179 1.19177 1.19178 1.19183 1.1918 1.1918 1.19181 1.19179 1.19177 1.19181 1.19179 1.19177 1.1918 1.19183 1.19179 1.19182 1.19181 1.19177 1.19176 1.19175 1.19176 1.19177 1.19179 1.19175 1.19176 1.19169 1.19176 1.19176 1.19178 1.19177 1.19177 1.19175 1.19176 1.19175 1.19179 1.19176 1.19178 1.19178 1.19176 1.19175 1.19174 1.19173 1.19175 1.19178 1.19175 1.19178 1.19175 1.1918 1.19174 1.19177 1.19176 1.19178 1.19177 1.19177 1.19178 1.19177 1.19175 1.19176 1.19175 1.19174 1.19175 1.19177 1.19177 1.19178 1.19177 1.19178 1.19178 1.19178 1.19177 1.19178 1.19177 1.19176 1.19176 1.19176 1.19176 1.19178 1.19178 1.19176 1.19177 1.19177 1.19176 1.19177 1.19179 1.19178 1.19178 1.19177 1.19178 1.19179 1.19178 1.19175 1.19179 1.19184 1.19178 1.1918 1.1918 1.19177 1.19178 1.19185 1.19175 1.19174 1.19179 1.19183 1.1918 1.1918 1.1918 1.19178 1.1918 1.19182 1.19178 1.19178 1.19177 1.19181 1.19183 1.19178 1.19177 1.19178 1.1918 1.19182 1.19176 1.19178 1.19175 1.19182 1.19182 1.19177 1.19179 1.19173 1.19176 1.19173 1.19176 1.19178 1.19178 1.19178 1.19178 1.19176 1.19176 1.19175 1.19176 1.19175 1.19179 1.19176 1.19176 1.19175 1.19176 1.19174 1.19175 1.19178 1.19175 1.19176 1.19175 1.19175 1.1918 1.19176 1.19177 1.19177 1.19178 1.19177 1.19178 1.19178 1.19178 1.19177 1.19176 1.19175 1.19174 1.19175 1.19175 1.19175 1.19176 1.19177 1.19178 1.19177 1.19178 1.19177 1.19178 1.19177 1.19177 1.19177 1.19176 1.19176 1.19177 1.19177 1.19178 1.19178 1.19178 1.19177 1.19177 1.19176 1.19177 1.19181 1.19178 1.19176 1.19176 1.19178 1.19179 1.19179 1.19178 1.19176 1.19185 1.19181 1.1918 1.1918 1.19178 1.19179 1.19177 1.19184 1.19182 1.1918 1.19177 1.1918 1.19176 1.1918 1.19181 1.19178 1.19177 1.19177 1.19181 1.19183 1.19178 1.19177 1.19176 1.1918 1.19181 1.19176 1.19173 1.19177 1.19178 1.19178 1.19173 1.19176 1.19173 1.19178 1.19181 1.19176 1.19178 1.19178 1.19177 1.19177 1.19176 1.19175 1.19178 1.19175 1.19178 1.19176 1.19176 1.19177 1.19176 1.19173 1.19178 1.19177 1.19176 1.19176 1.19175 1.19177 1.19175 1.19176 1.19176 1.19177 1.19177 1.19178 1.19178 1.19178 1.19178 1.19178 1.19178 1.19174 1.19175 1.19178 1.19175 1.19176 1.19178 1.19178 1.19177 1.19178 1.19178 1.19178 1.19178 1.19177 1.19177 1.19177 1.19177 1.19177 1.19178 1.19177 1.19178 1.19178 1.19178 1.19176 1.19177 1.19177 1.19177 1.19181 1.19178 1.19175 1.19179 1.19177 1.19178 1.19179 1.19177 1.19178 1.19184 1.1918 1.19177 1.19181 1.19181 1.19178 1.19184 1.1918 1.19177 1.19181 1.19177 1.19178 1.19179 1.1918 1.19179 1.19177 1.1918 1.19177 1.19174 1.19182 1.19178 1.19177 1.19177 1.19174 1.19175 1.19175 1.19173 1.19178 1.19176 1.19179 1.19178 1.19174 1.19177 1.19173 1.19178 1.19177 1.19177 1.19178 1.19178 1.19178 1.19176 1.19175 1.19175 1.1918 1.19175 1.19175 1.19176 1.19177 1.19176 1.19175 1.19173 1.19174 1.19177 1.19177 1.19176 1.19175 1.19177 1.19178 1.19175 1.19176 1.19177 1.19178 1.19177 1.19177 1.19178 1.19177 1.19174 1.19176 1.19177 1.19175 1.19177 1.19177 1.19177 1.19178 1.19178 1.19177 1.19177 1.19178 1.19178 1.19178 1.19178 1.19178 1.19176 1.19179 1.19179 1.19179 1.19177 1.19178 1.19178 1.19177 1.19178 1.19178 1.19177 1.19178 1.19177 1.19177 1.19177 1.19176 1.19178 1.19179 1.19179 1.19178 1.19178 1.19177 1.19179 1.1918 1.19185 1.19182 1.19177 1.19176 1.19181 1.19179 1.19177 1.19178 1.19176 1.19176 1.19179 1.1918 1.19176 1.19174 1.19182 1.19178 1.19176 1.19174 1.19175 1.19175 1.19175 1.19173 1.19177 1.1918 1.19178 1.19178 1.19175 1.19175 1.19174 1.19177 1.19177 1.19178 1.19177 1.19178 1.19176 1.19174 1.19175 1.19178 1.19176 1.19175 1.19178 1.19179 1.19177 1.19178 1.19178 1.19175 1.1918 1.19177 1.19176 1.19176 1.19178 1.19176 1.19174 1.19175 1.19176 1.19177 1.19178 1.19177 1.19177 1.19178 1.19177 1.19177 1.19177 1.19177 1.19175 1.19177 1.19178 1.19177 1.19178 1.19178 1.19177 1.19177 1.19178 1.19177 1.19178 1.19178 1.19177 1.19178 1.19178 1.19177 1.19177 1.19178 1.19178 1.19176 1.19178 1.19176 1.19177 1.19175 1.19178 1.19179 1.19178 1.19177 1.19177 1.19179 1.19178 1.1918 1.19182 1.19178 1.19176 1.19172 1.19177 1.19179 1.19185 1.19174 1.19176 1.19179 1.19178 1.19179 1.1918 1.19176 1.19174 1.19182 1.1918 1.19174 1.19179 1.19174 1.19175 1.19175 1.19177 1.19178 1.1918 1.19176 1.19178 1.19174 1.19175 1.19178 1.19177 1.19177 1.19173 1.19176 1.19176 1.19174 1.19177 1.19177 1.19176 1.19175 1.19176 1.1918 1.19178 1.19178 1.19178 1.19176 1.19178 1.19176 1.19176 1.19178 1.19178 1.19175 1.19175 1.19176 1.19177 1.19178 1.19178 1.19178 1.19178 1.19178 1.19177 1.19177 1.19177 1.19178 1.19175 1.19177 1.19178 1.19178 1.19178 1.19178 1.19178 1.19177 1.19177 1.19177 1.19177 1.19178 1.19178 1.19178 1.19176 1.19178 1.19178 1.19178 1.19177 1.19178 1.19176 1.19178 1.19176 1.19175 1.19176 1.19176 1.19178 1.19177 1.19176 1.19178 1.19176 1.19176 1.19177 1.19178 1.19176 1.19178 1.19177 1.19178 1.1918 1.1918 1.19177 1.19177 1.19178 1.19172 1.19175 1.19186 1.19177 1.19171 1.19176 1.19176 1.19179 1.19178 1.19175 1.19173 1.19174 1.19179 1.19178 1.19175 1.19177 1.19178 1.19173 1.19177 1.19174 1.19177 1.1918 1.19178 1.19175 1.19175 1.19177 1.19178 1.19176 1.19178 1.19178 1.19178 1.19176 1.19178 1.19177 1.19177 1.19176 1.19175 1.19176 1.19176 1.19177 1.19177 1.19178 1.19176 1.19178 1.19176 1.19176 1.19177 1.19176 1.19176 1.19176 1.19176 1.19177 1.19177 1.19178 1.19178 1.19178 1.19178 1.19177 1.19177 1.19178 1.19178 1.19178 1.19177 1.19178 1.19178 1.19178 1.19178 1.19178 1.19177 1.19177 1.19177 1.19178 1.19178 1.19177 1.19177 1.19177 1.19176 1.19177 1.19178 1.19178 1.19176 1.19176 1.19177 1.19176 1.19175 1.19177 1.19176 1.19175 1.19177 1.19173 1.19177 1.19179 1.19175 1.19176 1.19177 1.19175 1.1918 1.19179 1.19178 1.19173 1.19174 1.19178 1.1917 1.19175 1.19173 1.19177 1.19177 1.19174 1.19171 1.19173 1.19169 1.19177 1.19174 1.19177 1.19175 1.19173 1.19177 1.19177 1.19176 1.19177 1.19175 1.19176 1.19175 1.19178 1.19176 1.19178 1.19178 1.19178 1.19178 1.19176 1.19176 1.19178 1.19177 1.19178 1.19177 1.19175 1.19176 1.19176 1.19177 1.19178 1.19178 1.19177 1.19177 1.19176 1.19174 1.19176 1.19176 1.19176 1.19177 1.19178 1.19178 1.19178 1.19178 1.19178 1.19177 1.19177 1.19178 1.19178 1.19178 1.19177 1.19178 1.19178 1.19178 1.19178 1.19178 1.19177 1.19177 1.19177 1.19178 1.19178 1.19178 1.19178 1.19177 1.19177 1.19177 1.19177 1.19176 1.19178 1.19175 1.19176 1.19177 1.19176 1.19175 1.19172 1.19175 1.19174 1.19175 1.19174 1.19175 1.19176 1.19179 1.19181 1.19178 1.19177 1.19175 1.19174 1.19173 1.19174 1.19176 1.19169 1.19177 1.19174 1.19177 1.19174 1.19173 1.19172 1.19174 1.1917 1.19172 1.1918 1.19171 1.19175 1.19177 1.19178 1.19178 1.19177 1.19175 1.19176 1.19175 1.19176 1.19175 1.19176 1.19178 1.19177 1.19178 1.19177 1.19176 1.19176 1.19177 1.19178 1.19176 1.19178 1.19176 1.19177 1.19177 1.19177 1.19176 1.19177 1.19177 1.19177 1.19177 1.19177 1.19174 1.19174 1.19175 1.19176 1.19177 1.19178 1.19173 1.19175 1.19179 1.19181 1.19177 1.19179 1.19173 1.19178 1.19177 1.19177 1.19175 1.19178 1.19177 1.19171 1.19176 1.19174 1.19176 1.19173 1.19175 1.19177 1.19173 1.19176 1.19175 1.19178 1.19176 1.19177 1.19178 1.19178 1.19178 1.19177 1.19177 1.19176 1.19175 1.19174 1.19174 1.19177 1.19172 1.19172 1.19174 1.19176 1.19178 1.19176 1.19177 1.19177 1.19175 1.19178 1.19174 1.19176 1.19178 1.19179 1.19176 1.19178 1.19177 1.19174 1.19173 1.19175 1.19175 1.19175 1.19178 1.19173 1.19172 1.19177 1.19176 1.19178 1.19176 1.19175 1.19173 1.19177 1.19176 1.19179 1.19179 1.19179 1.19175 1.19177 1.19178 1.19173 1.19178 1.19177 1.19176 1.19174 1.19171 1.19172 1.19175 1.19177 1.19178 1.19178 1.19178 1.19177 1.19174 1.19175 1.19176 1.19174 1.19177 1.19175 1.19178 1.19179 1.19176 1.19175 1.19174 1.19172 1.19171 1.19171 1.19178 1.1918 1.19178 1.19178 1.19178 1.19178 1.19177 1.19177 1.19177 1.19175 1.19176 1.19177 1.19174 1.19178 1.19174 1.19178 1.19176 1.19177 1.19175 1.1918 1.19174 1.19177 1.19178 1.19178 1.19178 1.19178 1.19178 1.19178 1.19178 1.19178 1.19178 1.19178 1.19178 1.19178 1.19178 1.19178 1.19178 1.19178 1.19178 1.19178 1.19178 1.19178 1.19178 1.19178 1.19178 1.19178 1.19178 1.19178 1.19178 1.19178 1.19178 1.19178 1.19178 1.19178 1.19178 1.19178 1.19178 1.19178 1.19178 1.19177 1.19176 1.19175 1.19175 1.19178 1.19179 1.19176 1.19174 1.19175 1.19182 1.19181 1.19172 1.19178 1.19176 1.19179 1.19178 1.19175 1.19178 1.19179 1.19179 1.19179 1.19176 1.19176 1.19178 1.19178 1.19178 1.19178 1.19178 1.19178 1.19178 1.19178 1.19178 1.19178 1.19178 1.19178 1.19178 1.19178 1.19178 1.19178 1.19178 1.19178 1.19178 1.19178 1.19178 1.19178 1.19178 1.19178 1.19178 1.19178 1.19178 1.19178 1.19176 1.19177 1.19175 1.19178 1.19173 1.19175 1.19177 1.19174 1.19174 1.19178 1.19176 1.19175 1.19174 1.19177 1.19177 1.19178 1.19179 1.19176 1.19178 1.19177 1.19178 1.19178 1.19178 1.19178 1.19178 1.19178 1.19178 1.19178 1.19178 1.19178 1.19178 1.19178 1.19178 1.19178 1.19178 1.19178 1.19178 1.19178 1.19178 1.19178 1.19178 1.19178 1.19178 1.19178 1.19178 1.19178 1.19178 1.19178 1.19178 1.19178 1.19178 1.19178 1.19178 1.19178 1.19178 1.19178 1.19178 1.19178 1.19178 1.19178 1.19178 1.19178 1.19178 1.19178 1.19178 1.19178 1.19178 1.19178 1.19178 1.19176 1.1918 1.19176 1.19179 1.19174 1.19177 1.19173 1.19174 1.19176 1.19176 1.19175 1.19172 1.19169 1.19175 1.19174 1.19177 1.19178 1.19179 1.19176 1.19179 1.19178 1.19178 1.19177 1.19178 1.19178 1.19178 1.19178 1.19178 1.19178 1.19178 1.19178 1.19178 1.19178 1.19178 1.19178 1.19178 1.19178 1.19178 1.19178 1.19178 1.19178 1.19178 1.19178 1.19178 1.19178 1.19178 1.19178 1.19178 1.19178 1.19178 1.19178 1.19178 1.19178 1.19178 1.19178 1.19178 1.19178 1.19178 1.19178 1.19178 1.19178 1.19178 1.19178 1.19178 1.19178 1.19178 1.19178 1.19178 1.19178 1.19176 1.19174 1.19176 1.19174 1.19177 1.19176 1.19178 1.19175 1.19176 1.19176 1.19175 1.19175 1.19171 1.1917 1.19178 1.19174 1.19177 1.19175 1.19178 1.19177 1.19179 1.19178 1.19178 1.19178 1.19178 1.19178 1.19178 1.19178 1.19178 1.19178 1.19178 1.19178 1.19178 1.19178 1.19178 1.19178 1.19178 1.19178 1.19178 1.19178 1.19178 1.19178 1.19178 1.19178 1.19178 1.19178 1.19178 1.19178 1.19178 1.19178 1.19178 1.19178 1.19178 1.19178 1.19178 1.19178 1.19178 1.19178 1.19178 1.19178 1.19178 1.19178 1.19178 1.19178 1.19178 1.19178 1.19178 1.19178 1.19178 1.19177 1.19178 1.1918 1.19176 1.19178 1.19176 1.19176 1.19176 1.19176 1.19174 1.19176 1.19175 1.19174 1.19171 1.19175 1.19177 1.19177 1.19174 1.1918 1.19177 1.19176 1.19178 1.19178 1.19178 1.19178 1.19178 1.19178 1.19178 1.19178 1.19178 1.19178 1.19178 1.19178 1.19178 1.19178 1.19178 1.19178 1.19178 1.19178 1.19178 1.19178 1.19178 1.19178 1.19178 1.19178 1.19178 1.19178 1.19178 1.19178 1.19178 1.19178 1.19178 1.19178 1.19178 1.19178 1.19178 1.19178 1.19178 1.19178 1.19178 1.19178 1.19178 1.19178 1.19178 1.19178 1.19178 1.19178 1.19178 1.19178 1.19178 1.19178 1.19178 1.19178 1.19178 1.19178 1.19177 1.19176 1.19178 1.19176 1.19174 1.19178 1.19177 1.19178 1.19177 1.19174 1.19177 1.19176 1.19177 1.19178 1.19177 1.19179 1.19176 1.19178 1.19176 1.19174 1.19175 1.19177 1.19177 1.19178 1.19179 1.19177 1.19178 1.19178 1.19178 1.19178 1.19178 1.19178 1.19178 1.19178 1.19178 1.19178 1.19178 1.19178 1.19178 1.19178 1.19178 1.19178 1.19178 1.19178 1.19178 1.19178 1.19178 1.19178 1.19178 1.19178 1.19178 1.19178 1.19178 1.19178 1.19178 1.19178 1.19178 1.19178 1.19178 1.19178 1.19178 1.19178 1.19178 1.19178 1.19178 1.19178 1.19178 1.19178 1.19177 1.19176 1.19177 1.19178 1.19175 1.19177 1.19176 1.19178 1.19177 1.19177 1.19173 1.19178 1.19175 1.19175 1.19175 1.19178 1.19175 1.19176 1.19175 1.19178 1.19178 1.19178 1.19178 1.19178 1.19178 1.19178 1.19178 1.19178 1.19178 1.19178 1.19178 1.19178 1.19178 1.19178 1.19178 1.19178 1.19178 1.19178 1.19178 1.19178 1.19178 1.19178 1.19178 1.19178 1.19178 1.19178 1.19178 1.19178 1.19178 1.19178 1.19178 1.19178 1.19178 1.19178 1.19178 1.19178 1.19178 1.19178 1.19178 1.19178 1.19178 1.19178 1.19178 1.19177 1.19176 1.19178 1.19175 1.1918 1.19175 1.19178 1.19177 1.19177 1.19177 1.19177 1.19177 1.19177 1.19176 1.19176 1.19178 1.19175 1.19178 1.19179 1.19176 1.19178 1.19178 1.19178 1.19178 1.19178 1.19178 1.19178 1.19178 1.19178 1.19178 1.19178 1.19178 1.19178 1.19178 1.19178 1.19178 1.19178 1.19178 1.19178 1.19178 1.19178 1.19178 1.19178 1.19178 1.19178 1.19178 1.19178 1.19178 1.19178 1.19178 1.19178 1.19178 1.19178 1.19178 1.19178 1.19178 1.19178 1.19178 1.19176 1.19177 1.19177 1.19177 1.19177 1.19178 1.19178 1.19178 1.19177 1.19177 1.19178 1.19176 1.19178 1.19175 1.19178 1.19177 1.19178 1.19178 1.19178 1.19178 1.19178 1.19178 1.19178 1.19178 1.19178 1.19178 1.19178 1.19178 1.19178 1.19178 1.19178 1.19178 1.19178 1.19178 1.19178 1.19178 1.19178 1.19178 1.19178 1.19178 1.19178 1.19178 1.19178 1.19178 1.19178 1.19178 1.19178 1.19178 1.19178 1.19178 1.19178 1.19178 1.19178 1.19178 1.19178 1.19178 1.19178 1.19178 1.19178 1.19178 1.19178 1.19178 1.19178 1.19178 1.19177 1.19177 1.19177 1.19177 1.1918 1.19177 1.19177 1.19177 1.19177 1.19177 1.19177 1.19178 1.19177 1.19175 1.19178 1.19177 1.19177 1.19178 1.19178 1.19178 1.19178 1.19178 1.19178 1.19178 1.19178 1.19178 1.19178 1.19178 1.19178 1.19178 1.19178 1.19178 1.19178 1.19178 1.19178 1.19178 1.19178 1.19178 1.19178 1.19178 1.19178 1.19178 1.19178 1.19178 1.19178 1.19178 1.19178 1.19178 1.19178 1.19178 1.19178 1.19178 1.19177 1.19177 1.19177 1.19177 1.19178 1.19177 1.19177 1.19177 1.19178 1.19177 1.19178 1.19176 1.19176 1.19177 1.19176 1.19177 1.19177 1.19177 1.19178 1.19178 1.19178 1.19178 1.19178 1.19178 1.19178 1.19178 1.19178 1.19178 1.19178 1.19178 1.19178 1.19178 1.19178 1.19178 1.19178 1.19178 1.19178 1.19178 1.19178 1.19178 1.19178 1.19178 1.19178 1.19178 1.19177 1.19177 1.19177 1.19177 1.19178 1.19176 1.19177 1.19177 1.19177 1.19177 1.19178 1.19176 1.19176 1.19176 1.19177 1.19177 1.19176 1.19177 1.19177 1.19178 1.19177 1.19177 1.19177 1.19178 1.19178 1.19178 1.19178 1.19178 1.19178 1.19178 1.19178 1.19178 1.19178 1.19178 1.19178 1.19178 1.19178 1.19178 1.19178 1.19178 1.19178 1.19178 1.19178 1.19178 1.19178 1.19178 1.19178 1.19178 1.19177 1.19177 1.19176 1.19177 1.19177 1.19177 1.19177 1.19177 1.19178 1.19176 1.19177 1.19178 1.19178 1.19178 1.19178 1.19177 1.19177 1.19178 1.19178 1.19178 1.19178 1.19178 1.19178 1.19178 1.19178 1.19178 1.19178 1.19178 1.19178 1.19178 1.19178 1.19178 1.19178 1.19178 1.19177 1.19177 1.19177 1.19177 1.19177 1.19177 1.19178 1.19178 1.19178 1.19177 1.19177 1.19177 1.19177 1.19177 1.19177 1.19177 1.19178 1.19178 1.19178 1.19177 1.19178 1.19178 1.19177 1.19177 1.19178 1.19178 1.19178 1.19178 1.19178 1.19178 1.19178 1.19178 1.19178 1.19178 1.19178 1.19178 1.19178 1.19178 1.19178 1.19178 1.19177 1.19177 1.19178 1.19178 1.19177 1.19177 1.19178 1.19177 1.19177 1.19178 1.19177 1.19178 1.19176 1.19177 1.19177 1.19178 1.19178 1.19177 1.19178 1.19178 1.19178 1.19178 1.19178 1.19178 1.19178 1.19178 1.19178 1.19178 1.19178 1.19177 1.19178 1.19178 1.19178 1.19178 1.19177 1.19178 1.19178 1.19177 1.19177 1.19177 1.19177 1.19178 1.19178 1.19177 1.19178 1.19177 1.19178 1.19177 1.19178 1.19178 1.19178 1.19178 1.19178 1.19178 1.19178 1.19178 1.19178 1.19178 1.19177 1.19178 1.19177 1.19178 1.19178 1.19178 1.19178 1.19178 1.19177 1.19178 1.19178 1.19177 1.19177 1.19178 1.19178 1.19178 1.19177 1.19178 1.19178 1.19177 1.19178 1.19178 1.19178 1.19178 1.19178 1.19178 1.19178 1.19178 1.19178 1.19178 1.19178 1.19178 1.19177 1.19177 1.19178 1.19177 1.19177 1.19177 1.19178 1.19178 1.19178 1.19178 1.19178 1.19178 1.19177 1.19178 1.19178 1.19178 1.19178 1.19178 1.19178 1.19178 1.19178 1.19178 1.19178 1.19178 1.19178 1.19178 1.19178 1.19178 1.19178 1.19178 1.19178 1.19178 1.19178 1.19178 1.19178 1.19178 1.19178 1.19178 1.19178 1.19178 1.19178 1.19178 1.19178 1.19178 1.19178 1.19178 1.19178 1.19178 1.19178 1.19178 1.19178 1.19178 1.19178 1.19178 1.19178 1.19178 0.0015327 0.0018615 0.000745922 0.00219976 0.000651856 0.00078247 0.000764878 0.00143166 0.000988128 0.00145024 0.00113005 0.0056596 0.00287396 0.00218758 0.00103818 0.00159844 0.002148 0.00238962 0.00171225 0.00067158 0.000795017 0.0027258 0.00445741 0.00421769 0.00482045 0.00342391 0.00665812 0.0074268 0.0050427 0.0044928 0.00598909 0.00727891 0.0160886 0.0106463 0.0103377 0.00962861 0.0087044 0.0085366 0.00913415 0.00635396 0.0024043 0.00630637 0.00695713 0.00356831 0.00685912 0.00206143 0.00476329 0.00613138 0.00681991 0.00861861 0.00496516 0.0024285 0.000850433 0.000774865 0.0011814 0.00255818 0.00348352 0.00414076 0.00481293 0.00627548 0.00636131 0.00681347 0.00846775 0.0101976 0.0128618 0.0157928 0.0172641 0.0169037 0.0161095 0.0148835 0.0141684 0.0158323 0.0141482 0.0146367 0.0163369 0.0194997 0.0179861 0.0160451 0.0180495 0.0218635 0.0281148 0.0244246 0.029353 0.0334073 0.0378136 0.0356665 0.0329149 0.0331693 0.0347181 0.0319264 0.0378689 0.0398057 0.034884 0.0283427 0.0265702 0.0218141 0.0188533 0.0178498 0.0200117 0.0164437 0.0130774 0.00528954 0.000453262 0.00233153 0.00165311 0.0027179 0.00427088 0.00183434 0.00205359 0.00392644 0.00202167 0.00160609 0.0024052 0.00324329 0.00357991 0.00243107 0.00248495 0.00199805 0.00161275 0.00149665 0.0029805 0.00968692 0.00984147 0.00603752 0.00111654 0.00214125 0.00373356 0.00194481 0.00212153 0.0030246 0.00306706 0.00301613 0.00228301 0.00182852 0.00133048 0.0013435 0.00118147 0.000885763 0.00195031 0.000748842 0.00270433 0.00360109 0.00476149 0.00508536 0.00165742 0.00365493 0.000372074 0.0011906 0.00352053 0.00138098 0.00350827 0.00145223 0.00295659 0.00336134 0.00155526 0.00223761 0.00623456 0.00643607 0.00678687 0.00463607 0.00380847 0.00262194 0.00217668 0.00559569 0.00495006 0.00338687 0.0103176 0.00222159 0.0132379 0.0034818 0.00237195 0.000611638 0.00187369 0.00205217 0.00549376 0.00502928 0.00566711 0.00499708 0.0111451 0.00378601 0.00415155 0.00755682 0.00429768 0.00757169 0.00577732 0.00235857 0.000597225 0.00116343 0.00137259 0.00199449 0.00196581 0.00150113 0.00380571 0.00299913 0.00380801 0.00560067 0.00530606 0.00696164 0.00682459 0.00770382 0.00818689 0.00930138 0.00879819 0.00779988 0.00967738 0.0113323 0.0137018 0.0143157 0.0161316 0.0151693 0.0176924 0.0198018 0.0189236 0.0203889 0.0174597 0.0178181 0.0171974 0.0160731 0.0150047 0.0139712 0.0139843 0.0164561 0.019413 0.0177841 0.023117 0.0215263 0.0189036 0.0183131 0.0137279 0.0241759 0.021083 0.0249331 0.0233496 0.0206874 0.0293231 0.0192739 0.0279736 0.0283099 0.0241247 0.0292908 0.029593 0.0330679 0.0367367 0.0283947 0.0385099 0.0335232 0.0371924 0.0314863 0.0351913 0.0316091 0.0297458 0.0258171 0.0271567 0.020039 0.0186639 0.0246473 0.0216667 0.0189194 0.0184914 0.0212221 0.0143972 0.0142114 0.0191747 0.0105145 0.0196292 0.00258887 0.00258194 0.00148105 0.000982811 0.00164589 0.00289984 0.00164491 0.00108518 0.00112127 0.000882514 0.00121802 0.000521849 0.00191942 0.0047133 0.00460867 0.00411885 0.0014521 0.0016593 0.00352573 0.00111811 0.00197624 0.00210152 0.00282294 0.00250956 0.00227157 0.00374959 0.00252509 0.00111226 0.000384704 0.000936246 0.00163009 0.00131957 0.00103218 0.00183183 0.00164293 0.00227453 0.0034158 0.00407674 0.00280972 0.00651022 0.00594455 0.0059413 0.00401597 0.00313774 0.00281483 0.00219938 0.00145438 0.00191323 0.00351499 0.00257524 0.00349728 0.00280412 0.00271798 0.00398085 0.00520368 0.00488627 0.00264072 0.00334257 0.00709259 0.00150191 0.00604345 0.00287847 0.00704888 0.00361249 0.00689149 0.00659838 0.000472064 0.00111878 0.00120308 0.00197491 0.00256278 0.00213478 0.00263922 0.00454729 0.00490987 0.00474281 0.00682766 0.00830899 0.00819061 0.00873852 0.00984495 0.0106103 0.0132417 0.0119796 0.0141139 0.0144304 0.0171031 0.0164118 0.0199533 0.0226489 0.0200504 0.0215996 0.0201449 0.0180881 0.0153394 0.0184516 0.0169986 0.0174573 0.016312 0.021207 0.0199965 0.0215484 0.0221658 0.0215335 0.0232986 0.021583 0.0220757 0.0248175 0.0242705 0.0307642 0.0286758 0.026988 0.0282612 0.0240521 0.0299854 0.0234476 0.0236687 0.0287756 0.0279923 0.0274483 0.0282414 0.0290427 0.0300872 0.0285863 0.0231891 0.0263694 0.0187645 0.0247037 0.025431 0.0206221 0.0190829 0.0224298 0.0033801 0.00348548 0.00110978 0.00210926 0.00163975 0.0017556 0.00239318 0.00140223 0.0020235 0.00120608 0.0023462 0.00205061 0.00127198 0.00254628 0.000816091 0.00101527 0.00324291 0.00313846 0.00264903 0.00339365 0.00142123 0.00147943 0.000776826 0.0025519 0.00266793 0.00181787 0.00338378 0.00449778 0.0042511 0.00318314 0.00462121 0.00682359 0.00587936 0.00550475 0.00390621 0.00479622 0.00571411 0.00422886 0.00621452 0.00588078 0.00568814 0.00274982 0.00242678 0.00213317 0.00306287 0.0031466 0.00342385 0.001941 0.000441352 0.00154435 0.00170712 0.00328548 0.00169835 0.00225719 0.00221744 0.00866941 0.003513 0.0110625 0.00123078 0.000887259 0.0012536 0.00240621 0.00414874 0.00308732 0.0048345 0.00598224 0.00506174 0.00653092 0.0067974 0.00866668 0.0106515 0.0120202 0.0119677 0.0134753 0.0185286 0.016665 0.0181236 0.0195094 0.0204171 0.020019 0.0201437 0.0196115 0.0189757 0.0196358 0.0192001 0.0190179 0.020549 0.0201698 0.0201853 0.0207536 0.020396 0.0215287 0.0189448 0.0217122 0.0206267 0.0217182 0.0216909 0.0207958 0.0205583 0.0225236 0.0237402 0.0221663 0.0236314 0.0237522 0.0241967 0.0214826 0.0198732 0.024421 0.0213966 0.0179276 0.0193164 0.019507 0.0235157 0.0240418 0.0225571 0.0224707 0.0242481 0.0281734 0.0285578 0.0316704 0.0288915 0.0246421 0.023177 0.0278296 0.0255055 0.0265322 0.00257004 0.00246736 0.00222861 0.00171425 0.00261695 0.00262878 0.00211763 0.00268322 0.00280404 0.00281682 0.00334132 0.00255558 0.00239642 0.00313986 0.00345782 0.0022323 0.00170846 0.00210234 0.00228525 0.00160985 0.0025564 0.00229118 0.00273499 0.00321711 0.00345901 0.00483655 0.00460716 0.00349232 0.00414454 0.0039176 0.0043734 0.00496138 0.00446017 0.00479879 0.00526836 0.0056945 0.00761257 0.00645509 0.00685708 0.00601305 0.00631803 0.00680716 0.00594637 0.00614342 0.00565103 0.00241644 0.00509698 0.00269884 0.00302496 0.00355152 0.0016996 0.00107001 0.00269501 0.00387993 0.00597696 0.00449029 0.00704142 0.00309341 0.00255744 0.00344324 0.00889515 0.00325912 0.0033953 0.00617928 0.00133813 0.0020824 0.00295515 0.00393388 0.00483973 0.00646212 0.00694769 0.00832178 0.0101655 0.0117853 0.0113168 0.0127183 0.0152217 0.0177843 0.0190646 0.0185709 0.0172996 0.0191713 0.01848 0.0208156 0.0215958 0.0198687 0.0197904 0.0232847 0.0218542 0.0227736 0.021473 0.0209898 0.0230926 0.0231075 0.0227742 0.0215074 0.0232697 0.0204662 0.0190307 0.0166648 0.0182484 0.0169816 0.018555 0.0172176 0.0204234 0.0226532 0.0145813 0.0162917 0.0192798 0.0211483 0.0251322 0.0233054 0.023488 0.0185877 0.0173063 0.0171291 0.0219054 0.0195787 0.025576 0.0258074 0.0283716 0.0318659 0.0387201 0.0332235 0.0326078 0.0347061 0.0027411 0.00193951 0.00290162 0.00334195 0.00325392 0.00397652 0.003809 0.00336613 0.00399469 0.00358591 0.0022271 0.00304392 0.00367481 0.00442647 0.00487138 0.00501572 0.00593956 0.0060162 0.00385646 0.00428236 0.00517166 0.00540267 0.0047469 0.00464971 0.00559621 0.00540038 0.00592484 0.00613813 0.00758747 0.00730747 0.00622987 0.00699643 0.0072716 0.00605003 0.00646689 0.00613421 0.00593402 0.00687581 0.00675901 0.00099998 0.00513988 0.00508204 0.0018698 0.00151025 0.00581429 0.00524737 0.00603152 0.00464866 0.0056353 0.00624586 0.00627992 0.00290285 0.00386475 0.0020464 0.00433998 0.0018715 0.00141257 0.00234573 0.00366325 0.00559578 0.00606205 0.00665447 0.00715217 0.00807616 0.00966227 0.00894692 0.0100706 0.0122277 0.0124026 0.0138228 0.0149818 0.0169054 0.0161991 0.0140567 0.0141726 0.0178848 0.0176761 0.0227661 0.024035 0.0238107 0.0228679 0.0224487 0.0218413 0.0224867 0.0221503 0.0201373 0.0190684 0.0195824 0.0167886 0.0173103 0.0196664 0.01131 0.015442 0.0169428 0.0198394 0.0188231 0.0184476 0.0193435 0.0172407 0.0209349 0.0186925 0.0167102 0.0164898 0.0180746 0.019642 0.0115742 0.0137754 0.0134897 0.0195688 0.0239007 0.0218544 0.0286824 0.0311201 0.0327592 0.0401002 0.039981 0.00665543 0.00359696 0.00404207 0.00407295 0.00388418 0.00419842 0.00439144 0.00374565 0.00455997 0.00467461 0.0049834 0.00427016 0.00566134 0.00427258 0.00442596 0.00489577 0.00566671 0.00528065 0.00524716 0.00484524 0.00525492 0.00562827 0.00521609 0.00486159 0.00540117 0.00534394 0.00490043 0.00526642 0.00539551 0.0065498 0.00623683 0.00742697 0.00746995 0.00652375 0.00785372 0.00568035 0.00340778 0.00468222 0.00596034 0.00444671 0.00727082 0.00774497 0.00715619 0.00544201 0.00649675 0.00597107 0.00433727 0.0048294 0.00162242 0.00300018 0.00174081 0.00266213 0.00158041 0.00161875 0.00320166 0.00416846 0.00561691 0.0069802 0.00793945 0.00846507 0.00955703 0.0102014 0.0106348 0.00970902 0.0183175 0.016329 0.0170935 0.0162704 0.0151138 0.0100598 0.0398865 0.0280614 0.0329462 0.0283784 0.0242191 0.0216899 0.0207931 0.0212002 0.0202395 0.0185419 0.0192709 0.00908481 0.0107472 0.0112388 0.012308 0.0119063 0.0115432 0.00989906 0.0170355 0.00722851 0.0127524 0.00640116 0.020895 0.0173683 0.0241414 0.0145341 0.0117853 0.00458446 0.0146627 0.017006 0.019621 0.0137681 0.0195227 0.0182315 0.020213 0.0245676 0.0329359 0.0400046 0.0432578 0.0434367 0.00108749 0.00512359 0.00358977 0.00441379 0.00411826 0.00484056 0.00462224 0.00498478 0.00491684 0.00538535 0.00539054 0.00556885 0.00581649 0.00580283 0.00538123 0.00624952 0.00620179 0.00517291 0.00555387 0.00584149 0.00615908 0.00547225 0.00579682 0.00528719 0.00446531 0.00470886 0.0050807 0.00743236 0.00570109 0.0048191 0.00511038 0.0056546 0.0054215 0.00423249 0.00658448 0.00433529 0.00450498 0.0035004 0.00514332 0.00550456 0.00612108 0.00451983 0.00667561 0.00211211 0.00657097 0.00517352 0.00514872 0.00250276 0.00566764 0.0049466 0.00361047 0.00176821 0.000880242 0.00532018 0.00221588 0.00237638 0.00207239 0.00337941 0.00218024 0.00399407 0.00488814 0.00425972 0.00520577 0.00714322 0.00940693 0.00991964 0.011045 0.011288 0.0123194 0.0149653 0.0162947 0.0165986 0.0175281 0.0192437 0.0257815 0.0248803 0.0264838 0.0163744 0.0233937 0.0163932 0.0205608 0.0191199 0.0198359 0.0191505 0.0158557 0.0171632 0.0109694 0.0142084 0.0134381 0.0124719 0.00918805 0.00469863 0.00453362 0.00497394 0.0108705 0.00572579 0.0125208 0.0115674 0.00724902 0.00526659 0.0153015 0.0198099 0.0201555 0.0216451 0.0230246 0.0179104 0.0214232 0.0261434 0.0389168 0.0304457 0.0465336 0.000957958 0.0039827 0.00217831 0.00376955 0.00488939 0.00434017 0.00521632 0.00554809 0.00560496 0.00547423 0.00605114 0.00619122 0.00622588 0.00717496 0.00695691 0.0075137 0.00650039 0.00556155 0.00732505 0.00726685 0.00679261 0.00651771 0.00566851 0.00613947 0.00551095 0.00597712 0.00828736 0.00537953 0.00443149 0.00495815 0.00524954 0.00506953 0.00546016 0.00304768 0.00202586 0.00211751 0.00243489 0.00456228 0.00746178 0.00720697 0.00612977 0.00845949 0.00572211 0.0021746 0.00242362 0.00188465 0.00113437 0.00249727 0.00355146 0.00169866 0.00148798 0.00199119 0.00288503 0.0047495 0.00662786 0.00909096 0.010552 0.011742 0.0138415 0.0146589 0.0178989 0.0181151 0.0176992 0.0171552 0.0200612 0.0189188 0.0169373 0.0176603 0.0162348 0.0175885 0.0171228 0.0172192 0.0139042 0.0123929 0.0115698 0.0168846 0.0120817 0.0122682 0.0087059 0.00536276 0.00958453 0.00877481 0.0104801 0.00422107 0.00382465 0.00648956 0.0203323 0.023801 0.0185621 0.0186937 0.0190943 0.0187598 0.0204339 0.0259958 0.0279227 0.0396004 0.0528511 0.00123295 0.0020019 0.00319551 0.00406717 0.00438796 0.00499718 0.0046669 0.006035 0.0069055 0.00614634 0.00760969 0.00782788 0.00711442 0.00725548 0.00749965 0.00738124 0.00805159 0.00770989 0.00743222 0.00664019 0.00564436 0.00629777 0.00660656 0.00412023 0.003989 0.00385891 0.00543981 0.00318441 0.00523446 0.00166015 0.00242089 0.00197044 0.00233519 0.00320238 0.00318047 0.00373514 0.00597086 0.00770684 0.00978168 0.00558363 0.00193157 0.00182091 0.00258657 0.00187985 0.00244834 0.00241015 0.00481332 0.0021135 0.000847183 0.00266364 0.00264608 0.00364572 0.00377923 0.00644198 0.00784651 0.0094831 0.011236 0.0131406 0.013547 0.0153074 0.0225628 0.0201846 0.0191328 0.0179573 0.0196497 0.0183196 0.0182576 0.0174791 0.0162238 0.0166111 0.0136758 0.01362 0.0118466 0.0120531 0.0131277 0.0144194 0.0144406 0.0118025 0.0110228 0.0122811 0.00686016 0.00445386 0.00457583 0.00579334 0.00110494 0.00219638 0.00494037 0.0103698 0.021834 0.0221811 0.0229087 0.0266557 0.0186193 0.0219641 0.0210687 0.0211113 0.023713 0.0379871 0.0268899 0.0388304 0.0557996 0.00065558 0.00184392 0.000475893 0.0024863 0.00443488 0.00632092 0.00636642 0.00724874 0.00680806 0.00715425 0.00776718 0.00840604 0.00882899 0.008947 0.00827465 0.00853423 0.00863187 0.00935958 0.0066546 0.00874828 0.00728725 0.0122499 0.0102931 0.00341197 0.00531318 0.00335841 0.00590607 0.00309398 0.00515637 0.00502654 0.00488668 0.00372122 0.00154974 0.00250063 0.0031745 0.00225154 0.00361754 0.00392135 0.00479608 0.00576718 0.00717492 0.00542012 0.000869614 0.00218985 0.0028915 0.00327543 0.0016274 0.00177736 0.00178206 0.00196945 0.00292224 0.00178426 0.0038753 0.00649631 0.00704656 0.00803847 0.0101981 0.0103852 0.0111748 0.02117 0.0164262 0.0178878 0.0232378 0.0200235 0.0181187 0.0113053 0.00989753 0.00904452 0.0102483 0.0108156 0.0134002 0.0101735 0.0113643 0.0131751 0.00412277 0.00561594 0.00696675 0.00581073 0.00479392 0.00717378 0.00687507 0.00459791 0.010157 0.0174197 0.0231699 0.0265339 0.0237648 0.0205307 0.0241144 0.0224232 0.0249297 0.0326397 0.0584629 0.00317952 0.00210713 0.00144071 0.000883147 0.00306818 0.00470316 0.00459392 0.00835693 0.00895177 0.009948 0.00994057 0.0098349 0.0092023 0.00797432 0.00939354 0.010098 0.0100597 0.00838074 0.0107294 0.0115311 0.0070631 0.00498951 0.00617544 0.00371842 0.00444121 0.00551972 0.000557276 0.0070475 0.00440465 0.00520037 0.00209073 0.00408953 0.00259951 0.0026512 0.00437309 0.00518956 0.00411678 0.00546445 0.00600513 0.00260103 0.00185761 0.0038356 0.00506062 0.00308692 0.00555934 0.00243449 0.0026754 0.00481574 0.00628819 0.00589459 0.00858351 0.00844171 0.00863466 0.00860121 0.00763084 0.00642832 0.0339327 0.0317573 0.026424 0.0265845 0.0202902 0.0213547 0.0207195 0.0204841 0.0200094 0.01339 0.0123578 0.0161164 0.010787 0.0119987 0.011541 0.00565391 0.00782082 0.00259016 0.000921016 0.00502748 0.00444636 0.00386378 0.00424752 0.00588287 0.0137755 0.0102773 0.0102108 0.0175994 0.025935 0.0295194 0.0237448 0.0279759 0.0219469 0.0192439 0.0200415 0.0303926 0.0620289 0.00388101 0.005743 0.00524905 0.0104768 0.00855773 0.000289907 0.00412543 0.0150539 0.00231593 0.00428671 0.0190032 0.0333976 0.0345523 0.0648603 
SCALARS Stress float 1
LOOKUP_TABLE default
-12558500000.0 -12552500000.0 -12552500000.0 -12551500000.0 -12554400000.0 -12549700000.0 -12556100000.0 -12556100000.0 -12550500000.0 -12551600000.0 -12549700000.0 -12550700000.0 -12549700000.0 -12549700000.0 -12551100000.0 -12549700000.0 -12549700000.0 -12549900000.0 -12549700000.0 -12549900000.0 -12550300000.0 -12552700000.0 -12554100000.0 -12552300000.0 -12551400000.0 -12550800000.0 -12550300000.0 -12549800000.0 -12549700000.0 -12549700000.0 -12549700000.0 -12550300000.0 -12551100000.0 -12551400000.0 -12554100000.0 -12552600000.0 -12551500000.0 -12550200000.0 -12549700000.0 -12551200000.0 -12551200000.0 -12549800000.0 -12552200000.0 -12549700000.0 -12549800000.0 -12551400000.0 -12556600000.0 -12555700000.0 -12554300000.0 -12555900000.0 -12550500000.0 -12551700000.0 -12550800000.0 -12557000000.0 -12557800000.0 -12550000000.0 -12550000000.0 -12550200000.0 -12551400000.0 -12551400000.0 -12556800000.0 -12552200000.0 -12551300000.0 -12560900000.0 -12554500000.0 -12551900000.0 -12551600000.0 -12551100000.0 -12550900000.0 -12555500000.0 -12554100000.0 -12560400000.0 -12555000000.0 -12565900000.0 -12579500000.0 -12570100000.0 -12574600000.0 -12572000000.0 -12570000000.0 -12569900000.0 -12565800000.0 -12552800000.0 -12551400000.0 -12549700000.0 -12551600000.0 -12556000000.0 -12556800000.0 -12553100000.0 -12551300000.0 -12550900000.0 -12554300000.0 -12556200000.0 -12574500000.0 -12570900000.0 -12570700000.0 -12557900000.0 -12563100000.0 -12549800000.0 -12555500000.0 -12550900000.0 -12591300000.0 -12577100000.0 -12586700000.0 -12594800000.0 -12615300000.0 -12624800000.0 -12608200000.0 -12560100000.0 -12556300000.0 -12556300000.0 -12549700000.0 -12553400000.0 -12549900000.0 -12549700000.0 -12555100000.0 -12549700000.0 -12549700000.0 -12550900000.0 -12549700000.0 -12552300000.0 -12549700000.0 -12561000000.0 -12549700000.0 -12549700000.0 -12549700000.0 -12550200000.0 -12549700000.0 -12549700000.0 -12549800000.0 -12550500000.0 -12553000000.0 -12553800000.0 -12559300000.0 -12558900000.0 -12567300000.0 -12565500000.0 -12555800000.0 -12554000000.0 -12551400000.0 -12554900000.0 -12557900000.0 -12556000000.0 -12555700000.0 -12551200000.0 -12554200000.0 -12565800000.0 -12551600000.0 -12556200000.0 -12559800000.0 -12558200000.0 -12555200000.0 -12553900000.0 -12550700000.0 -12560000000.0 -12557300000.0 -12579300000.0 -12549700000.0 -12549700000.0 -12553800000.0 -12553700000.0 -12568800000.0 -12554600000.0 -12549700000.0 -12571800000.0 -12555600000.0 -12549700000.0 -12549700000.0 -12552500000.0 -12557200000.0 -12552700000.0 -12550100000.0 -12571000000.0 -12578600000.0 -12585400000.0 -12583900000.0 -12602000000.0 -12552500000.0 -12554100000.0 -12552900000.0 -12619000000.0 -12550100000.0 -12566000000.0 -12564700000.0 -12557400000.0 -12558000000.0 -12575000000.0 -12579000000.0 -12549700000.0 -12555500000.0 -12550400000.0 -12564100000.0 -12621000000.0 -12575700000.0 -12571900000.0 -12571300000.0 -12590900000.0 -12598100000.0 -12588300000.0 -12591100000.0 -12562400000.0 -12549700000.0 -12633600000.0 -12610600000.0 -12611100000.0 -12613400000.0 -12586400000.0 -12551600000.0 -12609600000.0 -12570100000.0 -12580200000.0 -12568500000.0 -12569400000.0 -12565300000.0 -12551900000.0 -12561000000.0 -12549700000.0 -12549800000.0 -12552300000.0 -12549700000.0 -12557600000.0 -12549700000.0 -12564400000.0 -12550000000.0 -12551700000.0 -12549700000.0 -12552500000.0 -12552400000.0 -12553000000.0 -12554300000.0 -12556600000.0 -12562300000.0 -12561800000.0 -12574900000.0 -12570900000.0 -12582300000.0 -12555600000.0 -12576800000.0 -12572000000.0 -12565400000.0 -12573500000.0 -12549800000.0 -12550600000.0 -12566100000.0 -12549700000.0 -12556900000.0 -12573000000.0 -12552300000.0 -12550700000.0 -12550200000.0 -12578600000.0 -12566800000.0 -12552400000.0 -12553600000.0 -12568700000.0 -12619200000.0 -12574300000.0 -12569100000.0 -12564200000.0 -12581400000.0 -12584600000.0 -12637700000.0 -12614800000.0 -12617800000.0 -12616100000.0 -12570900000.0 -12582100000.0 -12591200000.0 -12592600000.0 -12581400000.0 -12590300000.0 -12577300000.0 -12580600000.0 -12563200000.0 -12598000000.0 -12686000000.0 -12748300000.0 -12568800000.0 -12563400000.0 -12572000000.0 -12560300000.0 -12711700000.0 -12646000000.0 -12632600000.0 -12588600000.0 -12589800000.0 -12586000000.0 -12640300000.0 -12597900000.0 -12587600000.0 -12570600000.0 -12624900000.0 -12551600000.0 -12561600000.0 -12554600000.0 -12577100000.0 -12557700000.0 -12600900000.0 -12595100000.0 -12594300000.0 -12594100000.0 -12549700000.0 -12653100000.0 -12555000000.0 -12581300000.0 -12646500000.0 -12577700000.0 -12603600000.0 -12624200000.0 -12558000000.0 -12578200000.0 -12549700000.0 -12555400000.0 -12571400000.0 -12561500000.0 -12562700000.0 -12566500000.0 -12558200000.0 -12561100000.0 -12557800000.0 -12573900000.0 -12562700000.0 -12576000000.0 -12557800000.0 -12555000000.0 -12553300000.0 -12549700000.0 -12550000000.0 -12550900000.0 -12552000000.0 -12550400000.0 -12556600000.0 -12567700000.0 -12573400000.0 -12562300000.0 -12607900000.0 -12600300000.0 -12585200000.0 -12611700000.0 -12603700000.0 -12605900000.0 -12625000000.0 -12625100000.0 -12594800000.0 -12583400000.0 -12575800000.0 -12609800000.0 -12558000000.0 -12551700000.0 -12560400000.0 -12583600000.0 -12551200000.0 -12575200000.0 -12562400000.0 -12608900000.0 -12598300000.0 -12684400000.0 -12575100000.0 -12565300000.0 -12578300000.0 -12561700000.0 -12630100000.0 -12549700000.0 -12549700000.0 -12589700000.0 -12549700000.0 -12628600000.0 -12628900000.0 -12607800000.0 -12602800000.0 -12586100000.0 -12675000000.0 -12667300000.0 -12602700000.0 -12658700000.0 -12702300000.0 -12574300000.0 -12653000000.0 -12784500000.0 -12770200000.0 -12751200000.0 -12793800000.0 -12553900000.0 -12551900000.0 -12626300000.0 -12633300000.0 -12661000000.0 -12615800000.0 -12657700000.0 -12597000000.0 -12580100000.0 -12566800000.0 -12644500000.0 -12582700000.0 -12623700000.0 -12659900000.0 -12668600000.0 -12715700000.0 -12584100000.0 -12555300000.0 -12553800000.0 -12580700000.0 -12553000000.0 -12722500000.0 -12561600000.0 -12668700000.0 -12616000000.0 -12709300000.0 -12577200000.0 -12567800000.0 -12618300000.0 -12587500000.0 -12595500000.0 -12555800000.0 -12554500000.0 -12591900000.0 -12578800000.0 -12558500000.0 -12571200000.0 -12555500000.0 -12557000000.0 -12550400000.0 -12568200000.0 -12549900000.0 -12569400000.0 -12581000000.0 -12563700000.0 -12557300000.0 -12559000000.0 -12555000000.0 -12550400000.0 -12561100000.0 -12555100000.0 -12594300000.0 -12580400000.0 -12565600000.0 -12555600000.0 -12616900000.0 -12637700000.0 -12557200000.0 -12589100000.0 -12561800000.0 -12559600000.0 -12561900000.0 -12604500000.0 -12557900000.0 -12576700000.0 -12612100000.0 -12676700000.0 -12574900000.0 -12562500000.0 -12597800000.0 -12557600000.0 -12594600000.0 -12565000000.0 -12722800000.0 -12608100000.0 -12568900000.0 -12608900000.0 -12561200000.0 -12667700000.0 -12549700000.0 -12551200000.0 -12556000000.0 -12611400000.0 -12731300000.0 -12559100000.0 -12552500000.0 -12641100000.0 -12633400000.0 -12555700000.0 -12571200000.0 -12698300000.0 -12669700000.0 -12633200000.0 -12692200000.0 -12707800000.0 -12565900000.0 -12639200000.0 -12636200000.0 -12629700000.0 -12773500000.0 -12694700000.0 -12553700000.0 -12550100000.0 -12648400000.0 -12553900000.0 -12775700000.0 -12790200000.0 -12811500000.0 -12764800000.0 -12681000000.0 -12697800000.0 -12667300000.0 -12559100000.0 -12579500000.0 -12552100000.0 -12706900000.0 -12639500000.0 -12613400000.0 -12624500000.0 -12690000000.0 -12553400000.0 -12558900000.0 -12727800000.0 -12591600000.0 -12646600000.0 -12648200000.0 -12637700000.0 -12621600000.0 -12588700000.0 -12605400000.0 -12556300000.0 -12554700000.0 -12591600000.0 -12640500000.0 -12640700000.0 -12635300000.0 -12633300000.0 -12628500000.0 -12618300000.0 -12659700000.0 -12639600000.0 -12636300000.0 -12650100000.0 -12662600000.0 -12616500000.0 -12618600000.0 -12597000000.0 -12610500000.0 -12549800000.0 -12555300000.0 -12566800000.0 -12550800000.0 -12698000000.0 -12664800000.0 -12562400000.0 -12555200000.0 -12573200000.0 -12596700000.0 -12589100000.0 -12550200000.0 -12555500000.0 -12550400000.0 -12615700000.0 -12603200000.0 -12559600000.0 -12653600000.0 -12666500000.0 -12663600000.0 -12672800000.0 -12747400000.0 -12674800000.0 -12645900000.0 -12771500000.0 -12625900000.0 -12653800000.0 -12720700000.0 -12653900000.0 -12563600000.0 -12619300000.0 -12653800000.0 -12684200000.0 -12711400000.0 -12909400000.0 -12711300000.0 -12726600000.0 -12681000000.0 -12612500000.0 -12612600000.0 -12661000000.0 -12594200000.0 -12679600000.0 -12687700000.0 -12607600000.0 -12743500000.0 -12580000000.0 -12657800000.0 -12650700000.0 -12621300000.0 -12578600000.0 -12718400000.0 -12696200000.0 -12659500000.0 -12928100000.0 -12819600000.0 -12600800000.0 -12601000000.0 -12721900000.0 -12631000000.0 -12618600000.0 -12630200000.0 -12549700000.0 -12609700000.0 -12583200000.0 -12572400000.0 -12762600000.0 -12662400000.0 -12647500000.0 -12656400000.0 -12827800000.0 -13009900000.0 -12685700000.0 -12646300000.0 -12864600000.0 -12732300000.0 -12650400000.0 -12629800000.0 -12649800000.0 -12580900000.0 -12565900000.0 -12593200000.0 -12562700000.0 -12560900000.0 -12653900000.0 -12579500000.0 -12549800000.0 -12551000000.0 -12586500000.0 -12582400000.0 -12602400000.0 -12570600000.0 -12558600000.0 -12577600000.0 -12550200000.0 -12552400000.0 -12601100000.0 -12605400000.0 -12619600000.0 -12615100000.0 -12658500000.0 -12642600000.0 -12592500000.0 -12603400000.0 -12632800000.0 -12577300000.0 -12562400000.0 -12566600000.0 -12577800000.0 -12553100000.0 -12597500000.0 -12573700000.0 -12575500000.0 -12636200000.0 -12634300000.0 -12597100000.0 -12579700000.0 -12609700000.0 -12607100000.0 -12558800000.0 -12613200000.0 -12557500000.0 -12634000000.0 -12646900000.0 -12621000000.0 -12765000000.0 -12626200000.0 -12573900000.0 -12690100000.0 -12619000000.0 -12625900000.0 -12630500000.0 -12607300000.0 -12549700000.0 -12552000000.0 -12579800000.0 -12828500000.0 -12614900000.0 -12609400000.0 -12801600000.0 -12825700000.0 -12824500000.0 -12891000000.0 -12815900000.0 -12783600000.0 -12773700000.0 -12863400000.0 -12959500000.0 -12909300000.0 -12978600000.0 -13008900000.0 -12899400000.0 -13047500000.0 -12798600000.0 -12763600000.0 -12970700000.0 -12611100000.0 -12616200000.0 -12650200000.0 -12670600000.0 -12639800000.0 -12635100000.0 -12670700000.0 -12571600000.0 -12645300000.0 -12549700000.0 -12753900000.0 -12558900000.0 -12558400000.0 -12552300000.0 -12625100000.0 -12549700000.0 -12979200000.0 -12983500000.0 -12964200000.0 -12789500000.0 -12778100000.0 -12737500000.0 -12773900000.0 -12714400000.0 -12751900000.0 -12782200000.0 -12681500000.0 -12693400000.0 -12679500000.0 -12654800000.0 -12647900000.0 -12627300000.0 -12597100000.0 -12565000000.0 -12564300000.0 -12619600000.0 -12564600000.0 -12585100000.0 -12593500000.0 -12590000000.0 -12598600000.0 -12550000000.0 -12572100000.0 -12555300000.0 -12582400000.0 -12562400000.0 -12627400000.0 -12609100000.0 -12665700000.0 -12573900000.0 -12565900000.0 -12575000000.0 -12597000000.0 -12575600000.0 -12587300000.0 -12562200000.0 -12607100000.0 -12568400000.0 -12582700000.0 -12576200000.0 -12574600000.0 -12554400000.0 -12575500000.0 -12598300000.0 -12614300000.0 -12770400000.0 -12809400000.0 -12778500000.0 -12902900000.0 -12811300000.0 -12645400000.0 -12612800000.0 -12565900000.0 -12600300000.0 -12565000000.0 -12549700000.0 -12588200000.0 -12576100000.0 -12921300000.0 -12594900000.0 -12619100000.0 -12651900000.0 -12549700000.0 -12666400000.0 -12622000000.0 -12552500000.0 -12700500000.0 -12630100000.0 -12672500000.0 -12772400000.0 -12880000000.0 -12712900000.0 -12629700000.0 -12786300000.0 -12662800000.0 -12809400000.0 -12754600000.0 -13147600000.0 -12550400000.0 -12556200000.0 -12646300000.0 -12787900000.0 -12636200000.0 -12621400000.0 -12740400000.0 -12662900000.0 -12627900000.0 -12690600000.0 -12793200000.0 -12550000000.0 -12563200000.0 -12550700000.0 -12649400000.0 -12549700000.0 -12549700000.0 -12882200000.0 -12891900000.0 -12648600000.0 -12604500000.0 -12568000000.0 -12564800000.0 -12578800000.0 -12762600000.0 -12549700000.0 -12642800000.0 -12636400000.0 -12636300000.0 -12624500000.0 -12555100000.0 -12559000000.0 -12575400000.0 -12565100000.0 -12591500000.0 -12594600000.0 -12618800000.0 -12552900000.0 -12604500000.0 -12592700000.0 -12557800000.0 -12574200000.0 -12575300000.0 -12618100000.0 -12614600000.0 -12608200000.0 -12609000000.0 -12633700000.0 -12677800000.0 -12620500000.0 -12646500000.0 -12672800000.0 -12620100000.0 -12629200000.0 -12724800000.0 -12713700000.0 -12690500000.0 -12667700000.0 -12697300000.0 -12696000000.0 -12723900000.0 -12733400000.0 -12690400000.0 -12731700000.0 -12842100000.0 -12549700000.0 -12674400000.0 -12681000000.0 -12812600000.0 -12568200000.0 -12791700000.0 -12763200000.0 -12556100000.0 -12778300000.0 -12726100000.0 -12693400000.0 -12701500000.0 -12757600000.0 -12747000000.0 -12554200000.0 -12579200000.0 -12600400000.0 -12626200000.0 -12551200000.0 -12696900000.0 -12663300000.0 -12766900000.0 -12586600000.0 -12740800000.0 -12677500000.0 -12590500000.0 -12549700000.0 -12706400000.0 -12786200000.0 -12735200000.0 -12610300000.0 -12678100000.0 -12768900000.0 -12651100000.0 -12693100000.0 -13204300000.0 -12549700000.0 -12751900000.0 -12788800000.0 -12550900000.0 -12561000000.0 -12788500000.0 -12639600000.0 -12552200000.0 -12755400000.0 -12639600000.0 -12589300000.0 -12681100000.0 -12569700000.0 -12666100000.0 -12806100000.0 -12614200000.0 -12552500000.0 -12827700000.0 -12713100000.0 -12562100000.0 -12556900000.0 -12587700000.0 -12765000000.0 -12620500000.0 -12603100000.0 -12551500000.0 -12550500000.0 -12570400000.0 -12591300000.0 -12559000000.0 -12553000000.0 -12549700000.0 -12595200000.0 -12606300000.0 -12613400000.0 -12593200000.0 -12552000000.0 -12589800000.0 -12568500000.0 -12602000000.0 -12596100000.0 -12549900000.0 -12556700000.0 -12565800000.0 -12563800000.0 -12549700000.0 -12623600000.0 -12640200000.0 -12549700000.0 -12636500000.0 -12556600000.0 -12689600000.0 -12634000000.0 -12549700000.0 -12549700000.0 -12606200000.0 -12550500000.0 -12640500000.0 -12549700000.0 -12549800000.0 -12556600000.0 -12633200000.0 -12635600000.0 -12673000000.0 -12797400000.0 -12549700000.0 -12673100000.0 -12681000000.0 -12557500000.0 -12793700000.0 -12690000000.0 -12669200000.0 -12845800000.0 -12599600000.0 -12563500000.0 -12611800000.0 -12565900000.0 -12647900000.0 -12558700000.0 -12764100000.0 -12588100000.0 -12674700000.0 -12607200000.0 -12683600000.0 -12786200000.0 -12740000000.0 -13026500000.0 -12903300000.0 -12894400000.0 -12875400000.0 -12855400000.0 -12951800000.0 -12932000000.0 -12962000000.0 -13005300000.0 -13041600000.0 -13219200000.0 -12738700000.0 -12679100000.0 -13325900000.0 -13435700000.0 -13050600000.0 -12920100000.0 -12675000000.0 -12678800000.0 -12782400000.0 -12633100000.0 -12623500000.0 -12606700000.0 -12749800000.0 -12550200000.0 -12673800000.0 -12704100000.0 -12578300000.0 -12575500000.0 -12606400000.0 -12576000000.0 -12567900000.0 -12869100000.0 -12738000000.0 -12552000000.0 -12591200000.0 -12601800000.0 -12746300000.0 -12549700000.0 -12608900000.0 -12562800000.0 -12567600000.0 -12557200000.0 -12551500000.0 -12603400000.0 -12575200000.0 -12574300000.0 -12600800000.0 -12566000000.0 -12654100000.0 -12584000000.0 -12563700000.0 -12599700000.0 -12582500000.0 -12567300000.0 -12586800000.0 -12550400000.0 -12568900000.0 -12551300000.0 -12555300000.0 -12549900000.0 -12663800000.0 -12550800000.0 -12607600000.0 -12597500000.0 -12633500000.0 -12661000000.0 -12550700000.0 -12552100000.0 -12605700000.0 -12602900000.0 -12681900000.0 -12558300000.0 -12561200000.0 -12586300000.0 -12616300000.0 -12639900000.0 -12596100000.0 -12846000000.0 -12599100000.0 -12767900000.0 -12767400000.0 -12575900000.0 -13093200000.0 -12930400000.0 -12950400000.0 -12898000000.0 -12748200000.0 -12660000000.0 -12679100000.0 -12673500000.0 -12670400000.0 -12661300000.0 -12900300000.0 -12814900000.0 -12598200000.0 -12656100000.0 -12684200000.0 -12579300000.0 -12549700000.0 -12862200000.0 -12693900000.0 -12639200000.0 -12653800000.0 -12568500000.0 -12769000000.0 -12745300000.0 -12587000000.0 -12807700000.0 -12592700000.0 -12557700000.0 -12991000000.0 -12943300000.0 -12964600000.0 -12882200000.0 -12549700000.0 -12845300000.0 -12834400000.0 -12549700000.0 -12929200000.0 -12575500000.0 -12732200000.0 -12557900000.0 -12552900000.0 -12738500000.0 -12577500000.0 -12640200000.0 -12578400000.0 -12744000000.0 -12562100000.0 -12628500000.0 -12642900000.0 -12613600000.0 -12638300000.0 -12812400000.0 -12722600000.0 -12709200000.0 -12752300000.0 -12787900000.0 -12635000000.0 -12656200000.0 -12651300000.0 -12683000000.0 -12650000000.0 -12642900000.0 -12609100000.0 -12652400000.0 -12578700000.0 -12587700000.0 -12624200000.0 -12554000000.0 -12684200000.0 -12604100000.0 -12609100000.0 -12640700000.0 -12617400000.0 -12623400000.0 -12621300000.0 -12568400000.0 -12549700000.0 -12572100000.0 -12568200000.0 -12554700000.0 -12678700000.0 -12555400000.0 -12578100000.0 -12577100000.0 -12646900000.0 -12656000000.0 -12601100000.0 -12626700000.0 -12580300000.0 -12553600000.0 -12672800000.0 -12549700000.0 -12550500000.0 -12580600000.0 -12662300000.0 -12588600000.0 -12664500000.0 -12619500000.0 -12802000000.0 -12549700000.0 -12789400000.0 -12815400000.0 -12938400000.0 -12782300000.0 -12587300000.0 -12801200000.0 -12756700000.0 -12709200000.0 -12723600000.0 -12575300000.0 -12618200000.0 -12610200000.0 -12585400000.0 -12720000000.0 -12549700000.0 -12913300000.0 -12834100000.0 -12866900000.0 -12842900000.0 -13018500000.0 -13133700000.0 -12701200000.0 -12727300000.0 -12766600000.0 -12564800000.0 -13001500000.0 -12618800000.0 -12655400000.0 -12779700000.0 -12629300000.0 -12648900000.0 -12623200000.0 -12573800000.0 -13094700000.0 -12648900000.0 -13091700000.0 -12849600000.0 -12998400000.0 -13081800000.0 -13341600000.0 -13398300000.0 -13297900000.0 -13246300000.0 -13338800000.0 -13309500000.0 -13361000000.0 -13319500000.0 -13029900000.0 -12771900000.0 -12962200000.0 -12934800000.0 -12984200000.0 -13140100000.0 -12793600000.0 -12551400000.0 -12611400000.0 -12648100000.0 -12598300000.0 -12587600000.0 -12583100000.0 -12592800000.0 -12559800000.0 -12559700000.0 -12564300000.0 -12647300000.0 -12618000000.0 -12608800000.0 -12612700000.0 -12662500000.0 -12750600000.0 -12564600000.0 -12586600000.0 -12598900000.0 -12549700000.0 -12576200000.0 -12623100000.0 -12558600000.0 -12670600000.0 -12670400000.0 -12669600000.0 -12702900000.0 -12633500000.0 -12643100000.0 -12634500000.0 -12654000000.0 -12687000000.0 -12616100000.0 -12567500000.0 -12592900000.0 -12590600000.0 -12599900000.0 -12637100000.0 -12690500000.0 -12665000000.0 -12798400000.0 -12617300000.0 -12658400000.0 -12809700000.0 -12549700000.0 -12549700000.0 -13076000000.0 -13087500000.0 -12900900000.0 -12754900000.0 -12827000000.0 -12596100000.0 -12586200000.0 -12606000000.0 -12756400000.0 -12823900000.0 -12732000000.0 -12717600000.0 -12810900000.0 -12999500000.0 -12606900000.0 -12553100000.0 -12596000000.0 -12795700000.0 -12631100000.0 -12802500000.0 -12550900000.0 -12549800000.0 -12752400000.0 -12857600000.0 -13244800000.0 -12844300000.0 -12620500000.0 -12705800000.0 -12590600000.0 -12652400000.0 -12607500000.0 -12603900000.0 -13157000000.0 -12804300000.0 -12952300000.0 -12597800000.0 -12575500000.0 -12719800000.0 -12557900000.0 -12620200000.0 -12643900000.0 -12589100000.0 -12680600000.0 -12822300000.0 -12732400000.0 -12773600000.0 -12714900000.0 -12592100000.0 -12551100000.0 -12551400000.0 -12558000000.0 -12549700000.0 -12912500000.0 -12865200000.0 -12555800000.0 -12600000000.0 -12606900000.0 -12607200000.0 -12563800000.0 -12582600000.0 -12556400000.0 -12552600000.0 -12596100000.0 -12565000000.0 -12567800000.0 -12565000000.0 -12578900000.0 -12591000000.0 -12549700000.0 -12691100000.0 -12658600000.0 -12633400000.0 -12671200000.0 -12651200000.0 -12644100000.0 -12660300000.0 -12584200000.0 -12593800000.0 -12556200000.0 -12581500000.0 -12675800000.0 -12611700000.0 -12575200000.0 -12554400000.0 -12683700000.0 -12565600000.0 -12551600000.0 -12553300000.0 -12574800000.0 -12556100000.0 -12725400000.0 -12565400000.0 -12628100000.0 -12629500000.0 -12817300000.0 -12582400000.0 -12586600000.0 -12579300000.0 -12846600000.0 -12926500000.0 -13142200000.0 -12555300000.0 -12557600000.0 -13039400000.0 -12898900000.0 -12677200000.0 -12670700000.0 -12556500000.0 -12634700000.0 -12564800000.0 -12630400000.0 -12565800000.0 -12584700000.0 -12618200000.0 -12955300000.0 -12619500000.0 -12729200000.0 -12907800000.0 -12732500000.0 -12800500000.0 -12581000000.0 -12996100000.0 -12885000000.0 -12729000000.0 -12777500000.0 -12813600000.0 -12770500000.0 -12728900000.0 -12879300000.0 -12667600000.0 -12554100000.0 -12677000000.0 -12568800000.0 -12781800000.0 -12841200000.0 -12691600000.0 -12978100000.0 -12961700000.0 -12847100000.0 -12815000000.0 -12680700000.0 -12664700000.0 -12562000000.0 -12840800000.0 -12825300000.0 -12664500000.0 -12597500000.0 -12771000000.0 -12588900000.0 -12555600000.0 -12551500000.0 -12557000000.0 -12551600000.0 -12612500000.0 -12931300000.0 -12795200000.0 -12792500000.0 -12630900000.0 -12614500000.0 -12586900000.0 -12661900000.0 -12622600000.0 -12576000000.0 -12572000000.0 -12601000000.0 -12553600000.0 -12558800000.0 -12550400000.0 -12565500000.0 -12579000000.0 -12562000000.0 -12654700000.0 -12560500000.0 -12555200000.0 -12551100000.0 -12571400000.0 -12573200000.0 -12550300000.0 -12612900000.0 -12584500000.0 -12611700000.0 -12693400000.0 -12783000000.0 -12602200000.0 -12554300000.0 -12551200000.0 -12669300000.0 -12589400000.0 -12611900000.0 -12586800000.0 -12562700000.0 -12574700000.0 -12745900000.0 -12577500000.0 -12600200000.0 -12551900000.0 -12747900000.0 -12991400000.0 -12915000000.0 -12912700000.0 -12982400000.0 -12966500000.0 -13098700000.0 -12565400000.0 -12551600000.0 -13164800000.0 -12836800000.0 -12564200000.0 -12555700000.0 -12745200000.0 -12576900000.0 -12582600000.0 -12569100000.0 -12603100000.0 -12595300000.0 -12661300000.0 -13030800000.0 -12779200000.0 -13058500000.0 -12705500000.0 -12668400000.0 -12656700000.0 -12911400000.0 -12581300000.0 -12570300000.0 -12644800000.0 -12550800000.0 -12818300000.0 -12554900000.0 -12709500000.0 -12875900000.0 -12634000000.0 -12645300000.0 -12716200000.0 -12829800000.0 -12740300000.0 -12958200000.0 -12837200000.0 -12688500000.0 -12866300000.0 -12631700000.0 -12746400000.0 -12902800000.0 -12930400000.0 -12978000000.0 -12746000000.0 -12778100000.0 -12773800000.0 -12733900000.0 -12772200000.0 -12581300000.0 -12557600000.0 -12563000000.0 -12563600000.0 -12565500000.0 -12600800000.0 -12822000000.0 -12763900000.0 -12600700000.0 -12582800000.0 -12644600000.0 -12616800000.0 -12590700000.0 -12605000000.0 -12621100000.0 -12606800000.0 -12610100000.0 -12614700000.0 -12614400000.0 -12585200000.0 -12580500000.0 -12671600000.0 -12555200000.0 -12550200000.0 -12575300000.0 -12551900000.0 -12568500000.0 -12549700000.0 -12595300000.0 -12600600000.0 -12588700000.0 -12573400000.0 -12647200000.0 -12648300000.0 -12604500000.0 -12641700000.0 -12679400000.0 -12575400000.0 -12586300000.0 -12585800000.0 -12553400000.0 -12559200000.0 -12798300000.0 -12631200000.0 -12662000000.0 -12749600000.0 -12552500000.0 -12726600000.0 -12582300000.0 -12619400000.0 -13243000000.0 -12619300000.0 -13195200000.0 -12800600000.0 -12550700000.0 -12550000000.0 -12820600000.0 -12928200000.0 -13107500000.0 -12558300000.0 -12573100000.0 -12636200000.0 -12723000000.0 -12558600000.0 -13108400000.0 -13037300000.0 -12549700000.0 -12565000000.0 -12746400000.0 -12551100000.0 -12628600000.0 -12638500000.0 -12682800000.0 -12901100000.0 -12572500000.0 -12569600000.0 -12649900000.0 -12686600000.0 -12827800000.0 -12753800000.0 -12644300000.0 -12599100000.0 -12840400000.0 -12717400000.0 -12683500000.0 -12845000000.0 -12652800000.0 -12693900000.0 -12877600000.0 -12753900000.0 -12825600000.0 -12553900000.0 -12552000000.0 -12601000000.0 -12717200000.0 -12549700000.0 -12646900000.0 -12628500000.0 -12662300000.0 -12693900000.0 -12582400000.0 -12710800000.0 -12574500000.0 -12556600000.0 -12565700000.0 -12551500000.0 -12553900000.0 -12581100000.0 -12658000000.0 -12722500000.0 -12550100000.0 -12549700000.0 -12637900000.0 -12583600000.0 -12566900000.0 -12581900000.0 -12556700000.0 -12574500000.0 -12559400000.0 -12561800000.0 -12567300000.0 -12553300000.0 -12549700000.0 -12626100000.0 -12589400000.0 -12619100000.0 -12616500000.0 -12622600000.0 -12637500000.0 -12646500000.0 -12572200000.0 -12565400000.0 -12564800000.0 -12581500000.0 -12629500000.0 -12593200000.0 -12685400000.0 -12630100000.0 -12629100000.0 -12573400000.0 -12623700000.0 -12549700000.0 -12577900000.0 -12653200000.0 -12869000000.0 -12563800000.0 -12714500000.0 -12699400000.0 -12748800000.0 -12764500000.0 -12672400000.0 -12706900000.0 -12676900000.0 -13737900000.0 -12815100000.0 -12942500000.0 -12801600000.0 -13096800000.0 -12675700000.0 -12592700000.0 -12817900000.0 -12649800000.0 -13150200000.0 -12807700000.0 -12700100000.0 -12661800000.0 -12685200000.0 -12755400000.0 -12684500000.0 -12638100000.0 -12820000000.0 -12632800000.0 -12616800000.0 -12802100000.0 -12736800000.0 -12549700000.0 -12550700000.0 -12693500000.0 -12640100000.0 -12811000000.0 -12718800000.0 -12661400000.0 -12811800000.0 -12558000000.0 -12550300000.0 -12853100000.0 -12662000000.0 -12713000000.0 -12742300000.0 -12871200000.0 -12850100000.0 -12889300000.0 -12549700000.0 -12585800000.0 -12716900000.0 -12568000000.0 -12687700000.0 -12567900000.0 -12556700000.0 -12563000000.0 -12559800000.0 -12563700000.0 -12571200000.0 -12682200000.0 -12553000000.0 -12657200000.0 -12692300000.0 -12597100000.0 -12597700000.0 -12572100000.0 -12566700000.0 -12579200000.0 -12564300000.0 -12583100000.0 -12570200000.0 -12595200000.0 -12585400000.0 -12584600000.0 -12594300000.0 -12595300000.0 -12561100000.0 -12556400000.0 -12549800000.0 -12551700000.0 -12561200000.0 -12559800000.0 -12639200000.0 -12625600000.0 -12609500000.0 -12628900000.0 -12694700000.0 -12549700000.0 -12646700000.0 -12667000000.0 -12610500000.0 -12592600000.0 -12579400000.0 -12704700000.0 -12710000000.0 -12549700000.0 -12597200000.0 -12885800000.0 -12554100000.0 -12619400000.0 -12601500000.0 -12731100000.0 -12550500000.0 -12777000000.0 -12764300000.0 -12823300000.0 -12711800000.0 -13957500000.0 -12554600000.0 -12931700000.0 -12784900000.0 -13061900000.0 -13456600000.0 -13154700000.0 -13108600000.0 -12925300000.0 -12929500000.0 -13186700000.0 -12552400000.0 -12829300000.0 -12567500000.0 -12571200000.0 -12549700000.0 -12832300000.0 -12632000000.0 -12565200000.0 -12697900000.0 -12624500000.0 -12660000000.0 -12715900000.0 -12748900000.0 -12613600000.0 -12559100000.0 -12549700000.0 -12550700000.0 -12552800000.0 -12622800000.0 -12707000000.0 -12664000000.0 -12612800000.0 -12759400000.0 -12644800000.0 -12745800000.0 -12593900000.0 -12586000000.0 -12555000000.0 -12635900000.0 -12606900000.0 -12624800000.0 -12554600000.0 -12846200000.0 -12889200000.0 -12871100000.0 -12909700000.0 -13010600000.0 -12750900000.0 -12558900000.0 -12549700000.0 -12560400000.0 -12560500000.0 -12552300000.0 -12551600000.0 -12554200000.0 -12567200000.0 -12619400000.0 -12594900000.0 -12639600000.0 -12555500000.0 -12639900000.0 -12602400000.0 -12554600000.0 -12554600000.0 -12564100000.0 -12563500000.0 -12553300000.0 -12581500000.0 -12556800000.0 -12552700000.0 -12556000000.0 -12555600000.0 -12561100000.0 -12568900000.0 -12551600000.0 -12550200000.0 -12550400000.0 -12549700000.0 -12550300000.0 -12593200000.0 -12592900000.0 -12550800000.0 -12553900000.0 -12640200000.0 -12612800000.0 -12706300000.0 -12729300000.0 -12624800000.0 -12589200000.0 -12674000000.0 -12601600000.0 -12770300000.0 -12853200000.0 -12847800000.0 -12646000000.0 -12550300000.0 -12667600000.0 -12599900000.0 -12607000000.0 -12619300000.0 -12929700000.0 -13034400000.0 -13464900000.0 -13148800000.0 -13210700000.0 -13314700000.0 -12583400000.0 -12767200000.0 -12956500000.0 -12780900000.0 -12798500000.0 -12943400000.0 -13141300000.0 -12772600000.0 -12917600000.0 -12615200000.0 -12589000000.0 -12812000000.0 -12571200000.0 -12590700000.0 -12582400000.0 -12612000000.0 -12630700000.0 -12634500000.0 -12549700000.0 -12572700000.0 -12617900000.0 -12575800000.0 -12576900000.0 -12681000000.0 -12629700000.0 -12558500000.0 -12725100000.0 -12578900000.0 -12696300000.0 -12549700000.0 -12695300000.0 -12651900000.0 -12606200000.0 -12641200000.0 -12602800000.0 -12575500000.0 -12636900000.0 -12637900000.0 -12665100000.0 -12792700000.0 -12673500000.0 -12680500000.0 -12736300000.0 -12693600000.0 -12556400000.0 -12561400000.0 -12549700000.0 -12581700000.0 -12552400000.0 -12551600000.0 -12560800000.0 -12551400000.0 -12570600000.0 -12625100000.0 -12549700000.0 -12578000000.0 -12587500000.0 -12561100000.0 -12551700000.0 -12556600000.0 -12549900000.0 -12563200000.0 -12573800000.0 -12583200000.0 -12552800000.0 -12551800000.0 -12550000000.0 -12551500000.0 -12555400000.0 -12549700000.0 -12558200000.0 -12550200000.0 -12549900000.0 -12551100000.0 -12551300000.0 -12568500000.0 -12567000000.0 -12621300000.0 -12619500000.0 -12707800000.0 -12584400000.0 -12567800000.0 -12579000000.0 -12845100000.0 -12781800000.0 -12772600000.0 -12749400000.0 -12789500000.0 -13100400000.0 -12550100000.0 -12814900000.0 -12946700000.0 -12694800000.0 -12753900000.0 -12655400000.0 -13071300000.0 -12560400000.0 -12813100000.0 -13240100000.0 -13103100000.0 -13156600000.0 -13213600000.0 -12916000000.0 -12860100000.0 -12986900000.0 -12670400000.0 -12740100000.0 -12549700000.0 -13206800000.0 -12845400000.0 -12562000000.0 -12870200000.0 -12799000000.0 -12562600000.0 -12568200000.0 -12558800000.0 -12594200000.0 -12604900000.0 -12617200000.0 -12631500000.0 -12623500000.0 -12549800000.0 -12610800000.0 -12606000000.0 -12551000000.0 -12568200000.0 -12567500000.0 -12645600000.0 -12610400000.0 -12608200000.0 -12577600000.0 -12625300000.0 -12597300000.0 -12677400000.0 -12594700000.0 -12575000000.0 -12590700000.0 -12607100000.0 -12603600000.0 -12603100000.0 -12622200000.0 -12601200000.0 -12675000000.0 -12550300000.0 -12549800000.0 -12819600000.0 -12621000000.0 -12579700000.0 -12549700000.0 -12579500000.0 -12579300000.0 -12572300000.0 -12573300000.0 -12573100000.0 -12554100000.0 -12605600000.0 -12612700000.0 -12604400000.0 -12577500000.0 -12579700000.0 -12579700000.0 -12566000000.0 -12570400000.0 -12550000000.0 -12559200000.0 -12549700000.0 -12551600000.0 -12549900000.0 -12555100000.0 -12552000000.0 -12564800000.0 -12551500000.0 -12555500000.0 -12551400000.0 -12549900000.0 -12572300000.0 -12558800000.0 -12553800000.0 -12607300000.0 -12550300000.0 -12552000000.0 -12602200000.0 -12716300000.0 -12674800000.0 -12709400000.0 -12806500000.0 -12612600000.0 -12809300000.0 -12560300000.0 -12633800000.0 -12615500000.0 -12789600000.0 -12576800000.0 -12941200000.0 -12973000000.0 -12731700000.0 -12971100000.0 -12565500000.0 -12681500000.0 -12662600000.0 -13351500000.0 -13941200000.0 -12616200000.0 -12603800000.0 -12659700000.0 -13073600000.0 -12576600000.0 -12668800000.0 -12549700000.0 -13022700000.0 -12685300000.0 -12600800000.0 -12671100000.0 -12824000000.0 -12636100000.0 -12639700000.0 -12626200000.0 -12625200000.0 -12583600000.0 -12633800000.0 -12577500000.0 -12550600000.0 -12623700000.0 -12562400000.0 -12585400000.0 -12556900000.0 -12590800000.0 -12560600000.0 -12573900000.0 -12578800000.0 -12549700000.0 -12611400000.0 -12656100000.0 -12549700000.0 -12586000000.0 -12552600000.0 -12550800000.0 -12550000000.0 -12571600000.0 -12558800000.0 -12602000000.0 -12648200000.0 -12658000000.0 -12572300000.0 -12629500000.0 -12760400000.0 -12616700000.0 -12598100000.0 -12561300000.0 -12549700000.0 -12556800000.0 -12554400000.0 -12552500000.0 -12555900000.0 -12554600000.0 -12552700000.0 -12555000000.0 -12569500000.0 -12566100000.0 -12554300000.0 -12556600000.0 -12557300000.0 -12559500000.0 -12565700000.0 -12570600000.0 -12558600000.0 -12561200000.0 -12563300000.0 -12569000000.0 -12567500000.0 -12562600000.0 -12567900000.0 -12561500000.0 -12582000000.0 -12592600000.0 -12665900000.0 -12634500000.0 -12636000000.0 -12690100000.0 -12565600000.0 -12610600000.0 -12554400000.0 -12727400000.0 -12630700000.0 -12563000000.0 -12587700000.0 -12932500000.0 -12670600000.0 -12588600000.0 -13115700000.0 -12549700000.0 -12868100000.0 -12728200000.0 -12550400000.0 -13407300000.0 -12592700000.0 -13538400000.0 -12565200000.0 -12551800000.0 -12560500000.0 -13163400000.0 -12562300000.0 -13111200000.0 -12785200000.0 -12820300000.0 -12999400000.0 -12842600000.0 -12729200000.0 -12828100000.0 -12869800000.0 -12833900000.0 -12652100000.0 -12623300000.0 -12629200000.0 -12629000000.0 -12695500000.0 -12703400000.0 -12629100000.0 -12558600000.0 -12607400000.0 -12609800000.0 -12583300000.0 -12580500000.0 -12640000000.0 -12575500000.0 -12572800000.0 -12596200000.0 -12606300000.0 -12711200000.0 -12578600000.0 -12572500000.0 -12645400000.0 -12620800000.0 -12603300000.0 -12604700000.0 -12549800000.0 -12565400000.0 -12584700000.0 -12550700000.0 -12572000000.0 -12693100000.0 -12576900000.0 -12591600000.0 -12556700000.0 -12551000000.0 -12554500000.0 -12549700000.0 -12549700000.0 -12550000000.0 -12553400000.0 -12551500000.0 -12550000000.0 -12549700000.0 -12554400000.0 -12557200000.0 -12549900000.0 -12549700000.0 -12549700000.0 -12549800000.0 -12549700000.0 -12555500000.0 -12566200000.0 -12565200000.0 -12563800000.0 -12563200000.0 -12560400000.0 -12558800000.0 -12565800000.0 -12575500000.0 -12591000000.0 -12606900000.0 -12656800000.0 -12566600000.0 -12587200000.0 -12578100000.0 -12671000000.0 -12615700000.0 -12603000000.0 -12639300000.0 -12747100000.0 -12551100000.0 -12762100000.0 -12775200000.0 -12678900000.0 -12550700000.0 -12698800000.0 -12774900000.0 -12927100000.0 -12825000000.0 -13022200000.0 -12556200000.0 -12599300000.0 -13174000000.0 -12935400000.0 -12662800000.0 -13061500000.0 -12761500000.0 -13423200000.0 -12604200000.0 -12556300000.0 -12673100000.0 -13597700000.0 -12551700000.0 -13241200000.0 -13523000000.0 -13042300000.0 -13129400000.0 -12624800000.0 -12825200000.0 -12713300000.0 -12627900000.0 -12555700000.0 -12549700000.0 -12637800000.0 -12649100000.0 -12681700000.0 -12685100000.0 -12698200000.0 -12635700000.0 -12724300000.0 -12659800000.0 -12576800000.0 -12554500000.0 -12561900000.0 -12549700000.0 -12551400000.0 -12549700000.0 -12603400000.0 -12564000000.0 -12568800000.0 -12568900000.0 -12576100000.0 -12654700000.0 -12572500000.0 -12572300000.0 -12575900000.0 -12562000000.0 -12573200000.0 -12598200000.0 -12555400000.0 -12555000000.0 -12577000000.0 -12550900000.0 -12634500000.0 -12615400000.0 -12591500000.0 -12585800000.0 -12551700000.0 -12550700000.0 -12552500000.0 -12549700000.0 -12549700000.0 -12550100000.0 -12552300000.0 -12550800000.0 -12549700000.0 -12549700000.0 -12549700000.0 -12553400000.0 -12549700000.0 -12549700000.0 -12549700000.0 -12550400000.0 -12549900000.0 -12555000000.0 -12551400000.0 -12551400000.0 -12549900000.0 -12551900000.0 -12554800000.0 -12554200000.0 -12561000000.0 -12565200000.0 -12564700000.0 -12562100000.0 -12553600000.0 -12584500000.0 -12597600000.0 -12566600000.0 -12602100000.0 -12615800000.0 -12634800000.0 -12645500000.0 -12658100000.0 -12657300000.0 -12691600000.0 -12585200000.0 -12841800000.0 -12936700000.0 -12804900000.0 -12934900000.0 -13135000000.0 -13205000000.0 -13557700000.0 -13179700000.0 -13524600000.0 -13795400000.0 -13334400000.0 -13142900000.0 -13080800000.0 -13057000000.0 -12853900000.0 -12649200000.0 -12759100000.0 -13152400000.0 -12868900000.0 -12816800000.0 -12760300000.0 -12623500000.0 -12569000000.0 -12578200000.0 -12568800000.0 -12611800000.0 -12555600000.0 -12564100000.0 -12560500000.0 -12569500000.0 -12611600000.0 -12632200000.0 -12574600000.0 -12603800000.0 -12569900000.0 -12580300000.0 -12567400000.0 -12562500000.0 -12559400000.0 -12589300000.0 -12549800000.0 -12552900000.0 -12550500000.0 -12552600000.0 -12610600000.0 -12553300000.0 -12551100000.0 -12572400000.0 -12549700000.0 -12554400000.0 -12614000000.0 -12601600000.0 -12627000000.0 -12639600000.0 -12561900000.0 -12571900000.0 -12551600000.0 -12550200000.0 -12549700000.0 -12550500000.0 -12549700000.0 -12549700000.0 -12549700000.0 -12550600000.0 -12550000000.0 -12549700000.0 -12549700000.0 -12549700000.0 -12551000000.0 -12549700000.0 -12549700000.0 -12549700000.0 -12549700000.0 -12550000000.0 -12553200000.0 -12552000000.0 -12552100000.0 -12551800000.0 -12550200000.0 -12550500000.0 -12550900000.0 -12554500000.0 -12551300000.0 -12552900000.0 -12560000000.0 -12556200000.0 -12553400000.0 -12564300000.0 -12552600000.0 -12557900000.0 -12566000000.0 -12578400000.0 -12583700000.0 -12560900000.0 -12583900000.0 -12649500000.0 -12748000000.0 -12806100000.0 -12896400000.0 -12559600000.0 -12663000000.0 -12971600000.0 -12967600000.0 -12645100000.0 -13326300000.0 -12703700000.0 -12825800000.0 -13092500000.0 -12798600000.0 -12897800000.0 -12595800000.0 -12708900000.0 -12710700000.0 -12668300000.0 -13158300000.0 -12563800000.0 -12617000000.0 -12587700000.0 -12614100000.0 -12609300000.0 -12608900000.0 -12555500000.0 -12551300000.0 -12550700000.0 -12551900000.0 -12555900000.0 -12556400000.0 -12555000000.0 -12551500000.0 -12580400000.0 -12572400000.0 -12549700000.0 -12555800000.0 -12554300000.0 -12554400000.0 -12561200000.0 -12560200000.0 -12559200000.0 -12562300000.0 -12568000000.0 -12549700000.0 -12572500000.0 -12567800000.0 -12551700000.0 -12556900000.0 -12552200000.0 -12559200000.0 -12553900000.0 -12552200000.0 -12560000000.0 -12552900000.0 -12599700000.0 -12551500000.0 -12587100000.0 -12585100000.0 -12567500000.0 -12631900000.0 -12638300000.0 -12618500000.0 -12675200000.0 -12718900000.0 -12949300000.0 -12863100000.0 -12989900000.0 -12841700000.0 -12741900000.0 -12832600000.0 -13348800000.0 -12550300000.0 -12801200000.0 -12806000000.0 -13199800000.0 -12781700000.0 -12662500000.0 -12710400000.0 -13008700000.0 -12554800000.0 -12630200000.0 -12582500000.0 -12818800000.0 -12615400000.0 -12567100000.0 -13260300000.0 -12827800000.0 -12857900000.0 -12549700000.0 -12754200000.0 -12639600000.0 -12976300000.0 -13152400000.0 -13104800000.0 -12958000000.0 -12719900000.0 -12675700000.0 -12683900000.0 -12974100000.0 -12589500000.0 -12646400000.0 -12679200000.0 -12730000000.0 -12681400000.0 -12674700000.0 -12642200000.0 -12958600000.0 -12815300000.0 -12586900000.0 -12931000000.0 -13142700000.0 -12592100000.0 -13546800000.0 -13691400000.0 -12761700000.0 -12949400000.0 -12768200000.0 -12662100000.0 -12549700000.0 -12689500000.0 -13070600000.0 -12564700000.0 -12576000000.0 -12645100000.0 -12613700000.0 -12667700000.0 -12879500000.0 -12551700000.0 -12808000000.0 -12580500000.0 -12582500000.0 -12590300000.0 -13467500000.0 -12689700000.0 -12549700000.0 -12599300000.0 -12549700000.0 -12612900000.0 -12703300000.0 -12678300000.0 -12943100000.0 -12565800000.0 -12566600000.0 -12568400000.0 -12549700000.0 -12549700000.0 -12572400000.0 -12708200000.0 -12696300000.0 -12664400000.0 -12952900000.0 -12897900000.0 -12618300000.0 -12858100000.0 -12722100000.0 -12726300000.0 -12664900000.0 -12935600000.0 -12639200000.0 -12792900000.0 -12796700000.0 -12590000000.0 -12602700000.0 -12565100000.0 -12549700000.0 -12549700000.0 -12549700000.0 -12549700000.0 -12565500000.0 -12662700000.0 -12645500000.0 -12744800000.0 -12674400000.0 -12627600000.0 -12740800000.0 -12627000000.0 -13472500000.0 -12592800000.0 -12610300000.0 -12643900000.0 -12821800000.0 -12638400000.0 -12896000000.0 -12675700000.0 -12573400000.0 -12560400000.0 -12549700000.0 -12549700000.0 -12549700000.0 -12549700000.0 -12549700000.0 -12549700000.0 -12549700000.0 -12549700000.0 -12549700000.0 -12549700000.0 -12549700000.0 -12549700000.0 -12549700000.0 -12549700000.0 -12549700000.0 -12549700000.0 -12549700000.0 -12549700000.0 -12549700000.0 -12549700000.0 -12549700000.0 -12549700000.0 -12549700000.0 -12549700000.0 -12549700000.0 -12549700000.0 -12549700000.0 -12549700000.0 -12549700000.0 -12549700000.0 -12549700000.0 -12549700000.0 -12549700000.0 -12549700000.0 -12549700000.0 -12557500000.0 -12644600000.0 -12584700000.0 -12603200000.0 -12593800000.0 -12584700000.0 -12703500000.0 -12935000000.0 -12766000000.0 -12787500000.0 -12756800000.0 -13494700000.0 -12630600000.0 -12570400000.0 -12620300000.0 -12565800000.0 -12874400000.0 -12907000000.0 -12557300000.0 -12636000000.0 -12551500000.0 -12620000000.0 -12680500000.0 -12568700000.0 -12552100000.0 -12549700000.0 -12549700000.0 -12549700000.0 -12549700000.0 -12549700000.0 -12549700000.0 -12549700000.0 -12549700000.0 -12549700000.0 -12549700000.0 -12549700000.0 -12549700000.0 -12549700000.0 -12549700000.0 -12549700000.0 -12549700000.0 -12549700000.0 -12549700000.0 -12549700000.0 -12549700000.0 -12549700000.0 -12549700000.0 -12549700000.0 -12549700000.0 -12549700000.0 -12549700000.0 -12627000000.0 -12553100000.0 -12585000000.0 -12670000000.0 -12754900000.0 -12882700000.0 -12688100000.0 -12769200000.0 -13138100000.0 -12650000000.0 -12561200000.0 -12682600000.0 -12796700000.0 -12717600000.0 -12766100000.0 -12550400000.0 -12572200000.0 -12682600000.0 -12552900000.0 -12556500000.0 -12552000000.0 -12549800000.0 -12549700000.0 -12549700000.0 -12549700000.0 -12549700000.0 -12549700000.0 -12549700000.0 -12549700000.0 -12549700000.0 -12549700000.0 -12549700000.0 -12549700000.0 -12549700000.0 -12549700000.0 -12549700000.0 -12549700000.0 -12549700000.0 -12549700000.0 -12549700000.0 -12549700000.0 -12549700000.0 -12549700000.0 -12549700000.0 -12549700000.0 -12549700000.0 -12549700000.0 -12549700000.0 -12549700000.0 -12549700000.0 -12549700000.0 -12549700000.0 -12549700000.0 -12549700000.0 -12549700000.0 -12549700000.0 -12549700000.0 -12549700000.0 -12549700000.0 -12549700000.0 -12549700000.0 -12549700000.0 -12549700000.0 -12549700000.0 -12549700000.0 -12549700000.0 -12551100000.0 -12556700000.0 -12560300000.0 -12566000000.0 -12572700000.0 -12650800000.0 -12600500000.0 -12596800000.0 -12727500000.0 -12633800000.0 -12673300000.0 -12594300000.0 -12638800000.0 -12700300000.0 -13169400000.0 -13015400000.0 -12951500000.0 -12860900000.0 -12570900000.0 -12562900000.0 -12640100000.0 -12648600000.0 -12563800000.0 -12571300000.0 -12556600000.0 -12550200000.0 -12550900000.0 -12549900000.0 -12549700000.0 -12549700000.0 -12549700000.0 -12549700000.0 -12549700000.0 -12549700000.0 -12549700000.0 -12549700000.0 -12549700000.0 -12549700000.0 -12549700000.0 -12549700000.0 -12549700000.0 -12549700000.0 -12549700000.0 -12549700000.0 -12549700000.0 -12549700000.0 -12549700000.0 -12549700000.0 -12549700000.0 -12549700000.0 -12549700000.0 -12549700000.0 -12549700000.0 -12549700000.0 -12549700000.0 -12549700000.0 -12549700000.0 -12549700000.0 -12549700000.0 -12549700000.0 -12549700000.0 -12549700000.0 -12549700000.0 -12549700000.0 -12549700000.0 -12549700000.0 -12549700000.0 -12549700000.0 -12549700000.0 -12549700000.0 -12549700000.0 -12552100000.0 -12596300000.0 -12564600000.0 -12648000000.0 -12663200000.0 -12640000000.0 -12669700000.0 -12550000000.0 -12719800000.0 -12674300000.0 -12722400000.0 -12614800000.0 -12891700000.0 -12824300000.0 -12930000000.0 -12549700000.0 -12726600000.0 -12832900000.0 -12645500000.0 -12614500000.0 -12591100000.0 -12565400000.0 -12551400000.0 -12550200000.0 -12549700000.0 -12549700000.0 -12549700000.0 -12549700000.0 -12549700000.0 -12549700000.0 -12549700000.0 -12549700000.0 -12549700000.0 -12549700000.0 -12549700000.0 -12549700000.0 -12549700000.0 -12549700000.0 -12549700000.0 -12549700000.0 -12549700000.0 -12549700000.0 -12549700000.0 -12549700000.0 -12549700000.0 -12549700000.0 -12549700000.0 -12549700000.0 -12549700000.0 -12549700000.0 -12549700000.0 -12549700000.0 -12549700000.0 -12549700000.0 -12549700000.0 -12549700000.0 -12549700000.0 -12549700000.0 -12549700000.0 -12549700000.0 -12549700000.0 -12549700000.0 -12549700000.0 -12549700000.0 -12549700000.0 -12549700000.0 -12549700000.0 -12549900000.0 -12549700000.0 -12550000000.0 -12552200000.0 -12553400000.0 -12564900000.0 -12577700000.0 -12571900000.0 -12583800000.0 -12562700000.0 -12737700000.0 -12704500000.0 -12648100000.0 -12622400000.0 -12772500000.0 -12660300000.0 -12849400000.0 -12553900000.0 -12793700000.0 -12998500000.0 -12779500000.0 -12587600000.0 -12551400000.0 -12554000000.0 -12549700000.0 -12550000000.0 -12549800000.0 -12549700000.0 -12549700000.0 -12549700000.0 -12549700000.0 -12549700000.0 -12549700000.0 -12549700000.0 -12549700000.0 -12549700000.0 -12549700000.0 -12549700000.0 -12549700000.0 -12549700000.0 -12549700000.0 -12549700000.0 -12549700000.0 -12549700000.0 -12549700000.0 -12549700000.0 -12549700000.0 -12549700000.0 -12549700000.0 -12549700000.0 -12549700000.0 -12549700000.0 -12549700000.0 -12549700000.0 -12549700000.0 -12549700000.0 -12549700000.0 -12549700000.0 -12549700000.0 -12549700000.0 -12549700000.0 -12549700000.0 -12549700000.0 -12549700000.0 -12549700000.0 -12549700000.0 -12549700000.0 -12549700000.0 -12549700000.0 -12549700000.0 -12549700000.0 -12549700000.0 -12549700000.0 -12549700000.0 -12549700000.0 -12549700000.0 -12549700000.0 -12549700000.0 -12555900000.0 -12588100000.0 -12614000000.0 -12554500000.0 -12682200000.0 -12549900000.0 -12583400000.0 -12647200000.0 -12745200000.0 -12765900000.0 -12626300000.0 -12685500000.0 -12615200000.0 -12581900000.0 -12788200000.0 -12569300000.0 -12732200000.0 -12559800000.0 -12771100000.0 -12651600000.0 -12663700000.0 -12575000000.0 -12554500000.0 -12553600000.0 -12559600000.0 -12550600000.0 -12549700000.0 -12549700000.0 -12549700000.0 -12549700000.0 -12549700000.0 -12549700000.0 -12549700000.0 -12549700000.0 -12549700000.0 -12549700000.0 -12549700000.0 -12549700000.0 -12549700000.0 -12549700000.0 -12549700000.0 -12549700000.0 -12549700000.0 -12549700000.0 -12549700000.0 -12549700000.0 -12549700000.0 -12549700000.0 -12549700000.0 -12549700000.0 -12549700000.0 -12549700000.0 -12549700000.0 -12549700000.0 -12549700000.0 -12549700000.0 -12549700000.0 -12549700000.0 -12549700000.0 -12549700000.0 -12549700000.0 -12549700000.0 -12549700000.0 -12549700000.0 -12549700000.0 -12549700000.0 -12549700000.0 -12549700000.0 -12553300000.0 -12679600000.0 -12557500000.0 -12568000000.0 -12628200000.0 -12594200000.0 -12580100000.0 -12551300000.0 -12567300000.0 -12572900000.0 -12686600000.0 -12549700000.0 -12666100000.0 -12807700000.0 -12721100000.0 -12549700000.0 -12661200000.0 -12578500000.0 -12564400000.0 -12549700000.0 -12549700000.0 -12549700000.0 -12549700000.0 -12549700000.0 -12549700000.0 -12549700000.0 -12549700000.0 -12549700000.0 -12549700000.0 -12549700000.0 -12549700000.0 -12549700000.0 -12549700000.0 -12549700000.0 -12549700000.0 -12549700000.0 -12549700000.0 -12549700000.0 -12549700000.0 -12549700000.0 -12549700000.0 -12549700000.0 -12549700000.0 -12549700000.0 -12549700000.0 -12549700000.0 -12549700000.0 -12549700000.0 -12549700000.0 -12549700000.0 -12549700000.0 -12549700000.0 -12549700000.0 -12549700000.0 -12549700000.0 -12549700000.0 -12549700000.0 -12549700000.0 -12549700000.0 -12549700000.0 -12549700000.0 -12549700000.0 -12555500000.0 -12598800000.0 -12636400000.0 -12559100000.0 -12568500000.0 -12560500000.0 -12564000000.0 -12564700000.0 -12553000000.0 -12572400000.0 -12601000000.0 -12656800000.0 -12552600000.0 -12563500000.0 -12557300000.0 -12726900000.0 -12554000000.0 -12765400000.0 -12549700000.0 -12554700000.0 -12618200000.0 -12559800000.0 -12549700000.0 -12549700000.0 -12549700000.0 -12549700000.0 -12549700000.0 -12549700000.0 -12549700000.0 -12549700000.0 -12549700000.0 -12549700000.0 -12549700000.0 -12549700000.0 -12549700000.0 -12549700000.0 -12549700000.0 -12549700000.0 -12549700000.0 -12549700000.0 -12549700000.0 -12549700000.0 -12549700000.0 -12549700000.0 -12549700000.0 -12549700000.0 -12549700000.0 -12549700000.0 -12549700000.0 -12549700000.0 -12549700000.0 -12549700000.0 -12549700000.0 -12549700000.0 -12549700000.0 -12549700000.0 -12549700000.0 -12549700000.0 -12549700000.0 -12559100000.0 -12570300000.0 -12608700000.0 -12568000000.0 -12563100000.0 -12569100000.0 -12575600000.0 -12550000000.0 -12606300000.0 -12602100000.0 -12550800000.0 -12773700000.0 -12570100000.0 -12745300000.0 -12613200000.0 -12619100000.0 -12558000000.0 -12549700000.0 -12549700000.0 -12549700000.0 -12549700000.0 -12549700000.0 -12549700000.0 -12549700000.0 -12549700000.0 -12549700000.0 -12549700000.0 -12549700000.0 -12549700000.0 -12549700000.0 -12549700000.0 -12549700000.0 -12549700000.0 -12549700000.0 -12549700000.0 -12549700000.0 -12549700000.0 -12549700000.0 -12549700000.0 -12549700000.0 -12549700000.0 -12549700000.0 -12549700000.0 -12549700000.0 -12549700000.0 -12549700000.0 -12549700000.0 -12549700000.0 -12549700000.0 -12549700000.0 -12549700000.0 -12549700000.0 -12549700000.0 -12549700000.0 -12549700000.0 -12549700000.0 -12549700000.0 -12549700000.0 -12549700000.0 -12549700000.0 -12549700000.0 -12549700000.0 -12550400000.0 -12583000000.0 -12568400000.0 -12553200000.0 -12563200000.0 -12562300000.0 -12571500000.0 -12598000000.0 -12592500000.0 -12651900000.0 -12615800000.0 -12689700000.0 -12619800000.0 -12549700000.0 -12628600000.0 -12627900000.0 -12581500000.0 -12598500000.0 -12577400000.0 -12562200000.0 -12555100000.0 -12551300000.0 -12549700000.0 -12549700000.0 -12549700000.0 -12549700000.0 -12549700000.0 -12549700000.0 -12549700000.0 -12549700000.0 -12549700000.0 -12549700000.0 -12549700000.0 -12549700000.0 -12549700000.0 -12549700000.0 -12549700000.0 -12549700000.0 -12549700000.0 -12549700000.0 -12549700000.0 -12549700000.0 -12549700000.0 -12549700000.0 -12549700000.0 -12549700000.0 -12549700000.0 -12549700000.0 -12549700000.0 -12549700000.0 -12549700000.0 -12549700000.0 -12549700000.0 -12549700000.0 -12566500000.0 -12577500000.0 -12552200000.0 -12550200000.0 -12562600000.0 -12577400000.0 -12624800000.0 -12580200000.0 -12571700000.0 -12592700000.0 -12553100000.0 -12636500000.0 -12647500000.0 -12647300000.0 -12613700000.0 -12560900000.0 -12580600000.0 -12550100000.0 -12552000000.0 -12549700000.0 -12549700000.0 -12549700000.0 -12549700000.0 -12549700000.0 -12549700000.0 -12549700000.0 -12549700000.0 -12549700000.0 -12549700000.0 -12549700000.0 -12549700000.0 -12549700000.0 -12549700000.0 -12549700000.0 -12549700000.0 -12549700000.0 -12549700000.0 -12549700000.0 -12549700000.0 -12549700000.0 -12549700000.0 -12549700000.0 -12551600000.0 -12549700000.0 -12576500000.0 -12575300000.0 -12580100000.0 -12553300000.0 -12585300000.0 -12595800000.0 -12588000000.0 -12594600000.0 -12550200000.0 -12617800000.0 -12554200000.0 -12571700000.0 -12624800000.0 -12652800000.0 -12566500000.0 -12554500000.0 -12594500000.0 -12586600000.0 -12575900000.0 -12550300000.0 -12563500000.0 -12570500000.0 -12565000000.0 -12549700000.0 -12549700000.0 -12549700000.0 -12549700000.0 -12549700000.0 -12549700000.0 -12549700000.0 -12549700000.0 -12549700000.0 -12549700000.0 -12549700000.0 -12549700000.0 -12549700000.0 -12549700000.0 -12549700000.0 -12549700000.0 -12549700000.0 -12549700000.0 -12549700000.0 -12549700000.0 -12549700000.0 -12549700000.0 -12549700000.0 -12549700000.0 -12549700000.0 -12557100000.0 -12582000000.0 -12560200000.0 -12623100000.0 -12578100000.0 -12604600000.0 -12624100000.0 -12553300000.0 -12549700000.0 -12623700000.0 -12580100000.0 -12575600000.0 -12549700000.0 -12549900000.0 -12549700000.0 -12561700000.0 -12554000000.0 -12558300000.0 -12549700000.0 -12549700000.0 -12549700000.0 -12549700000.0 -12549700000.0 -12549700000.0 -12549700000.0 -12549700000.0 -12549700000.0 -12549700000.0 -12549700000.0 -12549700000.0 -12549700000.0 -12549700000.0 -12549700000.0 -12551900000.0 -12559000000.0 -12564900000.0 -12560100000.0 -12555200000.0 -12558300000.0 -12558100000.0 -12557800000.0 -12554800000.0 -12559500000.0 -12574900000.0 -12580800000.0 -12555000000.0 -12559600000.0 -12601800000.0 -12585300000.0 -12553800000.0 -12551000000.0 -12553300000.0 -12549700000.0 -12575200000.0 -12557700000.0 -12560400000.0 -12551200000.0 -12552300000.0 -12549700000.0 -12549700000.0 -12549700000.0 -12549700000.0 -12549700000.0 -12549700000.0 -12549700000.0 -12549700000.0 -12549700000.0 -12549700000.0 -12549700000.0 -12549700000.0 -12549700000.0 -12549700000.0 -12550200000.0 -12550600000.0 -12552600000.0 -12559600000.0 -12550200000.0 -12551300000.0 -12550400000.0 -12562200000.0 -12551000000.0 -12555600000.0 -12562800000.0 -12549900000.0 -12564100000.0 -12560200000.0 -12602700000.0 -12572100000.0 -12573000000.0 -12549700000.0 -12553000000.0 -12551100000.0 -12549700000.0 -12549700000.0 -12549700000.0 -12549700000.0 -12549700000.0 -12549700000.0 -12549700000.0 -12549700000.0 -12549700000.0 -12549700000.0 -12549800000.0 -12555400000.0 -12549800000.0 -12549700000.0 -12549700000.0 -12552600000.0 -12557300000.0 -12551400000.0 -12549700000.0 -12559700000.0 -12560400000.0 -12555800000.0 -12564100000.0 -12555400000.0 -12552800000.0 -12556300000.0 -12549700000.0 -12577400000.0 -12550600000.0 -12567200000.0 -12549700000.0 -12549700000.0 -12549700000.0 -12549700000.0 -12549700000.0 -12549700000.0 -12549700000.0 -12549700000.0 -12549700000.0 -12549700000.0 -12549900000.0 -12549700000.0 -12551900000.0 -12551200000.0 -12550400000.0 -12550000000.0 -12550100000.0 -12549900000.0 -12554200000.0 -12549700000.0 -12550200000.0 -12558900000.0 -12554600000.0 -12549700000.0 -12549700000.0 -12553000000.0 -12551000000.0 -12549900000.0 -12550100000.0 -12561200000.0 -12552800000.0 -12549700000.0 -12549700000.0 -12549700000.0 -12549700000.0 -12549700000.0 -12549700000.0 -12550100000.0 -12549800000.0 -12550500000.0 -12550400000.0 -12550500000.0 -12550900000.0 -12553400000.0 -12552600000.0 -12554500000.0 -12550100000.0 -12550500000.0 -12550100000.0 -12549700000.0 -12550000000.0 -12550300000.0 -12549700000.0 -12549800000.0 -12551500000.0 -12550000000.0 -12549700000.0 -12549700000.0 -12549700000.0 -12549700000.0 -12549700000.0 -12549700000.0 -12549700000.0 -12549700000.0 -12549700000.0 -12549700000.0 -12549700000.0 -12549700000.0 -12549700000.0 -12549700000.0 -12549700000.0 -12549700000.0 -12549900000.0 -12549700000.0 -12550000000.0 -12549700000.0 -12549700000.0 -12549700000.0 -12549700000.0 -12549700000.0 -12549700000.0 -12549700000.0 -12549700000.0 -12549700000.0 -12549700000.0 -12549700000.0 -12549700000.0 -12549700000.0 -12549700000.0 -12549700000.0 -12549700000.0 -12549700000.0 -12549700000.0 -12549700000.0 -12549700000.0 -12549700000.0 -12549700000.0 -12549700000.0 -2.66668e+12 -4.12117e+12 -3.67796e+12 -4.85672e+12 -4.04046e+12 -4.10245e+12 -3.9229e+12 -3.7775e+12 -3.53877e+12 -3.18792e+12 -5.79375e+12 -3.00122e+12 -3.50257e+12 -5.10556e+12 -4.78223e+12 -6.33659e+12 -4.40265e+12 -3.20023e+12 -3.9347e+12 -3.02555e+12 -4.30148e+12 -5.18844e+12 -5.40522e+12 -4.94622e+12 -4.91315e+12 -3.7159e+12 -3.64067e+12 -3.92502e+12 -4.41191e+12 -4.04456e+12 -5.44263e+12 -5.23416e+12 -3.43126e+12 -2.62332e+12 -2.99075e+12 -3.78851e+12 -4.64639e+12 -6.271e+12 -3.59818e+12 -4.53251e+12 -4.62773e+12 -3.83459e+12 -3.61442e+12 -3.15546e+12 -3.80441e+12 -3.62978e+12 -2.34888e+12 -2.70034e+12 -3.72822e+12 -2.7868e+12 -2.11597e+12 -1.79936e+12 -3.47007e+12 -4.82863e+12 -5.39227e+12 -4.03059e+12 -6.67559e+12 -4.47914e+12 -3.01613e+12 -4.72532e+12 -4.50051e+12 -4.23778e+12 -3.93412e+12 -5.93319e+12 -6.56512e+12 -5.33771e+12 -3.74908e+12 -5.32801e+12 -7.39196e+12 -4.57388e+12 -5.02777e+12 -5.73965e+12 -4.64426e+12 -4.45696e+12 -6.68103e+12 -6.0034e+12 -2.58318e+12 -4.09378e+12 -3.83952e+12 -3.77591e+12 -4.66902e+12 -4.05479e+12 -3.93796e+12 -5.22517e+12 -4.64031e+12 -3.89792e+12 -4.44087e+12 -4.57224e+12 -2.70796e+12 -5.22917e+12 -4.18866e+12 -5.79334e+12 -6.51172e+12 -6.16196e+12 -5.7716e+12 -5.172e+12 -4.70686e+12 -6.51536e+12 -4.16255e+12 -4.71604e+12 -6.28482e+12 -4.00384e+12 -4.89329e+12 -2.84756e+12 -2.59664e+12 -6.62083e+12 -5.44391e+12 -8.60397e+12 -6.14812e+12 -6.10323e+12 -7.72996e+12 -1.11397e+13 -5.47892e+12 -7.25776e+12 -4.07436e+12 -5.71584e+12 -4.73036e+12 -7.20181e+12 -7.03411e+12 -1.86796e+12 -5.19921e+12 -6.89215e+12 -4.27995e+12 -4.76595e+12 -6.09147e+12 -2.51524e+12 -5.82469e+12 -5.4706e+12 -6.83139e+12 -7.16498e+12 -1.1185e+13 -5.34719e+12 -6.22192e+12 -6.34056e+12 -5.45152e+12 -9.07403e+12 -7.69354e+12 -8.75502e+12 -5.61399e+12 -5.77309e+12 -8.90887e+12 -9.28731e+12 -8.03864e+12 -5.47237e+12 -5.22599e+12 -7.45399e+12 -6.32161e+12 -7.70224e+12 -7.09244e+12 -6.62966e+12 -6.98995e+12 -4.73502e+12 -8.27196e+12 -7.48667e+12 -1.08732e+13 -2.7741e+12 -3.95331e+12 -3.16328e+12 -5.00179e+12 -7.74235e+12 -8.23686e+12 -6.04212e+12 -4.82728e+12 -5.2981e+12 -6.86252e+12 -6.56238e+12 -2.89296e+12 -4.34471e+12 -4.12726e+12 -4.94435e+12 -4.69704e+12 -5.84855e+12 -5.06648e+12 -6.46364e+12 -9.19031e+12 -5.00167e+12 -4.08685e+12 -6.07615e+12 -3.85287e+12 -7.12051e+12 -6.39837e+12 -7.21256e+12 -3.71893e+12 -4.7738e+12 -4.9451e+12 -3.70285e+12 -2.4291e+12 -5.41986e+12 -4.30485e+12 -8.69083e+12 -8.11494e+12 -2.28484e+12 -5.25348e+12 -1.01815e+13 -3.26549e+12 -4.98776e+12 -3.96822e+12 -2.36681e+12 -7.16531e+12 -5.20104e+12 -7.55535e+12 -4.30315e+12 -4.24259e+12 -6.28599e+12 -6.16436e+12 -1.06677e+13 -6.56836e+12 -1.03322e+13 -7.26027e+12 -5.24045e+12 -9.01561e+12 -7.82128e+12 -5.34491e+12 -6.57238e+12 -7.66764e+12 -7.36656e+12 -4.628e+12 -6.74773e+12 -8.834e+12 -1.03524e+13 -5.12393e+12 -7.66316e+12 -7.8125e+12 -4.62113e+12 -5.66377e+12 -4.94108e+12 -8.35666e+12 -6.43485e+12 -6.83486e+12 -8.40301e+12 -6.82496e+12 -6.27916e+12 -6.22437e+12 -7.10234e+12 -5.62008e+12 -5.49147e+12 -1.48693e+12 -2.92863e+12 -4.97964e+12 -4.30678e+12 -5.56973e+12 -6.4414e+12 -8.51962e+12 -1.02248e+13 -6.92088e+12 -5.62675e+12 -4.92787e+12 -6.37791e+12 -7.26925e+12 -3.83156e+12 -6.44359e+12 -8.295e+12 -7.11551e+12 -4.96221e+12 -6.02434e+12 -8.03271e+12 -6.43661e+12 -5.91828e+12 -9.8491e+12 -5.3981e+12 -7.22212e+12 -8.21047e+12 -8.12415e+12 -4.11094e+12 -5.47407e+12 -4.70494e+12 -6.52383e+12 -7.27349e+12 -6.95655e+12 -5.09013e+12 -7.7976e+12 -6.07337e+12 -5.41307e+12 -5.1142e+12 -7.43838e+12 -9.08779e+12 -4.72343e+12 -6.38935e+12 -1.74886e+12 -3.55669e+12 -4.62843e+12 -6.71508e+12 -6.87119e+12 -4.23055e+12 -5.92515e+12 -2.25275e+12 -5.59327e+12 -7.26842e+12 -5.65232e+12 -5.96169e+12 -4.96858e+12 -5.73079e+12 -6.96324e+12 -6.6071e+12 -6.69962e+12 -6.88998e+12 -5.00331e+12 -8.63725e+12 -7.61985e+12 -6.15752e+12 -5.74954e+12 -5.40867e+12 -8.40149e+12 -6.52612e+12 -4.95815e+12 -7.61575e+12 -6.52962e+12 -6.47779e+12 -8.38192e+12 -5.83377e+12 -3.93646e+12 -9.97848e+12 -9.07497e+12 -6.04172e+12 -4.79564e+12 -9.59188e+12 -4.1635e+12 -7.4862e+12 -5.40959e+12 -5.39682e+12 -6.25161e+12 -7.16524e+12 -3.91678e+12 -1.06635e+13 -8.06413e+12 -4.51037e+12 -7.39525e+12 -3.9909e+12 -4.93447e+12 -7.10613e+12 -4.99314e+12 -4.77031e+12 -4.06875e+12 -5.1246e+12 -3.10946e+12 -4.79692e+12 -4.54566e+12 -4.42414e+12 -6.17906e+12 -6.55929e+12 -1.09578e+13 -8.10246e+12 -9.41138e+12 -6.79436e+12 -2.96836e+12 -6.74112e+12 -5.79374e+12 -2.6591e+12 -4.46047e+12 -3.84469e+12 -5.90146e+12 -4.26874e+12 -3.83563e+12 -7.54039e+12 -5.64373e+12 -5.48685e+12 -4.06039e+12 -5.78411e+12 -1.03823e+13 -6.62842e+12 -6.11018e+12 -3.86542e+12 -9.35296e+12 -9.63366e+12 -7.62956e+12 -3.75159e+12 -7.96601e+12 -4.60519e+12 -6.12105e+12 -4.86451e+12 -6.40753e+12 -6.14487e+12 -5.11131e+12 -6.5186e+12 -6.52494e+12 -6.10129e+12 -4.45673e+12 -7.29465e+12 -8.10829e+12 -4.96407e+12 -5.83833e+12 -8.34427e+12 -3.78814e+12 -3.92171e+12 -3.68327e+12 -5.74127e+12 -5.95559e+12 -4.04442e+12 -5.90922e+12 -3.88328e+12 -5.27054e+12 -5.01747e+12 -6.03905e+12 -6.95942e+12 -7.57412e+12 -9.00642e+12 -4.61782e+12 -4.13031e+12 -3.06955e+12 -2.14162e+12 -6.59682e+12 -4.42019e+12 -8.95988e+12 -7.35252e+12 -6.20515e+12 -1.01503e+13 -5.10602e+12 -3.77583e+12 -4.59933e+12 -5.91552e+12 -4.81767e+12 -4.98437e+12 -6.30316e+12 -4.83789e+12 -6.14502e+12 -4.95196e+12 -4.98677e+12 -4.162e+12 -5.21192e+12 -4.1383e+12 -4.67489e+12 -4.17142e+12 -7.32687e+12 -7.36294e+12 -8.2182e+12 -7.21496e+12 -4.05631e+12 -4.85405e+12 -4.32656e+12 -3.55682e+12 -2.31755e+12 -6.16031e+12 -4.47657e+12 -4.45865e+12 -5.19413e+12 -8.0762e+12 -6.65026e+12 -7.40972e+12 -6.04944e+12 -4.24404e+12 -5.42735e+12 -5.44504e+12 -3.28301e+12 -5.95374e+12 -3.87179e+12 -5.66693e+12 -7.63458e+12 -5.33532e+12 -4.59408e+12 -6.09661e+12 -6.24341e+12 -6.16249e+12 -6.8431e+12 -5.58376e+12 -3.6353e+12 -4.06281e+12 -5.16461e+12 -3.21641e+12 -4.56384e+12 -5.91133e+12 -4.42922e+12 -5.27689e+12 -3.8353e+12 -7.93785e+12 -4.78746e+12 -7.81918e+12 -5.31594e+12 -4.44871e+12 -5.88472e+12 -4.33176e+12 -5.9808e+12 -5.74158e+12 -7.34509e+12 -4.24211e+12 -8.27872e+12 -4.34333e+12 -8.62801e+12 -3.44655e+12 -3.52941e+12 -3.01406e+12 -2.93277e+12 -2.30554e+12 -3.76752e+12 -3.78719e+12 -8.54493e+12 -2.92061e+12 -3.62802e+12 -3.02738e+12 -5.13291e+12 -5.44794e+12 -5.54039e+12 -4.68057e+12 -2.56755e+12 -5.01151e+12 -7.54498e+12 -6.80082e+12 -7.68159e+12 -6.34131e+12 -6.79733e+12 -3.56846e+12 -4.02961e+12 -5.74248e+12 -6.26973e+12 -6.02785e+12 -7.57098e+12 -4.39826e+12 -5.8781e+12 -5.52328e+12 -5.77336e+12 -3.29986e+12 -3.58994e+12 -4.27247e+12 -5.51569e+12 -5.32349e+12 -3.53882e+12 -4.42275e+12 -4.3336e+12 -7.36372e+12 -3.17847e+12 -4.04993e+12 -2.79861e+12 -7.11914e+12 -4.3518e+12 -5.71549e+12 -3.7778e+12 -4.22298e+12 -4.94402e+12 -2.97175e+12 -4.44098e+12 -1.00785e+13 -4.37941e+12 -6.90078e+12 -6.67268e+12 -7.97522e+12 -4.16011e+12 -4.49644e+12 -648767000000.0 -5.96991e+12 -4.12454e+12 -9.69161e+12 -4.21614e+12 -5.00696e+12 -5.29438e+12 -4.94146e+12 -4.18605e+12 -3.77879e+12 -4.59883e+12 -2.95298e+12 -4.88346e+12 -4.20648e+12 -7.00653e+12 -6.11601e+12 -4.6932e+12 -2.74222e+12 -6.76317e+12 -6.66139e+12 -4.10736e+12 -8.1164e+12 -6.05391e+12 -5.17829e+12 -7.53055e+12 -7.5092e+12 -4.1777e+12 -7.21686e+12 -2.81179e+12 -6.05289e+12 -6.76898e+12 -5.83252e+12 -3.42598e+12 -3.7686e+12 -6.77367e+12 -5.17753e+12 -7.61252e+12 -7.27538e+12 -6.0379e+12 -7.59048e+12 -3.12429e+12 -4.41511e+12 -4.95062e+12 -3.52107e+12 -4.6798e+12 -5.42069e+12 -5.61001e+12 -2.19795e+12 -2.30806e+12 -2.87667e+12 -2.03302e+12 -5.03849e+12 -7.24987e+12 -4.43968e+12 -3.7231e+12 -3.67625e+12 -3.75977e+12 -2.8039e+12 -7.36666e+12 -4.65848e+12 -4.07457e+12 -3.91772e+12 -5.26555e+12 -6.4261e+12 -5.4344e+12 -3.05623e+12 -3.97671e+12 -3.69199e+12 -4.45043e+12 -3.74453e+12 -5.34041e+12 -4.93641e+12 -5.38388e+12 -3.19605e+12 -3.4272e+12 -6.28528e+12 -5.00267e+12 -4.25983e+12 -5.14435e+12 -3.36689e+12 -1.98597e+12 -3.65843e+12 -4.60358e+12 -5.65923e+12 -5.91672e+12 -7.27524e+12 -2.5964e+12 -2.90498e+12 -4.46211e+12 -3.43723e+12 -4.40761e+12 -5.87825e+12 -2.22102e+12 -6.08286e+12 -4.49056e+12 -4.97806e+12 -6.15773e+12 -5.27609e+12 -4.46564e+12 -3.276e+12 -2.7713e+12 -5.24936e+12 -3.6435e+12 -6.38173e+12 -7.63917e+12 -5.66261e+12 -5.6693e+12 -3.24177e+12 -6.82462e+12 -5.47292e+12 -2.00625e+12 -5.8006e+12 -2.45183e+12 -6.2752e+12 -6.15685e+12 -4.36412e+12 -5.75578e+12 -3.91523e+12 -4.66863e+12 -6.11865e+12 -5.43823e+12 -5.82654e+12 -6.00456e+12 -5.81176e+12 -5.68812e+12 -6.16911e+12 -5.20019e+12 -2.50956e+12 -6.3281e+12 -5.29443e+12 -1.67965e+12 -4.74074e+12 -3.58199e+12 -1.44209e+12 -4.80379e+12 -5.26092e+12 -4.24875e+12 -5.6572e+12 -3.67684e+12 -4.80453e+12 -8.56935e+12 -3.34731e+12 -3.77487e+12 -5.48542e+12 -3.18689e+12 -6.6435e+12 -3.21606e+12 -5.51681e+12 -4.19491e+12 -3.89246e+12 -4.98818e+12 -3.93816e+12 -3.51309e+12 -5.96791e+12 -5.43799e+12 -1.98834e+12 -6.5109e+12 -2.4821e+12 -3.87982e+12 -5.51924e+12 -3.7984e+12 -4.3875e+12 -3.89789e+12 -3.03451e+12 -4.38356e+12 -4.31769e+12 -6.29414e+12 -1.83581e+12 -4.7327e+12 -4.26616e+12 -5.58526e+12 -5.97975e+12 -6.83645e+12 -3.63503e+12 -4.89822e+12 -4.57335e+12 -3.83231e+12 -2.60425e+12 -4.40071e+12 -3.98755e+12 -3.95605e+12 -4.29349e+12 -6.81084e+12 -6.88073e+12 -4.05162e+12 -8.42978e+12 -2.74435e+12 -5.95516e+12 -2.87443e+12 -4.0681e+12 -3.41714e+12 -3.67931e+12 -2.49476e+12 -3.61787e+12 -6.02355e+12 -3.91282e+12 -4.87905e+12 -5.83442e+12 -5.79804e+12 -3.70226e+12 -6.51807e+12 -3.1103e+12 -2.32277e+12 -5.96814e+12 -4.61942e+12 -5.28275e+12 -4.31089e+12 -1.9839e+12 -2.78784e+12 -6.71429e+12 -2.7778e+12 -4.0206e+12 -6.61285e+12 -3.99479e+12 -5.66897e+12 -2.95747e+12 -4.53862e+12 -5.05132e+12 -3.7383e+12 -4.98523e+12 -3.03441e+12 -5.87032e+12 -4.93305e+12 -2.51637e+12 -4.42193e+12 -5.34651e+12 -2.9293e+12 -3.70082e+12 -2.79456e+12 -3.87505e+12 -4.01947e+12 -4.58102e+12 -2.40321e+12 -3.82433e+12 -3.03064e+12 -4.6041e+12 -5.32486e+12 -2.66384e+12 -4.99583e+12 -4.30445e+12 -3.48946e+12 -2.71674e+12 -4.28732e+12 -3.05899e+12 -3.51385e+12 -3.72451e+12 -3.49889e+12 -5.57074e+12 -3.25346e+12 -2.88552e+12 -4.14045e+12 -3.44574e+12 -3.0388e+12 -2.78416e+12 -2.97788e+12 -2.2054e+12 -3.87615e+12 -2.46797e+12 -4.2366e+12 -1.93202e+12 -4.65098e+12 -2.75141e+12 -3.40398e+12 -2.87554e+12 -4.56147e+12 -2.65464e+12 -4.24896e+12 -2.14995e+12 -2.61325e+12 -3.42049e+12 -4.05467e+12 -3.76528e+12 -2.78198e+12 -2.74214e+12 -4.16416e+12 -2.53816e+12 -3.06705e+12 -5.14345e+12 -5.26239e+12 -4.38836e+12 -2.34044e+12 -3.29415e+12 -2.75621e+12 -1.93758e+12 -4.4121e+12 -3.55722e+12 -4.09877e+12 -1.73104e+12 -3.12102e+12 -5.57212e+12 -3.08036e+12 -4.76067e+12 -2.36166e+12 -5.68154e+12 -2.7377e+12 -6.20256e+12 -6.9876e+12 -5.02519e+12 -5.50398e+12 -3.06536e+12 -2.34338e+12 -3.11872e+12 -2.76734e+12 -2.22818e+12 -4.52623e+12 -2.67092e+12 -2.89137e+12 -3.22884e+12 -1.09059e+12 -3.16071e+12 -767412000000.0 -3.88254e+12 -1.46507e+12 -4.50505e+12 -2.89679e+12 -4.32602e+12 -3.03181e+12 -3.0835e+12 -3.97805e+12 -2.27627e+12 -3.47506e+12 -4.07639e+12 -2.22951e+12 -4.59043e+12 -5.43363e+12 -1.58705e+12 -2.97503e+12 -4.34211e+12 -2.96455e+12 -3.72641e+12 -5.64501e+12 -4.08152e+12 -5.23489e+12 -2.58599e+12 -3.1992e+12 -6.8596e+12 -2.74314e+12 -2.21542e+12 -3.07824e+12 -2.06133e+12 -2.01179e+12 -2.2013e+12 -2.85662e+12 -4.60726e+12 -1.98349e+12 -3.05032e+12 -2.69772e+12 -3.80149e+12 -2.0384e+12 -4.57658e+12 -2.51899e+12 -2.14813e+12 -1.62578e+12 -3.99858e+12 -2.72532e+12 -3.07625e+12 -2.45769e+12 -3.20322e+12 -4.35695e+12 -3.43563e+12 -1.82214e+12 -2.91495e+12 -3.6728e+12 -2.35952e+12 -2.64148e+12 -3.15746e+12 -3.53061e+12 -2.78342e+12 -2.70797e+12 -2.85046e+12 -3.83353e+12 -5.16156e+12 -2.07035e+12 -4.16981e+12 -4.85229e+12 -3.50817e+12 -5.64836e+12 -3.36488e+12 -3.08885e+12 -1.46928e+12 -2.96708e+12 -2.97229e+12 -2.66378e+12 -1.39264e+12 -2.83413e+12 -3.00328e+12 -1.78058e+12 -2.80388e+12 -1.1687e+12 -3.27905e+12 -4.29691e+12 -2.95793e+12 -3.33163e+12 -3.06355e+12 -4.33502e+12 -2.90225e+12 -2.88019e+12 -1.70519e+12 -1.74352e+12 -3.28051e+12 -2.96679e+12 -5.78335e+12 -2.04915e+12 -3.75289e+12 -3.72578e+12 -2.15147e+12 -2.21633e+12 -2.93373e+12 -3.24305e+12 -1.59234e+12 -3.62327e+12 -5.3394e+12 -3.19314e+12 -1.67398e+12 -2.24392e+12 -3.04041e+12 -2.65531e+12 -2.57153e+12 -2.49093e+12 -3.03611e+12 -2.5141e+12 -1.98883e+12 -4.2511e+12 -3.23776e+12 -2.1862e+12 -5.12895e+12 -2.86435e+12 -3.62976e+12 -4.10361e+12 -4.914e+12 -1.77561e+12 -2.8196e+12 -3.55759e+12 -3.27069e+12 -3.04191e+12 -3.43191e+12 -3.68357e+12 -4.68382e+12 -2.4138e+12 -2.97652e+12 -1.90841e+12 -5.01212e+12 -3.4129e+12 -1.9354e+12 -2.47953e+12 -3.45163e+12 -4.60159e+12 -3.53951e+12 -3.25923e+12 -2.14273e+12 -2.65196e+12 -2.30361e+12 -2.05588e+12 -2.33993e+12 -202350000000.0 -2.46119e+12 -2.46444e+12 -1.68761e+12 -3.53157e+12 -2.57889e+12 -2.20433e+12 -1.91071e+12 -2.13168e+12 -1.42276e+12 -1.65071e+12 -1.02351e+12 -2.90544e+12 -2.80077e+12 -2.12694e+12 -4.25151e+12 -3.10689e+12 -2.82967e+12 -3.47059e+12 -1.752e+12 -1.40763e+12 -2.86271e+12 -4.35007e+12 -2.32488e+12 -4.17944e+12 -3.17704e+12 -1.58286e+12 -2.50764e+12 -3.90532e+12 -4.38377e+12 -2.01932e+12 -1.77746e+12 -1.65447e+12 -2.68882e+12 -1.82046e+12 -1.48286e+12 -2.05728e+12 -2.50482e+12 -1.77743e+12 -3.75128e+12 -1.24998e+12 -2.19806e+12 -3.8284e+12 -2.20543e+12 -1.22639e+12 -2.01009e+12 -916980000000.0 -1.19362e+12 -4.06852e+12 -2.78693e+12 -1.91089e+12 -2.20285e+12 -3.34316e+12 -1.72831e+12 -3.31917e+12 -1.75625e+12 -2.59527e+12 -3.10565e+12 -3.6663e+12 -2.30875e+12 -2.07037e+12 -2.02759e+12 -2.20166e+12 -1.74061e+12 -1.52566e+12 -3.11995e+12 -4.14872e+12 -5.01032e+12 -2.98293e+12 -4.37036e+12 -3.06366e+12 -3.36737e+12 -1.46449e+12 -3.99995e+12 -1.16386e+12 -1.40703e+12 -2.09176e+12 -2.01985e+12 -2.72747e+12 -3.17322e+12 -3.07238e+12 -1.92729e+12 -3.63373e+12 -2.89671e+12 -2.55602e+12 -1.14399e+12 -2.67274e+12 -1.66743e+12 -2.89774e+12 -1.08126e+12 -2.63759e+12 -1.29945e+12 -1.37934e+12 -1.94433e+12 -1.33342e+12 -820193000000.0 -1.79637e+12 -2.1223e+12 -1.45561e+12 -1.37699e+12 -1.24488e+12 -2.26819e+12 -1.67351e+12 -1.80752e+12 -1.36133e+12 -2.0718e+12 -2.09039e+12 -2.40456e+12 -1.99826e+12 -1.70665e+12 -1.78214e+12 -2.68269e+12 -1.13348e+12 -2.36788e+12 -2.45263e+12 -2.27496e+12 -3.59911e+12 -1.43406e+12 -2.22095e+12 -2.21255e+12 -1.53454e+12 -2.74027e+12 -1.48977e+12 -2.17699e+12 -2.49789e+12 -1.03033e+12 -402636000000.0 -1.67706e+12 -2.09812e+12 -3.30705e+12 -2.94894e+12 -2.72186e+12 -1.76223e+12 -1.62882e+12 -1.67497e+12 -1.93622e+12 -3.06641e+12 -1.31254e+12 -2.99632e+12 -1.26654e+12 -1.09835e+12 -2.17807e+12 -1.37769e+12 -772577000000.0 -1.93686e+12 -2.34052e+12 -681090000000.0 -1.89539e+12 -2.53522e+12 -1.90865e+12 -2.85982e+12 -1.75518e+12 -3.26764e+12 -1.14814e+12 -1.74913e+12 -2.42454e+12 -944800000000.0 -1.78613e+12 -1.44334e+12 -3.64213e+12 -2.59407e+12 -1.95523e+12 -2.49688e+12 -885865000000.0 -2.66426e+12 -887002000000.0 -2.18429e+12 -2.86109e+12 -2.15449e+12 -1.45619e+12 -2.0125e+12 -1.46029e+12 -1.52717e+12 -1.51061e+12 -2.40086e+12 -1.17405e+12 -2.29021e+12 -1.26407e+12 -576201000000.0 -2.55071e+12 -3.13849e+12 -2.94381e+12 -3.11963e+12 -2.83104e+12 -1.27776e+12 -1.55013e+12 -1.95923e+12 -1.80687e+12 -1.93397e+12 -3.07128e+12 -1.67613e+12 -1.9318e+12 -1.17086e+12 -2.14586e+12 -327935000000.0 -2.21423e+12 -460091000000.0 -1.27712e+12 -2.08051e+12 -2.10092e+12 -890674000000.0 -979957000000.0 -1.50167e+12 -944677000000.0 -1.31076e+12 -1.4366e+12 -1.11133e+12 -929878000000.0 -2.23145e+12 -1.57413e+12 -1.8347e+12 -970737000000.0 -1.62371e+12 -1.31661e+12 -2.26495e+12 -844019000000.0 -1.31063e+12 -1.26816e+12 -1.28562e+12 -1.94875e+12 -596638000000.0 -1.14189e+12 -1.17554e+12 -1.07352e+12 -1.14512e+12 -840231000000.0 -1.06671e+12 -1.30358e+12 -1.09166e+12 -1.32733e+12 -428054000000.0 -629169000000.0 -1.93534e+12 -607755000000.0 -1.20069e+12 -1.10677e+12 -2.0871e+12 -517602000000.0 -1.02846e+12 -2.47547e+12 -1.88941e+12 -1.01064e+12 -1.13089e+12 -609946000000.0 -1.57867e+12 -572353000000.0 -1.25045e+12 -2.26002e+12 -2.11618e+12 -2.47333e+12 -934415000000.0 -683578000000.0 -1.61268e+12 -711946000000.0 -1.49484e+12 -1.75346e+12 -1.46547e+12 -1.73405e+12 -2.04567e+12 -1.13744e+12 -1.098e+12 -668236000000.0 -1.25796e+12 -1.01601e+12 -1.55671e+12 -562681000000.0 -1.11508e+12 -1.92777e+12 -939893000000.0 -1.45798e+12 -1.26415e+12 -1.34762e+12 -2.35343e+12 -2.02446e+12 -1.16709e+12 -1.33434e+12 -1.43575e+12 -384016000000.0 -2.04049e+12 -1.026e+12 -1.63696e+12 -2.01709e+12 -1.01905e+12 -517078000000.0 -792755000000.0 -1.00398e+12 -903006000000.0 -196761000000.0 -82263400000.0 -1.15521e+12 -353574000000.0 -803572000000.0 -514442000000.0 -708035000000.0 -1.16655e+12 -941538000000.0 -288442000000.0 -667962000000.0 -504002000000.0 -683616000000.0 -244640000000.0 -461417000000.0 -158151000000.0 -359140000000.0 -1.09178e+12 -72003900000.0 -613338000000.0 -252518000000.0 -1.14222e+12 -872223000000.0 -916906000000.0 -741722000000.0 -235220000000.0 -617054000000.0 -247508000000.0 -176448000000.0 -168588000000.0 -153894000000.0 -659408000000.0 -450562000000.0 -536693000000.0 -984292000000.0 -876366000000.0 -447270000000.0 -445711000000.0 -603857000000.0 -208911000000.0 -323080000000.0 -407797000000.0 -226058000000.0 -567495000000.0 -245205000000.0 -346167000000.0 -456855000000.0 -254561000000.0 -707316000000.0 -506246000000.0 -305557000000.0 -659904000000.0 -151703000000.0 -881179000000.0 -910594000000.0 -678689000000.0 -273943000000.0 -604682000000.0 -452062000000.0 -752135000000.0 -167526000000.0 -995858000000.0 -433395000000.0 -86821000000.0 -792441000000.0 -182650000000.0 -405801000000.0 -400617000000.0 -371665000000.0 -236369000000.0 -163699000000.0 -257805000000.0 -692746000000.0 -455316000000.0 -1.29742e+12 -1.33003e+12 -888582000000.0 -216945000000.0 -1.24396e+12 -584563000000.0 -325359000000.0 -564681000000.0 -246746000000.0 -359210000000.0 -910797000000.0 -327403000000.0 -265349000000.0 -537289000000.0 -302215000000.0 -480975000000.0 -620329000000.0 -1.03034e+12 -591578000000.0 -650184000000.0 -448457000000.0 -259391000000.0 -261220000000.0 -195554000000.0 -271148000000.0 -369238000000.0 -102220000000.0 -274020000000.0 -220157000000.0 -142818000000.0 -197360000000.0 -144172000000.0 -176985000000.0 