# vtk DataFile Version 2.0
Time step 28
ASCII
DATASET UNSTRUCTURED_GRID
POINTS 5000 float
27670.8 150741.0 0
372011.0 150837.0 0
403648.0 151226.0 0
2398.26 153829.0 0
8527.06 153205.0 0
12438.8 153038.0 0
16747.5 152356.0 0
22243.6 154000.0 0
33199.4 153428.0 0
38181.6 154011.0 0
42700.3 154160.0 0
47473.8 154070.0 0
52137.1 154166.0 0
57005.3 153006.0 0
62763.5 154081.0 0
67994.7 154215.0 0
72702.1 153349.0 0
77500.0 154094.0 0
82500.0 154083.0 0
87407.8 153382.0 0
92500.0 154122.0 0
97193.5 154143.0 0
101293.0 154060.0 0
105947.0 153452.0 0
111936.0 153931.0 0
117850.0 154114.0 0
123330.0 154191.0 0
128345.0 154311.0 0
133427.0 153560.0 0
138123.0 154244.0 0
142500.0 154165.0 0
147500.0 154098.0 0
152501.0 154068.0 0
157589.0 153697.0 0
162560.0 153853.0 0
167011.0 153396.0 0
171831.0 152279.0 0
177734.0 152317.0 0
182939.0 151502.0 0
187394.0 153356.0 0
192499.0 154517.0 0
196081.0 153681.0 0
201748.0 153040.0 0
207651.0 153804.0 0
212985.0 153142.0 0
218128.0 154225.0 0
222480.0 154237.0 0
225796.0 153472.0 0
230434.0 153342.0 0
235810.0 154337.0 0
241170.0 153042.0 0
246501.0 155044.0 0
252679.0 153026.0 0
259051.0 153503.0 0
263773.0 154589.0 0
268741.0 153502.0 0
273935.0 153797.0 0
278881.0 152445.0 0
282030.0 155777.0 0
286326.0 154085.0 0
291718.0 154542.0 0
297319.0 152410.0 0
303663.0 153199.0 0
307732.0 155768.0 0
312126.0 153619.0 0
317928.0 154244.0 0
323244.0 154144.0 0
327580.0 154412.0 0
332205.0 154011.0 0
337222.0 153720.0 0
341019.0 154931.0 0
345896.0 153268.0 0
350688.0 155187.0 0
355262.0 154178.0 0
361816.0 152813.0 0
367954.0 154152.0 0
377030.0 152809.0 0
382609.0 153680.0 0
388131.0 152978.0 0
394018.0 152295.0 0
399198.0 153967.0 0
408586.0 152436.0 0
412475.0 154085.0 0
417500.0 154127.0 0
422737.0 152241.0 0
427272.0 153951.0 0
432480.0 151755.0 0
437537.0 154105.0 0
442090.0 153047.0 0
446253.0 152626.0 0
450666.0 153396.0 0
455209.0 153340.0 0
460242.0 153187.0 0
465794.0 153569.0 0
471629.0 152827.0 0
477063.0 151630.0 0
481305.0 154492.0 0
485844.0 151559.0 0
491674.0 153099.0 0
497601.0 151592.0 0
2284.1 158853.0 0
6058.8 156527.0 0
11084.4 157555.0 0
17329.4 158259.0 0
23001.7 159517.0 0
28515.4 157094.0 0
34965.5 158702.0 0
40338.0 159021.0 0
44460.7 159363.0 0
48275.8 158065.0 0
52500.0 159126.0 0
57994.3 158448.0 0
62849.2 159181.0 0
67505.2 158853.0 0
72118.1 158469.0 0
77500.0 159252.0 0
82116.1 158898.0 0
87907.6 158140.0 0
92500.0 159261.0 0
97184.1 158894.0 0
102467.0 158795.0 0
108243.0 158044.0 0
112500.0 159198.0 0
117500.0 159279.0 0
122500.0 159202.0 0
127727.0 158745.0 0
132493.0 159095.0 0
137520.0 159110.0 0
142774.0 158588.0 0
146929.0 158936.0 0
151940.0 158814.0 0
156863.0 157747.0 0
161299.0 158568.0 0
166512.0 158068.0 0
172971.0 157848.0 0
178375.0 157729.0 0
183532.0 156570.0 0
188603.0 157802.0 0
193570.0 158661.0 0
198250.0 158026.0 0
203920.0 158661.0 0
213693.0 157692.0 0
209356.0 158876.0 0
217602.0 159295.0 0
222034.0 159066.0 0
226803.0 157707.0 0
232207.0 158765.0 0
237688.0 159588.0 0
243286.0 159418.0 0
248460.0 159119.0 0
252676.0 159588.0 0
257261.0 158141.0 0
262325.0 158766.0 0
267067.0 158347.0 0
271616.0 157655.0 0
277066.0 158059.0 0
282828.0 159464.0 0
287500.0 159176.0 0
292909.0 159034.0 0
298248.0 157921.0 0
303116.0 158869.0 0
307444.0 159061.0 0
312501.0 159370.0 0
317484.0 159120.0 0
322435.0 158612.0 0
327500.0 159156.0 0
332500.0 159228.0 0
337712.0 158564.0 0
343306.0 157957.0 0
347749.0 158359.0 0
352668.0 159078.0 0
361444.0 158126.0 0
357758.0 158598.0 0
365117.0 157827.0 0
372929.0 157638.0 0
378821.0 157359.0 0
382005.0 158497.0 0
388373.0 158066.0 0
393552.0 158441.0 0
402996.0 157425.0 0
398134.0 158874.0 0
408384.0 156716.0 0
412861.0 158027.0 0
417517.0 158642.0 0
422127.0 156877.0 0
428322.0 158894.0 0
433425.0 156990.0 0
437509.0 159172.0 0
443214.0 157330.0 0
447601.0 156636.0 0
451943.0 157874.0 0
457174.0 158068.0 0
462428.0 159550.0 0
466600.0 158139.0 0
470193.0 159319.0 0
475182.0 158119.0 0
480798.0 159767.0 0
486590.0 157750.0 0
492077.0 160000.0 0
496837.0 157101.0 0
2238.62 164765.0 0
6740.83 161573.0 0
11844.5 163391.0 0
16324.3 163467.0 0
20503.5 163481.0 0
27039.7 163926.0 0
32613.9 163761.0 0
38259.3 163533.0 0
42966.4 163916.0 0
47585.6 162787.0 0
51798.2 164549.0 0
56552.0 164068.0 0
62112.5 164044.0 0
67694.6 163696.0 0
73696.6 164012.0 0
78211.4 164450.0 0
81954.8 163624.0 0
86960.6 163656.0 0
92531.5 164012.0 0
97548.2 163413.0 0
102630.0 164557.0 0
107924.0 162823.0 0
116732.0 163883.0 0
112494.0 164097.0 0
120857.0 163732.0 0
125865.0 163114.0 0
131159.0 164812.0 0
136446.0 164763.0 0
140994.0 162710.0 0
146307.0 163827.0 0
151836.0 165426.0 0
156246.0 162307.0 0
161704.0 164259.0 0
166529.0 166078.0 0
169998.0 162635.0 0
176294.0 163487.0 0
182187.0 161710.0 0
188049.0 163964.0 0
194262.0 163687.0 0
199973.0 163131.0 0
208111.0 163782.0 0
204288.0 164127.0 0
213299.0 162503.0 0
217709.0 164230.0 0
222564.0 163340.0 0
226872.0 162712.0 0
232446.0 164229.0 0
237424.0 164014.0 0
241793.0 164667.0 0
246845.0 163189.0 0
251788.0 164480.0 0
257734.0 162893.0 0
262716.0 163544.0 0
267485.0 162802.0 0
273042.0 162898.0 0
279880.0 162114.0 0
283558.0 164398.0 0
287219.0 164468.0 0
291021.0 163344.0 0
296738.0 162966.0 0
302237.0 164105.0 0
307703.0 163491.0 0
313209.0 164615.0 0
318192.0 163610.0 0
322511.0 162617.0 0
326813.0 164502.0 0
336510.0 163229.0 0
331857.0 164223.0 0
341412.0 162162.0 0
346843.0 162746.0 0
351892.0 163914.0 0
356026.0 162470.0 0
361259.0 162828.0 0
357350.0 166427.0 0
366513.0 161909.0 0
366555.0 166602.0 0
371102.0 163779.0 0
377674.0 163293.0 0
384356.0 161834.0 0
392423.0 163264.0 0
388339.0 165024.0 0
397216.0 163222.0 0
402856.0 163666.0 0
409241.0 162361.0 0
414409.0 164917.0 0
419139.0 163332.0 0
424116.0 161696.0 0
427681.0 164732.0 0
432246.0 162613.0 0
437337.0 163358.0 0
442352.0 162566.0 0
448268.0 161707.0 0
454170.0 163280.0 0
458985.0 164324.0 0
463177.0 164089.0 0
467517.0 164206.0 0
472372.0 162641.0 0
477750.0 163596.0 0
482620.0 164463.0 0
487505.0 165560.0 0
491507.0 164062.0 0
496592.0 163671.0 0
2182.12 169179.0 0
8050.29 167414.0 0
13471.2 168015.0 0
17751.5 167312.0 0
22415.9 167855.0 0
26984.6 169852.0 0
32067.6 168048.0 0
37584.4 168737.0 0
43200.3 168979.0 0
49063.2 167577.0 0
53807.2 169247.0 0
59221.5 168746.0 0
63616.0 168375.0 0
68064.9 169370.0 0
72603.0 168887.0 0
77068.9 168372.0 0
82136.3 168645.0 0
87334.1 168830.0 0
92269.4 169341.0 0
97732.8 168765.0 0
102768.0 170016.0 0
107686.0 168322.0 0
113111.0 168427.0 0
118137.0 168360.0 0
123418.0 167720.0 0
127500.0 169276.0 0
137738.0 168678.0 0
132690.0 169640.0 0
142523.0 168829.0 0
148001.0 168436.0 0
156827.0 167707.0 0
153416.0 170081.0 0
160406.0 169071.0 0
164429.0 169781.0 0
170842.0 168664.0 0
177033.0 170055.0 0
182233.0 167188.0 0
186625.0 169598.0 0
191647.0 169088.0 0
197223.0 168415.0 0
203054.0 168271.0 0
208747.0 170129.0 0
214360.0 168174.0 0
218719.0 169473.0 0
222027.0 167598.0 0
227512.0 168261.0 0
234326.0 168612.0 0
237866.0 167339.0 0
241755.0 169270.0 0
246217.0 168375.0 0
251520.0 169739.0 0
255875.0 167611.0 0
260339.0 167282.0 0
262639.0 170856.0 0
266355.0 167487.0 0
271760.0 169168.0 0
278362.0 167617.0 0
284358.0 169137.0 0
288759.0 167622.0 0
292983.0 169338.0 0
298942.0 169267.0 0
303985.0 169496.0 0
307500.0 169320.0 0
316249.0 168327.0 0
312166.0 169139.0 0
321072.0 167856.0 0
325848.0 169433.0 0
329891.0 168048.0 0
334357.0 170038.0 0
339780.0 167554.0 0
346087.0 169001.0 0
352843.0 169490.0 0
361675.0 168817.0 0
367107.0 171509.0 0
371934.0 169411.0 0
377880.0 170743.0 0
382814.0 167350.0 0
387369.0 169208.0 0
393045.0 169930.0 0
399509.0 168837.0 0
408060.0 167712.0 0
404318.0 168860.0 0
412351.0 169384.0 0
416951.0 168716.0 0
421364.0 169976.0 0
425652.0 168358.0 0
431059.0 168804.0 0
437118.0 167553.0 0
441816.0 168152.0 0
446529.0 166708.0 0
450852.0 167217.0 0
455415.0 169048.0 0
461209.0 168746.0 0
466984.0 168533.0 0
472600.0 167600.0 0
478851.0 169095.0 0
484709.0 169602.0 0
489147.0 170328.0 0
492123.0 167919.0 0
496754.0 170313.0 0
1482.49 173864.0 0
7149.42 173720.0 0
11898.6 171752.0 0
12666.5 176257.0 0
17158.0 172490.0 0
23048.8 173239.0 0
30221.2 172588.0 0
28646.1 176635.0 0
34872.2 173381.0 0
39761.0 172800.0 0
43676.8 174641.0 0
48573.9 172800.0 0
53130.2 175243.0 0
57211.0 173138.0 0
63068.6 173151.0 0
68315.5 174546.0 0
73397.2 172946.0 0
78298.0 173521.0 0
83589.4 173586.0 0
88393.7 173648.0 0
92504.6 174185.0 0
97237.5 174181.0 0
101196.0 174242.0 0
105586.0 173838.0 0
111305.0 173011.0 0
116639.0 173618.0 0
122097.0 172910.0 0
126929.0 173327.0 0
131217.0 174021.0 0
136576.0 173228.0 0
142211.0 174522.0 0
147010.0 172713.0 0
151799.0 174648.0 0
157939.0 173638.0 0
167049.0 172653.0 0
163661.0 174266.0 0
171004.0 174672.0 0
176729.0 176346.0 0
182933.0 174106.0 0
193693.0 173173.0 0
189204.0 174006.0 0
198249.0 174303.0 0
203174.0 173372.0 0
207323.0 175508.0 0
212116.0 174379.0 0
216322.0 172790.0 0
221178.0 173122.0 0
226330.0 174897.0 0
231984.0 173115.0 0
237943.0 172075.0 0
242845.0 173920.0 0
248032.0 173454.0 0
252900.0 173767.0 0
257729.0 172793.0 0
262835.0 176435.0 0
267593.0 173435.0 0
272700.0 175053.0 0
278481.0 174271.0 0
283574.0 173724.0 0
288836.0 172943.0 0
293487.0 173935.0 0
297507.0 175312.0 0
302639.0 173801.0 0
307120.0 174161.0 0
311946.0 173879.0 0
316972.0 172761.0 0
322302.0 173448.0 0
330945.0 173563.0 0
327157.0 174302.0 0
341514.0 173045.0 0
337117.0 173939.0 0
346672.0 174961.0 0
351591.0 175144.0 0
357891.0 173002.0 0
362980.0 173791.0 0
370174.0 174950.0 0
374550.0 174972.0 0
383269.0 173367.0 0
388203.0 173390.0 0
392171.0 176177.0 0
397895.0 174772.0 0
403057.0 172837.0 0
408164.0 172562.0 0
414679.0 173029.0 0
417926.0 174275.0 0
422493.0 174838.0 0
427476.0 172815.0 0
431250.0 174233.0 0
436116.0 172535.0 0
441986.0 173813.0 0
448321.0 172223.0 0
454021.0 174205.0 0
459438.0 174353.0 0
464974.0 173633.0 0
473881.0 172818.0 0
469639.0 174484.0 0
477659.0 175886.0 0
481987.0 174050.0 0
486774.0 173940.0 0
492177.0 174496.0 0
497457.0 176049.0 0
2749.08 177902.0 0
7839.1 180235.0 0
18086.6 178260.0 0
23743.1 178996.0 0
33627.4 178937.0 0
39128.2 177640.0 0
43736.8 178850.0 0
48685.1 178770.0 0
54174.4 179945.0 0
59715.3 178150.0 0
64866.9 179249.0 0
68286.3 178743.0 0
72215.4 176827.0 0
76321.4 178419.0 0
81942.8 179008.0 0
87887.7 178718.0 0
92638.0 179116.0 0
96907.1 178753.0 0
101491.0 178881.0 0
106437.0 179174.0 0
111043.0 177861.0 0
115385.0 178334.0 0
120869.0 178933.0 0
127440.0 178591.0 0
133300.0 178475.0 0
138724.0 178961.0 0
143742.0 179129.0 0
148387.0 178733.0 0
152800.0 179235.0 0
157000.0 179336.0 0
161440.0 178112.0 0
166774.0 178006.0 0
172237.0 180456.0 0
177077.0 180671.0 0
181362.0 180718.0 0
186880.0 179005.0 0
192409.0 178514.0 0
197842.0 180012.0 0
202627.0 177945.0 0
206630.0 180119.0 0
210632.0 178909.0 0
216382.0 178684.0 0
222685.0 178771.0 0
228326.0 180441.0 0
233994.0 181596.0 0
236023.0 177060.0 0
240944.0 179493.0 0
246428.0 180044.0 0
250910.0 177918.0 0
256769.0 179000.0 0
268275.0 178798.0 0
272895.0 179949.0 0
277852.0 180280.0 0
282085.0 177654.0 0
287110.0 179028.0 0
293046.0 178353.0 0
297885.0 180665.0 0
301873.0 177727.0 0
306178.0 179641.0 0
311438.0 179604.0 0
316868.0 177886.0 0
322343.0 179367.0 0
328009.0 178914.0 0
333890.0 177796.0 0
337536.0 181210.0 0
342215.0 179023.0 0
347991.0 179720.0 0
355562.0 177272.0 0
352302.0 179421.0 0
356019.0 181868.0 0
360524.0 178537.0 0
366521.0 178641.0 0
372531.0 179910.0 0
378553.0 178324.0 0
383427.0 177505.0 0
387246.0 177863.0 0
390745.0 180814.0 0
396047.0 180595.0 0
400404.0 179068.0 0
405315.0 178077.0 0
411969.0 177149.0 0
417773.0 179024.0 0
422964.0 179706.0 0
427285.0 177068.0 0
432234.0 178816.0 0
437081.0 177865.0 0
441851.0 179419.0 0
447110.0 178390.0 0
452641.0 179396.0 0
458109.0 179717.0 0
462539.0 179308.0 0
466552.0 178314.0 0
471811.0 179047.0 0
476953.0 180607.0 0
482254.0 179407.0 0
487737.0 178788.0 0
492471.0 180343.0 0
497460.0 181132.0 0
3056.08 183701.0 0
8750.63 186122.0 0
13606.8 182104.0 0
18376.3 185840.0 0
23877.1 184697.0 0
28778.7 181978.0 0
33716.8 184640.0 0
38537.2 182826.0 0
43266.1 183107.0 0
49667.6 183662.0 0
53684.4 184691.0 0
58564.9 184019.0 0
63415.0 183197.0 0
67006.0 183656.0 0
68683.6 186940.0 0
71706.4 182162.0 0
77977.0 183743.0 0
83400.6 185089.0 0
88020.0 183750.0 0
93069.5 183735.0 0
97998.7 183223.0 0
105785.0 183610.0 0
102079.0 184871.0 0
110768.0 183212.0 0
116644.0 183113.0 0
126502.0 183845.0 0
122657.0 184408.0 0
131197.0 183172.0 0
135223.0 184996.0 0
139751.0 184512.0 0
145108.0 183721.0 0
150854.0 183781.0 0
156887.0 184693.0 0
162038.0 182775.0 0
167182.0 183102.0 0
171463.0 185780.0 0
176186.0 184397.0 0
180975.0 186321.0 0
185797.0 184290.0 0
191578.0 184394.0 0
197330.0 185541.0 0
202642.0 183385.0 0
207607.0 184141.0 0
212134.0 183290.0 0
217212.0 185071.0 0
223347.0 184741.0 0
228977.0 186437.0 0
233409.0 186062.0 0
238458.0 185254.0 0
243835.0 184541.0 0
248981.0 184155.0 0
252370.0 182203.0 0
255542.0 185100.0 0
262543.0 183602.0 0
268734.0 183767.0 0
273493.0 184495.0 0
278387.0 185670.0 0
282796.0 183034.0 0
287973.0 185023.0 0
293220.0 183687.0 0
297717.0 185939.0 0
302612.0 183574.0 0
308391.0 184554.0 0
313173.0 184150.0 0
317437.0 183634.0 0
325884.0 182928.0 0
322193.0 184942.0 0
329980.0 184071.0 0
335044.0 184619.0 0
340311.0 185026.0 0
345929.0 185761.0 0
351093.0 183891.0 0
360821.0 184412.0 0
366443.0 184385.0 0
371148.0 184847.0 0
377230.0 185571.0 0
383504.0 181952.0 0
387811.0 185130.0 0
392752.0 185148.0 0
398358.0 186111.0 0
403885.0 184112.0 0
409493.0 182746.0 0
414466.0 183009.0 0
417763.0 183159.0 0
416998.0 186886.0 0
420951.0 183516.0 0
427630.0 183574.0 0
433307.0 183180.0 0
437893.0 182843.0 0
442656.0 184311.0 0
448518.0 184273.0 0
453997.0 184261.0 0
458539.0 184686.0 0
462991.0 184463.0 0
467794.0 183293.0 0
472983.0 184792.0 0
479974.0 184516.0 0
484302.0 184364.0 0
488540.0 183915.0 0
492628.0 184498.0 0
497771.0 185892.0 0
2142.5 189596.0 0
13670.8 189744.0 0
18600.7 190781.0 0
22340.1 189181.0 0
27487.2 189617.0 0
32325.4 188891.0 0
37265.9 189442.0 0
42435.5 190756.0 0
46372.5 187466.0 0
51405.2 189856.0 0
57396.4 190148.0 0
63640.5 188366.0 0
73552.7 190007.0 0
79816.1 189224.0 0
85119.9 190010.0 0
90124.1 188233.0 0
95033.5 190093.0 0
98597.2 187399.0 0
101290.0 190754.0 0
105634.0 188120.0 0
111334.0 189549.0 0
118207.0 188682.0 0
123815.0 188936.0 0
128389.0 187262.0 0
133269.0 189338.0 0
137791.0 188450.0 0
141901.0 189306.0 0
147421.0 189032.0 0
152992.0 188990.0 0
157247.0 190603.0 0
161789.0 188343.0 0
167147.0 188073.0 0
170764.0 189810.0 0
176884.0 189390.0 0
182324.0 191141.0 0
186890.0 189316.0 0
191540.0 189698.0 0
196353.0 190989.0 0
201633.0 188860.0 0
207161.0 189109.0 0
212996.0 188809.0 0
219803.0 190158.0 0
224912.0 190061.0 0
228654.0 190530.0 0
232780.0 189841.0 0
236991.0 190496.0 0
242095.0 188786.0 0
246552.0 188520.0 0
251473.0 188111.0 0
257766.0 190369.0 0
262740.0 189675.0 0
268252.0 189383.0 0
274069.0 189455.0 0
279360.0 191192.0 0
284556.0 189080.0 0
289709.0 189958.0 0
293304.0 188069.0 0
296544.0 190864.0 0
302314.0 189276.0 0
307427.0 189822.0 0
312021.0 188320.0 0
316759.0 188229.0 0
321328.0 190075.0 0
326424.0 188524.0 0
331730.0 189029.0 0
337285.0 190318.0 0
342892.0 190359.0 0
346839.0 190328.0 0
351170.0 189067.0 0
356395.0 187428.0 0
361685.0 190517.0 0
366980.0 189255.0 0
371662.0 189328.0 0
382206.0 189495.0 0
386898.0 189853.0 0
391454.0 189656.0 0
395531.0 190411.0 0
400534.0 191218.0 0
405868.0 189885.0 0
411610.0 188267.0 0
417174.0 192013.0 0
422636.0 188509.0 0
428260.0 189657.0 0
432997.0 187824.0 0
438722.0 188489.0 0
444696.0 189195.0 0
450506.0 190949.0 0
455666.0 188657.0 0
461368.0 189557.0 0
468717.0 188518.0 0
465829.0 191197.0 0
473164.0 190359.0 0
477806.0 189031.0 0
482450.0 189192.0 0
486598.0 188075.0 0
490653.0 188518.0 0
495007.0 189874.0 0
2239.97 194168.0 0
7229.67 192197.0 0
12437.7 195806.0 0
18045.9 195236.0 0
23272.2 194033.0 0
29073.8 195591.0 0
32589.4 192365.0 0
35957.1 195249.0 0
40996.9 194977.0 0
47000.1 193945.0 0
52812.1 194592.0 0
57600.2 196308.0 0
62192.3 193760.0 0
67960.0 193825.0 0
73648.2 196713.0 0
78090.3 193821.0 0
82805.0 194729.0 0
88772.1 194546.0 0
93969.6 194938.0 0
97842.9 193457.0 0
101250.0 195039.0 0
105727.0 193612.0 0
110243.0 194985.0 0
115522.0 194561.0 0
121624.0 193766.0 0
128115.0 193301.0 0
137501.0 192395.0 0
133715.0 194173.0 0
142031.0 194573.0 0
148122.0 195612.0 0
153548.0 193809.0 0
157986.0 194781.0 0
163105.0 194181.0 0
173358.0 193057.0 0
168441.0 193343.0 0
177763.0 193832.0 0
181597.0 195712.0 0
186464.0 194582.0 0
191580.0 194209.0 0
195894.0 196740.0 0
201126.0 194452.0 0
207149.0 195174.0 0
212101.0 193741.0 0
216817.0 194946.0 0
221593.0 195770.0 0
226068.0 194590.0 0
231020.0 193880.0 0
235877.0 195133.0 0
241284.0 193697.0 0
246730.0 193457.0 0
252429.0 193623.0 0
257588.0 195611.0 0
263727.0 195177.0 0
269620.0 195045.0 0
274598.0 194435.0 0
279908.0 196537.0 0
284005.0 193539.0 0
288593.0 194974.0 0
292652.0 193384.0 0
298730.0 195582.0 0
303649.0 194235.0 0
307799.0 194151.0 0
312318.0 193548.0 0
317593.0 193254.0 0
323363.0 195061.0 0
328008.0 193187.0 0
332712.0 194140.0 0
337421.0 195631.0 0
341926.0 194287.0 0
345490.0 194043.0 0
349530.0 193261.0 0
355340.0 193631.0 0
360675.0 195705.0 0
366497.0 193976.0 0
373429.0 194478.0 0
378342.0 192177.0 0
378300.0 196673.0 0
383175.0 195138.0 0
388079.0 194256.0 0
392588.0 194026.0 0
397120.0 194266.0 0
408063.0 194642.0 0
403359.0 195366.0 0
412518.0 193512.0 0
421027.0 194060.0 0
425377.0 193693.0 0
431956.0 193472.0 0
437687.0 194729.0 0
443672.0 194777.0 0
454495.0 193905.0 0
458790.0 194848.0 0
463931.0 194671.0 0
469293.0 193994.0 0
474371.0 194900.0 0
479087.0 193918.0 0
483697.0 195593.0 0
486601.0 192279.0 0
491399.0 194348.0 0
497411.0 194493.0 0
2126.16 198535.0 0
6957.12 198075.0 0
12572.6 201214.0 0
16006.6 199240.0 0
20035.3 199519.0 0
24882.8 199284.0 0
32216.0 199953.0 0
37669.8 200853.0 0
43313.9 199404.0 0
48682.6 199941.0 0
53575.1 199118.0 0
57452.5 201219.0 0
62542.2 198995.0 0
67219.1 199080.0 0
71131.0 201482.0 0
79091.4 199342.0 0
84535.1 199330.0 0
88599.4 199581.0 0
92508.1 199036.0 0
97467.4 197848.0 0
102447.0 199464.0 0
107193.0 198363.0 0
111837.0 199148.0 0
117995.0 200068.0 0
123249.0 198998.0 0
127768.0 198689.0 0
132821.0 199243.0 0
138524.0 198500.0 0
143145.0 199401.0 0
151877.0 199399.0 0
147994.0 201588.0 0
156564.0 199613.0 0
161568.0 199115.0 0
166876.0 198218.0 0
173249.0 199277.0 0
178607.0 199426.0 0
183538.0 200361.0 0
189460.0 199431.0 0
193910.0 200562.0 0
199741.0 199463.0 0
203874.0 200045.0 0
208364.0 200312.0 0
212779.0 198392.0 0
219056.0 199697.0 0
223358.0 199262.0 0
227641.0 199291.0 0
232480.0 198600.0 0
237747.0 199585.0 0
242306.0 200027.0 0
246711.0 198294.0 0
251885.0 199874.0 0
257453.0 199909.0 0
262301.0 201402.0 0
267696.0 199232.0 0
271764.0 198806.0 0
276112.0 199265.0 0
284274.0 197952.0 0
288568.0 200212.0 0
293590.0 197927.0 0
298809.0 200342.0 0
302634.0 199161.0 0
306696.0 198025.0 0
311690.0 199240.0 0
316842.0 198088.0 0
321342.0 199982.0 0
324884.0 198952.0 0
328698.0 197899.0 0
334156.0 199763.0 0
339613.0 199530.0 0
344151.0 198257.0 0
350107.0 198916.0 0
356721.0 200474.0 0
363260.0 200369.0 0
369402.0 198767.0 0
374928.0 199798.0 0
379747.0 200643.0 0
384039.0 200746.0 0
388081.0 198755.0 0
393156.0 199097.0 0
397931.0 198445.0 0
401995.0 199692.0 0
406601.0 199267.0 0
412750.0 199407.0 0
418444.0 197439.0 0
423550.0 198846.0 0
428723.0 197496.0 0
433884.0 199963.0 0
440196.0 200892.0 0
445499.0 199496.0 0
448660.0 202036.0 0
450714.0 197381.0 0
456143.0 198995.0 0
463205.0 198714.0 0
460060.0 199443.0 0
467453.0 199260.0 0
472542.0 199200.0 0
477866.0 199247.0 0
482745.0 199841.0 0
487590.0 198837.0 0
492464.0 199540.0 0
497811.0 199254.0 0
3067.36 203644.0 0
8545.59 202577.0 0
7504.88 206998.0 0
12199.0 205762.0 0
16414.0 203409.0 0
21304.5 204422.0 0
27457.7 204641.0 0
32651.8 203780.0 0
37779.8 206220.0 0
42290.0 204553.0 0
47947.7 205449.0 0
53255.7 204076.0 0
58926.7 205108.0 0
62499.2 203417.0 0
66930.0 203516.0 0
71364.0 205662.0 0
76179.3 204529.0 0
80897.7 207199.0 0
82345.6 202936.0 0
86387.3 203270.0 0
91249.0 204114.0 0
96598.2 202969.0 0
101326.0 204125.0 0
106450.0 203532.0 0
112397.0 204659.0 0
118079.0 205494.0 0
123222.0 204249.0 0
128382.0 203191.0 0
133236.0 204727.0 0
138696.0 204231.0 0
143899.0 203442.0 0
146820.0 205826.0 0
152637.0 203835.0 0
158012.0 204094.0 0
162828.0 203248.0 0
168108.0 203670.0 0
172595.0 204957.0 0
177249.0 204710.0 0
182430.0 205317.0 0
187090.0 204317.0 0
192268.0 204586.0 0
197936.0 204184.0 0
202910.0 204028.0 0
207317.0 205013.0 0
212054.0 203336.0 0
217207.0 204767.0 0
222466.0 203487.0 0
227446.0 204832.0 0
232447.0 203306.0 0
237076.0 203896.0 0
241380.0 204495.0 0
246113.0 203309.0 0
254532.0 204350.0 0
250354.0 204885.0 0
258830.0 204986.0 0
267460.0 204567.0 0
272510.0 202696.0 0
272473.0 207347.0 0
277240.0 204549.0 0
283181.0 203341.0 0
288198.0 204766.0 0
292748.0 203528.0 0
297358.0 204287.0 0
302080.0 204283.0 0
306875.0 202752.0 0
316042.0 202982.0 0
311364.0 204742.0 0
320407.0 204396.0 0
326141.0 203738.0 0
332575.0 205815.0 0
338274.0 204806.0 0
343320.0 203201.0 0
348143.0 204391.0 0
353185.0 204943.0 0
358609.0 205993.0 0
363215.0 205860.0 0
372381.0 203937.0 0
367630.0 204336.0 0
377383.0 205294.0 0
382020.0 203814.0 0
387359.0 203375.0 0
391820.0 203804.0 0
396401.0 203035.0 0
401417.0 204592.0 0
406566.0 204129.0 0
411923.0 205768.0 0
417745.0 203360.0 0
422243.0 206288.0 0
428005.0 203702.0 0
435861.0 205231.0 0
440095.0 205837.0 0
444891.0 204641.0 0
448961.0 205154.0 0
453283.0 203771.0 0
458565.0 202865.0 0
463263.0 202906.0 0
468255.0 204317.0 0
473568.0 204382.0 0
478469.0 204158.0 0
481965.0 204653.0 0
485391.0 203308.0 0
490346.0 203428.0 0
495339.0 203512.0 0
2829.94 209547.0 0
9649.32 210855.0 0
12514.6 209402.0 0
17154.4 208949.0 0
23576.7 209856.0 0
28504.4 209729.0 0
32904.2 207888.0 0
37935.3 211883.0 0
44152.5 209909.0 0
48945.0 211598.0 0
51662.6 208564.0 0
56218.5 208653.0 0
61490.8 209088.0 0
67357.2 209017.0 0
73109.1 210033.0 0
78019.0 211037.0 0
86725.8 208893.0 0
92879.1 210101.0 0
98370.8 208339.0 0
103679.0 208285.0 0
108524.0 208926.0 0
113661.0 210041.0 0
118715.0 210795.0 0
123562.0 209282.0 0
128430.0 208366.0 0
133085.0 209247.0 0
137599.0 209609.0 0
141646.0 212137.0 0
143075.0 207567.0 0
146707.0 209873.0 0
150635.0 207773.0 0
155608.0 207854.0 0
161150.0 208131.0 0
167133.0 209747.0 0
172930.0 209245.0 0
178056.0 210220.0 0
183645.0 210085.0 0
189254.0 209058.0 0
194197.0 209107.0 0
203778.0 208242.0 0
199080.0 209832.0 0
208281.0 210055.0 0
213125.0 208595.0 0
217849.0 210071.0 0
222500.0 209236.0 0
227501.0 209410.0 0
231400.0 207448.0 0
231620.0 211636.0 0
235374.0 207951.0 0
241017.0 208886.0 0
246234.0 209157.0 0
252674.0 209633.0 0
257745.0 208761.0 0
257368.0 212100.0 0
262640.0 207910.0 0
268631.0 209286.0 0
276636.0 209597.0 0
282624.0 209125.0 0
287937.0 209177.0 0
293354.0 209005.0 0
298036.0 208151.0 0
302171.0 210214.0 0
306755.0 207627.0 0
311385.0 209963.0 0
317154.0 208677.0 0
322870.0 208941.0 0
326692.0 208686.0 0
331450.0 210226.0 0
328122.0 212190.0 0
335625.0 210715.0 0
340786.0 209506.0 0
345202.0 207603.0 0
349873.0 209006.0 0
355441.0 211182.0 0
361535.0 210570.0 0
367138.0 209723.0 0
372555.0 208851.0 0
377575.0 211029.0 0
382869.0 208473.0 0
389038.0 208343.0 0
397262.0 208202.0 0
393431.0 210499.0 0
402358.0 210228.0 0
407524.0 208837.0 0
411982.0 211073.0 0
417004.0 209059.0 0
421585.0 210899.0 0
426097.0 209809.0 0
432029.0 209082.0 0
437814.0 210182.0 0
443166.0 209664.0 0
447800.0 208827.0 0
452668.0 209665.0 0
457763.0 207716.0 0
463141.0 208078.0 0
468207.0 209448.0 0
473094.0 209527.0 0
478107.0 208996.0 0
482749.0 209305.0 0
487715.0 208220.0 0
493264.0 208239.0 0
497794.0 207803.0 0
497557.0 212450.0 0
2515.58 214890.0 0
7265.58 214301.0 0
12110.3 214631.0 0
17584.6 215224.0 0
23406.1 215914.0 0
28800.0 214237.0 0
32712.4 212577.0 0
39398.3 216851.0 0
43269.9 215339.0 0
47704.8 215417.0 0
52878.4 214263.0 0
58203.8 213430.0 0
64162.5 214692.0 0
71368.1 213583.0 0
69252.1 215633.0 0
75114.4 215411.0 0
81048.0 215198.0 0
87052.6 215553.0 0
96749.7 214159.0 0
92019.0 214683.0 0
101922.0 212636.0 0
107424.0 215020.0 0
113364.0 215036.0 0
118426.0 216055.0 0
123400.0 214349.0 0
128618.0 213530.0 0
133599.0 213777.0 0
137997.0 215411.0 0
145478.0 214735.0 0
150730.0 213484.0 0
156817.0 213080.0 0
162660.0 214200.0 0
170992.0 214110.0 0
175345.0 215835.0 0
183155.0 214037.0 0
179613.0 214907.0 0
187235.0 214136.0 0
192612.0 213712.0 0
197960.0 215471.0 0
202932.0 213257.0 0
206818.0 215601.0 0
210969.0 214157.0 0
215636.0 214391.0 0
221227.0 214470.0 0
227172.0 214768.0 0
237599.0 213654.0 0
243859.0 214365.0 0
248912.0 214127.0 0
254155.0 215760.0 0
260306.0 214139.0 0
265513.0 213081.0 0
272403.0 213651.0 0
279497.0 214361.0 0
285573.0 213261.0 0
284048.0 217514.0 0
290270.0 213110.0 0
293625.0 216488.0 0
297343.0 213355.0 0
302298.0 215329.0 0
306868.0 213099.0 0
312362.0 216017.0 0
318331.0 214498.0 0
323490.0 213886.0 0
332372.0 214688.0 0
340959.0 214084.0 0
337065.0 215294.0 0
345706.0 212890.0 0
350927.0 215012.0 0
359287.0 215377.0 0
364348.0 215065.0 0
368942.0 214384.0 0
373329.0 213718.0 0
377201.0 216114.0 0
381326.0 214297.0 0
386957.0 214486.0 0
393345.0 215353.0 0
398518.0 213779.0 0
402904.0 215167.0 0
407764.0 214234.0 0
415873.0 214870.0 0
421174.0 216163.0 0
424601.0 213846.0 0
428967.0 214377.0 0
434134.0 214062.0 0
438734.0 215367.0 0
442784.0 214025.0 0
447714.0 214091.0 0
453041.0 214687.0 0
458328.0 213522.0 0
463617.0 212898.0 0
463591.0 217439.0 0
468164.0 214774.0 0
473603.0 213939.0 0
478153.0 214154.0 0
482812.0 213504.0 0
481094.0 217490.0 0
487499.0 213799.0 0
492502.0 213189.0 0
2475.44 219884.0 0
7678.63 219319.0 0
12006.2 218832.0 0
15774.7 220262.0 0
20838.9 220961.0 0
26807.0 220291.0 0
34060.9 217960.0 0
40047.1 221095.0 0
44697.9 219806.0 0
48751.9 219129.0 0
53057.1 219437.0 0
59506.3 218523.0 0
63883.6 219829.0 0
67603.6 219085.0 0
71689.3 219027.0 0
78273.6 218914.0 0
82475.3 220187.0 0
87143.5 221143.0 0
92002.1 219323.0 0
97002.7 219274.0 0
102131.0 218527.0 0
106970.0 220900.0 0
111123.0 219332.0 0
115818.0 220698.0 0
121101.0 220698.0 0
126571.0 219054.0 0
132454.0 218750.0 0
137140.0 219881.0 0
142292.0 219014.0 0
147729.0 218486.0 0
152626.0 219140.0 0
157520.0 218162.0 0
162024.0 219770.0 0
167210.0 218202.0 0
172467.0 219259.0 0
178177.0 220167.0 0
183464.0 217959.0 0
186109.0 222360.0 0
190424.0 218728.0 0
195409.0 220172.0 0
203347.0 218612.0 0
199779.0 220791.0 0
208200.0 219591.0 0
212585.0 218666.0 0
217688.0 219082.0 0
223417.0 219309.0 0
227730.0 219759.0 0
232770.0 219003.0 0
237955.0 219669.0 0
242265.0 218558.0 0
246593.0 218446.0 0
251479.0 220231.0 0
257651.0 220044.0 0
262648.0 218273.0 0
268084.0 218337.0 0
273558.0 220344.0 0
279484.0 220551.0 0
284961.0 222648.0 0
289108.0 218208.0 0
293846.0 220709.0 0
298799.0 219110.0 0
302784.0 218815.0 0
302683.0 221974.0 0
307486.0 218661.0 0
307432.0 222594.0 0
312816.0 221834.0 0
316380.0 219400.0 0
321286.0 219523.0 0
327593.0 218061.0 0
333595.0 219671.0 0
340751.0 218216.0 0
337883.0 221161.0 0
346461.0 219445.0 0
352477.0 219835.0 0
358047.0 220960.0 0
362683.0 218931.0 0
367602.0 219651.0 0
373234.0 218840.0 0
377755.0 220846.0 0
383126.0 219716.0 0
388876.0 220363.0 0
397595.0 218197.0 0
393913.0 220630.0 0
401990.0 219785.0 0
407549.0 220036.0 0
417744.0 219026.0 0
413351.0 220065.0 0
420748.0 220306.0 0
426073.0 219747.0 0
432059.0 218855.0 0
436727.0 219208.0 0
442763.0 219046.0 0
448811.0 221189.0 0
453406.0 218858.0 0
458503.0 220058.0 0
467774.0 220090.0 0
471815.0 217635.0 0
472244.0 222697.0 0
476445.0 219183.0 0
485650.0 218460.0 0
490702.0 219493.0 0
495992.0 217726.0 0
3207.75 225013.0 0
8254.9 224419.0 0
12760.2 224055.0 0
17403.7 225023.0 0
22003.7 225557.0 0
26225.1 225074.0 0
30945.0 223581.0 0
35924.1 223699.0 0
40000.4 226822.0 0
43625.4 223792.0 0
47750.4 223162.0 0
51803.5 223495.0 0
52667.0 227690.0 0
56824.1 223712.0 0
62573.5 223842.0 0
67164.9 224264.0 0
72514.7 224214.0 0
77986.4 223011.0 0
78841.5 227764.0 0
82531.2 224612.0 0
86298.2 225210.0 0
90161.0 224459.0 0
95223.3 224296.0 0
101126.0 224196.0 0
106557.0 225921.0 0
111796.0 224194.0 0
118329.0 225370.0 0
123277.0 225125.0 0
127623.0 224174.0 0
132212.0 224067.0 0
137230.0 224480.0 0
141705.0 225757.0 0
146465.0 223481.0 0
151571.0 225941.0 0
156134.0 223105.0 0
161836.0 226070.0 0
169288.0 224584.0 0
175979.0 225943.0 0
181610.0 224983.0 0
190986.0 224032.0 0
195747.0 224847.0 0
200529.0 225980.0 0
204950.0 223135.0 0
208471.0 225355.0 0
206296.0 227690.0 0
211645.0 223242.0 0
216529.0 224408.0 0
221729.0 223721.0 0
226721.0 224248.0 0
231977.0 223270.0 0
231002.0 227656.0 0
236088.0 224547.0 0
241462.0 223053.0 0
246788.0 223557.0 0
251440.0 224481.0 0
256161.0 225156.0 0
261542.0 223614.0 0
266308.0 222771.0 0
270629.0 225221.0 0
276600.0 225295.0 0
290168.0 223074.0 0
293741.0 225318.0 0
297268.0 223539.0 0
304642.0 226668.0 0
310145.0 225146.0 0
313932.0 226628.0 0
316961.0 223569.0 0
326192.0 223444.0 0
321557.0 225500.0 0
331839.0 224651.0 0
336683.0 225160.0 0
341774.0 224091.0 0
346616.0 225310.0 0
350384.0 223765.0 0
354414.0 225027.0 0
363426.0 224268.0 0
368533.0 224873.0 0
372659.0 223532.0 0
376994.0 225995.0 0
381267.0 224226.0 0
385754.0 224831.0 0
391600.0 225381.0 0
397809.0 224280.0 0
403440.0 224757.0 0
408196.0 225152.0 0
412657.0 225222.0 0
417330.0 223721.0 0
422295.0 224056.0 0
427069.0 226445.0 0
433143.0 224787.0 0
438896.0 223265.0 0
443935.0 224637.0 0
448491.0 227036.0 0
453760.0 223822.0 0
457903.0 225967.0 0
463032.0 224516.0 0
468106.0 224871.0 0
476525.0 224214.0 0
481585.0 222759.0 0
487399.0 223370.0 0
492244.0 225893.0 0
497268.0 223375.0 0
2743.21 230441.0 0
8043.76 229442.0 0
14925.6 229260.0 0
11766.6 231922.0 0
19913.7 229835.0 0
25333.3 229918.0 0
32696.8 230374.0 0
42530.6 231790.0 0
47199.0 228436.0 0
57752.4 229953.0 0
63750.0 229200.0 0
69577.5 229559.0 0
74693.1 230092.0 0
82761.4 229386.0 0
87411.5 229644.0 0
93077.0 229718.0 0
98831.5 229554.0 0
103892.0 230104.0 0
107221.0 229928.0 0
111637.0 230065.0 0
116409.0 232758.0 0
120392.0 230098.0 0
124179.0 229399.0 0
128408.0 228798.0 0
132874.0 228401.0 0
136856.0 229171.0 0
141100.0 229940.0 0
146521.0 229448.0 0
151900.0 231332.0 0
156635.0 229539.0 0
160670.0 231613.0 0
166705.0 230852.0 0
172254.0 229570.0 0
179233.0 229559.0 0
184126.0 230188.0 0
189309.0 228546.0 0
193664.0 229441.0 0
197501.0 229050.0 0
202957.0 229827.0 0
207406.0 232481.0 0
212281.0 229066.0 0
216831.0 228937.0 0
220998.0 228554.0 0
221748.0 232804.0 0
225763.0 229231.0 0
235669.0 229469.0 0
240563.0 228298.0 0
244749.0 232627.0 0
248387.0 228341.0 0
252577.0 228125.0 0
259990.0 228211.0 0
256074.0 230154.0 0
261848.0 232795.0 0
265483.0 228018.0 0
270072.0 232036.0 0
272925.0 228685.0 0
275662.0 229273.0 0
278040.0 232307.0 0
281966.0 228159.0 0
288344.0 227837.0 0
293483.0 229992.0 0
298770.0 227935.0 0
297205.0 232815.0 0
309166.0 228811.0 0
312952.0 231369.0 0
317703.0 228539.0 0
323359.0 230690.0 0
327795.0 227957.0 0
332500.0 229301.0 0
336868.0 229771.0 0
342202.0 229664.0 0
351673.0 228566.0 0
347210.0 229680.0 0
354422.0 232186.0 0
357647.0 228571.0 0
363234.0 230621.0 0
368505.0 229135.0 0
373399.0 230353.0 0
382579.0 228252.0 0
379105.0 230401.0 0
387081.0 230430.0 0
392325.0 231565.0 0
395893.0 229009.0 0
400749.0 229470.0 0
405935.0 229096.0 0
411228.0 230396.0 0
416963.0 229561.0 0
422188.0 228956.0 0
426356.0 231998.0 0
431392.0 230484.0 0
437982.0 228690.0 0
443846.0 230513.0 0
453586.0 229049.0 0
449068.0 231386.0 0
458357.0 230164.0 0
462246.0 229508.0 0
467274.0 229877.0 0
472251.0 227842.0 0
478247.0 228974.0 0
483449.0 227882.0 0
482526.0 232344.0 0
487732.0 228041.0 0
492453.0 230882.0 0
497109.0 228975.0 0
2122.02 235267.0 0
6630.78 234377.0 0
10876.1 235575.0 0
16446.5 234500.0 0
22138.3 234634.0 0
26810.1 234493.0 0
38039.4 235820.0 0
44038.8 236306.0 0
47182.2 233567.0 0
52162.2 233114.0 0
57346.1 236050.0 0
62695.9 234580.0 0
67631.0 234901.0 0
72733.5 234638.0 0
77869.6 234016.0 0
83358.1 234100.0 0
88731.6 234605.0 0
93486.7 234577.0 0
97429.8 234190.0 0
102461.0 235315.0 0
107419.0 233179.0 0
111803.0 236429.0 0
120439.0 235956.0 0
125861.0 233724.0 0
131749.0 233125.0 0
137382.0 234050.0 0
143321.0 234841.0 0
148472.0 234397.0 0
152886.0 235861.0 0
157308.0 234537.0 0
163250.0 233975.0 0
168105.0 236266.0 0
170863.0 233006.0 0
175911.0 233577.0 0
181669.0 235396.0 0
189130.0 233793.0 0
194260.0 234197.0 0
199452.0 233400.0 0
203612.0 235407.0 0
210863.0 236154.0 0
216146.0 234457.0 0
221804.0 237467.0 0
226485.0 234506.0 0
232438.0 233647.0 0
238426.0 233406.0 0
241223.0 237864.0 0
245788.0 237975.0 0
251371.0 233115.0 0
256832.0 234681.0 0
266238.0 236135.0 0
274194.0 234776.0 0
283468.0 234481.0 0
289012.0 233163.0 0
293250.0 235504.0 0
298380.0 238024.0 0
302994.0 233141.0 0
308796.0 234033.0 0
318354.0 233817.0 0
324038.0 236138.0 0
328784.0 233179.0 0
334059.0 234922.0 0
339584.0 234328.0 0
344924.0 234129.0 0
349980.0 233666.0 0
358644.0 235289.0 0
363893.0 236214.0 0
368159.0 233855.0 0
372318.0 235071.0 0
376966.0 234934.0 0
382475.0 233896.0 0
387497.0 234913.0 0
392130.0 235673.0 0
396151.0 234385.0 0
401230.0 234938.0 0
406695.0 234257.0 0
411221.0 235268.0 0
415493.0 234600.0 0
421160.0 234542.0 0
428510.0 235512.0 0
430948.0 234916.0 0
435838.0 234711.0 0
442049.0 236452.0 0
446667.0 234876.0 0
451290.0 236098.0 0
456082.0 233829.0 0
461501.0 234558.0 0
466933.0 235284.0 0
472915.0 233041.0 0
470974.0 238030.0 0
478058.0 234444.0 0
487864.0 233170.0 0
493651.0 234779.0 0
498089.0 233655.0 0
2814.15 240059.0 0
8167.05 239319.0 0
12898.6 238682.0 0
11902.1 242649.0 0
16336.1 239331.0 0
20388.4 239211.0 0
25273.6 240437.0 0
31183.4 238175.0 0
37230.5 241163.0 0
41789.1 240169.0 0
47440.4 240287.0 0
53096.0 239599.0 0
58686.7 241341.0 0
63564.1 239733.0 0
68266.6 239298.0 0
72452.2 239487.0 0
77184.4 239129.0 0
86320.9 238225.0 0
82033.7 239208.0 0
91302.9 239142.0 0
96816.7 238590.0 0
101397.0 241206.0 0
107502.0 241403.0 0
116466.0 239161.0 0
113005.0 241256.0 0
121276.0 240692.0 0
126005.0 239882.0 0
132127.0 239509.0 0
137824.0 239690.0 0
142845.0 240226.0 0
147536.0 238950.0 0
152634.0 240503.0 0
157566.0 239526.0 0
162719.0 238477.0 0
167302.0 241296.0 0
172608.0 238764.0 0
177867.0 238867.0 0
182317.0 240490.0 0
186386.0 238136.0 0
188253.0 243111.0 0
192098.0 238676.0 0
196640.0 239350.0 0
201131.0 238873.0 0
206787.0 238695.0 0
212749.0 239277.0 0
214035.0 242647.0 0
217648.0 240370.0 0
222154.0 242959.0 0
226814.0 239608.0 0
231562.0 239277.0 0
236409.0 238332.0 0
235740.0 243073.0 0
240063.0 241235.0 0
243720.0 242162.0 0
250447.0 239007.0 0
255194.0 238856.0 0
260763.0 238969.0 0
266786.0 241653.0 0
271150.0 238442.0 0
278147.0 238047.0 0
283275.0 241304.0 0
288448.0 238456.0 0
293468.0 240404.0 0
303446.0 238693.0 0
303647.0 242691.0 0
308178.0 239041.0 0
314339.0 239149.0 0
319255.0 238754.0 0
322898.0 241884.0 0
328963.0 238754.0 0
333142.0 239133.0 0
336742.0 239086.0 0
342582.0 239491.0 0
347874.0 238655.0 0
346983.0 242210.0 0
353203.0 238348.0 0
357761.0 240974.0 0
362502.0 241024.0 0
367785.0 239505.0 0
373557.0 239714.0 0
382643.0 239148.0 0
378328.0 239444.0 0
387500.0 239450.0 0
390846.0 239251.0 0
394215.0 238844.0 0
397995.0 238843.0 0
405860.0 240287.0 0
412259.0 239901.0 0
417888.0 239410.0 0
423014.0 239806.0 0
427880.0 239405.0 0
432793.0 239867.0 0
437679.0 240355.0 0
441772.0 241120.0 0
447093.0 239136.0 0
452123.0 241261.0 0
456325.0 238777.0 0
461265.0 240213.0 0
466170.0 239867.0 0
476160.0 239469.0 0
482654.0 238346.0 0
488905.0 238735.0 0
492848.0 241578.0 0
497009.0 238437.0 0
2323.45 244501.0 0
7488.63 244165.0 0
13293.0 247049.0 0
17723.1 243574.0 0
22193.8 244169.0 0
25716.1 244963.0 0
29628.0 246750.0 0
33500.8 243759.0 0
36831.3 246179.0 0
41263.3 245398.0 0
46270.4 245518.0 0
51629.0 244944.0 0
56865.3 245599.0 0
62241.8 245189.0 0
67517.0 244014.0 0
72507.7 244098.0 0
81268.1 244330.0 0
76626.0 245162.0 0
87015.9 243246.0 0
92310.3 244410.0 0
97256.9 244432.0 0
102435.0 246356.0 0
106772.0 246547.0 0
111799.0 245231.0 0
117639.0 244704.0 0
123432.0 244431.0 0
128783.0 244937.0 0
134059.0 244550.0 0
137961.0 244281.0 0
142164.0 244227.0 0
147512.0 244749.0 0
152879.0 245436.0 0
158961.0 243915.0 0
162909.0 243854.0 0
167202.0 245934.0 0
172002.0 243197.0 0
177740.0 244403.0 0
183263.0 245170.0 0
193909.0 243968.0 0
196809.0 248034.0 0
199065.0 243687.0 0
204169.0 244116.0 0
209504.0 243766.0 0
213616.0 246916.0 0
217452.0 244752.0 0
220494.0 247796.0 0
226338.0 243474.0 0
225393.0 247325.0 0
230557.0 244799.0 0
240022.0 245220.0 0
245176.0 248237.0 0
250374.0 244399.0 0
256484.0 244279.0 0
262635.0 244597.0 0
267373.0 247164.0 0
272518.0 244084.0 0
278321.0 243859.0 0
282858.0 246845.0 0
289974.0 243951.0 0
294937.0 244850.0 0
299367.0 243379.0 0
303742.0 247841.0 0
307810.0 244198.0 0
313021.0 245339.0 0
317906.0 243557.0 0
320279.0 247885.0 0
324595.0 246455.0 0
327966.0 243788.0 0
333173.0 243418.0 0
338977.0 244774.0 0
344301.0 244776.0 0
351178.0 244451.0 0
358169.0 245354.0 0
362958.0 245929.0 0
367641.0 244869.0 0
372880.0 245344.0 0
376886.0 247944.0 0
377591.0 244122.0 0
387666.0 243915.0 0
383032.0 244312.0 0
390581.0 244794.0 0
391383.0 248178.0 0
394663.0 243463.0 0
400642.0 243229.0 0
400518.0 247606.0 0
404216.0 246530.0 0
409729.0 245747.0 0
416363.0 245195.0 0
422815.0 245463.0 0
428624.0 244233.0 0
433383.0 244686.0 0
438576.0 245608.0 0
448819.0 243998.0 0
444220.0 244920.0 0
452096.0 245251.0 0
457222.0 245043.0 0
462829.0 244688.0 0
466795.0 245956.0 0
470795.0 243218.0 0
476401.0 245848.0 0
482887.0 245087.0 0
488671.0 244245.0 0
492897.0 245300.0 0
497141.0 244298.0 0
2874.66 248334.0 0
2104.52 252492.0 0
7660.86 248626.0 0
12523.1 252409.0 0
17516.5 248467.0 0
21989.4 248455.0 0
24345.7 253230.0 0
25932.4 248861.0 0
33841.1 249623.0 0
38550.9 249647.0 0
43313.9 250459.0 0
47500.0 249263.0 0
51972.1 250590.0 0
58903.0 250153.0 0
64490.0 250382.0 0
69000.2 249111.0 0
73871.7 248569.0 0
77214.8 248989.0 0
80689.5 249432.0 0
77189.3 252606.0 0
86319.4 249553.0 0
92812.4 249417.0 0
98243.7 249693.0 0
103093.0 250320.0 0
109023.0 249730.0 0
113203.0 249345.0 0
122442.0 249217.0 0
117544.0 250413.0 0
126563.0 249829.0 0
122473.0 253292.0 0
131865.0 249286.0 0
136845.0 248829.0 0
140204.0 251136.0 0
144012.0 249515.0 0
150423.0 249309.0 0
153051.0 253323.0 0
157090.0 249136.0 0
162996.0 248240.0 0
161583.0 253166.0 0
167643.0 250596.0 0
173057.0 248829.0 0
183039.0 249784.0 0
178845.0 250469.0 0
186688.0 248489.0 0
191848.0 248845.0 0
190265.0 253134.0 0
201800.0 249132.0 0
207325.0 248865.0 0
212331.0 252741.0 0
216951.0 249935.0 0
222877.0 252256.0 0
229384.0 249836.0 0
235828.0 248551.0 0
240233.0 250233.0 0
248619.0 253158.0 0
252510.0 249414.0 0
257229.0 249735.0 0
262345.0 249373.0 0
272615.0 250191.0 0
277795.0 248876.0 0
281554.0 252596.0 0
289751.0 248722.0 0
285972.0 250353.0 0
293408.0 248427.0 0
292794.0 253246.0 0
297866.0 249347.0 0
303439.0 253135.0 0
309258.0 249763.0 0
315405.0 250759.0 0
323678.0 251397.0 0
328754.0 249417.0 0
334645.0 248727.0 0
338208.0 250974.0 0
342797.0 249927.0 0
348327.0 249250.0 0
354572.0 249172.0 0
358833.0 249315.0 0
358288.0 253133.0 0
362309.0 249984.0 0
366736.0 249910.0 0
371993.0 250730.0 0
377266.0 252244.0 0
380640.0 248594.0 0
386651.0 249093.0 0
392798.0 252915.0 0
396441.0 249171.0 0
401637.0 252680.0 0
407478.0 251211.0 0
413218.0 251043.0 0
418110.0 250242.0 0
422109.0 250617.0 0
426881.0 249069.0 0
431424.0 248975.0 0
429096.0 253269.0 0
436291.0 250954.0 0
442102.0 250261.0 0
447552.0 249174.0 0
452806.0 249438.0 0
457500.0 251107.0 0
461589.0 248905.0 0
465846.0 250012.0 0
470831.0 249013.0 0
476633.0 251771.0 0
480520.0 249505.0 0
485119.0 250132.0 0
491128.0 250091.0 0
497365.0 249789.0 0
6793.0 254122.0 0
12819.1 257835.0 0
18520.6 253503.0 0
30115.0 253602.0 0
35416.0 255038.0 0
39870.2 253704.0 0
43528.0 255747.0 0
47476.5 253435.0 0
47740.0 258198.0 0
51742.6 255429.0 0
56703.5 255184.0 0
61962.3 255197.0 0
66635.8 254875.0 0
71688.8 253457.0 0
82289.3 254420.0 0
88451.2 255868.0 0
93312.7 253523.0 0
94101.0 257739.0 0
97500.0 254296.0 0
102237.0 254097.0 0
107095.0 253871.0 0
112295.0 253599.0 0
113639.0 258441.0 0
117490.0 255028.0 0
122398.0 257684.0 0
132594.0 254052.0 0
127673.0 254794.0 0
137655.0 253771.0 0
135408.0 257529.0 0
142128.0 254201.0 0
147642.0 253990.0 0
157499.0 255016.0 0
165673.0 254848.0 0
171244.0 254701.0 0
176248.0 254696.0 0
180340.0 255137.0 0
184975.0 253569.0 0
188837.0 257240.0 0
195410.0 253622.0 0
198171.0 258333.0 0
201317.0 254586.0 0
206589.0 254911.0 0
218113.0 254278.0 0
221948.0 257591.0 0
227519.0 254880.0 0
232620.0 253414.0 0
238158.0 254209.0 0
243784.0 254567.0 0
255022.0 253468.0 0
251721.0 256466.0 0
259923.0 253638.0 0
266655.0 254204.0 0
272629.0 255124.0 0
276489.0 253734.0 0
277765.0 258168.0 0
282667.0 258091.0 0
287000.0 254943.0 0
298712.0 255212.0 0
304164.0 258146.0 0
307680.0 254418.0 0
312767.0 256032.0 0
319097.0 255115.0 0
323790.0 255621.0 0
328202.0 255059.0 0
332670.0 253364.0 0
337201.0 254754.0 0
341731.0 255163.0 0
346945.0 254659.0 0
352949.0 254446.0 0
363848.0 254380.0 0
368587.0 254018.0 0
372513.0 254608.0 0
373375.0 258277.0 0
378050.0 257347.0 0
383137.0 253564.0 0
388493.0 254794.0 0
392117.0 257870.0 0
396702.0 254688.0 0
408629.0 255804.0 0
412944.0 256006.0 0
417500.0 254195.0 0
423651.0 254520.0 0
427085.0 258333.0 0
432842.0 254455.0 0
436285.0 258124.0 0
439593.0 254613.0 0
445090.0 254256.0 0
449569.0 253913.0 0
453927.0 254258.0 0
458044.0 255670.0 0
461736.0 253469.0 0
462492.0 257695.0 0
466238.0 254721.0 0
472011.0 255039.0 0
477069.0 256399.0 0
481393.0 254124.0 0
487083.0 255340.0 0
492809.0 255987.0 0
497596.0 254823.0 0
3506.54 259573.0 0
8912.79 259388.0 0
7861.59 263452.0 0
18046.0 259714.0 0
23734.9 258596.0 0
29008.9 259397.0 0
33721.2 259199.0 0
38524.5 259520.0 0
43678.3 260472.0 0
52006.1 259985.0 0
56980.7 260591.0 0
61797.7 259905.0 0
66401.3 259467.0 0
71635.5 259343.0 0
78212.6 259823.0 0
84124.0 259163.0 0
87689.3 260943.0 0
92062.8 263054.0 0
99300.9 258994.0 0
103854.0 260428.0 0
108321.0 258836.0 0
118191.0 259476.0 0
121263.0 262968.0 0
126896.0 259740.0 0
131342.0 258888.0 0
129837.0 263155.0 0
135558.0 263327.0 0
139971.0 258476.0 0
141813.0 263344.0 0
145203.0 259125.0 0
151690.0 259432.0 0
157470.0 260177.0 0
162235.0 258595.0 0
167848.0 259162.0 0
173472.0 260338.0 0
178665.0 259109.0 0
183506.0 259116.0 0
188015.0 263125.0 0
193411.0 259869.0 0
197877.0 263357.0 0
202237.0 259904.0 0
207022.0 260079.0 0
212388.0 259139.0 0
217323.0 258742.0 0
215943.0 263262.0 0
226303.0 259662.0 0
231242.0 258810.0 0
232876.0 263273.0 0
236066.0 259392.0 0
240756.0 259232.0 0
247341.0 258587.0 0
251815.0 260474.0 0
256831.0 258622.0 0
259265.0 263486.0 0
262034.0 258788.0 0
266341.0 261527.0 0
272440.0 259869.0 0
276853.0 262735.0 0
287548.0 260429.0 0
294264.0 259861.0 0
299725.0 260028.0 0
308985.0 259415.0 0
315357.0 260925.0 0
311334.0 262462.0 0
320378.0 260125.0 0
326088.0 260359.0 0
333146.0 259526.0 0
339132.0 260054.0 0
343425.0 259182.0 0
347358.0 259458.0 0
351796.0 259991.0 0
357549.0 258482.0 0
363002.0 259414.0 0
368196.0 258856.0 0
372170.0 262893.0 0
377868.0 263341.0 0
382799.0 259713.0 0
387993.0 260506.0 0
397059.0 259038.0 0
392971.0 263085.0 0
402873.0 259352.0 0
407561.0 259353.0 0
411391.0 260305.0 0
416297.0 259157.0 0
421523.0 258953.0 0
431833.0 260601.0 0
442629.0 259523.0 0
449566.0 259539.0 0
454949.0 258929.0 0
459037.0 259957.0 0
462382.0 262166.0 0
466452.0 259583.0 0
470799.0 260206.0 0
475075.0 259953.0 0
479817.0 260443.0 0
485463.0 261002.0 0
491395.0 260196.0 0
496534.0 260299.0 0
3164.75 266236.0 0
13199.5 263746.0 0
18016.5 265689.0 0
22913.6 264228.0 0
28302.8 264540.0 0
33684.5 264109.0 0
38744.1 264458.0 0
42462.4 264303.0 0
47500.0 264072.0 0
52555.3 264382.0 0
57795.8 265906.0 0
62773.8 264372.0 0
67039.8 264270.0 0
72935.3 265393.0 0
78321.3 265622.0 0
82589.4 264217.0 0
87056.8 264858.0 0
97669.9 264282.0 0
102295.0 264099.0 0
107408.0 264668.0 0
113346.0 263858.0 0
117556.0 265208.0 0
125797.0 265655.0 0
147631.0 265472.0 0
152822.0 264782.0 0
156966.0 264654.0 0
162568.0 264708.0 0
168618.0 264681.0 0
178550.0 264194.0 0
173687.0 265707.0 0
183150.0 265827.0 0
193382.0 264670.0 0
190745.0 268051.0 0
202716.0 264100.0 0
202304.0 267784.0 0
206546.0 264469.0 0
210423.0 263717.0 0
212710.0 267925.0 0
217381.0 267681.0 0
222040.0 263723.0 0
227899.0 264125.0 0
231898.0 268324.0 0
237583.0 263869.0 0
243278.0 263715.0 0
240965.0 267966.0 0
248657.0 264064.0 0
254439.0 264141.0 0
257934.0 267514.0 0
262884.0 265229.0 0
267414.0 267229.0 0
270747.0 264150.0 0
272714.0 268231.0 0
277816.0 267436.0 0
282799.0 264244.0 0
288040.0 265728.0 0
292365.0 265408.0 0
298261.0 264325.0 0
306019.0 263733.0 0
302071.0 268385.0 0
310179.0 265276.0 0
314047.0 265946.0 0
318469.0 264182.0 0
322500.0 264358.0 0
328894.0 265019.0 0
333245.0 265911.0 0
337007.0 263912.0 0
341112.0 263840.0 0
346173.0 263984.0 0
357133.0 263801.0 0
352133.0 266097.0 0
361936.0 264329.0 0
367469.0 265633.0 0
383976.0 265756.0 0
389039.0 265279.0 0
398548.0 264463.0 0
404604.0 264512.0 0
408304.0 264520.0 0
411600.0 264598.0 0
415648.0 263953.0 0
420773.0 264442.0 0
427257.0 264886.0 0
432707.0 264670.0 0
437828.0 264721.0 0
443858.0 265772.0 0
448900.0 265659.0 0
453715.0 263762.0 0
458588.0 264047.0 0
455864.0 268032.0 0
466457.0 264463.0 0
471668.0 264864.0 0
476745.0 264530.0 0
482122.0 265312.0 0
489726.0 264322.0 0
493000.0 266314.0 0
497149.0 266293.0 0
2175.07 271483.0 0
6289.86 270435.0 0
11599.3 269861.0 0
17536.7 270152.0 0
22464.0 269900.0 0
27690.3 269601.0 0
32846.6 269489.0 0
37849.3 268992.0 0
42860.5 269093.0 0
47500.0 269155.0 0
52500.0 269074.0 0
57472.0 270366.0 0
62273.8 269428.0 0
67614.2 268656.0 0
72220.4 271114.0 0
77002.1 269510.0 0
81628.4 269122.0 0
86239.8 268980.0 0
91741.3 269467.0 0
97809.8 269670.0 0
102672.0 268650.0 0
106904.0 270814.0 0
102893.0 273667.0 0
111197.0 268741.0 0
115542.0 269537.0 0
120820.0 268858.0 0
126022.0 270487.0 0
131561.0 269142.0 0
137592.0 269514.0 0
135064.0 273019.0 0
143035.0 269947.0 0
152343.0 268763.0 0
148520.0 271278.0 0
156783.0 269334.0 0
161260.0 270545.0 0
165877.0 269216.0 0
170826.0 269636.0 0
176311.0 270277.0 0
181160.0 269347.0 0
186202.0 271336.0 0
191895.0 272792.0 0
195926.0 268997.0 0
201263.0 272741.0 0
207043.0 269481.0 0
211889.0 273694.0 0
217613.0 272397.0 0
221341.0 269222.0 0
226124.0 268959.0 0
233723.0 273291.0 0
236941.0 270438.0 0
241150.0 273306.0 0
246411.0 270034.0 0
252565.0 269407.0 0
257161.0 271983.0 0
262479.0 270270.0 0
268873.0 273205.0 0
276195.0 271652.0 0
283398.0 271280.0 0
289982.0 270250.0 0
296042.0 269498.0 0
305237.0 272871.0 0
308485.0 269239.0 0
313697.0 271076.0 0
318487.0 268752.0 0
325759.0 268713.0 0
322154.0 271459.0 0
331007.0 270471.0 0
336304.0 269593.0 0
342218.0 269238.0 0
347986.0 270173.0 0
352469.0 271754.0 0
357707.0 269656.0 0
363364.0 269252.0 0
372124.0 269013.0 0
367617.0 271736.0 0
377591.0 269304.0 0
382665.0 272031.0 0
388198.0 270150.0 0
393854.0 268762.0 0
397811.0 272618.0 0
403548.0 270310.0 0
409206.0 271059.0 0
413406.0 268785.0 0
418013.0 269397.0 0
422329.0 269483.0 0
427432.0 271638.0 0
432985.0 268927.0 0
437053.0 269648.0 0
442559.0 271260.0 0
447415.0 269035.0 0
451703.0 269615.0 0
461828.0 269341.0 0
468602.0 270044.0 0
474669.0 269950.0 0
480001.0 269412.0 0
481988.0 273389.0 0
486592.0 269539.0 0
493167.0 270690.0 0
498364.0 270613.0 0
2648.05 275764.0 0
6704.61 274305.0 0
11883.6 276648.0 0
17237.5 274649.0 0
21689.6 274774.0 0
26625.8 274803.0 0
32269.8 274944.0 0
37800.7 274062.0 0
42911.0 274209.0 0
48373.5 274028.0 0
53049.3 274257.0 0
57491.6 274652.0 0
62500.0 274242.0 0
67351.0 274265.0 0
72974.1 275450.0 0
77090.6 274438.0 0
80945.9 274425.0 0
86598.9 274152.0 0
92663.1 276061.0 0
98143.1 274715.0 0
107106.0 276168.0 0
112144.0 274042.0 0
117790.0 273909.0 0
127517.0 274203.0 0
123041.0 275576.0 0
131673.0 275946.0 0
139797.0 275640.0 0
146648.0 276510.0 0
153460.0 274565.0 0
159445.0 275088.0 0
162837.0 278082.0 0
165971.0 274430.0 0
171469.0 274863.0 0
177283.0 276497.0 0
183208.0 276611.0 0
188841.0 276931.0 0
195960.0 276631.0 0
201242.0 278176.0 0
206433.0 276204.0 0
216442.0 278139.0 0
222978.0 273883.0 0
228693.0 273923.0 0
233951.0 278112.0 0
236998.0 274963.0 0
246187.0 276461.0 0
251707.0 274850.0 0
258365.0 276967.0 0
263458.0 275858.0 0
274478.0 275892.0 0
270671.0 278729.0 0
279003.0 274696.0 0
284460.0 277659.0 0
288569.0 275002.0 0
293667.0 275195.0 0
300158.0 274546.0 0
304971.0 276875.0 0
308838.0 275123.0 0
313427.0 276071.0 0
316755.0 273921.0 0
320561.0 275591.0 0
326671.0 275148.0 0
333859.0 275424.0 0
338664.0 273971.0 0
342798.0 274708.0 0
347414.0 275145.0 0
352857.0 276579.0 0
357815.0 275440.0 0
362634.0 274075.0 0
367023.0 276083.0 0
371857.0 274475.0 0
377433.0 275225.0 0
382625.0 276390.0 0
386621.0 275676.0 0
391984.0 274941.0 0
396544.0 276735.0 0
401645.0 277032.0 0
406987.0 275258.0 0
411810.0 274760.0 0
417020.0 273938.0 0
422570.0 275218.0 0
427263.0 277350.0 0
432183.0 275519.0 0
437978.0 274869.0 0
442949.0 276814.0 0
448192.0 274089.0 0
452072.0 277257.0 0
455970.0 273942.0 0
461568.0 275899.0 0
466228.0 274555.0 0
471902.0 276268.0 0
477527.0 274753.0 0
481332.0 277231.0 0
486494.0 276852.0 0
491854.0 275797.0 0
497015.0 275381.0 0
199615.0 283106.0 0
204495.0 280731.0 0
210815.0 279357.0 0
222493.0 279615.0 0
227980.0 279329.0 0
231497.0 282654.0 0
236576.0 281442.0 0
240349.0 279082.0 0
244594.0 282157.0 0
248982.0 281028.0 0
253457.0 279625.0 0
257889.0 282519.0 0
261348.0 280031.0 0
262157.0 283123.0 0
265847.0 280757.0 0
271445.0 283860.0 0
278580.0 280175.0 0
283434.0 282301.0 0
289806.0 279543.0 0
287235.0 283846.0 0
297111.0 279918.0 0
302360.0 280471.0 0
204497.0 284863.0 0
209502.0 284353.0 0
212383.0 288574.0 0
215753.0 284242.0 0
221159.0 284994.0 0
223374.0 288916.0 0
226675.0 285018.0 0
231841.0 287957.0 0
235352.0 284614.0 0
236747.0 288280.0 0
240455.0 285194.0 0
245806.0 287301.0 0
252371.0 284561.0 0
250603.0 288870.0 0
256847.0 288914.0 0
262914.0 287191.0 0
268022.0 288011.0 0
276392.0 285541.0 0
280909.0 285435.0 0
284542.0 286709.0 0
293201.0 284430.0 0
299457.0 285287.0 0
200606.0 289393.0 0
206864.0 289358.0 0
213616.0 293658.0 0
218229.0 289920.0 0
227364.0 290970.0 0
231694.0 293327.0 0
236110.0 292340.0 0
240976.0 290923.0 0
246395.0 293165.0 0
252227.0 293600.0 0
261596.0 292302.0 0
266655.0 293240.0 0
273332.0 290230.0 0
278862.0 289445.0 0
283257.0 290322.0 0
281059.0 293361.0 0
288793.0 289138.0 0
294275.0 290036.0 0
291443.0 294077.0 0
298330.0 289993.0 0
10310.7 299198.0 0
202203.0 295770.0 0
208359.0 294862.0 0
210369.0 298854.0 0
218705.0 295292.0 0
215231.0 299190.0 0
223732.0 294899.0 0
228250.0 295551.0 0
231240.0 297931.0 0
237018.0 297774.0 0
240610.0 295003.0 0
243175.0 297775.0 0
248828.0 298541.0 0
254695.0 298750.0 0
257460.0 294812.0 0
261842.0 297617.0 0
271774.0 294998.0 0
274587.0 298269.0 0
276884.0 294222.0 0
279530.0 297071.0 0
285876.0 294336.0 0
289151.0 298861.0 0
293900.0 298188.0 0
297258.0 294595.0 0
341742.0 296862.0 0
201856.0 302895.0 0
206161.0 300266.0 0
211464.0 303709.0 0
220845.0 299513.0 0
226521.0 300493.0 0
232163.0 302999.0 0
237082.0 303156.0 0
241932.0 303215.0 0
253259.0 303905.0 0
258653.0 302406.0 0
268393.0 299712.0 0
278609.0 301152.0 0
283529.0 299271.0 0
282829.0 303518.0 0
292962.0 303410.0 0
297924.0 300771.0 0
309756.0 300728.0 0
404603.0 303984.0 0
6878.9 309008.0 0
48261.5 306622.0 0
167796.0 308870.0 0
174681.0 305647.0 0
201393.0 307670.0 0
206275.0 305575.0 0
210460.0 309381.0 0
216938.0 304730.0 0
215549.0 309426.0 0
222292.0 304377.0 0
220117.0 308832.0 0
228075.0 305001.0 0
225543.0 308481.0 0
231440.0 309128.0 0
237532.0 308070.0 0
247687.0 304432.0 0
253782.0 309252.0 0
258819.0 307600.0 0
262735.0 304976.0 0
267380.0 305989.0 0
273109.0 304590.0 0
279196.0 306875.0 0
287128.0 305132.0 0
292775.0 308692.0 0
297842.0 307271.0 0
317421.0 308948.0 0
357807.0 308455.0 0
362467.0 306871.0 0
368610.0 306654.0 0
374583.0 309296.0 0
389098.0 305718.0 0
421499.0 305256.0 0
437044.0 308545.0 0
443009.0 304903.0 0
455114.0 305284.0 0
461586.0 309145.0 0
472319.0 306028.0 0
476569.0 309271.0 0
492537.0 307004.0 0
497243.0 304852.0 0
14254.8 313561.0 0
56374.4 310536.0 0
63868.7 310546.0 0
68827.6 311565.0 0
75161.9 313600.0 0
79658.9 312299.0 0
85031.3 312997.0 0
96187.4 310812.0 0
100416.0 310260.0 0
107589.0 311996.0 0
111005.0 313841.0 0
115161.0 312298.0 0
121008.0 312191.0 0
126005.0 309980.0 0
131855.0 314303.0 0
137504.0 313315.0 0
154054.0 312601.0 0
158565.0 311996.0 0
177286.0 309700.0 0
178735.0 313066.0 0
191569.0 310853.0 0
196244.0 311781.0 0
200903.0 312027.0 0
205173.0 310469.0 0
208035.0 313461.0 0
213375.0 314285.0 0
217869.0 313103.0 0
222344.0 313005.0 0
227478.0 313777.0 0
238148.0 314056.0 0
242317.0 311110.0 0
248061.0 310489.0 0
259031.0 312009.0 0
255489.0 313795.0 0
263577.0 310151.0 0
261777.0 314443.0 0
269202.0 311106.0 0
274266.0 309843.0 0
273093.0 314134.0 0
277794.0 313569.0 0
284298.0 310119.0 0
282138.0 313891.0 0
288814.0 309722.0 0
287736.0 313877.0 0
292940.0 313696.0 0
297431.0 312272.0 0
309917.0 312234.0 0
322450.0 310338.0 0
391311.0 312397.0 0
396056.0 313835.0 0
423600.0 313207.0 0
466760.0 314407.0 0
471850.0 313004.0 0
481239.0 310364.0 0
497839.0 314303.0 0
8033.11 319197.0 0
17655.2 316878.0 0
22442.4 314877.0 0
30433.9 314781.0 0
36537.1 315314.0 0
48339.7 317526.0 0
53010.0 317523.0 0
88220.9 318987.0 0
93065.2 316914.0 0
97919.2 319038.0 0
119140.0 319188.0 0
124379.0 317086.0 0
142262.0 315568.0 0
146000.0 319019.0 0
150902.0 316891.0 0
173221.0 314723.0 0
178042.0 316567.0 0
204104.0 315110.0 0
209347.0 317834.0 0
220105.0 317083.0 0
225974.0 318756.0 0
233037.0 314860.0 0
230724.0 319616.0 0
236409.0 319349.0 0
241731.0 315881.0 0
241445.0 319653.0 0
245383.0 315006.0 0
251037.0 315370.0 0
257878.0 317668.0 0
262773.0 318669.0 0
267220.0 316148.0 0
271748.0 318582.0 0
284669.0 316373.0 0
280750.0 318125.0 0
287890.0 318831.0 0
292510.0 318605.0 0
296809.0 316766.0 0
300456.0 319221.0 0
308719.0 318876.0 0
318277.0 319072.0 0
322451.0 315050.0 0
326630.0 315809.0 0
330913.0 316083.0 0
335045.0 318743.0 0
339605.0 315427.0 0
345114.0 317620.0 0
388726.0 316911.0 0
393964.0 318719.0 0
407296.0 317988.0 0
417127.0 314901.0 0
422388.0 318673.0 0
426612.0 316776.0 0
431907.0 317478.0 0
436080.0 319316.0 0
439714.0 315767.0 0
444222.0 318024.0 0
449230.0 314917.0 0
458451.0 317783.0 0
462790.0 315594.0 0
479717.0 315647.0 0
484429.0 315727.0 0
489239.0 318653.0 0
2631.23 322168.0 0
14588.8 320385.0 0
18911.2 322712.0 0
30589.4 320983.0 0
37311.7 323315.0 0
40985.6 319719.0 0
45936.2 321194.0 0
54909.3 324184.0 0
85759.2 324203.0 0
91010.0 324336.0 0
92904.6 321922.0 0
96476.5 323360.0 0
102310.0 321145.0 0
105708.0 324236.0 0
113050.0 321203.0 0
126262.0 321294.0 0
137141.0 322753.0 0
132697.0 324672.0 0
155278.0 320256.0 0
166524.0 324031.0 0
169989.0 319975.0 0
177577.0 320737.0 0
183093.0 322391.0 0
188931.0 321046.0 0
194758.0 322303.0 0
199563.0 319665.0 0
204439.0 320248.0 0
208794.0 323064.0 0
215100.0 319806.0 0
222126.0 321348.0 0
226665.0 323588.0 0
237324.0 324775.0 0
242508.0 324290.0 0
247370.0 320440.0 0
253455.0 319865.0 0
257605.0 323404.0 0
262731.0 323366.0 0
267273.0 321482.0 0
272518.0 324282.0 0
276224.0 320041.0 0
278385.0 324192.0 0
284075.0 323041.0 0
290917.0 323960.0 0
296327.0 321528.0 0
304817.0 319680.0 0
305454.0 323607.0 0
309712.0 323030.0 0
314014.0 321773.0 0
342101.0 321020.0 0
348027.0 321175.0 0
360423.0 323979.0 0
364943.0 320177.0 0
368691.0 322810.0 0
377600.0 321039.0 0
383597.0 319830.0 0
385630.0 324561.0 0
390690.0 320841.0 0
394399.0 323508.0 0
398809.0 320870.0 0
403236.0 321741.0 0
412976.0 320310.0 0
415149.0 324753.0 0
431773.0 323001.0 0
473827.0 322432.0 0
478880.0 320867.0 0
483291.0 324465.0 0
492521.0 322650.0 0
497266.0 322407.0 0
4198.95 327271.0 0
10165.2 325420.0 0
8211.08 329227.0 0
21754.5 328868.0 0
27252.5 325035.0 0
31965.1 327520.0 0
44551.6 326676.0 0
49617.5 327611.0 0
53511.7 329153.0 0
60744.6 325233.0 0
65233.2 328377.0 0
73247.1 327270.0 0
79797.4 327768.0 0
100409.0 325528.0 0
97591.4 328963.0 0
118044.0 326493.0 0
122206.0 328491.0 0
125707.0 329714.0 0
127597.0 326021.0 0
140009.0 326980.0 0
145853.0 326997.0 0
157949.0 329166.0 0
169946.0 327735.0 0
175197.0 326071.0 0
178323.0 329584.0 0
182126.0 327632.0 0
204262.0 325761.0 0
208517.0 328515.0 0
213031.0 326209.0 0
218445.0 324897.0 0
222808.0 325245.0 0
221549.0 329176.0 0
226399.0 328549.0 0
231902.0 324807.0 0
242613.0 329349.0 0
247190.0 326812.0 0
252148.0 324788.0 0
255669.0 328637.0 0
261566.0 328783.0 0
265975.0 327229.0 0
281509.0 327629.0 0
286581.0 328595.0 0
296191.0 327647.0 0
301866.0 326665.0 0
308858.0 327646.0 0
312809.0 327025.0 0
329672.0 329340.0 0
335177.0 326250.0 0
341691.0 325914.0 0
350533.0 328667.0 0
368277.0 328314.0 0
373639.0 325229.0 0
380959.0 325819.0 0
388242.0 327799.0 0
398411.0 324888.0 0
402468.0 326644.0 0
406830.0 329257.0 0
411664.0 327750.0 0
417627.0 329565.0 0
440796.0 328254.0 0
462565.0 325415.0 0
468005.0 327073.0 0
472750.0 328107.0 0
488293.0 325913.0 0
494690.0 327357.0 0
1396.57 330261.0 0
9024.03 334106.0 0
11918.4 330702.0 0
16619.4 330171.0 0
22141.1 334354.0 0
31750.6 332263.0 0
36111.9 331512.0 0
40529.6 331142.0 0
42506.5 334784.0 0
55082.9 333255.0 0
71070.6 333604.0 0
75981.4 332158.0 0
101262.0 330079.0 0
115988.0 333321.0 0
121376.0 334128.0 0
127453.0 333161.0 0
132217.0 330756.0 0
137709.0 332236.0 0
142940.0 334869.0 0
150246.0 330413.0 0
162385.0 329946.0 0
159503.0 334526.0 0
166757.0 332523.0 0
170964.0 334330.0 0
173828.0 330891.0 0
178103.0 333846.0 0
182582.0 332409.0 0
188429.0 334342.0 0
198255.0 334043.0 0
203628.0 331344.0 0
208355.0 333585.0 0
212193.0 331101.0 0
217010.0 331764.0 0
221940.0 334419.0 0
227511.0 334297.0 0
231052.0 330148.0 0
236967.0 330723.0 0
244037.0 334783.0 0
247358.0 331263.0 0
249424.0 334642.0 0
251036.0 329926.0 0
253936.0 334875.0 0
259248.0 333299.0 0
265052.0 332028.0 0
269988.0 331085.0 0
276255.0 330037.0 0
282329.0 332557.0 0
287518.0 334739.0 0
291633.0 331135.0 0
296063.0 333283.0 0
305251.0 330409.0 0
310186.0 334028.0 0
315851.0 330850.0 0
321608.0 330617.0 0
326129.0 333816.0 0
332766.0 333733.0 0
345721.0 331074.0 0
355714.0 330161.0 0
359390.0 333830.0 0
365233.0 332873.0 0
371514.0 332782.0 0
376826.0 330273.0 0
382983.0 333112.0 0
392773.0 332266.0 0
397327.0 330103.0 0
402414.0 331403.0 0
405524.0 334366.0 0
418256.0 334730.0 0
423877.0 334782.0 0
430432.0 332314.0 0
435876.0 330649.0 0
443743.0 332544.0 0
448497.0 330613.0 0
457751.0 334054.0 0
463509.0 334165.0 0
472922.0 332431.0 0
477904.0 332552.0 0
490331.0 330497.0 0
492549.0 334353.0 0
498185.0 330450.0 0
12432.9 339741.0 0
18261.9 339702.0 0
27556.0 335378.0 0
35807.4 338877.0 0
40409.5 339585.0 0
47221.1 335498.0 0
57767.4 336995.0 0
62118.7 338501.0 0
66580.1 336644.0 0
78232.9 337531.0 0
83627.7 339797.0 0
87177.6 335101.0 0
92596.4 337549.0 0
101304.0 335302.0 0
105416.0 335709.0 0
110427.0 337591.0 0
115498.0 339422.0 0
119859.0 337783.0 0
125026.0 336561.0 0
134374.0 335113.0 0
136925.0 335409.0 0
145130.0 338874.0 0
149278.0 337000.0 0
154955.0 335802.0 0
162950.0 336841.0 0
175791.0 338596.0 0
179935.0 337248.0 0
193820.0 337150.0 0
202968.0 336954.0 0
208461.0 339047.0 0
213343.0 335762.0 0
218074.0 338229.0 0
223563.0 339378.0 0
229085.0 339279.0 0
232952.0 335187.0 0
238327.0 336964.0 0
247745.0 339400.0 0
252014.0 338260.0 0
263797.0 336070.0 0
260661.0 339310.0 0
265232.0 340053.0 0
267972.0 335481.0 0
269743.0 339602.0 0
272652.0 335543.0 0
277988.0 336358.0 0
283147.0 337899.0 0
292459.0 336557.0 0
296813.0 337292.0 0
305786.0 337909.0 0
301372.0 338459.0 0
309193.0 339024.0 0
315912.0 336718.0 0
329885.0 335760.0 0
332502.0 338657.0 0
337497.0 338551.0 0
344487.0 339467.0 0
350089.0 339006.0 0
354804.0 337543.0 0
359342.0 339359.0 0
363529.0 337482.0 0
368250.0 337937.0 0
375763.0 336175.0 0
379842.0 338744.0 0
383935.0 338813.0 0
388117.0 336646.0 0
420703.0 338456.0 0
428710.0 338292.0 0
448865.0 335488.0 0
453540.0 336809.0 0
469551.0 335549.0 0
473869.0 336547.0 0
480010.0 338026.0 0
485101.0 336629.0 0
497345.0 335347.0 0
2385.26 344795.0 0
19755.7 344226.0 0
31572.7 341877.0 0
42563.5 343504.0 0
59411.4 344861.0 0
73236.5 343617.0 0
88025.0 340609.0 0
98112.3 341250.0 0
103476.0 344677.0 0
119756.0 341671.0 0
124322.0 340591.0 0
127047.0 344894.0 0
137186.0 342668.0 0
152637.0 340239.0 0
157044.0 340349.0 0
203858.0 342045.0 0
208136.0 344536.0 0
213707.0 341359.0 0
220640.0 341691.0 0
223049.0 344925.0 0
226320.0 342353.0 0
233924.0 340343.0 0
230352.0 344193.0 0
238224.0 341981.0 0
242559.0 340514.0 0
245852.0 344967.0 0
251489.0 343412.0 0
255726.0 340194.0 0
262281.0 344136.0 0
267778.0 344404.0 0
274720.0 341069.0 0
281330.0 342236.0 0
288097.0 340556.0 0
293531.0 341350.0 0
297721.0 340927.0 0
320548.0 340808.0 0
327915.0 343316.0 0
332244.0 342592.0 0
373783.0 343913.0 0
391305.0 344255.0 0
396224.0 340815.0 0
401114.0 342772.0 0
405441.0 344889.0 0
443848.0 340980.0 0
447423.0 344831.0 0
460614.0 341992.0 0
468386.0 343746.0 0
475351.0 341749.0 0
482264.0 344540.0 0
486287.0 342178.0 0
491602.0 343767.0 0
6006.39 348490.0 0
11457.4 345878.0 0
17628.4 349923.0 0
23726.9 345454.0 0
28043.2 346209.0 0
31549.5 349182.0 0
37894.0 345734.0 0
44669.6 348156.0 0
48901.4 346332.0 0
53337.5 348426.0 0
57735.5 348334.0 0
78992.8 345446.0 0
81396.5 349764.0 0
84814.0 345662.0 0
108327.0 346106.0 0
131487.0 349426.0 0
133529.0 345376.0 0
141682.0 345421.0 0
147366.0 347327.0 0
157006.0 349683.0 0
162148.0 349382.0 0
166764.0 348341.0 0
172721.0 348503.0 0
178009.0 345664.0 0
182816.0 345338.0 0
188845.0 345265.0 0
195076.0 347528.0 0
204052.0 347609.0 0
209069.0 349800.0 0
212526.0 346111.0 0
217774.0 345136.0 0
220800.0 349402.0 0
226893.0 348463.0 0
232144.0 349026.0 0
235432.0 345253.0 0
237585.0 350003.0 0
240624.0 345423.0 0
242740.0 349154.0 0
251778.0 347987.0 0
256386.0 345252.0 0
259930.0 348278.0 0
264646.0 348942.0 0
269291.0 349032.0 0
272928.0 346218.0 0
278143.0 345728.0 0
284627.0 345276.0 0
290747.0 346001.0 0
296373.0 345773.0 0
307859.0 350015.0 0
320417.0 346400.0 0
324961.0 346325.0 0
339112.0 348516.0 0
349617.0 345725.0 0
356286.0 346644.0 0
361855.0 349457.0 0
366109.0 346893.0 0
370489.0 347187.0 0
373349.0 350189.0 0
382120.0 350255.0 0
410203.0 346810.0 0
415232.0 345292.0 0
420447.0 345942.0 0
424465.0 348788.0 0
429055.0 348339.0 0
436061.0 346752.0 0
441300.0 345245.0 0
452098.0 346611.0 0
463371.0 346313.0 0
472620.0 346643.0 0
478625.0 346910.0 0
475464.0 349929.0 0
488314.0 346050.0 0
497634.0 347583.0 0
10345.6 351304.0 0
14356.5 352239.0 0
21198.9 352108.0 0
73587.4 354879.0 0
88732.2 351000.0 0
94616.0 351705.0 0
99836.4 354740.0 0
115852.0 352210.0 0
124424.0 353532.0 0
129417.0 353844.0 0
151889.0 351090.0 0
182877.0 354243.0 0
190151.0 354462.0 0
204594.0 353369.0 0
209923.0 354762.0 0
215389.0 350777.0 0
223955.0 352389.0 0
219388.0 354648.0 0
228601.0 354301.0 0
233676.0 353389.0 0
241571.0 353415.0 0
247694.0 350890.0 0
255617.0 350426.0 0
260845.0 354006.0 0
267629.0 353866.0 0
275590.0 351033.0 0
282007.0 350582.0 0
288292.0 351181.0 0
294078.0 351032.0 0
304833.0 354444.0 0
313339.0 351576.0 0
318165.0 350657.0 0
333604.0 352094.0 0
344315.0 350658.0 0
345237.0 355176.0 0
348224.0 352625.0 0
375332.0 353557.0 0
377846.0 350792.0 0
386421.0 350483.0 0
412280.0 353297.0 0
416387.0 354952.0 0
425716.0 352721.0 0
434661.0 351754.0 0
439140.0 353557.0 0
444448.0 351264.0 0
452878.0 355171.0 0
456662.0 351713.0 0
461427.0 353160.0 0
465643.0 355213.0 0
478873.0 352594.0 0
484076.0 350997.0 0
2520.43 356984.0 0
23712.7 355456.0 0
27712.7 356370.0 0
35470.8 359062.0 0
31330.3 359475.0 0
38957.8 357441.0 0
64003.3 357570.0 0
69034.9 357482.0 0
78890.1 356706.0 0
83595.1 359156.0 0
102136.0 359469.0 0
106851.0 357855.0 0
111993.0 357321.0 0
115838.0 357971.0 0
122579.0 359605.0 0
132091.0 357257.0 0
137331.0 355424.0 0
141484.0 357060.0 0
173534.0 357081.0 0
178121.0 355696.0 0
187621.0 359898.0 0
198863.0 355893.0 0
194183.0 357699.0 0
206218.0 357851.0 0
210252.0 359367.0 0
214359.0 356517.0 0
219010.0 359530.0 0
223657.0 356946.0 0
227929.0 359934.0 0
232425.0 357914.0 0
237535.0 355924.0 0
241335.0 359204.0 0
249647.0 355663.0 0
245274.0 356247.0 0
254563.0 355878.0 0
251114.0 359751.0 0
268089.0 359068.0 0
273040.0 356060.0 0
278575.0 355907.0 0
282884.0 355548.0 0
282206.0 360286.0 0
286523.0 355769.0 0
286553.0 359440.0 0
290947.0 355550.0 0
295727.0 356350.0 0
292268.0 360100.0 0
296314.0 359850.0 0
320801.0 357903.0 0
326082.0 356889.0 0
339966.0 357896.0 0
344226.0 359121.0 0
348323.0 356956.0 0
353398.0 358127.0 0
387759.0 357186.0 0
391971.0 358384.0 0
396070.0 355441.0 0
405148.0 355462.0 0
417562.0 359344.0 0
422843.0 357616.0 0
431748.0 355748.0 0
429251.0 360391.0 0
448734.0 358845.0 0
444373.0 360418.0 0
457920.0 356668.0 0
488519.0 358934.0 0
493893.0 357621.0 0
58276.5 362206.0 0
62760.5 362357.0 0
79117.6 361525.0 0
85357.4 363827.0 0
89677.3 364996.0 0
118035.0 361487.0 0
119205.0 365646.0 0
148625.0 364766.0 0
182265.0 363514.0 0
186511.0 363599.0 0
204387.0 360935.0 0
204084.0 365395.0 0
209866.0 364818.0 0
214489.0 361330.0 0
219130.0 364220.0 0
223353.0 361714.0 0
226784.0 364707.0 0
232143.0 365051.0 0
236359.0 360981.0 0
237535.0 365267.0 0
241667.0 364281.0 0
246249.0 361457.0 0
251326.0 364307.0 0
256348.0 361843.0 0
262904.0 360698.0 0
267886.0 364627.0 0
272154.0 361177.0 0
276978.0 360834.0 0
279225.0 365127.0 0
284044.0 365180.0 0
288350.0 362973.0 0
296101.0 363075.0 0
334097.0 362140.0 0
338749.0 361103.0 0
374156.0 364361.0 0
377552.0 359702.0 0
383298.0 361794.0 0
388730.0 364251.0 0
440415.0 361340.0 0
449043.0 363896.0 0
472532.0 364024.0 0
476982.0 363473.0 0
483950.0 361065.0 0
2498.94 375235.0 0
6228.44 375316.0 0
10548.2 375319.0 0
15047.5 375138.0 0
18982.0 370037.0 0
24081.1 366447.0 0
26245.5 371048.0 0
29639.1 374067.0 0
34296.4 375168.0 0
38345.5 375259.0 0
42018.8 372896.0 0
45851.3 370614.0 0
49351.3 375211.0 0
54377.6 375108.0 0
58054.3 369769.0 0
58923.8 373674.0 0
62808.2 375507.0 0
65808.8 375412.0 0
69633.5 375269.0 0
74674.0 375059.0 0
79520.6 375074.0 0
79778.7 378243.0 0
81220.3 376309.0 0
84221.1 375332.0 0
88545.0 376029.0 0
92235.0 375125.0 0
96855.1 375207.0 0
101098.0 375549.0 0
105583.0 375455.0 0
110314.0 375155.0 0
114635.0 365192.0 0
114430.0 375430.0 0
121604.0 375321.0 0
117629.0 375358.0 0
125984.0 375237.0 0
130953.0 373828.0 0
135358.0 372095.0 0
139487.0 375010.0 0
143625.0 375131.0 0
147988.0 375374.0 0
151793.0 375389.0 0
154873.0 375590.0 0
154076.0 365842.0 0
160443.0 366557.0 0
164955.0 370279.0 0
169644.0 371486.0 0
172783.0 367092.0 0
175845.0 368964.0 0
175198.0 375531.0 0
177642.0 365326.0 0
180958.0 375602.0 0
188510.0 375625.0 0
184700.0 375171.0 0
192597.0 375102.0 0
195204.0 377396.0 0
198252.0 375226.0 0
207137.0 369580.0 0
212543.0 369812.0 0
215103.0 365724.0 0
216902.0 369257.0 0
222773.0 366158.0 0
221047.0 370373.0 0
226484.0 369876.0 0
231415.0 370136.0 0
236715.0 370215.0 0
242988.0 369654.0 0
247370.0 366403.0 0
247796.0 370565.0 0
251629.0 368858.0 0
257626.0 366611.0 0
256148.0 370420.0 0
261098.0 365692.0 0
260909.0 369982.0 0
265908.0 369991.0 0
273136.0 365594.0 0
270769.0 369173.0 0
276148.0 369388.0 0
281435.0 369601.0 0
287742.0 367248.0 0
285822.0 370656.0 0
292307.0 365664.0 0
295960.0 368401.0 0
290906.0 370527.0 0
300997.0 371590.0 0
306243.0 375286.0 0
310451.0 375412.0 0
314518.0 375390.0 0
318097.0 375331.0 0
320963.0 375179.0 0
322553.0 377271.0 0
323853.0 375062.0 0
327537.0 375363.0 0
331470.0 375918.0 0
336168.0 375010.0 0
340689.0 376325.0 0
344134.0 366533.0 0
347809.0 368889.0 0
351461.0 370350.0 0
354633.0 366462.0 0
359260.0 369687.0 0
362713.0 365936.0 0
367758.0 364083.0 0
370666.0 375769.0 0
377272.0 375060.0 0
373951.0 375264.0 0
378242.0 368114.0 0
379287.0 376046.0 0
383197.0 375024.0 0
386569.0 377367.0 0
389335.0 375091.0 0
394616.0 375335.0 0
399791.0 375124.0 0
404231.0 375414.0 0
408195.0 375113.0 0
412182.0 375200.0 0
415753.0 375464.0 0
419923.0 375215.0 0
424825.0 375215.0 0
428657.0 375625.0 0
432687.0 375052.0 0
436699.0 376328.0 0
441429.0 367863.0 0
444777.0 375260.0 0
447200.0 367927.0 0
452356.0 375277.0 0
448044.0 375461.0 0
457979.0 375130.0 0
463342.0 375114.0 0
467193.0 375026.0 0
470499.0 375160.0 0
474625.0 375695.0 0
479390.0 375172.0 0
484247.0 375360.0 0
488234.0 375140.0 0
487877.0 366629.0 0
493157.0 375179.0 0
496741.0 369142.0 0
1236.69 378078.0 0
4393.48 378664.0 0
1711.34 380837.0 0
7355.32 378052.0 0
8370.0 381266.0 0
11704.3 378742.0 0
15746.3 378712.0 0
12539.0 382025.0 0
19053.6 375968.0 0
22447.1 375962.0 0
25827.2 375873.0 0
24796.6 379474.0 0
28419.5 378228.0 0
31565.6 377173.0 0
34896.6 378490.0 0
31578.9 380275.0 0
37676.8 377870.0 0
40924.9 376123.0 0
35600.2 381828.0 0
40174.6 380276.0 0
43038.9 376895.0 0
45191.8 375651.0 0
44521.1 380371.0 0
47337.9 378409.0 0
49164.3 381100.0 0
52088.3 378380.0 0
55802.8 380280.0 0
56872.4 376753.0 0
59994.8 378341.0 0
64438.7 380389.0 0
67174.5 377398.0 0
69305.3 379913.0 0
71638.9 378118.0 0
74633.6 379652.0 0
71923.3 382120.0 0
77726.7 377115.0 0
77939.1 380545.0 0
82565.3 379634.0 0
86380.1 379548.0 0
90593.8 380396.0 0
93976.5 377938.0 0
98383.3 379237.0 0
100892.0 381831.0 0
106386.0 378793.0 0
102734.0 378867.0 0
105029.0 382240.0 0
109469.0 379128.0 0
113321.0 378416.0 0
116456.0 378634.0 0
113120.0 382067.0 0
120475.0 378986.0 0
124132.0 378770.0 0
128904.0 378281.0 0
133353.0 377417.0 0
136940.0 377042.0 0
136293.0 380597.0 0
141615.0 378522.0 0
143873.0 381236.0 0
139111.0 380734.0 0
146178.0 378381.0 0
151160.0 379219.0 0
155359.0 378449.0 0
158933.0 375491.0 0
163374.0 375650.0 0
161618.0 379205.0 0
166739.0 375438.0 0
165286.0 378978.0 0
169683.0 376021.0 0
168489.0 378712.0 0
172517.0 375706.0 0
171946.0 380379.0 0
175437.0 378425.0 0
176728.0 381307.0 0
177994.0 375726.0 0
182530.0 378518.0 0
179336.0 379564.0 0
186459.0 379230.0 0
190449.0 378797.0 0
191761.0 382386.0 0
196860.0 379903.0 0
193531.0 379972.0 0
199516.0 378664.0 0
199150.0 382220.0 0
203274.0 371173.0 0
203607.0 374753.0 0
209431.0 375405.0 0
216014.0 372993.0 0
219981.0 375307.0 0
225167.0 375404.0 0
230519.0 374780.0 0
235429.0 375627.0 0
240029.0 374857.0 0
245815.0 375496.0 0
252788.0 375434.0 0
259153.0 374817.0 0
263601.0 374025.0 0
269657.0 374300.0 0
273861.0 372930.0 0
277643.0 374762.0 0
282478.0 374072.0 0
286294.0 374379.0 0
295441.0 373416.0 0
300126.0 376703.0 0
303187.0 377007.0 0
305504.0 380010.0 0
307878.0 378267.0 0
310926.0 378841.0 0
309210.0 382039.0 0
314415.0 378392.0 0
312651.0 381300.0 0
316786.0 382084.0 0
318869.0 378545.0 0
322493.0 380717.0 0
325589.0 378261.0 0
326036.0 381097.0 0
329457.0 379456.0 0
333985.0 379113.0 0
336378.0 381915.0 0
341134.0 380030.0 0
338031.0 379341.0 0
344172.0 375534.0 0
344571.0 379817.0 0
348662.0 375814.0 0
352132.0 377006.0 0
352742.0 379759.0 0
354788.0 375079.0 0
356246.0 378968.0 0
362491.0 375780.0 0
358811.0 375776.0 0
366628.0 375598.0 0
360930.0 379340.0 0
369718.0 379270.0 0
376725.0 377459.0 0
373387.0 378652.0 0
380308.0 378968.0 0
376862.0 380987.0 0
383696.0 380139.0 0
388274.0 381074.0 0
391265.0 378432.0 0
394354.0 379931.0 0
396823.0 382915.0 0
398289.0 378984.0 0
402322.0 377448.0 0
405893.0 378694.0 0
402612.0 380419.0 0
408373.0 381576.0 0
409859.0 378078.0 0
411685.0 381158.0 0
413900.0 378376.0 0
417923.0 378889.0 0
415678.0 381979.0 0
422172.0 379038.0 0
426443.0 378724.0 0
428324.0 382260.0 0
430603.0 378905.0 0
434568.0 379087.0 0
440453.0 375095.0 0
436756.0 381224.0 0
443104.0 378215.0 0
438917.0 379058.0 0
447551.0 378910.0 0
451265.0 379292.0 0
454936.0 378042.0 0
457617.0 380196.0 0
461334.0 378316.0 0
466595.0 378022.0 0
468801.0 382003.0 0
464226.0 381262.0 0
471210.0 378468.0 0
474852.0 379306.0 0
478026.0 378843.0 0
482450.0 378184.0 0
480902.0 381076.0 0
486283.0 378262.0 0
490109.0 378578.0 0
489947.0 382034.0 0
494522.0 379382.0 0
497945.0 375851.0 0
498477.0 379725.0 0
1646.82 383724.0 0
4934.25 381807.0 0
1203.94 386308.0 0
9640.85 384305.0 0
5539.65 385899.0 0
13438.7 385843.0 0
16479.5 382677.0 0
18011.9 386381.0 0
20765.6 380640.0 0
24850.0 383254.0 0
22054.5 385562.0 0
27764.1 381548.0 0
27857.0 384969.0 0
31330.4 383819.0 0
35023.9 386363.0 0
39154.3 384239.0 0
42815.5 383921.0 0
44832.2 386335.0 0
49932.1 384371.0 0
46765.5 383572.0 0
52252.2 382623.0 0
55494.7 384308.0 0
52218.0 386415.0 0
59601.1 382984.0 0
57738.8 386077.0 0
63632.3 385165.0 0
67993.9 383651.0 0
71262.2 386026.0 0
75696.8 384500.0 0
80620.6 383561.0 0
84723.6 383250.0 0
84051.4 387051.0 0
87780.0 383714.0 0
91364.3 385183.0 0
95155.0 382440.0 0
98595.3 384240.0 0
102427.0 385248.0 0
107076.0 386483.0 0
109078.0 382645.0 0
111771.0 385835.0 0
117141.0 382525.0 0
115414.0 385692.0 0
121486.0 383257.0 0
126020.0 382607.0 0
131050.0 381414.0 0
129845.0 384547.0 0
133112.0 384448.0 0
134051.0 381365.0 0
137144.0 384169.0 0
141393.0 383309.0 0
147426.0 381788.0 0
145275.0 385064.0 0
150615.0 383947.0 0
154627.0 382291.0 0
158193.0 380628.0 0
158150.0 384300.0 0
160721.0 382949.0 0
163549.0 382378.0 0
167299.0 382160.0 0
165110.0 385763.0 0
169860.0 384903.0 0
174812.0 384717.0 0
179666.0 383132.0 0
182536.0 385667.0 0
183484.0 382395.0 0
186271.0 386368.0 0
188300.0 382974.0 0
192558.0 384842.0 0
190254.0 386412.0 0
195081.0 382406.0 0
196069.0 385285.0 0
199269.0 385190.0 0
204315.0 379525.0 0
213833.0 379887.0 0
214795.0 376556.0 0
217541.0 379129.0 0
222093.0 380015.0 0
227257.0 380181.0 0
232743.0 380084.0 0
238370.0 379680.0 0
242798.0 379672.0 0
251381.0 380216.0 0
265151.0 378083.0 0
260366.0 380014.0 0
270565.0 380522.0 0
275582.0 379028.0 0
280855.0 379918.0 0
290561.0 376015.0 0
286307.0 378833.0 0
295362.0 379239.0 0
300796.0 385858.0 0
301118.0 381110.0 0
305112.0 383802.0 0
312913.0 384905.0 0
320765.0 383422.0 0
317670.0 387202.0 0
324388.0 383431.0 0
325384.0 385407.0 0
322687.0 386140.0 0
328268.0 383902.0 0
332348.0 382633.0 0
331179.0 386530.0 0
335608.0 385861.0 0
339896.0 382971.0 0
344295.0 384800.0 0
348888.0 381378.0 0
353555.0 384117.0 0
358217.0 382250.0 0
362102.0 384594.0 0
357713.0 385828.0 0
365195.0 380704.0 0
368963.0 383238.0 0
372580.0 382536.0 0
376012.0 385257.0 0
380724.0 383456.0 0
384750.0 383405.0 0
392761.0 383822.0 0
388206.0 385959.0 0
397193.0 387157.0 0
400555.0 383956.0 0
403939.0 385544.0 0
405217.0 382735.0 0
408334.0 385684.0 0
412309.0 384226.0 0
416948.0 386041.0 0
419891.0 382578.0 0
422193.0 385786.0 0
424443.0 382537.0 0
426117.0 386193.0 0
432683.0 382491.0 0
429753.0 385329.0 0
433351.0 386568.0 0
435160.0 383368.0 0
438519.0 383977.0 0
435965.0 384967.0 0
441319.0 381915.0 0
440804.0 386288.0 0
445305.0 381961.0 0
444138.0 385331.0 0
449457.0 383963.0 0
453843.0 381752.0 0
457414.0 384072.0 0
453882.0 385306.0 0
460695.0 382452.0 0
463075.0 384486.0 0
460581.0 385941.0 0
466533.0 384906.0 0
473002.0 382697.0 0
470570.0 385735.0 0
477159.0 382988.0 0
485357.0 382057.0 0
481213.0 384673.0 0
484429.0 386236.0 0
488918.0 386256.0 0
493788.0 383331.0 0
498001.0 383402.0 0
2059.29 389387.0 0
9914.31 387956.0 0
6302.99 391115.0 0
14543.9 389941.0 0
10541.4 391517.0 0
19411.1 390209.0 0
23140.1 389549.0 0
25996.4 387255.0 0
26988.6 391472.0 0
30416.9 388510.0 0
34554.0 390459.0 0
38826.3 386903.0 0
38429.9 390025.0 0
41629.2 387159.0 0
41436.6 390115.0 0
44508.6 390106.0 0
48517.0 387506.0 0
48195.8 391779.0 0
55407.3 388419.0 0
51721.2 390202.0 0
60155.7 387423.0 0
58676.1 391174.0 0
63341.1 389801.0 0
67049.9 387580.0 0
70407.0 389516.0 0
66990.1 392253.0 0
74666.4 389256.0 0
79324.2 387710.0 0
78457.1 391181.0 0
82322.7 390657.0 0
86393.3 390632.0 0
87810.7 387265.0 0
91000.3 390360.0 0
95189.1 387307.0 0
96299.1 391898.0 0
99398.4 388090.0 0
103797.0 388789.0 0
106668.0 391971.0 0
109997.0 389310.0 0
114785.0 389861.0 0
119229.0 387022.0 0
119531.0 391333.0 0
126941.0 387464.0 0
123138.0 386210.0 0
122970.0 389478.0 0
130977.0 386926.0 0
130456.0 390302.0 0
134888.0 388410.0 0
140473.0 387930.0 0
145251.0 388803.0 0
149035.0 387206.0 0
151629.0 389802.0 0
148060.0 391144.0 0
154535.0 386839.0 0
154923.0 391207.0 0
161424.0 385746.0 0
158878.0 388024.0 0
162924.0 389540.0 0
167826.0 388767.0 0
171765.0 388211.0 0
175103.0 389674.0 0
179216.0 387194.0 0
183910.0 389959.0 0
188868.0 389437.0 0
193746.0 388565.0 0
198731.0 388629.0 0
203645.0 384426.0 0
209573.0 382630.0 0
215416.0 384075.0 0
219826.0 384609.0 0
222777.0 383833.0 0
226670.0 385842.0 0
231940.0 385134.0 0
236893.0 384768.0 0
242010.0 383915.0 0
247525.0 381227.0 0
252348.0 384437.0 0
255348.0 381064.0 0
255393.0 385796.0 0
260201.0 385245.0 0
265846.0 384579.0 0
275615.0 383639.0 0
280428.0 385808.0 0
285571.0 383924.0 0
290395.0 381526.0 0
294614.0 385412.0 0
304363.0 387587.0 0
305650.0 390124.0 0
301577.0 390628.0 0
309009.0 387060.0 0
308419.0 391202.0 0
313334.0 388213.0 0
315095.0 390578.0 0
311764.0 390707.0 0
321927.0 389636.0 0
327005.0 389139.0 0
332298.0 390447.0 0
336486.0 390495.0 0
339926.0 387034.0 0
340051.0 390146.0 0
346590.0 388898.0 0
343078.0 389810.0 0
349016.0 386242.0 0
351775.0 388354.0 0
355200.0 388547.0 0
359318.0 389123.0 0
366745.0 386268.0 0
363328.0 388897.0 0
366206.0 390919.0 0
371450.0 386300.0 0
369604.0 389088.0 0
374779.0 390126.0 0
379652.0 387690.0 0
383701.0 386839.0 0
382740.0 390318.0 0
387011.0 390872.0 0
392661.0 389287.0 0
396907.0 391002.0 0
401168.0 387764.0 0
400111.0 391072.0 0
404732.0 389399.0 0
409103.0 389384.0 0
412836.0 387867.0 0
412117.0 391910.0 0
416229.0 390346.0 0
420203.0 388855.0 0
424544.0 389957.0 0
429200.0 389324.0 0
437644.0 388184.0 0
433829.0 390418.0 0
442366.0 390140.0 0
447081.0 388617.0 0
451959.0 388306.0 0
457066.0 388741.0 0
463981.0 387485.0 0
461392.0 389024.0 0
467996.0 388301.0 0
465034.0 391052.0 0
474213.0 386808.0 0
471488.0 389025.0 0
473784.0 391307.0 0
478181.0 386484.0 0
476813.0 389324.0 0
481165.0 388870.0 0
485632.0 389403.0 0
489284.0 389861.0 0
493754.0 387627.0 0
498197.0 387284.0 0
497764.0 391317.0 0
1946.96 393234.0 0
1493.4 396804.0 0
8990.88 394183.0 0
5710.85 395941.0 0
9982.52 397127.0 0
12371.3 394169.0 0
16964.4 394312.0 0
22664.1 393995.0 0
26929.3 396299.0 0
31952.6 393827.0 0
37256.2 393766.0 0
41347.0 392862.0 0
44902.3 394559.0 0
40664.9 396485.0 0
50757.0 396049.0 0
54593.7 392478.0 0
57300.4 395748.0 0
61877.9 393687.0 0
65124.9 395593.0 0
71430.3 392997.0 0
69059.7 396728.0 0
75579.7 393535.0 0
72788.5 395935.0 0
80267.6 394944.0 0
84604.6 393679.0 0
88205.2 394302.0 0
92831.6 395348.0 0
101265.0 392205.0 0
98598.0 396421.0 0
104029.0 396391.0 0
110998.0 392665.0 0
109152.0 395802.0 0
116731.0 393578.0 0
113403.0 394672.0 0
119740.0 394618.0 0
126472.0 392183.0 0
122877.0 393757.0 0
126442.0 396402.0 0
130073.0 394504.0 0
137550.0 392142.0 0
133606.0 392458.0 0
134308.0 396526.0 0
139157.0 395945.0 0
142939.0 392672.0 0
147528.0 395040.0 0
151709.0 393244.0 0
155429.0 395032.0 0
158877.0 391989.0 0
162347.0 393463.0 0
165959.0 392654.0 0
171144.0 392520.0 0
168240.0 396726.0 0
175586.0 393306.0 0
178183.0 395173.0 0
179290.0 391612.0 0
182620.0 394743.0 0
187299.0 393182.0 0
192060.0 392288.0 0
190763.0 396356.0 0
197533.0 392938.0 0
194270.0 395739.0 0
199330.0 396749.0 0
202936.0 389676.0 0
207005.0 388268.0 0
213425.0 389356.0 0
217950.0 389304.0 0
222500.0 389168.0 0
233081.0 389706.0 0
237956.0 389587.0 0
242687.0 388516.0 0
246470.0 386017.0 0
247779.0 390223.0 0
251788.0 388626.0 0
255955.0 389989.0 0
260385.0 390296.0 0
265148.0 389947.0 0
271113.0 386403.0 0
276025.0 389904.0 0
284369.0 389850.0 0
289398.0 387641.0 0
305613.0 393496.0 0
301329.0 394781.0 0
310033.0 393934.0 0
308144.0 396647.0 0
314505.0 394427.0 0
318715.0 392269.0 0
319040.0 396107.0 0
323712.0 393870.0 0
329328.0 394448.0 0
334396.0 394826.0 0
339329.0 393507.0 0
346087.0 391881.0 0
343589.0 393228.0 0
347167.0 395493.0 0
349482.0 391292.0 0
353275.0 391100.0 0
356595.0 392545.0 0
352508.0 395209.0 0
361631.0 393645.0 0
365820.0 394705.0 0
370280.0 393387.0 0
374521.0 394752.0 0
379677.0 391925.0 0
377594.0 394715.0 0
380547.0 395355.0 0
383313.0 393765.0 0
386601.0 395298.0 0
391225.0 394373.0 0
395560.0 393167.0 0
395393.0 396059.0 0
399019.0 395089.0 0
403363.0 393350.0 0
407644.0 392714.0 0
406386.0 395285.0 0
410667.0 396391.0 0
415871.0 394891.0 0
419947.0 392591.0 0
423894.0 394405.0 0
427639.0 393114.0 0
427048.0 396394.0 0
430814.0 392751.0 0
430106.0 396061.0 0
437914.0 392222.0 0
434071.0 394713.0 0
437926.0 396918.0 0
441463.0 394235.0 0
446082.0 393839.0 0
449821.0 391725.0 0
453872.0 392164.0 0
450900.0 395473.0 0
457873.0 392845.0 0
455742.0 395927.0 0
461230.0 392263.0 0
460119.0 395875.0 0
469392.0 392483.0 0
464740.0 395020.0 0
468686.0 396221.0 0
473408.0 395509.0 0
478372.0 393167.0 0
483014.0 391955.0 0
482910.0 395515.0 0
487075.0 393008.0 0
492508.0 391808.0 0
490649.0 396190.0 0
498900.0 394849.0 0
495499.0 395217.0 0
2891.99 400881.0 0
7702.83 399767.0 0
13389.2 397688.0 0
11469.4 400966.0 0
20173.6 397153.0 0
17098.6 401013.0 0
22872.7 399174.0 0
26782.9 401153.0 0
31788.5 399224.0 0
36292.5 397420.0 0
38529.3 398944.0 0
36439.5 401962.0 0
44969.0 398331.0 0
41266.7 400712.0 0
48014.2 400112.0 0
54728.8 399551.0 0
58700.9 400062.0 0
61548.0 397758.0 0
65250.0 399189.0 0
72521.4 399344.0 0
76077.3 397413.0 0
76031.3 400861.0 0
79604.5 399699.0 0
84790.2 398038.0 0
89113.3 398209.0 0
95382.0 398063.0 0
97159.8 400493.0 0
92770.3 400865.0 0
101444.0 401258.0 0
107112.0 399991.0 0
117083.0 396950.0 0
112703.0 399015.0 0
121984.0 398199.0 0
117766.0 400778.0 0
126962.0 401440.0 0
129941.0 398103.0 0
132788.0 401640.0 0
138130.0 400486.0 0
143407.0 398114.0 0
147819.0 398613.0 0
146359.0 401414.0 0
151410.0 397054.0 0
155185.0 399242.0 0
159805.0 396968.0 0
164006.0 396263.0 0
164133.0 400689.0 0
169151.0 401425.0 0
173845.0 397671.0 0
177097.0 401696.0 0
179385.0 398163.0 0
183405.0 398723.0 0
181718.0 401773.0 0
186676.0 397402.0 0
186055.0 401422.0 0
190254.0 400408.0 0
196539.0 397298.0 0
194155.0 398980.0 0
198167.0 400164.0 0
203417.0 394152.0 0
209493.0 392542.0 0
213217.0 394941.0 0
218150.0 394002.0 0
222568.0 394122.0 0
228119.0 391087.0 0
226561.0 395578.0 0
231469.0 394389.0 0
236427.0 394357.0 0
241631.0 393158.0 0
247099.0 395333.0 0
253241.0 394468.0 0
258462.0 394596.0 0
262424.0 393987.0 0
270105.0 391751.0 0
266511.0 395722.0 0
273852.0 395200.0 0
280435.0 392594.0 0
278242.0 395868.0 0
282414.0 395541.0 0
289308.0 392878.0 0
295435.0 392010.0 0
304884.0 397214.0 0
301479.0 399609.0 0
307585.0 401327.0 0
311507.0 397607.0 0
315769.0 398520.0 0
312756.0 400952.0 0
319549.0 400081.0 0
322440.0 397747.0 0
326380.0 397904.0 0
323522.0 400825.0 0
331632.0 399300.0 0
327495.0 401180.0 0
337525.0 397274.0 0
335908.0 400608.0 0
342250.0 396710.0 0
340321.0 400205.0 0
344880.0 399854.0 0
349834.0 399554.0 0
357391.0 396315.0 0
354545.0 399626.0 0
361010.0 397794.0 0
358825.0 399574.0 0
364334.0 398083.0 0
368429.0 397831.0 0
371016.0 401167.0 0
372669.0 397615.0 0
375961.0 397247.0 0
375803.0 401002.0 0
379048.0 398008.0 0
383447.0 398216.0 0
388571.0 398263.0 0
392917.0 398731.0 0
396935.0 398819.0 0
400427.0 399254.0 0
403139.0 397102.0 0
406989.0 398615.0 0
414646.0 399550.0 0
418361.0 401920.0 0
420217.0 397717.0 0
424668.0 398364.0 0
428339.0 399875.0 0
433031.0 398858.0 0
443350.0 397775.0 0
440188.0 399517.0 0
441622.0 401493.0 0
447975.0 398323.0 0
445194.0 401908.0 0
453088.0 399325.0 0
458190.0 399980.0 0
462492.0 398200.0 0
465983.0 398926.0 0
470108.0 399490.0 0
474242.0 399708.0 0
478705.0 398240.0 0
484096.0 399827.0 0
486598.0 397127.0 0
489030.0 400463.0 0
494075.0 399444.0 0
498332.0 398181.0 0
2987.76 406612.0 0
8028.76 403870.0 0
12775.3 405344.0 0
18010.8 406623.0 0
22229.2 403577.0 0
26202.5 405442.0 0
31189.4 404495.0 0
36050.8 406880.0 0
40776.0 405498.0 0
45653.0 403528.0 0
48770.8 406824.0 0
51280.8 402681.0 0
56583.0 403894.0 0
60111.4 406796.0 0
62383.6 403020.0 0
65752.9 405505.0 0
68443.4 402011.0 0
73520.4 403514.0 0
78103.6 403944.0 0
80886.5 405325.0 0
82944.3 402383.0 0
84241.2 406389.0 0
87830.3 402618.0 0
92417.3 405241.0 0
97063.7 404274.0 0
101245.0 406854.0 0
104997.0 404074.0 0
110392.0 404368.0 0
114966.0 402978.0 0
115239.0 406839.0 0
121733.0 403269.0 0
117948.0 404413.0 0
129894.0 405420.0 0
134249.0 406415.0 0
142620.0 402972.0 0
138546.0 404939.0 0
147016.0 405358.0 0
150731.0 401802.0 0
154498.0 403407.0 0
158868.0 402020.0 0
162325.0 405945.0 0
166283.0 404525.0 0
173082.0 402403.0 0
170110.0 406295.0 0
174891.0 405690.0 0
179587.0 405264.0 0
184415.0 405181.0 0
189219.0 404748.0 0
194485.0 403461.0 0
199047.0 403695.0 0
203474.0 399505.0 0
207557.0 396513.0 0
208158.0 401076.0 0
213121.0 400156.0 0
217866.0 399068.0 0
221882.0 399065.0 0
225646.0 399846.0 0
230635.0 399852.0 0
236417.0 399577.0 0
242272.0 399352.0 0
247936.0 400872.0 0
252074.0 399359.0 0
256559.0 399109.0 0
261438.0 398968.0 0
271665.0 399383.0 0
276962.0 400951.0 0
282543.0 399911.0 0
286157.0 396786.0 0
290280.0 397560.0 0
295317.0 398537.0 0
302593.0 403991.0 0
312147.0 404913.0 0
316443.0 402439.0 0
320586.0 403747.0 0
316979.0 406908.0 0
325170.0 404575.0 0
330009.0 404109.0 0
334485.0 404803.0 0
338487.0 403439.0 0
342398.0 403788.0 0
347288.0 403849.0 0
352227.0 403814.0 0
362453.0 401562.0 0
357574.0 403834.0 0
361760.0 404865.0 0
366612.0 401603.0 0
365422.0 406007.0 0
369302.0 404428.0 0
373337.0 404998.0 0
380147.0 401721.0 0
377784.0 405215.0 0
381711.0 405710.0 0
383404.0 402761.0 0
386503.0 401558.0 0
386259.0 405940.0 0
390708.0 402697.0 0
394995.0 401439.0 0
394762.0 405029.0 0
398896.0 402880.0 0
402459.0 406174.0 0
404317.0 402059.0 0
407365.0 406617.0 0
410124.0 402103.0 0
411867.0 406147.0 0
414736.0 404052.0 0
423371.0 402195.0 0
418992.0 406240.0 0
427883.0 404091.0 0
424277.0 406987.0 0
431726.0 402521.0 0
430929.0 405572.0 0
433846.0 405609.0 0
436920.0 402166.0 0
441641.0 405059.0 0
446380.0 406268.0 0
449887.0 402669.0 0
454989.0 403515.0 0
459103.0 404416.0 0
456418.0 406813.0 0
462574.0 401849.0 0
463670.0 406020.0 0
467171.0 402915.0 0
472250.0 404206.0 0
476727.0 402629.0 0
480747.0 402807.0 0
482179.0 406462.0 0
485930.0 404121.0 0
489666.0 403862.0 0
492871.0 403058.0 0
497700.0 401983.0 0
495308.0 405411.0 0
498552.0 405471.0 0
3990.01 412068.0 0
8708.26 408843.0 0
13941.3 410694.0 0
18973.2 410550.0 0
22920.4 408381.0 0
21781.5 412076.0 0
28012.2 408946.0 0
25690.5 412295.0 0
32074.9 408997.0 0
35186.5 411122.0 0
39779.0 410596.0 0
44811.8 409028.0 0
49577.3 411172.0 0
52707.9 407243.0 0
54373.2 411246.0 0
56580.3 407899.0 0
58978.5 410595.0 0
64039.0 409477.0 0
69873.1 407474.0 0
75307.4 407727.0 0
72906.9 411734.0 0
79744.7 408317.0 0
76806.9 411073.0 0
83707.3 410662.0 0
88250.3 407143.0 0
91670.9 408984.0 0
87987.3 411767.0 0
96176.1 408757.0 0
92651.6 412563.0 0
99993.5 410803.0 0
106403.0 408084.0 0
103756.0 411160.0 0
111344.0 409617.0 0
107732.0 411710.0 0
116650.0 411356.0 0
119784.0 407456.0 0
121754.0 411009.0 0
125237.0 407294.0 0
130354.0 410014.0 0
135056.0 410314.0 0
142827.0 407474.0 0
138765.0 409172.0 0
142614.0 411933.0 0
146828.0 409760.0 0
151608.0 406992.0 0
150977.0 411250.0 0
156665.0 406916.0 0
159616.0 410043.0 0
166224.0 407646.0 0
163654.0 410776.0 0
173265.0 410097.0 0
168654.0 411623.0 0
177250.0 408614.0 0
181741.0 409447.0 0
187370.0 409168.0 0
192955.0 408941.0 0
198039.0 407082.0 0
198098.0 411508.0 0
266369.0 401528.0 0
287734.0 401795.0 0
292577.0 402913.0 0
296700.0 403883.0 0
301706.0 408451.0 0
305144.0 410988.0 0
307291.0 407053.0 0
308339.0 411599.0 0
312251.0 410056.0 0
317436.0 411566.0 0
321993.0 408160.0 0
325086.0 410469.0 0
327695.0 408124.0 0
331715.0 407514.0 0
330870.0 411575.0 0
335224.0 409483.0 0
338959.0 407205.0 0
344085.0 408507.0 0
349583.0 408393.0 0
354672.0 408341.0 0
360567.0 409273.0 0
365754.0 411425.0 0
370278.0 408622.0 0
375539.0 408817.0 0
379467.0 408991.0 0
383120.0 409431.0 0
387509.0 410885.0 0
390731.0 407406.0 0
392202.0 411079.0 0
394444.0 408730.0 0
398420.0 407890.0 0
400453.0 410623.0 0
403821.0 410069.0 0
407910.0 409867.0 0
411423.0 410130.0 0
414801.0 407369.0 0
416531.0 411213.0 0
421211.0 409870.0 0
425587.0 412165.0 0
428992.0 408391.0 0
433461.0 409593.0 0
437467.0 407125.0 0
437703.0 411437.0 0
440969.0 408959.0 0
444229.0 409331.0 0
447530.0 410705.0 0
451809.0 407518.0 0
456026.0 410858.0 0
460124.0 408389.0 0
467994.0 407595.0 0
464421.0 410128.0 0
472315.0 408900.0 0
477313.0 407169.0 0
474933.0 410777.0 0
481713.0 410353.0 0
485556.0 408353.0 0
490926.0 408412.0 0
497365.0 409320.0 0
1698.42 415796.0 0
9172.91 413524.0 0
5823.2 416709.0 0
9501.31 417590.0 0
13247.2 415952.0 0
18227.2 414740.0 0
22802.7 415300.0 0
26634.8 416295.0 0
29583.8 417233.0 0
30870.6 413508.0 0
36767.9 415320.0 0
45658.1 413300.0 0
41978.0 414693.0 0
48498.5 415129.0 0
52428.5 415276.0 0
57203.8 414718.0 0
61276.6 413499.0 0
64995.1 415019.0 0
68487.1 412093.0 0
75936.5 414781.0 0
80060.6 412668.0 0
84533.7 414963.0 0
97192.1 413386.0 0
94056.4 416178.0 0
101376.0 414736.0 0
106020.0 415147.0 0
111345.0 414637.0 0
116489.0 416561.0 0
121106.0 414801.0 0
125836.0 412586.0 0
129984.0 415367.0 0
133911.0 413291.0 0
138013.0 413144.0 0
140886.0 416228.0 0
147456.0 414255.0 0
144045.0 414895.0 0
152170.0 415318.0 0
155473.0 411784.0 0
156184.0 415860.0 0
160008.0 414198.0 0
164791.0 414780.0 0
172786.0 415109.0 0
168507.0 416375.0 0
177114.0 412486.0 0
181043.0 413978.0 0
184740.0 412839.0 0
188996.0 414104.0 0
193906.0 414279.0 0
198111.0 416632.0 0
301680.0 413331.0 0
305819.0 414534.0 0
309902.0 414749.0 0
313879.0 414176.0 0
318285.0 417156.0 0
322002.0 412866.0 0
326541.0 413668.0 0
330341.0 416918.0 0
335096.0 414298.0 0
339656.0 412265.0 0
343998.0 412693.0 0
343464.0 416256.0 0
351959.0 412096.0 0
347755.0 413380.0 0
351990.0 416211.0 0
356454.0 413366.0 0
361693.0 415040.0 0
366033.0 415755.0 0
369814.0 413098.0 0
373390.0 411719.0 0
373446.0 415529.0 0
377991.0 413044.0 0
383112.0 413634.0 0
387534.0 415733.0 0
390827.0 413809.0 0
396742.0 412408.0 0
401670.0 413588.0 0
398809.0 416528.0 0
407209.0 413768.0 0
412814.0 415192.0 0
417716.0 416536.0 0
420852.0 413538.0 0
430188.0 412334.0 0
428744.0 416199.0 0
433744.0 414729.0 0
438326.0 415010.0 0
442832.0 413409.0 0
447858.0 415176.0 0
451497.0 412298.0 0
452857.0 416613.0 0
457373.0 415173.0 0
460756.0 412529.0 0
464508.0 413959.0 0
469309.0 412738.0 0
474381.0 414222.0 0
478052.0 412110.0 0
478026.0 415343.0 0
481655.0 414880.0 0
486148.0 412758.0 0
494217.0 412836.0 0
490444.0 414467.0 0
494128.0 416820.0 0
498008.0 413991.0 0
2449.12 419866.0 0
7344.02 421519.0 0
12274.0 420624.0 0
20115.2 418370.0 0
16697.7 419296.0 0
20302.8 422242.0 0
23415.3 419064.0 0
24222.7 422578.0 0
28218.0 420951.0 0
32733.5 418414.0 0
36548.7 420147.0 0
40627.4 418856.0 0
45306.0 417640.0 0
43426.2 421524.0 0
49721.9 418380.0 0
47426.9 421620.0 0
55561.0 419566.0 0
51379.4 421392.0 0
60778.7 417636.0 0
65086.6 419941.0 0
70573.3 417265.0 0
75692.8 419365.0 0
80360.8 417372.0 0
82102.5 420776.0 0
84868.0 419072.0 0
89005.7 416740.0 0
93148.7 420749.0 0
98053.4 418075.0 0
103151.0 419928.0 0
108737.0 419293.0 0
112859.0 419175.0 0
116145.0 421466.0 0
120707.0 419566.0 0
125211.0 417464.0 0
129825.0 421235.0 0
135644.0 418176.0 0
140990.0 421338.0 0
144825.0 418189.0 0
149182.0 418710.0 0
154042.0 419846.0 0
158719.0 418680.0 0
162213.0 417568.0 0
162296.0 421510.0 0
165624.0 418679.0 0
170955.0 419501.0 0
177898.0 417687.0 0
174350.0 420403.0 0
181381.0 421168.0 0
184094.0 417393.0 0
188408.0 418570.0 0
191573.0 417433.0 0
191588.0 421660.0 0
194466.0 418333.0 0
197365.0 421981.0 0
301901.0 417460.0 0
301927.0 421414.0 0
306828.0 419267.0 0
312545.0 418409.0 0
321767.0 421341.0 0
323944.0 417179.0 0
326890.0 420894.0 0
334836.0 418563.0 0
332001.0 421932.0 0
338933.0 417333.0 0
342901.0 420674.0 0
347635.0 418248.0 0
351863.0 420990.0 0
357175.0 418902.0 0
362243.0 419664.0 0
366810.0 419888.0 0
369473.0 416784.0 0
372112.0 420728.0 0
376803.0 418208.0 0
380411.0 416668.0 0
380277.0 420788.0 0
383996.0 418425.0 0
388737.0 420725.0 0
393599.0 417388.0 0
398130.0 420763.0 0
403384.0 418498.0 0
409294.0 419070.0 0
414469.0 420396.0 0
419182.0 420559.0 0
423497.0 417844.0 0
427018.0 421690.0 0
431882.0 420082.0 0
436749.0 418438.0 0
440513.0 417347.0 0
440324.0 421741.0 0
444337.0 418606.0 0
449065.0 420306.0 0
453266.0 421007.0 0
456703.0 419625.0 0
461588.0 417547.0 0
466977.0 417674.0 0
464604.0 422112.0 0
471777.0 417793.0 0
469485.0 422049.0 0
476328.0 418146.0 0
478214.0 421595.0 0
481575.0 419184.0 0
485495.0 417167.0 0
489764.0 418780.0 0
485810.0 421636.0 0
493695.0 420613.0 0
497966.0 417809.0 0
497755.0 421837.0 0
2803.0 424874.0 0
7431.3 425956.0 0
11341.5 424936.0 0
15682.2 423633.0 0
18997.1 426173.0 0
23533.5 426283.0 0
29121.7 426419.0 0
33265.4 422935.0 0
34618.9 427595.0 0
39229.6 424065.0 0
44708.4 425736.0 0
50152.8 425448.0 0
55681.6 425347.0 0
60534.8 422400.0 0
65131.9 424749.0 0
68807.3 422410.0 0
70059.9 426985.0 0
72918.3 422782.0 0
78722.5 422902.0 0
83594.8 423657.0 0
88048.4 422282.0 0
92166.2 425960.0 0
98108.5 423811.0 0
102955.0 425028.0 0
107108.0 424019.0 0
111856.0 423332.0 0
115642.0 425421.0 0
119971.0 424386.0 0
124548.0 422759.0 0
135290.0 424508.0 0
139617.0 424980.0 0
146107.0 422375.0 0
143210.0 426235.0 0
150190.0 422518.0 0
148560.0 426834.0 0
158010.0 422715.0 0
153716.0 425075.0 0
167363.0 422560.0 0
163674.0 425753.0 0
172561.0 424322.0 0
177298.0 422648.0 0
176915.0 426918.0 0
181370.0 425468.0 0
186045.0 422607.0 0
189541.0 425805.0 0
193820.0 426338.0 0
198172.0 427278.0 0
302365.0 425832.0 0
311013.0 422666.0 0
306839.0 424505.0 0
315931.0 422646.0 0
315649.0 427303.0 0
319969.0 425829.0 0
324315.0 424671.0 0
328731.0 425644.0 0
333619.0 426693.0 0
337688.0 422513.0 0
342652.0 425917.0 0
347267.0 423012.0 0
351605.0 425950.0 0
355725.0 423810.0 0
359984.0 423381.0 0
364083.0 423171.0 0
368394.0 424647.0 0
376506.0 422247.0 0
373913.0 426447.0 0
379527.0 425281.0 0
384167.0 423323.0 0
388780.0 426572.0 0
393763.0 423486.0 0
401550.0 423546.0 0
398173.0 426816.0 0
406245.0 423269.0 0
410922.0 423676.0 0
417586.0 424851.0 0
422539.0 423185.0 0
426161.0 426401.0 0
430114.0 424591.0 0
436009.0 422374.0 0
434627.0 426795.0 0
444993.0 423695.0 0
449842.0 425343.0 0
455554.0 425288.0 0
460017.0 422335.0 0
467021.0 425879.0 0
474033.0 422023.0 0
471802.0 426907.0 0
477063.0 425804.0 0
481710.0 423960.0 0
485604.0 426338.0 0
490407.0 424059.0 0
494631.0 424196.0 0
497878.0 426187.0 0
1159.37 428529.0 0
4932.27 429806.0 0
1204.12 431039.0 0
10026.3 429327.0 0
14931.9 428352.0 0
20253.7 430991.0 0
25984.3 430742.0 0
30971.6 431301.0 0
35753.6 432675.0 0
39194.4 429234.0 0
43455.6 430458.0 0
47805.4 429739.0 0
52599.1 430070.0 0
60823.4 427497.0 0
57089.2 430236.0 0
65346.7 429829.0 0
69178.5 431823.0 0
75520.9 426885.0 0
73230.9 431271.0 0
80846.3 427667.0 0
77815.1 431280.0 0
86716.6 428093.0 0
91586.5 430449.0 0
96009.9 429100.0 0
100630.0 428364.0 0
105486.0 428934.0 0
110036.0 427439.0 0
109839.0 432294.0 0
114031.0 429285.0 0
118012.0 428069.0 0
122028.0 428468.0 0
118722.0 432325.0 0
128072.0 427939.0 0
133688.0 429047.0 0
137017.0 431870.0 0
138960.0 427919.0 0
141751.0 430840.0 0
145429.0 429735.0 0
148619.0 431017.0 0
152985.0 430610.0 0
158694.0 427990.0 0
168221.0 427682.0 0
163941.0 430559.0 0
173210.0 430567.0 0
177722.0 430345.0 0
181411.0 430695.0 0
185756.0 427944.0 0
185496.0 432447.0 0
190694.0 431081.0 0
196294.0 431242.0 0
302020.0 430426.0 0
306182.0 428701.0 0
310867.0 427243.0 0
309221.0 431315.0 0
313652.0 431597.0 0
318965.0 431036.0 0
324686.0 429580.0 0
330197.0 430383.0 0
335501.0 431317.0 0
338069.0 427797.0 0
346626.0 431929.0 0
347322.0 427891.0 0
351109.0 431113.0 0
356530.0 428899.0 0
362917.0 428052.0 0
368939.0 430348.0 0
378773.0 431287.0 0
383638.0 428007.0 0
386690.0 431472.0 0
391449.0 431895.0 0
393682.0 428215.0 0
396698.0 431876.0 0
403572.0 427819.0 0
405231.0 431319.0 0
408280.0 427303.0 0
409149.0 431931.0 0
413115.0 427998.0 0
417713.0 429940.0 0
421716.0 427779.0 0
421622.0 432284.0 0
426601.0 431570.0 0
429944.0 428496.0 0
437435.0 431164.0 0
440624.0 427177.0 0
446032.0 428926.0 0
451829.0 430683.0 0
457474.0 430697.0 0
462004.0 427396.0 0
467253.0 430686.0 0
476034.0 431480.0 0
481311.0 428707.0 0
485403.0 430363.0 0
489323.0 428930.0 0
493788.0 427827.0 0
497651.0 430475.0 0
2538.46 434257.0 0
5069.37 437143.0 0
8031.14 434010.0 0
13143.3 433157.0 0
17579.2 436639.0 0
22947.8 435802.0 0
28012.4 435604.0 0
33238.9 437360.0 0
40406.0 433540.0 0
44289.3 434521.0 0
49454.7 435137.0 0
55319.0 434406.0 0
61005.1 432940.0 0
66001.1 435189.0 0
71115.0 435292.0 0
75547.1 435367.0 0
82951.1 433619.0 0
88491.9 433300.0 0
86943.8 436580.0 0
90689.1 437028.0 0
94419.7 433950.0 0
99493.9 432918.0 0
104694.0 434424.0 0
111906.0 437169.0 0
114337.0 433613.0 0
116855.0 436984.0 0
121290.0 436170.0 0
123791.0 432682.0 0
127812.0 433942.0 0
125122.0 436871.0 0
132040.0 432982.0 0
135332.0 437460.0 0
140513.0 435451.0 0
145603.0 434145.0 0
150331.0 434808.0 0
154737.0 436184.0 0
159713.0 433987.0 0
168247.0 432663.0 0
164664.0 435401.0 0
168761.0 437104.0 0
177825.0 433993.0 0
173488.0 436432.0 0
182486.0 435453.0 0
187687.0 436299.0 0
193615.0 436759.0 0
198199.0 434881.0 0
305617.0 433244.0 0
301595.0 434448.0 0
310460.0 436967.0 0
316483.0 435706.0 0
322658.0 434568.0 0
327409.0 434532.0 0
332278.0 434731.0 0
341301.0 432239.0 0
337002.0 436999.0 0
345751.0 435692.0 0
350264.0 436378.0 0
355085.0 434551.0 0
360288.0 433523.0 0
365251.0 434522.0 0
369206.0 435368.0 0
373337.0 434018.0 0
376460.0 437199.0 0
379752.0 436412.0 0
383530.0 435111.0 0
388578.0 436153.0 0
393817.0 436356.0 0
401755.0 432224.0 0
399426.0 436502.0 0
405320.0 435067.0 0
410923.0 437028.0 0
414172.0 433038.0 0
418315.0 436393.0 0
424035.0 436563.0 0
432597.0 432382.0 0
429043.0 436142.0 0
437573.0 435951.0 0
442031.0 432760.0 0
447339.0 433670.0 0
453741.0 436120.0 0
458305.0 435031.0 0
462266.0 432927.0 0
465967.0 435667.0 0
471089.0 435162.0 0
478047.0 437101.0 0
481693.0 433605.0 0
486960.0 434949.0 0
492884.0 433101.0 0
497948.0 434820.0 0
11491.2 438827.0 0
38574.6 437869.0 0
59092.9 437903.0 0
79306.9 437953.0 0
95310.0 438926.0 0
100606.0 438214.0 0
107680.0 437956.0 0
161613.0 439008.0 0
304188.0 438225.0 0
320345.0 438872.0 0
324837.0 438033.0 0
342134.0 438108.0 0
358304.0 438167.0 0
371498.0 438072.0 0
444514.0 437371.0 0
449203.0 437472.0 0
461801.0 438250.0 0
482740.0 437819.0 0
491116.0 438180.0 0
495208.0 437636.0 0
POINT_DATA 5000
SCALARS Radius float 1
LOOKUP_TABLE default
5782.6 5529.52 6324.23 4796.58 3979.26 3471.03 5253.55 5820.48 4862.21 5113.21 3929.19 4107.03 4478.15 5379.87 5925.6 4501.51 4792.73 4736.58 4931.38 3485.26 4329.05 4151.94 4049.23 5337.48 6124.89 5708.81 5252.48 4780.03 5495.39 3996.0 3856.1 4665.12 3383.4 4133.88 4834.9 3850.77 6044.04 5415.48 5120.0 3863.18 2356.98 4998.37 6182.6 5492.18 5258.36 5061.3 3642.12 3163.97 5812.43 5122.66 5906.14 5484.19 7513.1 5254.28 4436.4 5733.48 4672.91 5580.89 3588.44 5645.7 5176.86 6810.52 5840.26 3672.51 6110.27 5561.06 5073.35 3615.22 5670.04 4380.59 3589.27 6716.79 3607.45 5759.91 7613.27 4951.03 5255.32 6037.08 5096.78 6756.95 4129.43 3843.58 3320.52 4194.5 4270.53 5344.25 5191.63 4593.7 4150.99 4216.92 4742.68 4344.58 5634.83 5495.84 6268.1 4861.06 5374.51 5320.28 6739.08 4797.52 4569.12 4298.67 5960.66 6608.73 5011.84 7034.11 6261.42 4502.5 3771.48 4043.57 4271.69 5681.38 4138.42 3708.04 5513.6 3240.09 4556.36 6082.81 3191.99 4685.34 5601.05 4929.8 3586.91 3103.0 3554.9 4015.92 5542.21 4487.31 3936.02 4044.71 5980.74 4094.62 4927.02 5546.39 5325.36 5484.83 5085.53 5351.6 4730.36 4715.55 5867.73 3951.75 5013.56 4499.64 4375.68 5542.27 5054.98 6030.06 5170.02 3557.27 4927.31 4688.68 4402.52 4517.56 4182.53 5903.42 3955.56 3761.32 4118.05 4366.19 5553.16 2938.66 4940.78 4231.61 4008.92 3942.53 3379.84 4827.82 3997.1 3260.67 5123.52 3038.33 4392.68 4333.2 7199.21 4523.7 2240.39 5091.39 5293.9 6142.94 3912.37 4727.24 4602.25 4790.08 5082.47 4763.45 5445.87 3815.26 4704.72 4177.94 4571.7 5896.46 5022.8 3784.5 3780.23 6481.79 5224.12 7042.12 4819.73 6326.39 4471.58 5873.69 4962.09 3999.48 4359.62 6946.21 2586.12 5433.8 4011.77 5499.11 3633.87 5922.5 5198.77 5987.17 6013.14 2765.2 4901.41 5110.37 5664.98 4382.74 5927.43 4651.28 3693.63 4384.42 4516.43 5481.78 5637.59 4937.14 5043.05 5816.2 5693.81 5109.54 6483.19 3829.13 5945.65 6759.9 5538.89 7021.47 5416.38 6059.59 4955.55 2720.68 5701.86 3563.63 4238.81 4468.59 5885.03 2837.58 5325.02 5200.76 5017.13 4862.64 5185.34 4432.58 6684.56 3968.64 4688.67 2635.86 5292.64 6166.5 5065.13 5936.02 5305.17 4861.08 4003.05 5390.22 4805.87 4712.33 5227.21 5697.78 4667.36 4091.31 6372.62 4254.17 4295.38 5090.24 5615.42 7565.34 5923.5 4612.68 4281.49 4973.83 6342.25 6691.39 4840.84 5135.69 5344.0 4020.32 6045.46 4245.72 5908.1 6048.7 6133.92 3719.84 4178.4 3095.48 4166.08 4123.6 4850.14 5163.55 3382.7 6817.32 4319.79 6098.14 4472.17 4203.26 5188.81 4730.41 6057.22 5062.71 6125.34 4527.08 5347.48 4850.01 3970.25 5147.67 3979.82 5011.31 5138.31 5264.06 4659.59 6327.9 4048.37 6355.42 4362.19 5690.56 4948.92 3115.91 3307.12 4493.48 5924.89 4002.16 4174.52 4138.16 3486.22 4684.5 6230.49 6458.82 5418.62 4601.27 5493.32 5740.68 5926.61 6051.14 5836.15 3261.21 4345.55 6704.06 3653.41 3871.88 3856.01 5246.2 4390.66 5279.39 3673.74 4827.23 5205.43 6116.18 7447.37 4924.6 4385.06 4733.32 7184.19 2899.43 2924.37 4290.3 3867.67 5399.73 4660.72 3888.21 5891.05 6038.78 6902.81 6644.76 5629.19 4786.6 5740.84 6445.94 5530.87 4310.18 7134.64 5978.9 4187.56 3629.62 4997.27 4301.06 4877.67 4290.14 6562.18 4156.38 5316.75 4541.21 4164.68 5669.65 5934.22 5624.49 5762.59 7092.87 4666.81 3703.1 3954.91 6471.55 2965.01 6643.85 3637.61 5501.93 6222.42 5654.31 3745.84 4938.74 5690.26 4156.2 4497.59 5965.78 4374.35 4810.12 5643.58 5215.05 4292.06 5577.04 5006.58 4602.86 3688.8 4548.16 3369.23 5449.18 5492.26 5244.78 5762.84 3937.74 4749.8 6084.86 5478.92 4778.34 5551.36 6894.71 3091.3 4414.54 5789.98 6138.47 7054.71 3641.64 5489.43 5747.75 4277.89 5054.25 4796.33 4195.44 5539.32 5360.19 6496.85 5600.93 4874.39 5541.59 4124.71 5728.85 6337.56 4911.47 5803.39 5863.59 4381.97 6257.19 3255.82 5242.73 2812.98 4065.69 5603.15 4695.45 6052.7 3921.18 3798.62 5308.1 3666.57 4907.89 4937.02 5655.21 4645.41 4433.59 4320.28 5542.14 4218.06 5480.13 6308.71 4716.19 5514.76 3456.98 3498.2 5105.16 3066.13 4302.5 6006.16 6009.88 7055.53 5013.67 5826.04 5339.78 4970.88 4143.78 4763.66 4636.5 4940.42 5923.4 5085.71 5499.39 5644.82 5463.38 5945.21 5696.88 5607.14 3923.03 5975.63 5252.34 6396.74 4138.46 2775.04 3821.72 4986.77 6318.18 5586.81 3948.17 4621.75 4551.24 5358.59 4220.88 4515.71 6519.71 6640.13 5082.6 5810.84 4230.54 5094.44 3748.24 4655.49 4467.94 4850.81 6038.14 2540.31 6029.66 5527.54 5573.7 5697.4 4727.62 4270.95 4055.8 7325.81 5280.17 6425.26 5143.58 4794.96 6186.19 4839.34 5083.08 6834.49 5525.39 3998.5 5938.34 4024.3 6394.38 5555.28 5169.36 4737.14 4686.65 5834.74 5556.96 5788.23 5581.75 6392.01 3599.45 6730.19 4907.06 4073.93 3735.44 5163.9 6043.3 5952.75 6332.36 6122.55 2739.94 4931.53 4223.33 5911.67 3323.28 6695.82 6405.76 5794.24 4678.38 5448.61 5050.65 4827.33 5206.48 5513.57 5729.23 5226.0 3365.82 4538.95 5965.15 4780.2 6090.91 4946.42 5019.93 5081.78 6116.33 6263.44 6343.14 5774.97 5462.21 5750.71 5470.77 4831.47 4643.85 4004.04 4289.17 5564.02 4274.61 2965.79 4410.55 6898.19 6035.6 5137.34 4481.53 5330.45 4581.13 3610.4 4219.07 6387.01 5367.52 3092.35 4322.15 5210.03 3629.96 5478.47 5351.39 6142.37 6061.47 4933.21 5375.47 4723.12 5120.49 5201.36 5262.61 6302.8 5409.61 6038.2 4005.44 5206.78 5555.88 6732.43 5028.96 3866.16 6362.12 4484.76 4840.01 2980.99 5611.2 7933.0 4455.12 5173.87 4894.16 5380.13 5711.87 5118.27 4941.22 5932.23 5791.61 3369.13 4479.66 3043.85 5367.2 5461.13 4726.76 5839.13 5495.68 5489.34 5708.14 5537.72 3920.42 8332.24 6155.31 4553.56 5329.64 6049.55 5709.62 5835.78 4127.74 2476.04 5133.97 3942.07 7443.72 3937.08 5260.34 4709.35 6586.45 4373.3 4750.78 4163.5 5724.64 5078.86 5100.1 3561.29 4963.34 3295.83 4459.28 4260.92 5960.56 4118.84 4020.95 6313.06 3474.39 6470.3 4200.03 6062.05 5082.74 6915.83 6072.45 7099.43 5526.14 5198.29 5423.0 5077.33 3856.59 4746.52 5413.79 6338.89 6202.55 5025.39 4714.54 5893.5 3320.11 5030.91 6022.17 5119.37 3982.23 6163.38 4566.18 3459.9 4964.09 4809.42 5024.9 4306.53 5659.17 5094.81 5972.06 5713.22 5861.71 4359.04 3183.98 3794.63 4524.28 3778.1 5152.36 4511.82 5826.64 4220.65 6820.42 4816.2 6321.41 4896.52 4751.02 3372.79 5184.56 5282.64 4715.72 4669.66 4808.52 5046.33 5607.24 5053.92 6352.26 3847.38 3818.59 4863.72 5002.48 6623.85 4262.82 5102.36 4342.9 5069.84 4051.44 4241.89 5054.74 5941.72 5991.09 5126.91 6600.94 4788.58 5371.02 6155.1 5876.71 6262.72 5029.78 6515.84 4888.6 2990.77 4739.14 4918.77 4371.99 4219.78 3885.86 5235.29 4479.94 6250.23 6413.02 4863.27 5862.86 6049.79 3493.7 5374.98 4719.7 6939.12 4735.33 5411.85 5092.37 6444.77 6314.07 4287.63 5315.4 6449.45 3975.31 3689.45 3824.16 5572.95 3868.18 6723.16 5584.06 7111.16 4547.19 3817.13 5507.24 6851.54 4583.31 4503.89 5806.08 4853.39 4997.27 4093.08 4449.22 5543.27 4717.05 5287.2 6135.57 5998.38 4312.67 5423.8 4270.24 4989.15 5017.78 5015.69 6175.81 4727.24 6677.09 4305.57 6959.81 4829.35 5201.67 4424.7 4089.76 5526.55 3192.41 5215.15 4987.87 3315.57 5804.71 4764.96 5727.3 4242.52 5356.51 4277.88 3057.03 4087.15 4143.08 7500.97 3948.23 5228.18 5787.31 5065.11 3927.99 5868.82 4050.9 4978.31 4099.77 4537.32 4981.9 4656.78 3600.43 5131.24 5196.67 6496.67 5474.8 3664.11 5117.47 4925.63 5882.65 4434.19 5187.7 4623.61 4188.3 6261.75 5177.64 4255.31 5453.3 4407.9 3492.19 4584.5 5122.63 4703.08 6345.13 5274.19 5516.95 4406.4 4413.85 4844.57 4027.46 4470.98 5776.37 4516.28 3627.82 4044.45 5125.78 5344.43 4373.47 5045.38 5350.88 5372.61 3686.21 6480.17 5023.15 4377.07 3813.22 5101.59 5570.3 4336.42 5243.29 7589.94 3130.65 5628.24 5856.11 3327.49 4109.88 4234.94 4562.29 5013.13 5080.66 3417.33 4926.42 4164.13 4642.34 4520.1 4947.52 5874.89 4293.03 5813.4 4389.21 3791.79 4925.44 4754.05 4951.47 6084.93 4307.28 3697.96 4739.42 5538.93 5020.12 4745.45 2631.9 5281.28 6255.18 4668.71 4758.21 7228.46 6362.14 6719.88 5978.82 5266.5 4523.88 4066.38 4948.98 5227.52 4414.48 4092.24 5163.02 7144.24 4906.82 5687.83 5004.23 6442.69 6320.71 4648.04 3464.83 6607.87 4721.32 3293.56 3163.78 5274.14 4903.82 5746.28 4082.47 5511.6 4338.08 4378.3 6134.99 4094.73 4989.56 4718.54 4440.57 5548.29 6766.43 2315.64 4390.41 5226.56 5599.49 5313.22 3905.51 3999.94 4864.22 3901.8 5759.46 5083.41 3921.08 4190.31 5678.96 5262.19 4244.9 6070.58 6034.41 5452.83 5130.91 5402.24 4519.22 6445.22 3844.9 3695.36 3963.86 3848.93 4306.11 5935.47 3402.32 5903.66 4528.49 5004.67 5365.89 5992.26 3960.8 5070.39 4980.85 5714.58 5110.45 5208.32 5248.77 4083.97 4607.02 5153.74 4528.09 3895.51 4165.81 6291.51 4128.98 5174.89 5882.89 6246.22 4188.32 5246.61 4100.38 5344.77 4723.48 4899.11 5097.87 4278.07 7267.18 6256.02 5320.92 5269.18 4406.1 5034.59 4942.77 4263.33 4454.63 5080.18 5912.61 3279.1 4403.98 4560.84 4729.43 5776.57 4562.74 5683.26 5598.74 5139.5 7493.3 4814.55 3527.05 5698.77 2477.07 6413.11 4305.16 5092.28 4965.89 5659.95 4152.85 2908.7 4453.64 4517.73 5469.47 5660.16 3838.47 2588.37 6736.03 6235.57 3623.87 5916.16 6934.37 6113.95 4050.08 4097.57 5017.5 5563.79 6171.13 5511.88 4512.11 7055.42 5486.68 6048.86 4285.32 5490.43 5022.28 5197.52 4959.34 4948.5 4527.02 4531.14 5013.42 4564.34 3838.56 4871.44 5076.35 6020.48 6375.99 5200.05 5234.29 5313.66 5419.37 4466.03 4511.54 5409.33 5196.0 4923.9 4973.78 3329.99 3947.47 3296.27 5091.68 4713.25 4204.84 6243.0 6673.96 3556.85 3161.47 5441.96 3435.9 4288.3 5370.52 4652.29 5774.81 3746.31 5498.32 5027.98 5346.27 6475.1 4969.21 2691.29 2845.98 4880.14 5289.52 5314.85 4305.43 5450.44 6510.17 5742.65 5592.32 5381.16 5565.13 6193.35 6086.96 5233.78 3701.27 5653.9 5046.21 4929.14 5894.61 3979.54 5304.13 5944.09 5833.06 4923.41 4497.31 5384.76 5529.42 5257.12 5243.43 4537.14 5551.9 3757.34 6415.61 4687.64 4419.71 4888.12 5037.06 4541.8 5175.29 5842.56 5887.15 5412.31 3087.09 3423.15 4890.5 3981.07 5452.42 5328.22 6853.85 2395.5 3497.9 5941.61 5782.48 6248.6 5683.61 3836.45 5100.25 6894.26 4986.51 5339.38 5178.99 5383.07 4591.87 4790.78 4247.15 6552.22 5651.07 6248.81 5273.35 4091.8 2651.49 4645.58 5512.23 5275.32 5985.29 4898.94 4178.15 4613.31 4733.04 6119.09 5788.66 7531.29 5069.25 5048.89 5935.03 3991.03 6390.78 7435.25 6826.57 4788.87 4249.46 4495.87 3702.37 6022.72 4643.31 5527.33 6917.52 5402.21 4989.09 4982.31 3848.54 4307.48 5941.4 5331.02 4871.96 4863.23 4402.67 4470.61 4631.83 4384.88 6887.27 6008.49 4806.34 4287.53 5612.21 5945.08 4968.03 3306.14 5490.58 4863.79 4702.06 3830.46 6031.67 4689.15 6138.12 4428.78 4655.16 5409.66 4345.67 4765.72 4642.66 4039.91 4752.14 5329.59 4950.97 5512.16 3197.63 4863.96 5191.08 5203.08 7480.41 5163.77 4488.85 3731.84 4901.07 5186.3 3436.15 4151.76 4020.4 3493.47 4596.75 4933.65 5443.58 4558.46 5805.86 4049.02 4470.4 5311.03 5255.12 6169.11 5615.35 4027.09 6422.84 4502.18 5379.09 4602.85 4962.77 5872.05 4853.02 6259.23 5181.4 5088.44 5670.2 4711.62 4247.23 4114.24 4268.65 4694.83 5509.42 4354.08 4256.43 5936.36 4520.62 3903.75 4755.47 4485.99 5127.16 5475.8 5314.69 6050.81 5543.46 6185.89 5965.81 4750.17 5660.85 2330.66 3990.25 4177.19 3691.0 4752.51 3587.05 6229.37 6718.19 5282.91 4425.84 3797.33 7256.35 4800.69 6566.1 3555.86 6386.78 4996.99 4896.39 6081.14 5480.83 4220.46 4607.85 5128.57 6000.7 3169.67 5604.21 3361.92 6710.88 5395.14 3967.48 6213.04 6622.11 3685.13 6790.73 5251.4 3867.19 5097.69 5857.79 5276.7 5036.58 6119.63 5411.02 4752.9 4287.16 5199.44 4062.5 4435.51 5374.07 4588.7 5683.95 3766.55 4579.69 3554.48 5010.2 6496.52 5005.85 4216.17 6484.17 4721.02 4938.72 4254.37 3374.08 4031.78 6098.1 5708.99 5687.85 5346.68 5296.29 4611.53 4285.66 4896.11 5172.53 4135.62 5801.99 5534.94 5210.48 7644.38 7552.94 6101.92 5323.3 4998.21 4662.56 5166.79 5349.31 2976.22 3405.98 4649.22 5394.55 5094.52 4946.74 2682.24 5996.33 5928.32 5229.48 5475.7 4016.18 5526.75 5435.74 4244.99 5327.45 5560.26 3997.96 4439.35 3460.94 6184.4 3758.07 4373.45 4236.14 4407.87 5733.62 5282.51 4460.92 5945.89 4042.28 4105.55 4340.76 6065.22 4221.28 4456.39 5514.84 3633.79 5421.53 5937.08 6070.3 5233.29 4312.56 4612.06 5204.04 4750.58 5926.11 6667.68 5235.11 5211.38 5089.62 4590.55 4741.26 5920.32 4255.85 3988.3 6543.13 5149.72 5776.96 5464.25 5486.48 5301.47 4617.55 3645.12 5424.88 5415.85 8659.64 5469.13 6027.62 6123.03 5966.61 5711.11 4575.94 3546.71 5768.57 5564.23 5950.04 4231.83 2435.33 6401.43 4558.47 5020.71 2681.29 5094.48 3872.61 4238.4 4318.48 6132.95 5266.22 4860.33 3685.13 6004.68 4051.34 3627.55 6239.84 4635.6 4256.67 3457.48 3931.07 6430.39 5417.15 3688.16 4681.72 3949.6 4945.39 3950.63 5415.19 6631.19 4612.62 3619.07 4275.57 4467.04 5626.61 6385.23 5817.25 2983.99 2614.4 5061.98 6363.92 6205.93 4923.24 5830.72 4419.61 3828.81 5309.98 4082.57 5255.18 5169.9 3004.16 4767.78 5235.17 4421.12 4779.5 4435.36 5254.49 6649.96 4303.19 5784.3 3914.2 4256.57 6088.68 4643.56 4135.08 5620.74 4778.82 6124.08 5467.84 5053.95 5266.01 5253.37 5767.9 6515.8 5869.4 3685.65 3701.16 4186.6 5895.77 4732.09 6136.49 4356.25 4757.74 4216.95 4209.49 5742.74 4244.21 4947.24 3875.05 6200.54 5148.58 4199.45 6599.66 4055.54 4233.8 5765.42 6098.95 4997.83 4893.49 5325.44 5021.88 5956.65 4498.25 4188.87 3735.24 6574.95 4074.48 6333.29 5731.57 5997.88 5839.71 5576.92 6408.83 3930.79 4004.35 5226.97 3312.06 5180.76 3361.26 6799.4 5278.36 5865.39 4427.28 6079.11 3082.32 3658.37 7440.72 5376.71 5703.6 6326.18 5661.62 4867.08 4266.03 6648.68 4713.74 5407.78 4084.49 6632.99 4537.6 5147.36 6260.79 7177.44 4563.46 6553.94 5726.66 5460.65 5652.0 5463.41 5225.33 4929.75 6045.22 4614.3 5134.39 3532.3 5769.98 5442.32 2221.99 3580.58 4863.01 5356.79 5657.36 3619.79 5029.47 6306.21 2978.76 2040.66 7016.27 5884.9 3876.21 5689.26 4916.22 6022.7 4940.84 5750.07 4833.46 4809.67 6045.67 3946.28 3821.94 5439.9 5367.73 3540.11 4640.06 3456.47 4652.01 5421.64 7234.66 4207.54 4886.12 6419.12 4976.12 4817.16 5453.98 3991.42 4388.63 5102.75 4200.09 4597.29 5931.77 5151.21 5398.64 6817.57 4477.04 3614.96 3886.68 5703.74 5662.55 5737.92 4360.23 5365.24 5293.51 4763.96 5754.18 5008.63 3418.99 4480.95 4993.35 4409.63 6218.95 5521.25 3661.9 5370.85 5949.46 3178.54 3776.94 4765.02 5629.39 4448.13 5070.29 4807.28 4768.61 2261.36 5075.55 5280.69 4220.03 6923.84 5227.59 5449.46 6179.96 5703.07 6113.54 4662.43 3963.76 4043.66 5528.53 6799.88 3062.43 5990.52 5426.78 2967.38 4159.35 6477.91 4237.98 3091.67 6439.37 4081.97 5401.99 5580.92 5973.33 5067.46 3583.21 2511.46 4011.37 2775.69 4785.25 6519.43 5876.64 5424.46 4857.84 4908.49 4962.21 4858.44 3468.42 4673.35 4771.13 4992.42 5297.19 4351.38 5933.7 7248.4 5280.12 4444.97 5984.81 3498.16 4409.27 4588.99 5471.74 3548.39 3673.28 4928.27 4858.51 3375.28 5625.65 4301.61 6107.89 4446.84 5660.55 5148.08 4834.87 5760.22 3672.21 5938.17 4795.43 5097.95 5108.06 3573.73 4693.52 6853.04 4745.43 5831.96 4747.55 3056.7 3755.95 6234.32 4586.19 4446.06 3450.93 4270.74 5132.68 6595.03 4558.15 5222.16 4690.55 5107.23 5136.08 5558.68 4802.32 4010.57 4599.38 2684.03 5246.47 6157.04 4522.21 7422.36 5506.19 6719.94 4950.67 5832.37 6166.29 5453.6 5409.63 5294.77 4709.05 4630.82 6109.49 4813.08 5860.67 4540.86 5332.65 3764.1 4835.83 5604.35 6316.56 4332.87 6420.81 4715.58 4450.7 5151.52 5369.08 3101.75 4347.74 4009.62 5291.9 2081.58 4874.18 6505.78 5461.55 3298.2 4270.15 6865.76 6449.64 6464.8 4684.44 4749.59 5799.69 3809.69 5571.72 3208.96 7051.9 4184.23 4144.57 5550.75 6834.41 6226.14 5466.33 3000.29 5721.05 4247.69 4209.31 4514.39 6242.79 4321.21 4344.34 5713.03 3583.49 5052.84 4366.74 5297.16 3184.64 5206.33 5530.49 5653.03 3718.69 4514.79 2216.82 4509.89 4940.28 6752.75 5269.38 5607.3 2928.82 4222.4 4000.43 3420.08 4568.41 4912.04 3624.7 4539.07 5464.68 2685.81 5591.76 4585.31 5010.04 6625.18 5323.91 4570.98 5097.45 6293.89 2761.07 5737.75 4983.39 5366.52 3778.02 5533.72 5533.42 7132.12 3678.08 5518.57 4187.31 6191.29 3240.51 4527.99 5161.01 4298.15 4628.4 6051.83 4642.93 5941.9 4263.16 3973.12 3077.84 6642.76 6024.75 4497.78 5567.93 5987.42 4442.22 6451.33 5413.31 3012.99 6400.08 4743.59 5208.14 3317.83 4396.25 3763.05 5092.24 5549.49 5423.42 4518.04 4766.06 5012.5 5435.19 7093.13 4953.1 5818.95 4093.99 3940.49 4406.05 4680.94 5089.1 5828.35 5876.72 5236.43 5285.07 4680.14 4608.41 4187.94 5980.59 5021.77 3796.15 4801.8 7216.98 5271.02 5718.28 4601.74 5950.45 5849.65 5134.67 4165.21 4215.0 4936.96 4603.5 4481.76 5452.78 5065.26 4304.41 6192.0 5885.28 6579.31 3004.34 5323.55 3022.6 4811.76 4914.45 4698.87 5351.56 4661.03 5160.59 4691.91 5262.35 4475.83 4255.34 4510.8 5889.35 4394.56 4275.07 5825.38 4185.61 4047.87 5742.47 4917.99 6552.21 4367.78 5417.8 5146.37 4836.16 5300.96 5151.11 5463.48 5730.33 5545.46 4376.7 4543.1 5190.61 8325.01 3764.06 4440.81 4523.39 5278.56 5434.47 5829.22 5631.14 4243.79 5811.18 5433.65 4008.15 4887.76 4669.06 4811.32 4286.49 6184.88 5829.32 5551.95 3918.87 2275.45 4633.05 4901.2 6605.86 4383.56 4990.79 3562.79 4516.53 4122.92 3604.14 4452.54 5810.77 2711.19 5474.15 4028.32 4099.92 4884.59 3858.06 4511.7 4083.79 4304.63 5263.27 6300.92 4173.54 5599.29 6038.68 5046.12 4807.4 7013.17 3805.67 4590.01 6506.86 5088.57 5580.34 3852.6 5775.31 4706.5 4647.67 5375.12 4356.36 4892.44 5578.94 7610.49 4286.17 3684.56 6028.09 5375.1 4172.6 5313.12 3984.88 5318.53 4732.09 4320.42 4281.98 7165.9 5064.79 5344.83 5480.3 7509.24 4146.81 5896.26 5388.78 6101.13 4573.72 5099.21 6969.28 5636.4 5698.96 4350.12 5227.02 5670.0 4232.16 5222.51 4344.51 5680.94 3834.43 3781.77 5581.55 5193.01 3474.5 6550.44 4250.88 3860.83 6348.03 5732.27 4792.39 5146.37 6917.62 4013.38 4343.78 5263.3 3352.35 4909.65 6523.86 7693.4 4326.48 4437.07 3449.37 5491.9 6405.0 4659.16 5789.55 4909.31 6522.59 5711.62 4798.17 5166.79 5425.98 6479.39 2895.63 4997.91 5079.22 5381.54 4714.83 7519.2 6355.68 4478.6 3953.55 4063.9 4469.54 4314.56 3928.53 5606.51 5740.65 3834.47 6349.67 6329.53 6101.86 4227.41 5993.0 4803.57 5966.42 4110.59 3332.49 5354.66 4214.44 5378.23 4787.97 3746.36 6789.23 3989.7 4777.03 4246.61 5452.36 3804.5 6486.37 5498.42 3344.57 5220.76 7046.11 3427.63 4863.97 6342.48 5756.75 5599.7 4587.67 4163.74 3665.95 4296.69 4095.75 3319.67 3603.51 4298.45 5283.8 4076.59 6609.84 5135.96 6464.15 5658.37 4707.06 4972.17 6074.94 5491.37 4222.77 3783.54 5268.38 3475.67 5527.23 4805.33 7038.89 3863.67 4814.12 5067.56 6137.8 6069.3 2735.53 5116.6 3747.03 2783.85 4356.49 4526.81 3994.07 4219.94 5907.46 4264.91 6740.71 5399.29 5971.22 6602.43 3568.28 5996.66 4405.42 2995.67 3598.08 4599.81 5698.23 7300.58 3608.06 6633.61 5217.95 4867.7 5484.36 4277.24 4075.28 5291.05 5161.1 4619.2 5166.41 5067.56 2596.96 5701.75 4350.15 4139.3 6541.45 4750.49 5078.31 5391.48 4923.43 5131.15 4847.14 3950.27 5116.66 3566.79 5374.67 4981.43 4741.28 4215.2 5069.89 4157.29 6813.72 5327.75 4609.02 4896.65 4946.23 4638.18 4196.37 6448.66 4453.97 6945.98 5138.2 3503.41 5783.48 4449.98 4701.5 4504.35 4771.65 4840.44 5093.82 5951.81 3924.14 6918.35 4834.3 6238.32 6804.79 6471.42 6372.13 5369.5 4428.14 5164.1 4124.49 4479.11 5714.25 6685.4 5699.53 4850.06 6332.01 7044.29 4234.18 7085.01 5980.95 6193.08 3862.77 5887.01 5168.35 5388.39 5335.47 3728.18 5633.61 5048.19 6799.23 4888.27 4592.15 6487.56 4854.11 5533.19 4998.22 5417.21 6104.26 5583.61 6063.64 4986.71 7382.3 4022.56 5522.21 3772.3 4855.01 6208.9 4923.57 3340.09 6061.63 2279.05 4829.35 8137.11 5484.32 6650.77 4067.96 4824.12 7104.73 6162.3 3272.75 4264.54 3516.27 7043.44 4263.78 4643.9 5228.75 6047.14 5009.83 5210.38 5717.8 3629.44 5003.78 3299.24 6246.56 4061.6 2603.64 5107.0 6212.15 6502.97 4783.07 4852.58 6083.28 5211.6 3556.79 5806.31 5456.71 7317.04 6412.67 7001.83 5012.97 4036.91 5589.37 5439.49 6639.64 5212.43 5454.12 6348.54 4066.57 5642.35 6357.47 5404.01 6016.19 5535.91 3230.13 6176.67 5325.96 5412.24 5016.02 4920.21 4581.37 4049.16 5851.61 3936.95 6153.94 6836.82 3858.17 4631.99 4740.98 3185.39 5128.77 7122.87 5797.36 4243.26 4153.84 5119.86 5089.26 5084.17 4901.44 3776.8 5096.43 6156.21 2460.79 4653.83 6171.71 3628.89 6589.82 4668.88 5027.43 5522.75 5867.64 4438.58 6059.93 5602.53 5073.02 6545.43 3472.91 6760.92 4989.2 4711.04 7144.05 4506.18 2970.9 6542.5 4383.47 5971.21 6318.23 4206.98 5156.76 6101.57 4891.38 4793.65 2949.12 5955.86 4532.89 4533.37 4848.46 5742.09 2779.99 2884.65 5887.38 5807.46 6942.34 3658.05 5478.11 4549.69 5526.31 5030.15 4058.87 5174.75 5048.55 5932.07 4984.46 4024.31 5948.71 5844.72 3856.53 3992.97 5460.89 6040.74 5260.85 4054.22 7228.94 5393.65 4961.99 4648.21 4393.16 3311.29 6423.81 6192.77 6413.15 6103.11 5416.45 6459.51 4955.16 4904.51 4147.31 5989.05 5751.15 5950.88 4441.22 5853.89 6551.93 4595.12 3110.13 4386.8 6484.43 4625.67 4725.01 3485.54 3104.96 6735.97 5305.59 3636.15 4330.58 6114.89 5754.6 3288.01 4355.83 6870.97 2202.77 5351.86 6056.87 5474.01 4149.55 6201.86 3380.69 5166.89 4140.4 3639.44 5446.4 5725.37 3868.62 5966.75 4729.42 4844.83 5244.78 5652.87 5135.63 6384.7 5952.38 3896.27 5807.52 5230.02 5307.35 7554.58 4731.21 5491.63 3124.7 6102.98 5138.33 3477.1 5769.14 5261.19 4811.22 6379.14 5216.26 4749.96 5377.37 5869.67 5483.7 4311.48 5018.69 4899.73 3152.86 5457.66 6394.19 5973.89 5963.36 5518.11 5087.14 4342.18 5169.48 6016.08 6776.22 6064.71 4467.13 6060.17 5934.82 5415.45 4385.81 6592.93 6350.71 5096.24 3381.82 7107.63 4831.93 4023.93 5868.89 5494.28 4099.26 4834.39 5493.89 3831.52 4918.76 4208.41 5826.78 2856.55 6214.73 4553.68 3758.22 4268.19 4532.7 3205.68 5561.74 6100.73 4788.08 4908.75 6556.26 4593.7 4349.13 3687.65 3634.5 5478.95 3851.85 4019.34 4658.24 3623.19 4906.11 4387.39 4564.1 5825.55 4848.14 5366.22 6193.73 3742.11 4192.21 5712.35 3597.43 5701.52 4743.9 4158.91 5311.55 5321.17 3360.86 3719.11 4869.25 5545.21 3877.8 6418.11 4501.78 5039.12 4824.81 5135.5 5007.21 5545.59 5206.47 4057.17 7066.96 4263.65 6106.43 6761.81 5467.63 4127.53 5210.75 5175.89 5361.87 5232.85 6816.66 4473.29 3971.08 6204.65 4482.9 6818.91 3503.65 4869.48 5510.96 4745.16 4584.81 5509.51 5071.98 5719.79 3199.4 4371.08 4316.5 5254.24 4914.03 5086.29 5144.56 5139.18 3034.16 5551.43 5049.99 4201.03 4333.87 4458.64 3657.69 6015.02 4922.49 3572.94 5001.58 4820.17 6456.58 5244.98 5366.11 4384.28 5944.3 7307.21 5640.72 3619.72 4565.93 4504.52 5615.84 4464.73 5788.97 6440.38 3274.85 4580.06 4835.97 6419.64 5262.47 4587.7 5196.92 5644.81 4568.64 5666.95 4642.2 6555.44 6358.93 2205.51 3894.64 3703.49 4374.74 4757.2 5975.23 4745.79 4211.82 5470.04 6550.4 4891.67 5513.8 4887.52 6631.28 5350.88 6571.31 4392.65 5429.3 4944.51 6653.07 4697.91 5179.17 5270.51 5148.1 7261.51 4968.14 5949.73 4312.48 5527.13 6370.33 4278.57 5081.08 6318.25 6864.06 5001.87 4312.15 3644.78 4883.63 4078.93 3814.65 3886.72 7778.01 4034.05 5127.82 5798.38 6436.74 3862.91 3419.87 4456.26 3908.98 5113.6 6328.42 3563.14 5851.63 4954.81 5610.53 5755.15 3926.11 5464.83 5414.58 4991.35 3512.94 5601.55 4807.35 5334.36 5750.35 4489.99 3683.86 5293.75 5658.14 5473.72 7124.45 5144.44 2617.39 5034.69 4198.94 3217.67 5079.64 6003.78 5684.25 3766.69 5188.53 4882.66 4521.75 4027.63 5603.68 4526.34 5610.95 5532.72 3220.8 5042.75 4598.92 5579.39 4979.52 5490.75 5224.64 5214.63 3495.68 5783.94 4202.77 5836.14 6008.81 5510.9 4505.28 3492.83 5585.14 7039.98 6006.89 5792.98 5910.86 5690.96 5805.1 4456.11 4027.33 4810.98 5026.76 5091.22 6282.38 5212.92 5556.0 5748.9 3742.31 4608.34 5695.79 2781.96 4431.23 4467.0 4994.65 4258.98 3903.91 4929.6 3919.62 4368.28 4548.45 5730.61 4508.18 4062.56 5969.37 4928.35 4509.46 6163.54 5212.37 6500.49 5438.92 5110.11 4244.49 5036.98 4120.07 4813.33 3840.21 5569.2 6746.66 5420.67 5635.32 4827.61 4316.45 5409.08 5481.64 5673.75 5241.22 6647.08 6263.3 3422.29 4501.05 4407.79 4537.03 6548.29 3990.96 5352.24 7362.42 5793.12 5469.17 5473.05 4373.2 4583.52 6711.21 6280.13 5244.22 5832.29 4438.76 4960.64 4983.3 5401.4 5053.15 5124.17 6239.68 7320.78 4234.88 5782.43 4708.31 3873.92 4092.07 5347.9 5657.55 5727.79 5188.82 5043.14 5072.5 4749.18 3663.0 6304.49 4420.6 4475.38 3622.8 5917.34 5740.98 6545.99 4728.55 4554.68 4945.0 4658.11 4551.26 5114.07 7142.95 4559.74 5064.67 6618.21 3717.47 4504.86 6200.63 4583.94 1937.5 3844.54 3538.53 996.652 2628.22 5965.58 5058.51 4050.03 4952.52 3429.57 5410.33 5661.6 6099.28 5285.75 5385.03 4169.15 4778.37 5360.67 5968.54 5592.54 3247.97 4114.2 4904.37 4358.81 4326.06 4651.64 5034.46 5757.29 5016.46 5061.75 3769.24 3743.76 5153.18 3425.69 4971.29 2606.51 3864.92 6119.99 4159.81 4446.58 5372.82 4402.17 4775.49 4681.29 5749.6 3845.9 4174.44 4834.44 4213.05 4224.3 4717.73 4928.85 4546.96 4316.0 5424.55 5134.72 5287.25 4770.51 3787.08 5630.9 4140.92 4585.04 6570.35 4383.68 6666.67 6063.44 5046.31 4337.32 5849.53 4680.69 3352.34 4901.29 3242.31 4898.29 5372.25 3234.26 4830.13 3494.16 5134.17 5370.9 4074.16 4904.35 6172.27 5390.33 5124.34 5278.54 5729.0 5729.92 4179.87 6224.13 4761.84 3661.67 5510.45 4730.14 3994.39 5499.59 5667.51 6331.74 4198.9 5431.29 5235.87 5273.37 3904.07 5553.94 6502.99 4392.75 4921.1 4191.01 5577.41 6511.37 4012.92 4462.87 4218.16 4933.49 6139.64 4692.32 4474.83 5236.24 3127.83 4242.63 3269.54 7407.91 4051.18 4651.99 4420.11 5863.0 6127.39 4972.18 5329.76 4124.76 7200.89 4802.98 4833.55 7224.99 3908.56 5265.63 5684.88 4431.06 5730.2 4645.86 5620.88 4941.52 4529.77 5900.0 4325.13 4262.74 3783.79 5078.73 4248.14 5279.19 4016.6 5192.92 5275.57 4786.66 5891.25 5370.1 5902.67 5393.76 3684.15 7123.04 5906.57 7541.76 4932.29 4990.23 3784.94 4506.66 4439.71 4833.67 5325.91 5157.38 4646.51 4546.44 6203.03 4700.07 4732.37 5713.36 4704.92 4287.25 3987.69 3814.16 4589.06 4216.44 3999.5 4346.07 6102.49 5836.26 6015.22 6061.85 6449.06 5241.75 4731.53 5640.12 5760.98 4954.76 5764.52 4390.64 6523.78 4045.67 4608.01 6005.95 4308.49 4581.1 6241.77 5317.19 7360.12 6223.98 5821.49 7050.08 5580.44 5998.13 4763.4 5454.11 4236.86 6010.59 4128.1 2955.36 4618.73 3220.29 4141.21 4064.58 5023.41 3791.41 952.938 4184.21 5473.89 6089.45 5265.21 4985.3 4966.07 4400.14 4666.12 6219.34 4920.88 4013.86 4177.47 2918.64 5345.73 4770.63 5678.58 4385.49 5114.23 5495.0 4454.74 5512.44 4826.52 2904.46 4685.4 3763.9 4577.73 4288.45 5419.57 4147.49 4081.34 4642.74 5384.86 3770.22 4848.98 5150.84 5184.98 5087.97 5339.82 4519.03 4930.17 5110.27 4085.96 4745.44 5762.82 4612.68 4232.33 5462.6 5617.29 3035.06 5770.92 4262.19 3093.38 4597.88 5095.52 4878.93 2002.78 4941.02 5806.61 3682.35 5182.13 3965.3 6110.48 4125.9 4564.41 5426.4 5951.86 5247.01 5853.12 5702.4 4841.7 5810.17 3450.07 4657.24 5674.63 5340.05 4639.8 4212.15 4263.18 4489.29 4301.93 5120.92 3200.6 4918.64 4636.53 3646.95 3402.44 5537.61 6084.88 4491.96 4199.44 4467.51 4479.5 6261.67 5460.57 3435.13 5065.78 5703.34 4521.42 6668.98 6649.52 6043.34 4939.56 4747.68 4959.72 4712.17 4845.91 4461.67 5784.37 3142.09 6016.87 5515.73 6715.73 5209.55 4678.7 3306.84 3484.81 5308.33 4271.07 5995.4 4184.47 5890.25 5700.79 6710.14 5759.79 4598.54 5218.42 5188.22 4841.23 4512.07 4896.43 5984.8 5463.06 4462.35 3986.41 5260.52 3185.09 5532.75 6949.65 3469.18 2945.34 3372.95 5676.61 5846.95 5064.23 5268.15 5701.63 5819.0 6347.72 4924.07 3460.93 4629.02 5124.86 6240.42 5146.0 4788.7 4608.62 5407.96 5084.5 4987.28 4071.75 6206.98 6638.25 5078.59 4607.18 4775.04 2403.72 2646.13 5162.67 3629.49 4705.68 5766.05 5469.35 5117.64 6334.53 4721.98 5252.82 4397.06 3543.98 4053.12 5056.26 5878.55 4014.44 6604.72 6002.77 4431.46 3794.47 4610.55 3207.84 4967.02 3977.98 4614.49 5400.69 4128.93 4462.5 5573.31 5004.68 3808.04 4023.88 4723.71 4405.61 5348.11 6273.6 5136.87 5638.7 5024.32 4708.17 2741.2 4644.88 3779.45 5790.42 4983.1 7350.26 5591.77 5003.3 3668.93 4009.24 3756.96 6245.52 3954.77 6793.1 4068.31 3125.13 5166.05 5077.29 3612.44 7035.54 4850.5 5866.91 6405.69 5763.05 5129.68 5357.39 4252.18 4659.88 6296.54 5797.21 4208.37 6019.35 5069.9 6740.35 3673.6 4550.92 6215.87 5146.1 6485.77 5191.26 3669.32 4762.1 5393.43 6896.55 4685.65 5377.01 6023.07 6470.23 6506.63 4140.04 3495.3 4668.8 5322.11 5125.17 4697.49 5735.08 4859.01 4726.2 5034.05 4816.51 4426.02 4711.15 3825.48 4658.59 4474.39 3810.68 2804.54 5459.92 6478.35 3990.94 4196.62 5453.77 4756.8 4357.11 5477.8 5486.89 4176.32 6069.78 7208.19 4241.68 4549.51 3587.93 4975.85 5196.08 4095.83 4517.29 5695.25 5323.95 6171.01 5716.42 5796.26 4468.26 4620.95 4603.04 5578.18 4870.94 5368.93 4488.39 5271.88 6121.56 4927.73 5914.5 6006.16 5721.14 3565.32 5710.33 3622.48 4096.86 5344.44 6432.8 4626.72 6562.03 4815.47 5549.71 4759.99 4410.82 3899.7 4368.12 5134.33 6443.99 4365.58 3889.98 5214.4 5399.43 5193.58 5034.34 5695.44 3769.2 3835.81 3422.21 3916.42 5036.14 3228.27 3956.24 7558.99 4142.1 5043.14 5333.04 5445.91 4521.99 4812.59 6842.54 7115.67 5675.45 3361.11 6038.56 2807.46 5599.16 4179.8 3488.34 5428.24 4493.79 5684.05 4932.56 3667.93 4279.44 5192.49 4899.19 3487.31 6643.4 5813.79 5058.34 4028.22 3918.94 5575.11 5293.13 3852.82 3768.46 4507.36 5167.53 6224.85 7145.73 4168.52 4556.19 5800.81 5403.97 5106.46 4795.08 6562.92 5648.78 5501.73 3671.06 4697.24 4983.43 6081.3 5117.52 6311.89 5233.76 4683.28 4217.36 6549.8 2820.07 4825.73 5679.74 4851.18 5076.84 4165.36 5288.33 4871.77 5368.52 5811.26 5062.77 5205.38 5685.74 4884.93 6075.99 4600.71 6028.63 3957.38 5927.2 5035.71 4419.79 5407.69 6060.06 5866.42 5960.5 5152.78 5544.27 4117.9 4753.76 4638.09 4781.9 4441.91 5330.26 5339.6 5828.25 5939.22 4725.11 4215.05 4271.93 3626.86 4604.1 6371.96 5076.11 5524.45 5990.75 7133.44 3953.26 5600.21 4750.81 4282.11 5467.51 6589.13 4625.53 4096.47 3543.37 2809.19 5114.67 5005.6 4916.7 4104.04 5589.53 2638.82 5593.79 5025.42 4965.24 6379.38 6257.79 4495.75 5438.55 4849.5 5353.23 6229.83 4523.81 5106.33 5791.25 5293.37 5198.94 5933.54 4028.35 5559.79 7168.2 4602.57 3763.85 4571.74 3419.07 5740.78 4796.12 5001.51 5997.91 5385.86 5115.42 5131.77 4082.4 3186.07 4369.86 4967.51 5482.76 5173.82 7212.97 3720.7 4211.36 5490.64 5378.24 5698.53 3604.31 3856.73 4507.46 4450.49 3468.45 5580.95 3549.92 3393.59 4032.06 5246.81 5089.1 5888.95 5394.78 3463.34 2853.68 5329.84 4998.37 6559.82 3879.83 6565.95 5658.35 4577.98 5886.81 6022.78 5537.34 5884.99 5726.42 4674.9 7025.09 3392.26 2549.95 4433.12 5461.72 5487.63 4361.24 6599.28 5138.93 6945.69 6406.8 7086.69 5368.66 6170.9 4304.64 6875.73 4436.48 5226.42 5758.98 5615.35 3967.76 6734.39 6213.24 5987.88 5942.45 4228.53 4150.76 6123.46 5005.72 6142.88 5155.28 5111.26 5388.73 4574.54 4764.83 4949.55 5490.54 1969.87 4841.28 3132.34 5262.79 4047.95 4494.15 5507.38 6889.5 4710.88 5300.17 4416.87 3869.39 4057.4 4052.43 4896.67 5534.23 3934.11 6025.77 6815.96 4466.22 4496.51 6153.71 5917.08 5483.37 5418.12 5322.07 5934.05 5770.07 4714.66 5101.6 4984.17 4656.01 5327.39 5781.62 4037.86 2347.41 5602.62 4542.16 2030.03 5714.51 5628.97 4938.33 5353.66 4484.78 5030.33 5527.27 5104.39 5234.2 4612.13 5847.91 5846.6 5327.05 4109.44 4903.84 4290.49 4434.65 6688.53 5977.66 5927.1 5209.5 5065.74 5876.51 4873.23 6731.89 5464.05 4733.41 5879.24 2980.31 5410.6 3148.79 5453.2 6348.93 6824.53 4332.64 4742.82 4422.23 5232.16 6791.86 3989.26 4209.0 4820.68 4930.72 5728.58 3745.02 4887.73 6297.99 5918.95 4538.89 5817.74 5887.71 4313.38 6598.99 5250.56 3633.58 2468.16 6294.14 4339.97 5203.75 5169.09 5122.38 2459.88 5262.85 4210.24 5470.67 5901.71 5342.9 5252.22 5733.12 5043.34 6436.29 4087.32 4009.68 5517.65 6647.85 3303.49 2569.12 4161.32 4622.73 5161.74 7336.37 5932.28 5560.23 5099.9 2960.5 4298.7 4975.32 5118.86 3902.48 4183.4 6030.39 5833.78 4733.79 4905.53 4823.06 3799.01 7392.65 5254.49 5288.64 3757.23 6828.8 6883.86 3350.99 3579.59 4979.5 6161.94 4065.28 5057.59 5939.29 4461.14 5285.6 5575.11 5615.06 5203.54 5061.74 6189.67 6142.94 5001.69 6581.56 3980.46 4061.87 5383.9 5165.31 5158.44 3798.09 4585.37 3886.56 4288.5 5715.51 4511.05 3456.3 6561.94 5259.21 5317.83 5092.93 4256.08 2803.01 5881.93 4399.52 4444.0 6771.18 6182.19 5910.66 7415.84 4981.81 4138.59 4970.55 5141.03 8123.59 4621.33 5765.14 5157.73 4541.22 4934.66 4946.08 4984.01 3539.68 6217.33 4557.1 4605.39 6270.59 6175.27 6045.26 6500.45 4103.76 4907.55 4286.61 4094.63 2932.52 5264.83 4603.66 4757.87 4969.68 5136.51 3901.53 6636.43 5431.14 6815.51 5313.86 4457.05 5189.91 6031.22 3618.64 5485.84 6424.77 5703.84 4335.79 3530.82 5453.69 5797.32 5432.04 5689.56 5159.67 6556.86 3921.27 3702.45 2832.83 5827.3 6036.99 3010.1 3825.98 5087.03 4667.84 3906.41 4691.15 4123.08 4512.6 4260.38 4636.45 4932.27 5225.11 6793.49 6060.19 4962.35 5114.51 5129.4 4655.37 3720.38 5585.25 5256.75 5023.61 6351.89 6530.78 5059.37 5783.38 3043.77 4139.39 5645.54 5237.55 3909.94 5088.64 6264.03 6589.8 4151.74 6920.92 3729.16 5319.1 3783.36 3038.91 4181.93 3922.28 6570.43 3820.19 3445.92 5236.69 4586.82 4745.37 3133.28 6026.04 6200.05 5418.98 5859.17 4034.41 3518.14 4052.49 4150.44 5326.03 5522.34 5771.98 4420.35 5717.45 4948.96 5256.82 5117.83 4013.86 5268.27 4645.93 4813.81 5448.64 5244.95 4634.25 5901.8 6417.61 3721.69 5395.12 5783.69 6074.39 6210.0 3483.61 5350.9 6738.9 4460.89 4554.24 4157.1 3939.96 8052.53 4867.12 6044.01 6520.19 4637.3 1458.87 5973.57 4840.44 5734.07 3997.68 4819.83 4801.16 4767.54 5071.38 5121.08 4696.03 2927.84 5688.77 6177.68 4698.7 2848.44 4220.43 6229.64 6263.87 5743.8 5084.76 6666.34 6605.11 4645.91 6834.92 3557.46 6379.33 5971.95 6298.8 3689.24 3979.46 5178.07 5151.19 5777.26 4171.02 6509.54 6119.0 7012.36 5128.59 5028.06 4002.99 4993.49 4886.99 4293.3 5587.3 3161.1 3572.73 4864.38 4474.96 4084.87 4790.63 5259.29 3584.05 4589.22 4916.75 4818.53 5097.85 5584.64 6189.04 6224.64 4221.03 3799.55 5638.51 5082.66 4550.77 3563.33 4337.93 3550.88 5536.0 6786.37 4746.15 6275.25 6892.33 4758.84 4731.37 4505.3 4452.36 3976.0 4672.86 4511.34 6463.71 4068.41 4742.35 5009.21 5394.79 4574.03 5290.37 5850.38 4526.87 5264.08 3562.8 4227.66 4691.01 5192.82 5245.95 4174.22 3573.84 5821.42 4067.89 6294.09 4571.57 5131.07 4121.07 4197.87 5524.28 5105.54 5731.43 5462.1 6353.81 3414.67 5444.36 5044.68 5899.78 2649.69 3467.11 5000.74 4817.75 5772.57 5637.53 3882.37 4095.4 4718.61 5188.57 6351.48 5357.33 3830.7 5252.37 5432.4 4262.52 7430.48 5992.06 5545.68 6080.69 4970.12 4967.93 6369.66 5678.08 5922.62 6241.48 4414.09 6033.28 5957.82 4188.16 6286.27 3717.22 6327.54 5616.66 4802.36 2943.17 5368.28 5327.71 5466.13 5257.38 5075.23 5625.02 4975.56 7282.36 3826.01 4829.77 5581.01 3928.99 4125.75 5749.53 5652.73 5130.57 5402.45 6321.97 3985.93 6412.84 6071.59 2589.19 3792.06 6079.55 5485.61 4937.36 5308.4 5310.33 6583.37 3688.83 5367.05 4758.76 4449.73 5647.11 4088.72 3945.62 3743.85 6236.46 5342.17 6379.3 5015.67 3795.63 5189.4 4576.71 4894.15 6157.59 5201.3 4345.51 4048.73 6223.33 5631.32 5793.14 4491.26 4609.65 6345.2 5704.61 4832.21 5410.73 4379.91 4942.63 6139.74 4975.57 4730.97 7066.26 3057.3 4594.89 6150.31 3677.85 5214.71 4515.02 4677.84 4811.11 3463.53 4924.52 5379.52 6126.03 2970.24 5314.67 6044.69 5563.47 5658.05 5651.46 6593.1 4066.36 4000.51 6032.45 6033.93 5011.37 5516.37 4026.03 2827.92 4441.44 6908.32 5336.61 5563.09 6153.26 4848.15 4439.09 3282.57 5523.81 4798.13 5648.59 6697.45 3873.79 5717.67 4432.32 5515.59 3224.81 4499.54 5037.58 3775.38 4046.22 6457.89 5640.67 6572.17 3751.73 5555.89 3374.62 4766.47 4926.62 4871.1 3917.09 6009.93 5872.45 5270.1 5125.45 5191.29 3784.68 4947.64 6305.9 6649.21 5507.07 4542.62 4654.92 3470.69 5286.55 4880.78 4322.56 5522.18 5509.09 5223.1 3873.72 5212.05 4592.49 5479.86 3625.98 6474.5 4444.92 4702.32 6959.88 5971.9 3746.62 5090.48 5247.73 4876.37 5034.02 5582.28 4769.62 5945.25 4649.5 3856.4 5181.31 4696.06 5985.75 4137.16 6189.29 5984.55 6581.13 4569.32 5803.3 6538.04 5848.41 4090.28 4246.83 6126.5 4034.88 6322.0 3511.5 6007.1 5067.92 5488.96 3188.21 5128.03 3720.92 5919.27 4793.06 5087.3 6637.38 6188.33 6111.23 6916.18 5786.06 5873.62 4996.91 3920.44 4450.51 6033.72 4866.8 3768.62 3851.47 4966.74 2329.93 4959.94 1635.31 5639.4 3162.27 6185.73 4083.24 6520.96 5092.44 5432.2 4232.44 5217.62 4612.4 3312.3 4746.19 6381.58 5715.25 5212.2 5108.42 4611.21 4630.5 6296.36 3354.94 5237.27 4451.76 7885.41 5782.25 4104.97 4844.2 4575.72 4081.77 5114.61 6118.13 4420.3 4202.12 2694.25 6332.64 6492.44 4083.1 4613.32 3482.73 5130.56 4957.99 4063.26 5345.05 4997.89 5093.28 4859.95 4132.08 4850.49 4699.77 4981.55 5144.23 6188.62 6153.07 4414.06 4763.04 5944.52 4413.56 4532.67 5050.2 5316.05 2513.38 4908.32 5260.13 3995.08 5019.84 4810.74 5784.38 3900.93 5475.83 4149.17 4329.8 5728.27 5672.46 5202.33 5108.84 4582.12 4295.25 4520.14 7394.47 5357.14 4850.95 6261.13 5374.09 6271.22 3421.81 5244.47 3920.64 5378.75 5510.89 6186.24 5822.7 3780.07 4137.41 3868.69 5466.49 5447.74 5007.41 4907.48 3692.99 6213.74 4369.87 4488.41 6938.87 5412.07 5512.57 4806.99 3771.91 4813.55 5856.43 3465.03 6178.19 5349.85 4616.81 5799.86 5172.1 4362.94 4469.82 6545.78 4870.14 4404.87 2932.2 5105.72 5767.65 4750.76 5003.49 3964.03 4907.03 5497.27 5617.91 4948.21 2181.29 4987.01 5161.02 4706.31 3124.49 6265.48 4735.99 4203.68 4739.56 5145.39 3818.37 3996.93 4701.03 6351.95 3352.46 5195.09 5200.1 7679.2 4881.51 6131.52 2626.41 4311.92 6009.88 6729.99 5093.41 6842.35 5464.34 3621.63 4777.96 5801.89 5908.57 6833.5 7296.47 5742.39 4821.41 4924.53 5616.11 4499.52 3874.12 4813.24 4028.13 4457.73 6476.35 3113.64 4304.75 6260.58 4067.24 3053.19 6139.9 3074.49 6571.26 4487.51 4246.24 6805.02 5354.48 4900.26 4729.45 5783.88 4167.55 5002.38 4720.34 4865.11 4731.16 5502.14 6470.87 4495.33 5282.67 4159.89 5747.9 5178.55 4038.17 4287.93 5146.69 6203.24 6818.23 5081.65 6679.12 5652.19 5806.74 3878.8 6578.62 4698.94 6284.12 4796.04 3839.0 5669.15 5229.56 6011.4 3330.85 4672.34 6052.22 5376.41 5533.52 5003.63 5410.33 4695.7 4380.86 4944.08 4082.01 5269.39 5576.16 4305.35 4216.33 5210.22 5832.72 3903.9 4444.95 4721.2 3943.77 5242.38 6081.35 5003.81 5459.52 6262.18 5566.5 5663.36 6225.05 5434.04 5125.53 3997.52 5994.21 4444.54 5779.9 4909.74 5310.33 5299.03 6664.54 3922.98 5161.73 5259.48 4008.67 5254.93 4803.4 6608.94 2613.78 4780.16 5417.07 3834.01 5656.84 4433.23 5738.37 5759.19 4739.41 5847.27 4490.2 4706.59 5734.84 5480.86 3982.31 4950.07 4720.22 5402.81 4919.13 4600.81 5640.63 4124.33 5168.97 4358.06 5093.51 5647.93 6705.93 6201.49 5449.09 5154.74 4605.61 4465.56 4131.08 5386.95 3864.19 6540.57 5332.11 5315.71 6004.72 6158.93 4823.14 5373.78 5438.5 4621.32 5699.4 5237.76 4994.98 4286.84 3948.21 6423.96 5296.05 5263.86 6988.4 5056.32 4060.17 4747.24 6051.35 5302.53 4909.13 4287.61 5648.02 3308.75 4439.17 2451.27 5677.42 2701.42 4929.35 5606.22 6673.92 5151.68 4884.94 5362.15 4609.98 4738.72 4752.31 5240.97 5579.04 4276.59 5405.6 3929.35 5403.81 4884.93 5082.25 4759.38 6964.78 4374.05 5036.84 4565.36 5813.68 4025.08 5732.11 5040.9 3618.53 4770.21 5596.68 8013.28 3846.55 5283.65 3796.73 4644.68 3082.16 2892.36 5981.54 6789.66 5312.2 5416.41 6760.64 2515.5 5177.88 5551.79 3793.83 6981.47 4582.24 4333.23 4328.76 5561.63 3747.96 5611.29 5940.5 6568.45 5004.22 4601.54 4280.92 3832.09 4696.92 5705.96 6437.99 6898.8 6632.04 7360.62 4893.72 4985.45 4983.56 4072.4 5699.51 5345.65 2489.44 4489.18 5499.37 5863.36 4632.75 4752.94 4836.76 5551.09 3950.53 4501.1 6058.13 5894.69 6550.61 4987.01 6635.51 6094.34 6779.82 5543.67 3999.81 4867.13 4604.34 4863.27 4502.12 3255.93 5442.79 5051.39 6327.61 4633.59 5733.59 5575.8 4455.61 3695.72 6874.6 5106.9 5569.85 5523.96 4223.53 4733.37 6960.97 4287.15 3037.72 4523.9 5282.51 5504.65 5669.41 4951.02 3919.47 4602.7 3783.35 4868.66 4004.39 4037.16 5159.9 6395.63 4987.48 5943.61 4248.58 5479.17 5911.29 4694.27 4542.25 4414.23 4849.21 5233.88 4785.55 5245.4 6189.81 3916.15 5145.13 3860.8 7370.52 4726.5 4521.88 5103.3 4963.88 7263.57 5888.94 4122.2 5175.88 5267.65 5739.69 4790.16 3509.34 5360.88 3731.58 3166.37 4977.64 5369.42 5207.08 4714.52 5205.53 4587.19 5543.05 4883.13 6028.89 5333.16 5755.98 4888.17 5392.85 5581.47 4384.91 5275.27 4277.54 4713.56 4531.46 5925.82 5448.68 4739.5 6210.48 6377.45 4182.05 6853.07 5268.93 5306.31 4535.94 5126.08 5604.0 3760.4 5020.37 5438.6 5467.05 3724.23 4727.98 4516.26 3647.26 5077.2 4274.05 5529.09 4072.95 4491.62 3865.5 
SCALARS Velocity float 1
LOOKUP_TABLE default
1.19207 1.19208 1.1921 1.19188 1.192 1.19193 1.19197 1.19178 1.192 1.19198 1.19177 1.19196 1.19178 1.19182 1.19178 1.19178 1.19186 1.19178 1.19178 1.1918 1.19178 1.19178 1.19177 1.19191 1.19187 1.19177 1.19178 1.19177 1.19178 1.19177 1.19178 1.19178 1.19178 1.19184 1.19187 1.19194 1.19193 1.19192 1.19188 1.19183 1.19177 1.19185 1.19182 1.19178 1.19191 1.19178 1.19177 1.19204 1.19194 1.19182 1.19183 1.19186 1.19178 1.19188 1.19177 1.19195 1.19192 1.19178 1.19177 1.19178 1.1918 1.19181 1.19202 1.19196 1.19179 1.19214 1.1919 1.19176 1.19178 1.19179 1.19178 1.19187 1.1917 1.19206 1.19182 1.19207 1.1921 1.19198 1.19185 1.19187 1.19204 1.192 1.19193 1.19178 1.19195 1.19179 1.19203 1.19178 1.19185 1.19179 1.19185 1.19208 1.19224 1.19191 1.19195 1.19194 1.19189 1.19178 1.19184 1.19183 1.19236 1.19212 1.19189 1.19199 1.19209 1.1921 1.19197 1.192 1.19204 1.19201 1.19178 1.19183 1.19177 1.19178 1.19188 1.19178 1.19178 1.1918 1.19178 1.19197 1.19178 1.19193 1.19178 1.19178 1.19178 1.19181 1.19178 1.19178 1.19179 1.19179 1.19181 1.19187 1.19192 1.19195 1.19194 1.19192 1.19188 1.19185 1.1918 1.19189 1.19184 1.19191 1.1919 1.19175 1.19195 1.19203 1.19183 1.19178 1.19204 1.1919 1.19186 1.19186 1.19182 1.19204 1.19227 1.19225 1.19177 1.19178 1.19184 1.19182 1.19201 1.19196 1.19178 1.19218 1.19192 1.19178 1.19178 1.19191 1.19182 1.19212 1.19175 1.19182 1.19204 1.19222 1.19209 1.19206 1.19202 1.19185 1.19181 1.19209 1.19177 1.19199 1.19195 1.19173 1.19195 1.19187 1.1921 1.19175 1.19188 1.19176 1.1919 1.19215 1.19176 1.1919 1.19187 1.19193 1.19189 1.19189 1.19188 1.19183 1.19178 1.19214 1.19221 1.19202 1.19221 1.1921 1.19218 1.19198 1.19181 1.19201 1.19188 1.19181 1.19215 1.19178 1.19189 1.19177 1.19178 1.19181 1.19178 1.19197 1.19178 1.19192 1.19183 1.19192 1.19178 1.19184 1.19179 1.19175 1.19184 1.19179 1.19186 1.19186 1.19192 1.19196 1.19199 1.19194 1.19189 1.19185 1.1918 1.19188 1.19178 1.19192 1.19191 1.19178 1.19196 1.19203 1.19183 1.19178 1.19176 1.192 1.19191 1.19186 1.19183 1.19208 1.19241 1.19186 1.19178 1.19183 1.19198 1.1919 1.19205 1.19196 1.19194 1.19222 1.19192 1.19204 1.19191 1.19231 1.19182 1.19213 1.19182 1.19195 1.19181 1.19193 1.19228 1.19227 1.19211 1.19204 1.19203 1.19182 1.19204 1.19179 1.19208 1.19198 1.19213 1.1918 1.19203 1.19194 1.19212 1.19242 1.19184 1.19173 1.19198 1.19174 1.19184 1.19226 1.19189 1.19218 1.19193 1.19168 1.19188 1.1919 1.19178 1.19215 1.19208 1.19204 1.19224 1.19225 1.19216 1.19196 1.19181 1.19196 1.19178 1.19178 1.19211 1.19187 1.19187 1.19193 1.19177 1.19181 1.19171 1.19197 1.19192 1.19192 1.19194 1.19186 1.19176 1.19178 1.19178 1.19182 1.19185 1.19183 1.19213 1.19194 1.1919 1.19193 1.19199 1.19194 1.19189 1.19184 1.192 1.19182 1.19191 1.1918 1.19189 1.19152 1.192 1.19199 1.19201 1.19185 1.19174 1.19203 1.19191 1.19198 1.19202 1.19202 1.19219 1.19247 1.19183 1.19181 1.19189 1.19191 1.19196 1.19178 1.19178 1.19232 1.19178 1.19254 1.192 1.19224 1.19192 1.19187 1.19213 1.19182 1.1919 1.19225 1.192 1.19199 1.19201 1.19202 1.19156 1.19212 1.19212 1.19196 1.19229 1.19192 1.19245 1.19186 1.19207 1.19243 1.19188 1.1919 1.19241 1.19181 1.19221 1.19232 1.19187 1.19217 1.19187 1.19192 1.19195 1.1919 1.19228 1.19208 1.19195 1.19193 1.19202 1.19223 1.19219 1.19219 1.19213 1.19191 1.19222 1.19191 1.19151 1.19175 1.19214 1.19186 1.19191 1.19198 1.19177 1.19186 1.19176 1.19196 1.19177 1.19191 1.19196 1.19188 1.19178 1.19223 1.19184 1.19178 1.19185 1.19183 1.19196 1.19181 1.19183 1.19193 1.19197 1.19193 1.19181 1.19197 1.19198 1.19187 1.19191 1.19176 1.19172 1.19185 1.1915 1.19189 1.19222 1.19184 1.19158 1.19214 1.19191 1.19197 1.192 1.19198 1.19245 1.19183 1.1918 1.19189 1.19194 1.19193 1.19178 1.19177 1.19174 1.19219 1.19238 1.19226 1.19191 1.19172 1.19214 1.19179 1.19198 1.1918 1.19185 1.19193 1.19229 1.19225 1.19205 1.19157 1.19203 1.19203 1.19212 1.19213 1.19175 1.19249 1.19221 1.19207 1.19229 1.19189 1.19208 1.19162 1.19197 1.19202 1.19194 1.19198 1.19171 1.19225 1.19196 1.19194 1.19188 1.19229 1.19178 1.19197 1.19218 1.19209 1.19187 1.19221 1.19191 1.19139 1.19182 1.19178 1.19224 1.19202 1.1921 1.19183 1.19189 1.19202 1.19195 1.19185 1.19191 1.19195 1.19187 1.19169 1.19223 1.19185 1.19184 1.19185 1.19196 1.19178 1.19184 1.19177 1.19187 1.19194 1.19194 1.19189 1.19185 1.19201 1.19187 1.19179 1.1917 1.19184 1.19184 1.19181 1.19187 1.19182 1.19195 1.19189 1.19181 1.19201 1.19198 1.19238 1.19241 1.19188 1.19181 1.19188 1.19187 1.1917 1.19173 1.19174 1.19158 1.19218 1.19235 1.19196 1.19245 1.19176 1.1916 1.19212 1.19213 1.192 1.19212 1.19208 1.19182 1.19209 1.19232 1.19223 1.19215 1.19174 1.19205 1.19182 1.19197 1.19224 1.19243 1.19245 1.19219 1.19179 1.19222 1.19188 1.19214 1.19169 1.19202 1.19178 1.19195 1.19187 1.19178 1.19223 1.19197 1.19153 1.19187 1.19226 1.19195 1.19189 1.19193 1.19213 1.19218 1.19206 1.19187 1.19222 1.19185 1.19142 1.19185 1.19184 1.19165 1.19176 1.192 1.1918 1.19177 1.19188 1.19203 1.19197 1.19191 1.19169 1.19183 1.19182 1.19186 1.19205 1.19198 1.1919 1.19179 1.19176 1.19182 1.19184 1.19174 1.19187 1.1919 1.19196 1.19189 1.19188 1.19202 1.19187 1.19196 1.19163 1.19187 1.19183 1.1918 1.19187 1.19179 1.1917 1.19216 1.19224 1.1925 1.19195 1.19227 1.19238 1.19238 1.19188 1.19191 1.19228 1.19187 1.1915 1.19172 1.19159 1.19178 1.19191 1.19355 1.19228 1.19168 1.19176 1.1917 1.19228 1.19214 1.19204 1.1918 1.19208 1.19191 1.19222 1.19238 1.19196 1.19213 1.19189 1.19222 1.19282 1.19242 1.1925 1.19239 1.19194 1.19168 1.19215 1.19182 1.1921 1.19168 1.19201 1.19169 1.19191 1.19178 1.19201 1.19176 1.19197 1.19155 1.19185 1.19178 1.19173 1.19191 1.19203 1.19145 1.19202 1.19215 1.19174 1.19201 1.19218 1.19182 1.19182 1.19166 1.19191 1.19161 1.19197 1.19214 1.192 1.19186 1.19188 1.19185 1.19179 1.19204 1.19187 1.19182 1.19171 1.19191 1.19178 1.19191 1.19157 1.19177 1.19186 1.19188 1.19194 1.19186 1.19186 1.19201 1.1919 1.19205 1.19167 1.19233 1.19176 1.19175 1.19188 1.19165 1.19175 1.1919 1.19231 1.19185 1.19203 1.19225 1.19236 1.19233 1.19187 1.1926 1.19246 1.19306 1.19169 1.19252 1.19178 1.19164 1.19191 1.19226 1.19221 1.192 1.19126 1.19178 1.19226 1.19213 1.19171 1.19201 1.19178 1.19206 1.19181 1.19234 1.19198 1.19216 1.19202 1.19193 1.19208 1.19249 1.19212 1.19194 1.19166 1.19216 1.19197 1.19194 1.19175 1.19212 1.19193 1.19192 1.19152 1.19219 1.19177 1.19222 1.1918 1.1919 1.19178 1.19178 1.19167 1.19182 1.19199 1.19151 1.192 1.19164 1.1919 1.19189 1.19178 1.1918 1.19177 1.19172 1.19166 1.19195 1.19175 1.19149 1.19225 1.19199 1.19186 1.19186 1.19171 1.19171 1.19197 1.19187 1.19187 1.19181 1.19191 1.19169 1.19188 1.19156 1.19176 1.19183 1.19186 1.19195 1.19184 1.19184 1.192 1.19189 1.19201 1.19186 1.19226 1.19183 1.19223 1.19179 1.19198 1.19171 1.19194 1.19229 1.19186 1.19178 1.19216 1.19224 1.19225 1.19191 1.19251 1.1925 1.19261 1.19239 1.19279 1.19233 1.19168 1.19133 1.1921 1.19212 1.19193 1.19126 1.19176 1.19225 1.19222 1.19186 1.192 1.19179 1.19202 1.19188 1.19186 1.19178 1.19225 1.19195 1.19206 1.19194 1.19201 1.19205 1.1923 1.19208 1.19178 1.19216 1.19196 1.19185 1.19209 1.19198 1.19141 1.19176 1.19219 1.19174 1.19222 1.19225 1.19196 1.19174 1.19143 1.19166 1.19162 1.19169 1.19194 1.19147 1.19173 1.19213 1.19179 1.19163 1.19179 1.1919 1.19188 1.19168 1.19206 1.19191 1.19148 1.19178 1.192 1.19182 1.19184 1.19168 1.19171 1.19194 1.19186 1.19181 1.19195 1.19181 1.19172 1.19169 1.19152 1.19178 1.19182 1.19181 1.19178 1.1917 1.19177 1.19188 1.19178 1.19178 1.19181 1.19186 1.19201 1.19178 1.19176 1.19256 1.19118 1.19232 1.19228 1.19192 1.19178 1.19201 1.19218 1.19276 1.19231 1.19249 1.19248 1.19264 1.19237 1.19186 1.19245 1.19156 1.19144 1.19143 1.19205 1.19211 1.19192 1.19083 1.19219 1.1922 1.19172 1.19197 1.19189 1.19207 1.19178 1.19076 1.1922 1.19192 1.19197 1.19205 1.19196 1.19202 1.19209 1.1915 1.19189 1.19213 1.192 1.19195 1.19157 1.19193 1.19223 1.19195 1.19151 1.19146 1.1918 1.19217 1.19172 1.19176 1.19236 1.19196 1.19172 1.19153 1.19163 1.19169 1.19145 1.19168 1.19203 1.19237 1.19175 1.192 1.19174 1.19178 1.19168 1.1919 1.19188 1.19166 1.19182 1.19206 1.19197 1.19187 1.19155 1.19194 1.1918 1.19183 1.19166 1.19165 1.19193 1.19185 1.19181 1.19194 1.19179 1.19173 1.19197 1.19172 1.19179 1.19181 1.19194 1.19164 1.19166 1.19177 1.19186 1.19177 1.19181 1.19177 1.19188 1.19207 1.19188 1.1917 1.19256 1.19107 1.19217 1.19221 1.19219 1.19202 1.19251 1.19211 1.19288 1.19287 1.19245 1.19234 1.19238 1.19247 1.19196 1.19094 1.19246 1.19142 1.19089 1.19126 1.19201 1.19187 1.19165 1.19213 1.19167 1.19156 1.19178 1.19191 1.19191 1.19236 1.19169 1.19128 1.19193 1.19148 1.19239 1.19187 1.19195 1.19198 1.19179 1.19199 1.1918 1.19193 1.19178 1.19163 1.19178 1.19226 1.19145 1.19192 1.19146 1.19177 1.19212 1.19036 1.19219 1.19252 1.19211 1.19152 1.1919 1.19174 1.19142 1.19176 1.19208 1.19241 1.19165 1.19175 1.19172 1.1917 1.19159 1.19175 1.19189 1.19188 1.19179 1.19175 1.19173 1.19183 1.19203 1.19175 1.19163 1.19159 1.1919 1.19184 1.19181 1.19196 1.19176 1.19174 1.19178 1.19207 1.1921 1.19179 1.19177 1.19194 1.19164 1.19181 1.19179 1.19187 1.19164 1.1917 1.1918 1.1919 1.19204 1.19178 1.1917 1.19293 1.19299 1.19171 1.19215 1.19227 1.19208 1.19178 1.19178 1.1927 1.19223 1.19247 1.19261 1.1923 1.19231 1.19176 1.19202 1.19247 1.19088 1.19178 1.19166 1.1919 1.19178 1.19207 1.19204 1.19185 1.19229 1.19129 1.19188 1.19173 1.19183 1.19191 1.19167 1.1915 1.19172 1.19168 1.19192 1.19174 1.19187 1.19198 1.19171 1.19109 1.19181 1.19111 1.19174 1.19174 1.19142 1.19135 1.19156 1.1919 1.1909 1.19106 1.19211 1.19198 1.19251 1.1917 1.19218 1.19216 1.19158 1.19203 1.19182 1.1914 1.19169 1.19203 1.1919 1.19165 1.19171 1.19167 1.19196 1.19165 1.19182 1.19218 1.19148 1.19215 1.19155 1.19167 1.1918 1.19169 1.19195 1.19169 1.19162 1.19157 1.19188 1.19178 1.19182 1.19157 1.19181 1.19206 1.19205 1.1919 1.19187 1.19178 1.19182 1.19172 1.19162 1.19173 1.19168 1.19191 1.19106 1.19144 1.19226 1.19244 1.19153 1.19229 1.19259 1.19217 1.19199 1.19178 1.19276 1.19284 1.19218 1.19299 1.19269 1.19189 1.19218 1.19219 1.19258 1.19227 1.19097 1.19189 1.19156 1.1922 1.1918 1.19168 1.19203 1.19268 1.19178 1.19159 1.1917 1.19178 1.19168 1.19144 1.19174 1.1919 1.19154 1.19171 1.19165 1.19199 1.19141 1.19184 1.19161 1.19119 1.19181 1.19167 1.19141 1.19136 1.19161 1.19195 1.19194 1.19088 1.19106 1.19208 1.19195 1.1917 1.19248 1.19165 1.19157 1.19181 1.19178 1.19178 1.19178 1.19112 1.19151 1.19167 1.19174 1.1917 1.19195 1.19169 1.19182 1.19157 1.19168 1.19196 1.19148 1.19166 1.19169 1.19178 1.1919 1.19178 1.19169 1.19153 1.19137 1.19189 1.1918 1.19154 1.19166 1.19189 1.19212 1.19198 1.19187 1.19201 1.19191 1.19174 1.19174 1.19168 1.19166 1.19161 1.19192 1.19165 1.1916 1.19199 1.19257 1.1918 1.19121 1.19217 1.19214 1.19271 1.19235 1.19231 1.19246 1.19251 1.19273 1.19204 1.19193 1.19242 1.19185 1.19219 1.19252 1.19368 1.19365 1.19263 1.1926 1.19092 1.19111 1.19175 1.1918 1.19227 1.19176 1.19139 1.19212 1.19285 1.1918 1.19167 1.19136 1.19159 1.19167 1.19184 1.19161 1.1916 1.19186 1.1917 1.19166 1.19172 1.19199 1.19147 1.19135 1.19177 1.19171 1.19166 1.1914 1.19133 1.192 1.19088 1.19095 1.19174 1.19191 1.19222 1.1921 1.19199 1.19157 1.19182 1.19182 1.19182 1.19176 1.19107 1.19138 1.19155 1.19145 1.19177 1.19173 1.19198 1.19195 1.19179 1.19174 1.19165 1.19171 1.19188 1.1918 1.19148 1.19167 1.19174 1.19175 1.19187 1.19174 1.19164 1.1916 1.19142 1.19191 1.19181 1.19153 1.19176 1.19183 1.19161 1.19198 1.19186 1.19194 1.19182 1.19213 1.19162 1.19161 1.19225 1.19209 1.19062 1.19148 1.19254 1.19289 1.19232 1.19106 1.19195 1.19149 1.19174 1.19281 1.19229 1.19231 1.19278 1.19239 1.19254 1.19184 1.19173 1.19186 1.1916 1.19305 1.19301 1.19115 1.19261 1.19231 1.19178 1.19216 1.19214 1.19074 1.19159 1.19168 1.1928 1.19182 1.19145 1.19132 1.19162 1.1917 1.19179 1.19167 1.1917 1.19168 1.1915 1.1916 1.19145 1.19153 1.1916 1.19175 1.19169 1.1916 1.19167 1.19137 1.19169 1.19172 1.1919 1.1914 1.19175 1.19169 1.19214 1.19152 1.19184 1.19157 1.19183 1.192 1.19182 1.19182 1.19113 1.19122 1.19136 1.19173 1.19174 1.19168 1.19181 1.19157 1.19181 1.19173 1.1917 1.19182 1.19164 1.19177 1.19161 1.19182 1.19165 1.1918 1.19186 1.19177 1.19154 1.19178 1.19182 1.1916 1.19161 1.19198 1.19189 1.192 1.19194 1.19226 1.19159 1.19113 1.19267 1.1922 1.19182 1.19176 1.19281 1.19229 1.19251 1.19182 1.19167 1.1927 1.19299 1.19262 1.19234 1.19266 1.19255 1.19269 1.1924 1.19181 1.19156 1.19166 1.19137 1.19235 1.19223 1.19164 1.19306 1.19282 1.19118 1.19254 1.19249 1.19228 1.19194 1.19178 1.19071 1.19155 1.19181 1.19162 1.19199 1.19208 1.19138 1.19132 1.19144 1.19159 1.19167 1.19167 1.19169 1.19158 1.19139 1.19151 1.19141 1.192 1.19157 1.19148 1.1917 1.19159 1.19141 1.19168 1.19138 1.19166 1.19198 1.19146 1.19178 1.19154 1.19191 1.19187 1.19207 1.19151 1.19181 1.19156 1.19188 1.19183 1.19172 1.19185 1.1911 1.1914 1.1913 1.19173 1.19178 1.19172 1.19168 1.19176 1.19157 1.19182 1.19181 1.19176 1.1917 1.19181 1.19165 1.19178 1.19158 1.19143 1.1919 1.19179 1.19153 1.19192 1.19172 1.1915 1.19155 1.19231 1.19191 1.19201 1.19193 1.19221 1.19157 1.19179 1.19263 1.19178 1.19162 1.19257 1.1925 1.19199 1.19178 1.1921 1.19136 1.19293 1.19226 1.19258 1.19223 1.19192 1.19264 1.19231 1.19185 1.19278 1.1928 1.19183 1.19252 1.19224 1.19184 1.1917 1.19149 1.19158 1.19165 1.19187 1.19135 1.19148 1.19054 1.19159 1.19165 1.19178 1.19169 1.19166 1.19138 1.19145 1.1914 1.19202 1.19156 1.19185 1.19185 1.19159 1.19137 1.19131 1.19109 1.19138 1.19194 1.1914 1.19178 1.19155 1.19153 1.19205 1.19123 1.1917 1.19155 1.1918 1.19173 1.1917 1.19172 1.19183 1.19159 1.19124 1.19147 1.19131 1.19122 1.19129 1.19173 1.19169 1.19177 1.19156 1.19181 1.19181 1.1918 1.1917 1.1918 1.19165 1.1915 1.19148 1.19155 1.19142 1.19178 1.19178 1.19152 1.19166 1.19175 1.19149 1.19156 1.19228 1.19198 1.19178 1.19157 1.19207 1.19204 1.19205 1.19228 1.19124 1.19224 1.19341 1.19178 1.19271 1.19244 1.19248 1.19175 1.19191 1.1933 1.19319 1.19121 1.19217 1.19222 1.19218 1.19246 1.19202 1.19225 1.19283 1.19183 1.19223 1.19181 1.19279 1.19279 1.19179 1.19189 1.19181 1.19209 1.19282 1.19169 1.19178 1.19153 1.19263 1.19259 1.1916 1.19216 1.19116 1.19157 1.19114 1.19166 1.19178 1.19178 1.19176 1.19187 1.19155 1.1914 1.19135 1.19161 1.1915 1.19196 1.19157 1.19157 1.19137 1.1916 1.19117 1.1914 1.1919 1.19141 1.1914 1.19187 1.19203 1.19157 1.19168 1.19159 1.19178 1.19179 1.19177 1.1918 1.19161 1.19147 1.19126 1.19112 1.19132 1.19133 1.19126 1.19155 1.19164 1.19181 1.19155 1.19181 1.19166 1.19179 1.19168 1.19171 1.19166 1.1915 1.1915 1.19154 1.1916 1.19178 1.19181 1.19178 1.19162 1.19174 1.19146 1.19167 1.1926 1.19192 1.19139 1.19154 1.19203 1.19207 1.19174 1.19197 1.19147 1.19356 1.19276 1.19237 1.19262 1.19202 1.19216 1.19173 1.19274 1.19185 1.19215 1.19198 1.19251 1.19197 1.19227 1.19272 1.19192 1.19208 1.19177 1.19285 1.19265 1.19176 1.19177 1.1919 1.19217 1.19231 1.19264 1.19168 1.19102 1.19183 1.19172 1.19205 1.19112 1.19155 1.19113 1.19178 1.19178 1.19225 1.19162 1.19184 1.19183 1.19188 1.19163 1.1916 1.19164 1.1913 1.19182 1.19146 1.19178 1.19156 1.19159 1.19163 1.19152 1.19116 1.19178 1.19167 1.19162 1.19153 1.19137 1.19174 1.19146 1.19153 1.19152 1.19167 1.19171 1.19178 1.19182 1.19176 1.1918 1.19171 1.19186 1.19184 1.19114 1.19135 1.19178 1.19124 1.19153 1.19174 1.19183 1.19168 1.19178 1.19179 1.19178 1.19176 1.19168 1.19172 1.19166 1.19169 1.19166 1.19178 1.19154 1.19178 1.19209 1.19177 1.19179 1.19146 1.19162 1.19158 1.1918 1.19173 1.19259 1.19188 1.1918 1.19135 1.19221 1.19157 1.19199 1.19197 1.19186 1.1918 1.19324 1.1925 1.19176 1.19268 1.19184 1.19317 1.19225 1.19273 1.19248 1.19182 1.19227 1.1922 1.19254 1.19208 1.19201 1.19227 1.19198 1.19188 1.19105 1.19265 1.19178 1.19188 1.19147 1.19128 1.1915 1.19107 1.19211 1.19155 1.19164 1.19208 1.19205 1.19122 1.19165 1.19122 1.19169 1.19166 1.19177 1.19183 1.19185 1.19154 1.19133 1.19137 1.19206 1.19144 1.19135 1.1916 1.19145 1.19166 1.19148 1.19139 1.19115 1.19132 1.19169 1.19162 1.19151 1.19135 1.19172 1.19178 1.19145 1.19151 1.19171 1.19178 1.19173 1.19182 1.19174 1.1912 1.19152 1.19166 1.19164 1.19124 1.19166 1.19174 1.19166 1.19178 1.19176 1.19168 1.19169 1.19175 1.19178 1.19178 1.19183 1.19181 1.19184 1.19154 1.19209 1.19216 1.19174 1.19178 1.19196 1.19151 1.19184 1.19174 1.1916 1.19163 1.19174 1.19133 1.19204 1.19204 1.19195 1.19186 1.1918 1.19198 1.19275 1.19245 1.19334 1.19261 1.19172 1.19153 1.19218 1.19169 1.19227 1.19184 1.19178 1.19187 1.19233 1.19193 1.19227 1.19096 1.19274 1.19178 1.19173 1.19133 1.19148 1.19125 1.1914 1.19099 1.19197 1.192 1.19158 1.19135 1.19149 1.19127 1.19172 1.19179 1.19168 1.19162 1.19181 1.19155 1.1913 1.19138 1.19178 1.19154 1.1914 1.19178 1.19207 1.19203 1.19163 1.19178 1.19177 1.19136 1.1921 1.19167 1.19161 1.19152 1.19189 1.19158 1.1913 1.19145 1.1915 1.19172 1.19178 1.1918 1.19173 1.19171 1.19177 1.19174 1.19175 1.19171 1.19121 1.19165 1.19175 1.19167 1.19178 1.19175 1.19168 1.19168 1.19174 1.1918 1.19163 1.19181 1.19171 1.19182 1.19177 1.19161 1.19178 1.19189 1.19174 1.1918 1.1919 1.19181 1.19136 1.19185 1.19143 1.19157 1.1912 1.19201 1.19196 1.19211 1.19185 1.1914 1.19194 1.19234 1.19276 1.19257 1.19274 1.19266 1.19239 1.19178 1.19157 1.19059 1.19178 1.19243 1.19366 1.19395 1.1916 1.1918 1.19238 1.19239 1.19182 1.19106 1.19283 1.19119 1.19253 1.19123 1.19136 1.19136 1.19167 1.19192 1.19205 1.1914 1.19195 1.19128 1.1914 1.19183 1.19183 1.19165 1.19105 1.19157 1.19184 1.19155 1.19123 1.19162 1.19167 1.19162 1.19159 1.19175 1.1918 1.19187 1.19159 1.19178 1.19161 1.19154 1.19179 1.19176 1.19136 1.19146 1.19148 1.19171 1.19177 1.19178 1.19178 1.19177 1.19174 1.19175 1.19171 1.19178 1.19124 1.19167 1.19177 1.19178 1.19178 1.19175 1.19178 1.19167 1.19173 1.19159 1.19178 1.19183 1.19178 1.19144 1.19171 1.19183 1.19133 1.19184 1.19142 1.19117 1.19134 1.19124 1.19168 1.19146 1.19139 1.19132 1.1919 1.19218 1.19157 1.19204 1.1918 1.19263 1.19227 1.19179 1.19169 1.1919 1.19075 1.1916 1.19261 1.19066 1.1919 1.19166 1.19124 1.19262 1.19175 1.19036 1.19131 1.19119 1.19248 1.19192 1.19222 1.1912 1.1914 1.19178 1.19095 1.1918 1.19119 1.19155 1.1921 1.19198 1.19137 1.19136 1.19174 1.19155 1.19178 1.19178 1.19158 1.19181 1.19162 1.19167 1.19162 1.19137 1.19155 1.19158 1.19175 1.1917 1.19177 1.19158 1.19183 1.19161 1.19155 1.1917 1.19159 1.19148 1.19161 1.19147 1.19171 1.19172 1.19175 1.19178 1.19178 1.19177 1.19174 1.19175 1.19178 1.19178 1.19178 1.19168 1.19177 1.19178 1.19178 1.19177 1.19178 1.19167 1.19174 1.19173 1.19179 1.19177 1.19175 1.19174 1.19168 1.19174 1.19145 1.19172 1.19189 1.19182 1.19147 1.19142 1.19166 1.19133 1.19112 1.1916 1.19125 1.19115 1.19148 1.19077 1.19145 1.19195 1.19136 1.19175 1.19153 1.19195 1.19165 1.19284 1.19227 1.1926 1.19172 1.19091 1.19146 1.19267 1.19036 1.19156 1.19211 1.19158 1.19078 1.19063 1.19009 1.19198 1.19117 1.19163 1.19133 1.19077 1.1917 1.19166 1.19143 1.19169 1.19134 1.19138 1.19145 1.19181 1.19145 1.19182 1.19182 1.19177 1.19188 1.1916 1.19158 1.19179 1.19164 1.19181 1.19163 1.19136 1.19155 1.19159 1.1917 1.19178 1.19177 1.19161 1.19172 1.19158 1.19127 1.19125 1.19155 1.1916 1.19148 1.19171 1.19178 1.19175 1.19178 1.19178 1.19177 1.19174 1.19175 1.19178 1.19178 1.19178 1.19168 1.19178 1.19178 1.19178 1.19178 1.19178 1.19167 1.19174 1.19173 1.19175 1.19178 1.19179 1.1915 1.19174 1.19164 1.19149 1.19147 1.19179 1.19101 1.19143 1.19161 1.1913 1.19121 1.19035 1.19108 1.19096 1.19131 1.19109 1.19172 1.19195 1.19315 1.192 1.19129 1.19094 1.1916 1.19238 1.1902 1.1919 1.19177 1.19111 1.19162 1.19105 1.19061 1.19136 1.19124 1.18997 1.19039 1.19231 1.19041 1.19122 1.19156 1.19182 1.19177 1.19169 1.19134 1.19137 1.19153 1.19152 1.1913 1.19154 1.19178 1.19161 1.19181 1.1916 1.19158 1.19156 1.19175 1.19185 1.19151 1.19177 1.19149 1.19164 1.19171 1.19171 1.19157 1.19171 1.1916 1.19173 1.19161 1.19175 1.19127 1.1913 1.19156 1.1917 1.19196 1.19085 1.19144 1.19205 1.19316 1.19205 1.19221 1.1915 1.19251 1.19205 1.19226 1.19214 1.19205 1.19292 1.19069 1.1914 1.19107 1.19147 1.19078 1.19041 1.19131 1.19153 1.1908 1.19191 1.19229 1.19153 1.19205 1.19227 1.19136 1.19183 1.19229 1.19234 1.1919 1.19215 1.19219 1.19266 1.19183 1.19277 1.19169 1.19098 1.19135 1.19021 1.19121 1.19123 1.19198 1.19117 1.19244 1.19168 1.19107 1.19164 1.19225 1.19227 1.19197 1.19246 1.19079 1.19161 1.1914 1.19103 1.19178 1.19087 1.1905 1.1915 1.19035 1.19114 1.19178 1.19193 1.19148 1.19072 1.19149 1.19204 1.19083 1.19226 1.19152 1.19231 1.1922 1.19225 1.19185 1.19255 1.19209 1.19078 1.19178 1.19176 1.19167 1.19112 1.19031 1.18999 1.19096 1.19148 1.19178 1.19188 1.1915 1.19134 1.19108 1.19193 1.19131 1.19227 1.19248 1.1929 1.1918 1.19161 1.19113 1.19045 1.18985 1.19208 1.19279 1.19178 1.19178 1.19178 1.19178 1.19178 1.19178 1.19176 1.19146 1.19154 1.19215 1.19251 1.19087 1.19104 1.19182 1.19115 1.1911 1.19225 1.19145 1.19294 1.19177 1.19256 1.19164 1.1923 1.19113 1.19261 1.19211 1.19222 1.19178 1.19178 1.19178 1.19178 1.19178 1.19178 1.19178 1.19178 1.19178 1.19178 1.19178 1.19178 1.19178 1.19178 1.19178 1.19178 1.19178 1.19178 1.19178 1.19178 1.19178 1.19178 1.19178 1.19178 1.19178 1.19178 1.19178 1.19178 1.19178 1.19178 1.19178 1.19178 1.19178 1.19178 1.19179 1.19178 1.19178 1.19164 1.19151 1.19124 1.19164 1.19328 1.1915 1.19096 1.19459 1.19376 1.19093 1.19181 1.19326 1.19121 1.1908 1.19157 1.19191 1.19174 1.19266 1.19322 1.1927 1.1922 1.1924 1.19204 1.19208 1.19178 1.19178 1.19178 1.19178 1.19178 1.19178 1.19178 1.19178 1.19178 1.19178 1.19178 1.19178 1.19178 1.19178 1.19178 1.19178 1.19178 1.19178 1.19178 1.19178 1.19178 1.19178 1.19178 1.19178 1.19178 1.19179 1.19127 1.1912 1.19225 1.19086 1.19111 1.19127 1.19054 1.19282 1.19263 1.19144 1.19138 1.19262 1.19061 1.1912 1.19146 1.19194 1.19277 1.19227 1.19188 1.19126 1.19425 1.19246 1.19179 1.19178 1.19178 1.19178 1.19178 1.19178 1.19178 1.19178 1.19178 1.19178 1.19178 1.19178 1.19178 1.19178 1.19178 1.19178 1.19178 1.19178 1.19178 1.19178 1.19178 1.19178 1.19178 1.19178 1.19178 1.19178 1.19178 1.19178 1.19178 1.19178 1.19178 1.19178 1.19178 1.19178 1.19178 1.19178 1.19178 1.19178 1.19178 1.19178 1.19178 1.19178 1.19178 1.19178 1.19185 1.19183 1.19217 1.19102 1.19357 1.19116 1.19284 1.19086 1.19206 1.19087 1.19115 1.19272 1.19197 1.19062 1.18946 1.19043 1.19112 1.19131 1.19181 1.19304 1.19383 1.19224 1.19238 1.19168 1.19121 1.19177 1.19177 1.19178 1.19178 1.19178 1.19178 1.19178 1.19178 1.19178 1.19178 1.19178 1.19178 1.19178 1.19178 1.19178 1.19178 1.19178 1.19178 1.19178 1.19178 1.19178 1.19178 1.19178 1.19178 1.19178 1.19178 1.19178 1.19178 1.19178 1.19178 1.19178 1.19178 1.19178 1.19178 1.19178 1.19178 1.19178 1.19178 1.19178 1.19178 1.19178 1.19178 1.19178 1.19178 1.19178 1.19179 1.19172 1.19175 1.19104 1.1912 1.19134 1.19101 1.19204 1.19155 1.19194 1.19134 1.19236 1.1919 1.19067 1.18971 1.19178 1.19016 1.19222 1.1933 1.19137 1.1928 1.19173 1.19191 1.19178 1.19178 1.19178 1.19178 1.19178 1.19178 1.19178 1.19178 1.19178 1.19178 1.19178 1.19178 1.19178 1.19178 1.19178 1.19178 1.19178 1.19178 1.19178 1.19178 1.19178 1.19178 1.19178 1.19178 1.19178 1.19178 1.19178 1.19178 1.19178 1.19178 1.19178 1.19178 1.19178 1.19178 1.19178 1.19178 1.19178 1.19178 1.19178 1.19178 1.19178 1.19178 1.19178 1.19178 1.19169 1.1917 1.19195 1.1951 1.19123 1.19232 1.19101 1.19063 1.19101 1.19251 1.1912 1.19118 1.19176 1.19173 1.19233 1.19115 1.19287 1.19009 1.19044 1.19253 1.19269 1.19191 1.19122 1.19271 1.19134 1.19064 1.19178 1.19174 1.19178 1.19177 1.19178 1.19178 1.19178 1.19178 1.19178 1.19178 1.19178 1.19178 1.19178 1.19178 1.19178 1.19178 1.19178 1.19178 1.19178 1.19178 1.19178 1.19178 1.19178 1.19178 1.19178 1.19178 1.19178 1.19178 1.19178 1.19178 1.19178 1.19178 1.19178 1.19178 1.19178 1.19178 1.19178 1.19178 1.19178 1.19178 1.19178 1.19178 1.19178 1.19178 1.19178 1.19178 1.19178 1.19178 1.19178 1.19178 1.19178 1.19178 1.19178 1.19178 1.19178 1.19178 1.19033 1.19175 1.19219 1.1912 1.18817 1.19178 1.19234 1.19276 1.19279 1.19244 1.19283 1.19197 1.1943 1.19054 1.19284 1.19069 1.19176 1.19188 1.19185 1.19095 1.19147 1.19215 1.19271 1.19154 1.19178 1.19178 1.19178 1.19178 1.19178 1.19178 1.19178 1.19178 1.19178 1.19178 1.19178 1.19178 1.19178 1.19178 1.19178 1.19178 1.19178 1.19178 1.19178 1.19178 1.19178 1.19178 1.19178 1.19178 1.19178 1.19178 1.19178 1.19178 1.19178 1.19178 1.19178 1.19178 1.19178 1.19178 1.19178 1.19178 1.19178 1.19178 1.19178 1.19204 1.19283 1.19261 1.18882 1.19191 1.19284 1.19239 1.19312 1.19382 1.19358 1.19254 1.19332 1.19398 1.19003 1.19343 1.19178 1.19105 1.19086 1.1902 1.19178 1.19178 1.19178 1.19178 1.19178 1.19178 1.19178 1.19178 1.19178 1.19178 1.19178 1.19178 1.19178 1.19178 1.19178 1.19178 1.19178 1.19178 1.19178 1.19178 1.19178 1.19178 1.19178 1.19178 1.19178 1.19178 1.19178 1.19178 1.19178 1.19178 1.19178 1.19178 1.19178 1.19178 1.19178 1.19178 1.19178 1.19178 1.19178 1.19178 1.19178 1.19178 1.19178 1.19325 1.19371 1.19185 1.19723 1.19832 1.18993 1.1935 1.19118 1.19174 1.1925 1.19293 1.19222 1.19341 1.19266 1.191 1.19003 1.1925 1.19178 1.19426 1.19354 1.19194 1.19178 1.19178 1.19178 1.19178 1.19178 1.19178 1.19178 1.19178 1.19178 1.19178 1.19178 1.19178 1.19178 1.19178 1.19178 1.19178 1.19178 1.19178 1.19178 1.19178 1.19178 1.19178 1.19178 1.19178 1.19178 1.19178 1.19178 1.19178 1.19178 1.19178 1.19178 1.19178 1.19178 1.19178 1.19178 1.19178 1.19178 1.19178 1.1912 1.19341 1.19504 1.1915 1.19223 1.19328 1.19186 1.19078 1.19395 1.19218 1.19208 1.18924 1.19718 1.19246 1.19594 1.19188 1.19178 1.19178 1.19178 1.19178 1.19178 1.19178 1.19178 1.19178 1.19178 1.19178 1.19178 1.19178 1.18849 1.19178 1.19178 1.19178 1.19178 1.19178 1.19178 1.19178 1.19178 1.19178 1.19178 1.19178 1.19178 1.19178 1.19178 1.19178 1.19178 1.19178 1.19178 1.19178 1.19178 1.19178 1.19178 1.19178 1.19178 1.19178 1.19178 1.19178 1.19178 1.19178 1.19178 1.19178 1.19178 1.19172 1.19269 1.19439 1.19197 1.19122 1.19244 1.1954 1.19271 1.19162 1.19379 1.18917 1.19099 1.19241 1.18924 1.19481 1.20589 1.19177 1.22039 1.2015 1.2003 1.1947 1.19259 1.2007 1.19042 1.19178 1.19178 1.19178 1.19178 1.19178 1.19178 1.19178 1.19178 1.19178 1.19178 1.19178 1.19178 1.19178 1.19178 1.19178 1.19178 1.19178 1.19178 1.19178 1.19178 1.19178 1.19178 1.19178 1.19178 1.19178 1.19178 1.20781 1.19178 1.19178 1.191 1.19129 1.19195 1.19261 1.19155 1.19112 1.19268 1.1905 1.19252 1.19244 1.19162 1.19183 1.19169 1.19074 1.1909 1.19518 1.19418 1.21306 1.19625 1.19451 1.20355 1.19075 1.19178 1.19178 1.1878 1.198 1.19138 1.191 1.19178 1.19178 1.19178 1.19178 1.19178 0.203015 0.754093 0.486935 0.274264 1.19118 1.40125 1.96832 4.18084 0.360613 0.468652 3.00661 1.97892 0.170944 0.50623 1.6154 3.57457 0.97718 0.775919 0.305664 0.182532 0.250884 0.391275 0.424379 0.412795 0.275478 0.16215 0.139076 0.187592 0.130591 0.160829 1.19178 0.331985 0.348102 0.351341 0.406915 4.37982 1.97502 0.823416 0.494592 0.126932 0.279685 0.173984 1.19337 1.20972 1.13577 1.18324 1.19178 1.19167 0.425479 1.19178 0.150547 0.172164 0.16179 0.085668 0.0606719 0.100243 1.19178 1.18974 1.19015 1.18955 1.18976 1.18908 1.19242 1.18989 1.19148 1.19251 1.19107 1.18876 1.19128 1.19142 1.1906 1.18921 1.18892 1.19534 1.19391 1.19483 1.17382 1.19726 1.18364 1.19015 1.19176 1.19171 1.15613 1.96026 0.449914 0.213874 0.322104 0.453455 0.39051 0.179995 0.374936 0.348172 0.326542 0.336537 0.26952 1.19178 1.19177 1.19178 1.19178 1.18884 1.20178 1.19207 0.218311 0.592008 0.393863 1.19156 0.499143 0.149965 0.0511372 0.16107 0.116999 0.0630044 0.141244 0.12679 0.126898 0.172576 0.17274 0.19315 0.347754 0.504829 0.390544 1.19178 0.221547 1.19178 0.267253 0.260085 0.234369 0.30166 0.345311 0.28503 0.270635 0.349694 0.338915 0.0822408 1.19178 0.105313 1.19177 0.130749 0.818829 0.432854 0.551519 0.332862 0.493916 0.601556 0.382492 0.320247 0.315522 0.866057 0.51545 2.09079 1.9398 0.251747 0.748305 0.119323 2.1295 0.408822 1.10358 2.04829 1.02068 1.17808 0.63874 0.880279 0.473158 0.104596 2.0038 1.81905 0.574461 0.986701 0.672322 0.0496073 0.07938 0.398046 0.471465 0.253071 0.155983 0.313114 0.341659 0.207848 0.239457 0.632566 0.123891 0.217574 0.361681 0.0416071 0.0924501 0.0913762 0.162982 0.251261 0.414531 1.7268 1.54413 1.21288 1.17769 0.346546 0.262078 0.997297 0.367216 0.23719 0.297839 0.0953748 0.215938 0.320818 0.426601 0.540645 0.337133 0.726109 0.359498 0.0769026 0.205591 0.154218 0.0855995 0.221585 0.222167 0.183449 0.158008 0.108956 0.054069 0.157034 0.0502062 0.0558182 1.19178 1.19178 1.18529 1.19106 1.19001 1.19102 1.19004 1.19208 1.18931 1.18925 1.19179 1.18985 1.2064 1.19511 1.20661 1.18581 1.19336 1.17676 1.18802 1.18649 1.27606 1.03448 0.283325 0.444947 0.61411 0.352775 0.632052 0.295065 0.160125 0.180429 0.235949 0.189347 0.220921 0.187893 0.0905294 0.237498 0.0621302 0.316495 0.26354 0.430502 0.690719 0.672692 0.224246 0.432593 0.117308 0.227547 0.138535 0.202436 0.117052 0.129961 0.142009 0.374636 0.186648 0.228771 0.256313 0.21961 0.200931 0.092224 0.313746 0.167885 0.151408 0.381743 0.0780703 0.0394385 0.0834386 0.113085 0.162899 0.168089 0.166512 0.224998 0.247841 0.30067 0.276687 0.242599 0.539991 0.132563 0.406068 0.254664 0.242539 0.272196 0.217784 0.213793 0.187893 0.146313 0.159357 0.201948 0.174392 0.254092 0.260201 0.258689 0.450118 0.115109 0.420056 0.143842 0.0954378 0.265464 0.430939 0.582826 0.405972 0.203358 0.442736 0.19936 0.177623 0.100788 0.162223 0.257569 0.254836 0.805958 0.455257 0.535033 0.389567 0.666801 0.584388 0.339533 0.731726 0.862389 0.597886 0.326749 0.330003 0.623358 0.277239 0.170231 0.288759 0.280961 0.295004 0.319728 0.151342 0.215467 0.236975 0.267121 0.526915 0.287282 0.0301936 0.0669702 0.259059 0.0536303 0.235471 0.164536 0.262632 0.698389 0.465808 0.617137 0.710323 0.874329 0.55284 0.668916 0.463739 0.538061 0.377699 0.0618865 0.25489 0.453202 0.313176 0.549 0.616045 0.487457 0.178941 0.242302 0.219853 0.121961 0.100593 0.137916 0.176549 0.172108 0.211913 0.21584 0.166715 0.0661334 1.18989 1.1949 1.197 1.18812 1.19039 1.19168 1.19086 1.18884 1.18873 1.19285 1.20324 1.18881 1.19082 1.18807 1.18032 1.18437 1.21886 1.19178 0.753197 1.15702 0.741534 0.482875 0.257848 0.246858 0.219608 0.227825 0.196785 0.179522 0.188389 0.144377 0.0342155 0.172608 0.47022 0.746646 0.181189 0.287833 0.164353 0.205862 0.144289 0.0925215 0.0595368 0.151125 0.0538193 0.160105 0.119092 0.126949 0.250962 0.156459 0.354416 0.261528 0.246958 0.196498 0.144067 0.137975 0.158638 0.154176 0.118249 0.0549875 0.164573 0.142355 0.662237 0.383161 0.794113 0.289603 0.30952 0.281077 0.378797 0.230143 0.194518 0.187826 0.199156 0.196611 0.203928 0.172772 0.190243 0.125705 0.190234 0.141634 0.238336 0.10502 0.0416022 0.0328857 0.373769 0.365263 0.384819 0.109772 0.365395 0.163296 0.216163 0.148479 0.357986 0.342261 0.33724 0.415546 0.368301 0.544947 0.438202 0.496061 0.329946 0.408678 0.424528 0.365887 0.175413 0.170274 0.372713 0.0380637 0.175 0.162063 0.177686 0.119844 0.129136 0.162374 0.0727064 0.117726 0.121717 0.269173 0.116183 0.150244 0.156057 0.274566 0.0613501 0.106189 0.0909567 0.187375 0.2507 0.260361 0.48745 0.450968 0.33081 0.649826 0.442865 0.421153 0.473157 0.449668 0.41484 0.53536 0.262262 0.502932 0.555172 0.573914 0.87104 0.377368 0.195087 0.258601 0.325944 0.268892 0.179594 0.130036 0.194616 0.0925502 1.1885 1.22122 1.19188 1.19155 1.1931 1.19172 1.19066 1.19033 1.18927 1.18872 1.19453 1.18978 1.19004 1.18906 1.1916 1.18554 1.18184 1.19525 1.20454 1.22072 0.42757 0.351941 0.579418 0.495455 0.41741 0.474469 0.392489 0.446946 0.134352 0.056152 0.189306 0.0205944 0.254405 0.355715 0.454053 0.473656 0.523747 0.302682 0.206284 0.0852313 0.0947004 0.18775 0.115912 0.0849692 0.132192 0.115465 0.0334977 0.0993347 0.122644 0.171953 0.161823 0.780446 0.389519 0.611681 0.3986 0.245196 0.184469 0.155341 0.15397 0.129794 0.120107 0.12192 0.230156 0.0870603 0.0613211 0.0487129 0.0164658 0.114142 0.212175 0.214053 0.200539 0.211432 0.126077 0.19502 0.106303 0.089947 0.0586258 0.083873 0.070932 0.113904 0.280902 0.446726 0.407544 0.319615 0.268182 0.213057 0.298628 0.185395 0.190914 0.198552 0.311705 0.29651 0.349901 0.383937 0.39894 0.421773 0.362887 0.306462 0.0839638 0.0947775 0.0442816 0.114779 0.116686 0.0895444 0.0572609 0.14314 0.0528673 0.113648 0.128755 0.14621 0.208824 0.154535 0.154045 0.143738 0.141995 0.201091 0.176586 0.217901 0.33049 0.25574 0.265898 0.342483 0.389866 0.313173 0.264865 0.336379 0.370757 0.17968 0.208295 0.0944686 0.667518 0.51631 0.182422 0.304308 0.272807 0.293561 0.240882 0.287831 0.221928 0.170904 0.161316 0.191139 0.134029 0.178664 0.105349 0.973935 1.19397 1.19202 1.19178 1.19178 1.19035 1.19129 1.19178 1.18934 1.18892 1.19885 1.19035 1.18823 1.19202 1.18857 1.20329 1.17749 1.18846 0.417682 0.487 0.366952 0.397301 0.328724 0.258191 0.213561 0.110636 0.0999292 0.302283 0.417188 0.387856 0.452032 0.346398 0.35274 0.2814 0.168308 0.260796 0.1408 0.11466 0.147728 0.137067 0.0833251 0.118655 0.108474 0.146 0.188989 0.26927 0.568154 0.0939083 0.563093 0.263606 0.23598 0.235935 0.167873 0.111872 0.14687 0.128405 0.129876 0.132287 0.0252505 0.0785521 0.19723 0.128698 0.127549 0.0571671 0.0526202 0.0355522 0.0900181 0.106451 0.166766 0.168422 0.204794 0.22103 0.177153 0.211825 0.197546 0.143076 0.0989005 0.134425 0.155888 0.143743 0.289562 0.288113 0.369708 0.364092 0.236111 0.252256 0.203222 0.223832 0.297162 0.236328 0.272573 0.27697 0.322959 0.36337 0.31947 0.304762 0.359811 0.324723 0.26488 0.268337 0.109736 0.103841 0.128069 0.187091 0.134646 0.120437 0.166949 0.104183 0.16585 0.17222 0.143069 0.170254 0.140587 0.144298 0.166911 0.155933 0.215123 0.170979 0.225414 0.276943 0.223299 0.247003 0.260021 0.162959 0.189684 0.135622 0.155682 0.397162 0.358893 0.322844 0.243148 0.279755 0.252722 0.211887 0.192018 0.198595 0.199833 0.192876 0.191532 0.164893 0.195711 0.145518 1.19178 1.17065 1.1784 1.19414 1.19221 1.19195 1.19122 1.19037 1.19154 1.19096 1.1889 1.18403 1.19061 1.19533 1.18287 1.17964 1.19453 1.18771 1.17511 1.18315 1.17939 1.19178 0.414809 0.409641 0.343743 0.329421 0.320903 0.31251 0.236725 0.0718973 0.120534 0.167826 0.366419 0.348539 0.711877 0.727905 0.476878 0.321137 0.23821 0.234795 0.186982 0.228968 0.153132 0.187362 0.145962 0.142378 0.168292 0.155544 0.14581 0.158265 0.129523 0.114859 0.12961 0.129321 0.269306 0.401849 0.364736 0.260691 0.139043 0.148472 0.130607 0.13531 0.105369 0.0982876 0.0533744 0.0521004 0.0520876 0.100364 0.100645 0.163641 0.199608 0.221458 0.223048 0.183668 0.183961 0.162389 0.209331 0.191195 0.262127 0.346835 0.313455 0.227791 0.237316 0.233493 0.24353 0.261027 0.254874 0.257448 0.2517 0.284736 0.276006 0.255315 0.267777 0.259428 0.301833 0.101778 0.229505 0.193087 0.149399 0.113606 0.338779 0.238189 0.401359 0.191098 0.288686 0.172596 0.119851 0.135949 0.149542 0.162272 0.156586 0.190069 0.165961 0.199719 0.199448 0.218092 0.22641 0.188856 0.173018 0.210997 0.322869 0.269866 0.261977 0.261451 0.24984 0.245078 0.218539 0.212113 0.184672 0.167198 0.158488 1.18902 1.18439 1.18681 1.18556 1.19228 1.19273 1.19073 1.19029 1.19156 1.18786 1.18944 1.1922 1.18566 1.19604 1.19134 1.1698 1.17938 1.18736 1.16945 1.18847 0.31309 0.326928 0.316572 0.255813 0.462562 0.448683 0.337136 0.558656 0.386396 0.194077 0.19145 0.210113 0.179789 0.20885 0.195467 0.166363 0.200608 0.185542 0.178008 0.141655 0.171737 0.178129 0.144848 0.11338 0.163577 0.176907 0.23916 0.277428 0.280736 0.231437 0.29064 0.252612 0.224032 0.216458 0.172812 0.130333 0.160436 0.12842 0.143688 0.125558 0.139848 0.141398 0.102177 0.0581154 0.164744 0.15973 0.17975 0.191248 0.164442 0.23667 0.191854 0.188796 0.181088 0.180721 0.207318 0.224833 0.244569 0.289205 0.324611 0.266043 0.22983 0.250555 0.213403 0.222374 0.222353 0.233907 0.234185 0.209856 0.219268 0.200882 0.231363 0.225338 0.232678 0.239707 0.230618 0.28064 0.257839 0.292891 0.291449 0.335474 0.225693 0.227094 0.278746 0.124062 0.358576 0.487526 0.54562 0.182812 0.512452 0.0726044 0.0547489 0.131995 0.143913 0.140751 0.143451 0.144878 0.165081 0.173358 0.184524 0.191157 0.191277 0.202886 0.220066 0.229678 0.196291 0.18696 0.220294 0.22301 0.289876 0.249757 0.245663 0.250163 0.236271 0.242832 0.202791 0.202722 0.195067 0.165025 0.170357 0.157227 1.18298 1.16803 1.19169 1.19178 0.223189 0.180808 0.241622 0.212268 0.136604 0.255723 0.654439 0.584088 0.278216 0.227719 0.334854 0.377498 0.352071 0.209017 0.205004 0.216039 0.213118 0.224717 0.203721 0.172688 0.215513 0.184293 0.213178 0.243402 0.288909 0.288851 0.281479 0.285269 0.231357 0.243451 0.225164 0.203594 0.198757 0.165989 0.141451 0.137699 0.161378 0.133542 0.150739 0.145086 0.236169 0.190271 0.163668 0.148135 0.14635 0.192606 0.186378 0.186195 0.203444 0.223858 0.220007 0.228486 0.259728 0.231582 0.196051 0.20794 0.200239 0.184384 0.196878 0.212608 0.180732 0.175594 0.164914 0.201224 0.199372 0.223524 0.210387 0.22321 0.213179 0.238311 0.293654 0.292164 0.30232 0.261535 0.501874 0.317806 0.134276 0.397999 0.134017 0.148814 0.158363 0.180897 0.190389 0.181122 0.209521 0.21843 0.236078 0.183904 0.210922 0.210505 0.25915 0.284552 0.284569 0.262416 0.260211 0.234518 0.249528 0.206224 0.191083 0.186233 0.188762 0.150328 0.134212 0.179203 0.165579 0.230885 0.211125 0.142502 0.0619023 0.535542 0.213673 0.227955 0.263045 0.207204 0.219877 0.220956 0.217903 0.22808 0.224166 0.226916 0.238352 0.189272 0.236995 0.25362 0.227907 0.204874 0.231162 0.280876 0.277938 0.269374 0.27637 0.222845 0.210524 0.195521 0.183362 0.135607 0.11097 0.147221 0.16255 0.193083 0.195926 0.189004 0.200321 0.165302 0.161487 0.182448 0.19932 0.221051 0.199607 0.202643 0.223876 0.249797 0.241536 0.252279 0.236153 0.21239 0.189667 0.182488 0.176327 0.216075 0.179891 0.157377 0.172123 0.167849 0.155898 0.169577 0.174456 0.186582 0.198034 0.176007 0.217784 0.18638 0.205339 0.224238 0.25689 0.263114 0.25922 0.202222 0.314586 0.498389 0.450541 0.460424 0.118651 0.208949 0.178072 0.177437 0.177419 0.184532 0.190106 0.196422 0.207469 0.216372 0.183559 0.204945 0.237698 0.280157 0.282533 0.271488 0.276037 0.261188 0.247876 0.210698 0.229995 0.195917 0.188357 0.177565 0.155547 0.143819 0.141028 0.112509 0.170289 0.170665 0.193616 0.199962 0.242914 0.308861 0.149663 0.217141 0.204726 0.210451 0.223077 0.227849 0.243986 0.242473 0.244292 0.2452 0.218365 0.248279 0.239206 0.2268 0.247466 0.240465 0.214961 0.238386 0.26455 0.247299 0.217199 0.197343 0.180311 0.172354 0.1833 0.116493 0.171855 0.187241 0.196796 0.199429 0.200125 0.191754 0.178085 0.17003 0.187601 0.176907 0.211371 0.203039 0.214744 0.224978 0.24357 0.253204 0.236733 0.250334 0.215547 0.196962 0.186066 0.172962 0.167936 0.166817 0.164636 0.154581 0.15456 0.138362 0.154684 0.142019 0.164591 0.166653 0.197261 0.206049 0.237494 0.254904 0.25538 0.283377 0.292149 0.380553 0.265671 0.476165 0.240728 0.146683 0.154722 0.176871 0.178864 0.182716 0.19194 0.199562 0.226513 0.191404 0.213226 0.199638 0.251467 0.237871 0.290424 0.297248 0.260195 0.273517 0.235312 0.214544 0.204497 0.184362 0.175527 0.138709 0.124262 0.0963875 0.167674 0.189541 0.179396 0.169598 0.180129 0.231315 0.163738 0.17654 0.204331 0.21877 0.236478 0.24017 0.258935 0.263511 0.24289 0.262923 0.244818 0.253969 0.270366 0.261732 0.240004 0.220668 0.22684 0.237362 0.199743 0.229693 0.208925 0.185928 0.172999 0.174767 0.154997 0.163668 0.181027 0.196504 0.199851 0.18809 0.172547 0.192488 0.218511 0.219181 0.233981 0.253123 0.254993 0.205242 0.203549 0.189599 0.166588 0.153798 0.15947 0.159235 0.162336 0.151534 0.147841 0.13255 0.14999 0.153067 0.158592 0.184818 0.205114 0.24221 0.218803 0.269623 0.294959 0.389451 0.364559 0.307127 0.400083 0.38001 0.172351 0.154715 0.154013 0.188455 0.183928 0.170496 0.181204 0.190492 0.190935 0.191785 0.207196 0.223689 0.196154 0.189063 0.201593 0.210589 0.216456 0.313362 0.287935 0.248734 0.263839 0.215133 0.188647 0.172904 0.169948 0.153338 0.136371 0.0967833 0.170282 0.182222 0.185012 0.177992 0.186176 0.215479 0.185658 0.195774 0.216722 0.225189 0.263511 0.254019 0.27873 0.293182 0.283144 0.254353 0.276765 0.2531 0.237025 0.235827 0.228619 0.216108 0.225816 0.218472 0.217173 0.208342 0.201404 0.188571 0.178112 0.178446 0.178305 0.154893 0.193998 0.199028 0.210475 0.202816 0.189305 0.174993 0.195816 0.257667 0.246921 0.234041 0.215129 0.190901 0.180506 0.147787 0.148945 0.147062 0.153125 0.141756 0.151539 0.144667 0.162724 0.153226 0.163329 0.197304 0.218762 0.255524 0.286764 0.345659 0.387753 0.386865 0.278124 0.300833 0.270016 0.135861 0.107555 0.173611 0.170495 0.17637 0.208935 0.20155 0.201274 0.209583 0.209859 0.215469 0.189375 0.188997 0.186396 0.310894 0.10365 0.283236 0.238255 0.259576 0.232341 0.177049 0.211769 0.167858 0.140986 0.143403 0.103937 0.185768 0.169318 0.197234 0.212112 0.200378 0.194714 0.211317 0.251267 0.252507 0.267021 0.284034 0.294347 0.300369 0.267721 0.249871 0.222384 0.15644 0.279381 0.241866 0.239476 0.22812 0.225066 0.218587 0.211496 0.203254 0.196325 0.183229 0.187031 0.171585 0.190803 0.196846 0.200369 0.217136 0.270488 0.250053 0.231296 0.188561 0.238867 0.23632 0.219293 0.23268 0.189305 0.182368 0.143435 0.16867 0.260163 0.314494 0.198468 0.170702 0.196213 0.272408 0.182158 0.199784 0.202434 0.261017 0.304625 0.232122 0.204986 0.290169 0.217557 0.229323 0.22322 0.170341 
SCALARS Stress float 1
LOOKUP_TABLE default
-12698100000.0 -12775200000.0 -12743700000.0 -12592500000.0 -12596000000.0 -12580700000.0 -12631600000.0 -12549700000.0 -12653100000.0 -12648700000.0 -12562900000.0 -12581900000.0 -12549700000.0 -12568000000.0 -12549700000.0 -12549700000.0 -12574700000.0 -12549700000.0 -12549700000.0 -12553500000.0 -12549700000.0 -12553800000.0 -12563000000.0 -12610300000.0 -12638200000.0 -12601600000.0 -12584800000.0 -12572800000.0 -12562100000.0 -12552500000.0 -12549700000.0 -12549700000.0 -12549700000.0 -12561900000.0 -12575600000.0 -12586000000.0 -12633900000.0 -12604400000.0 -12582200000.0 -12559500000.0 -12550600000.0 -12574600000.0 -12576200000.0 -12551800000.0 -12593400000.0 -12551300000.0 -12553100000.0 -12583500000.0 -12680900000.0 -12669400000.0 -12627300000.0 -12649000000.0 -12564400000.0 -12590500000.0 -12558800000.0 -12654800000.0 -12638300000.0 -12556200000.0 -12554100000.0 -12554300000.0 -12563500000.0 -12568700000.0 -12663200000.0 -12586400000.0 -12574500000.0 -12717500000.0 -12620300000.0 -12582500000.0 -12579000000.0 -12571600000.0 -12568500000.0 -12631000000.0 -12612400000.0 -12702900000.0 -12586600000.0 -12884600000.0 -12823600000.0 -12886600000.0 -12860800000.0 -12824100000.0 -12821600000.0 -12588900000.0 -12568300000.0 -12549700000.0 -12586700000.0 -12555700000.0 -12640000000.0 -12549700000.0 -12568300000.0 -12563700000.0 -12601800000.0 -12646600000.0 -12888300000.0 -12834500000.0 -12832500000.0 -12669600000.0 -12738600000.0 -12552300000.0 -12622200000.0 -12565900000.0 -13228700000.0 -12984000000.0 -13142700000.0 -13288200000.0 -13597400000.0 -13780100000.0 -13467300000.0 -12717400000.0 -12662700000.0 -12657600000.0 -12549700000.0 -12615100000.0 -12553200000.0 -12549700000.0 -12643100000.0 -12549700000.0 -12549700000.0 -12570100000.0 -12549700000.0 -12597600000.0 -12549700000.0 -12773700000.0 -12549700000.0 -12549700000.0 -12549700000.0 -12559100000.0 -12551300000.0 -12549700000.0 -12553000000.0 -12566600000.0 -12612400000.0 -12635000000.0 -12737000000.0 -12746500000.0 -12879000000.0 -12841500000.0 -12659300000.0 -12626800000.0 -12580400000.0 -12636000000.0 -12693100000.0 -12660700000.0 -12654900000.0 -12577600000.0 -12633000000.0 -12853600000.0 -12583300000.0 -12695500000.0 -12729500000.0 -12678800000.0 -12646600000.0 -12653600000.0 -12559500000.0 -12731700000.0 -12671500000.0 -12942800000.0 -12550400000.0 -12549700000.0 -12580900000.0 -12594800000.0 -12853800000.0 -12621300000.0 -12549700000.0 -12879300000.0 -12632600000.0 -12549700000.0 -12549700000.0 -12587300000.0 -12651400000.0 -12595300000.0 -12555700000.0 -12837800000.0 -12962000000.0 -13047100000.0 -12892800000.0 -13225000000.0 -12579100000.0 -12658000000.0 -12595300000.0 -13408300000.0 -12558300000.0 -12765900000.0 -12738600000.0 -12658000000.0 -12707800000.0 -12612100000.0 -12863000000.0 -12556700000.0 -12617900000.0 -12563600000.0 -12666800000.0 -13501300000.0 -12878700000.0 -12828700000.0 -12821500000.0 -13075200000.0 -13163300000.0 -13082700000.0 -13124700000.0 -12712100000.0 -12549700000.0 -13929900000.0 -13549600000.0 -13571200000.0 -13578900000.0 -13226100000.0 -12584500000.0 -13454600000.0 -12870300000.0 -13047100000.0 -12858000000.0 -12878800000.0 -12804700000.0 -12584300000.0 -12744200000.0 -12550100000.0 -12552400000.0 -12593900000.0 -12549700000.0 -12694700000.0 -12549700000.0 -12841800000.0 -12558200000.0 -12580300000.0 -12549700000.0 -12602600000.0 -12601800000.0 -12609200000.0 -12632000000.0 -12672900000.0 -12773600000.0 -12759300000.0 -12999600000.0 -12920400000.0 -13196200000.0 -12674700000.0 -13034800000.0 -12948000000.0 -12824300000.0 -12957700000.0 -12552100000.0 -12566100000.0 -12836700000.0 -12549700000.0 -12681000000.0 -12989100000.0 -12600400000.0 -12604100000.0 -12566600000.0 -13037600000.0 -12883600000.0 -12668000000.0 -12595300000.0 -12888800000.0 -13670000000.0 -12800500000.0 -12758700000.0 -12719500000.0 -12891900000.0 -12990900000.0 -13842900000.0 -13482100000.0 -13535100000.0 -13518900000.0 -12846500000.0 -13017700000.0 -13140200000.0 -13167800000.0 -13004200000.0 -13150800000.0 -12960100000.0 -12996000000.0 -12659000000.0 -13243000000.0 -13149100000.0 -14727000000.0 -14356700000.0 -14856900000.0 -12829200000.0 -12647000000.0 -12714100000.0 -12626700000.0 -14459200000.0 -13676100000.0 -13597400000.0 -13029000000.0 -13075000000.0 -13154300000.0 -13409400000.0 -13023400000.0 -12923600000.0 -12739500000.0 -13607400000.0 -12575100000.0 -12712700000.0 -12605900000.0 -12889800000.0 -12648100000.0 -13180200000.0 -13107100000.0 -13096000000.0 -13162800000.0 -12549700000.0 -14270900000.0 -12646600000.0 -13105100000.0 -14175200000.0 -13031700000.0 -13545400000.0 -13729700000.0 -12693700000.0 -13031700000.0 -12549700000.0 -12662700000.0 -12921800000.0 -12760600000.0 -12785100000.0 -12844700000.0 -12709400000.0 -12760000000.0 -12707700000.0 -13000500000.0 -12802400000.0 -13066300000.0 -12672400000.0 -12649600000.0 -12615800000.0 -12549700000.0 -12558300000.0 -12579500000.0 -12583500000.0 -12560000000.0 -12673200000.0 -12869200000.0 -12978600000.0 -12774200000.0 -13688400000.0 -13499400000.0 -13185400000.0 -13649400000.0 -13499700000.0 -13531300000.0 -13850700000.0 -13849700000.0 -13343400000.0 -13151100000.0 -13026000000.0 -13676700000.0 -12706400000.0 -12634000000.0 -12580800000.0 -13045600000.0 -12578900000.0 -13112200000.0 -12686600000.0 -13521700000.0 -13401000000.0 -14769000000.0 -12763100000.0 -12736100000.0 -12824400000.0 -12742700000.0 -13783400000.0 -12549700000.0 -12549700000.0 -13144100000.0 -12549700000.0 -13721300000.0 -13715600000.0 -13396600000.0 -13307500000.0 -13018300000.0 -14328500000.0 -14196400000.0 -14115800000.0 -14238100000.0 -12863200000.0 -13938800000.0 -15413900000.0 -15093200000.0 -14929300000.0 -15453200000.0 -12624000000.0 -12577100000.0 -13727100000.0 -13694200000.0 -14040300000.0 -13470100000.0 -13900300000.0 -13082100000.0 -12908300000.0 -12753800000.0 -13832800000.0 -12963300000.0 -13502300000.0 -13875300000.0 -14003900000.0 -14582800000.0 -12971900000.0 -12620400000.0 -12602800000.0 -13004800000.0 -12604700000.0 -15442400000.0 -12761900000.0 -14581300000.0 -13678400000.0 -15224100000.0 -13036700000.0 -13297900000.0 -12751100000.0 -13757800000.0 -13230100000.0 -13336500000.0 -12667100000.0 -12650200000.0 -13249800000.0 -13033400000.0 -12705900000.0 -12908700000.0 -12647300000.0 -12670900000.0 -12562900000.0 -12885200000.0 -12557700000.0 -12969300000.0 -13103300000.0 -12859500000.0 -12728200000.0 -12761100000.0 -12700200000.0 -12607100000.0 -12732700000.0 -12625500000.0 -13323600000.0 -13106300000.0 -12837900000.0 -12657700000.0 -13869700000.0 -14655100000.0 -14122500000.0 -12681800000.0 -13248600000.0 -12761500000.0 -12717600000.0 -12757700000.0 -13466700000.0 -12682400000.0 -13008800000.0 -13563500000.0 -14775900000.0 -12845200000.0 -12796600000.0 -13420100000.0 -12695700000.0 -13604000000.0 -14233000000.0 -12713000000.0 -15263800000.0 -13137500000.0 -13003300000.0 -13226400000.0 -12829600000.0 -14422700000.0 -12549700000.0 -12571200000.0 -12638800000.0 -13473100000.0 -15262200000.0 -12676400000.0 -12594700000.0 -13907500000.0 -13802600000.0 -12643100000.0 -12885200000.0 -14717100000.0 -13718000000.0 -14579500000.0 -14774300000.0 -12743500000.0 -13474700000.0 -13944300000.0 -14041700000.0 -15585300000.0 -14883000000.0 -12616400000.0 -12556300000.0 -13784700000.0 -12597600000.0 -14926100000.0 -15420900000.0 -15506100000.0 -15250600000.0 -14025400000.0 -14344300000.0 -13889000000.0 -12649300000.0 -12872600000.0 -12575200000.0 -14476800000.0 -13653000000.0 -13332900000.0 -13541400000.0 -14889200000.0 -12549700000.0 -12717300000.0 -15539500000.0 -14101600000.0 -14198100000.0 -14037600000.0 -13729400000.0 -13194700000.0 -13490300000.0 -12660900000.0 -12635000000.0 -13254500000.0 -14050300000.0 -14057700000.0 -13964000000.0 -13855200000.0 -13958500000.0 -13672100000.0 -14474700000.0 -14060400000.0 -14038800000.0 -14204300000.0 -14452600000.0 -13644100000.0 -13624800000.0 -13413300000.0 -13625000000.0 -12552100000.0 -12684800000.0 -12858400000.0 -12577800000.0 -15404500000.0 -12800500000.0 -12680100000.0 -12983400000.0 -13388400000.0 -13246400000.0 -12561700000.0 -12655200000.0 -12562600000.0 -13639600000.0 -13387300000.0 -12771300000.0 -13146400000.0 -14576800000.0 -14850100000.0 -14778600000.0 -14942200000.0 -16408500000.0 -13975900000.0 -15958400000.0 -13424400000.0 -13222700000.0 -14184200000.0 -14132000000.0 -12762900000.0 -13678300000.0 -14200400000.0 -14631600000.0 -15035700000.0 -18000200000.0 -15017600000.0 -15194800000.0 -14498200000.0 -13500400000.0 -13510500000.0 -14222500000.0 -13230800000.0 -17622800000.0 -14334900000.0 -14512700000.0 -13250500000.0 -15166000000.0 -12907900000.0 -14114100000.0 -13214000000.0 -13328900000.0 -12659500000.0 -14180200000.0 -14897000000.0 -14234800000.0 -17143400000.0 -15437900000.0 -13099600000.0 -13261700000.0 -14694500000.0 -14029700000.0 -13470400000.0 -13672600000.0 -12549700000.0 -13257200000.0 -12944200000.0 -12820800000.0 -15161700000.0 -13937700000.0 -13755900000.0 -13932800000.0 -17175100000.0 -20136900000.0 -14919400000.0 -14250600000.0 -17853100000.0 -15652900000.0 -14316300000.0 -13930700000.0 -14273100000.0 -13055800000.0 -12813500000.0 -13288300000.0 -12763100000.0 -12734400000.0 -14978800000.0 -14302200000.0 -13060900000.0 -12553600000.0 -12580400000.0 -13183000000.0 -13143100000.0 -13528400000.0 -12920500000.0 -12702900000.0 -13080300000.0 -12559900000.0 -12610200000.0 -13600600000.0 -13653000000.0 -13838600000.0 -13877700000.0 -14662200000.0 -14414100000.0 -13357800000.0 -13574900000.0 -14219100000.0 -13144200000.0 -12901000000.0 -12882500000.0 -13067500000.0 -12623500000.0 -13381300000.0 -12947500000.0 -12971000000.0 -14036200000.0 -13971500000.0 -13301900000.0 -13605400000.0 -13659300000.0 -12717100000.0 -13738400000.0 -12667700000.0 -13825400000.0 -15245100000.0 -14538100000.0 -16731500000.0 -14555300000.0 -14376600000.0 -13906700000.0 -13602200000.0 -13730100000.0 -13777600000.0 -13387200000.0 -12549700000.0 -12580400000.0 -13003900000.0 -16770600000.0 -13557800000.0 -13425000000.0 -16232200000.0 -16580500000.0 -16607100000.0 -16654800000.0 -16160400000.0 -15846700000.0 -17000200000.0 -18297700000.0 -17384500000.0 -17129100000.0 -18582900000.0 -17038200000.0 -18417400000.0 -15303400000.0 -14984800000.0 -15165600000.0 -17057800000.0 -13869500000.0 -13719100000.0 -14507700000.0 -13545300000.0 -14069300000.0 -13756900000.0 -14292800000.0 -12735700000.0 -13695100000.0 -12549800000.0 -15046200000.0 -12655400000.0 -12657300000.0 -12581000000.0 -13552500000.0 -12549700000.0 -19604500000.0 -19788000000.0 -19439700000.0 -16439800000.0 -16333200000.0 -15672200000.0 -16290400000.0 -15341600000.0 -15982600000.0 -16509200000.0 -14775000000.0 -14786100000.0 -14375200000.0 -14271400000.0 -13931000000.0 -13421200000.0 -12844300000.0 -12840000000.0 -13872800000.0 -12844400000.0 -13256600000.0 -13473100000.0 -13399500000.0 -13557200000.0 -12556600000.0 -12883600000.0 -12623100000.0 -13130100000.0 -12743300000.0 -14098700000.0 -13696100000.0 -14843200000.0 -13017200000.0 -12988500000.0 -13048300000.0 -13443300000.0 -13055600000.0 -13222300000.0 -12765800000.0 -13567100000.0 -12868400000.0 -13090700000.0 -12937000000.0 -13041600000.0 -12811900000.0 -12948800000.0 -13379200000.0 -13803400000.0 -15890400000.0 -16897700000.0 -16026000000.0 -17812400000.0 -16394500000.0 -13111800000.0 -13552100000.0 -12824400000.0 -13395300000.0 -12814900000.0 -12549700000.0 -13094200000.0 -12895100000.0 -18206300000.0 -13293700000.0 -13661000000.0 -14023600000.0 -12549700000.0 -14251000000.0 -13661900000.0 -12582700000.0 -14817900000.0 -13510700000.0 -13741800000.0 -15269100000.0 -16806700000.0 -13872100000.0 -13973300000.0 -15556600000.0 -13919900000.0 -15684000000.0 -14227700000.0 -19210800000.0 -13030700000.0 -12949500000.0 -14682300000.0 -15525600000.0 -13531300000.0 -13293900000.0 -14745800000.0 -13910400000.0 -13487100000.0 -14256400000.0 -15532000000.0 -12554100000.0 -12725500000.0 -12563700000.0 -13863600000.0 -12549700000.0 -12549700000.0 -18118800000.0 -18359800000.0 -14279300000.0 -13385900000.0 -12906600000.0 -12862400000.0 -13061500000.0 -16123900000.0 -12549700000.0 -14153300000.0 -14074900000.0 -14085200000.0 -13871900000.0 -12650500000.0 -12726000000.0 -12999200000.0 -12829700000.0 -13325300000.0 -13402000000.0 -13861200000.0 -12609400000.0 -13644000000.0 -13465200000.0 -12727500000.0 -13077900000.0 -13060800000.0 -13854300000.0 -13837200000.0 -13709400000.0 -13702800000.0 -14245500000.0 -15055700000.0 -13953500000.0 -14433500000.0 -15036000000.0 -13829400000.0 -13997900000.0 -15111300000.0 -15755400000.0 -15552400000.0 -15090000000.0 -14695900000.0 -15215600000.0 -15149000000.0 -15555900000.0 -15735700000.0 -14738900000.0 -15450700000.0 -17371700000.0 -12549700000.0 -14898100000.0 -14842400000.0 -16891200000.0 -12821000000.0 -16319900000.0 -16291500000.0 -12679300000.0 -16400600000.0 -15506100000.0 -14893300000.0 -14993600000.0 -15869300000.0 -15466100000.0 -12667000000.0 -13075200000.0 -13229600000.0 -12569200000.0 -13636300000.0 -14740100000.0 -14093900000.0 -15473800000.0 -13872300000.0 -14673600000.0 -14359700000.0 -13307400000.0 -12549700000.0 -15802600000.0 -13705800000.0 -15159100000.0 -13686400000.0 -14383800000.0 -15633600000.0 -14759200000.0 -20506400000.0 -12549700000.0 -15609300000.0 -15321400000.0 -12567100000.0 -12665300000.0 -15333400000.0 -13625000000.0 -12576300000.0 -15095800000.0 -13663200000.0 -13053500000.0 -14248100000.0 -12805000000.0 -14512900000.0 -16870000000.0 -13628300000.0 -12590900000.0 -17289000000.0 -15379400000.0 -12645300000.0 -12646400000.0 -13227100000.0 -16226700000.0 -13776600000.0 -13461200000.0 -12581000000.0 -12568400000.0 -12915200000.0 -13300100000.0 -12727600000.0 -12609800000.0 -12549700000.0 -13399600000.0 -13634500000.0 -13782400000.0 -13407200000.0 -12589200000.0 -13411000000.0 -12948900000.0 -13559900000.0 -13408100000.0 -12556400000.0 -12682600000.0 -12878000000.0 -12814700000.0 -12550800000.0 -14090400000.0 -14366100000.0 -12551400000.0 -14396400000.0 -12685000000.0 -14110600000.0 -12549700000.0 -12551100000.0 -13619200000.0 -12575900000.0 -14367100000.0 -12549700000.0 -12552800000.0 -12711500000.0 -14117100000.0 -14147100000.0 -14788200000.0 -17006100000.0 -12549700000.0 -14713500000.0 -15121400000.0 -12703100000.0 -16638800000.0 -14547300000.0 -14599000000.0 -17623100000.0 -13461100000.0 -12810400000.0 -13683000000.0 -12891000000.0 -14183300000.0 -12769400000.0 -15803600000.0 -13283900000.0 -14740700000.0 -13672300000.0 -14746700000.0 -16591600000.0 -16026300000.0 -20023200000.0 -18792600000.0 -18520300000.0 -18350700000.0 -17966800000.0 -18740600000.0 -17988000000.0 -18344100000.0 -19668100000.0 -19407100000.0 -21914800000.0 -15453400000.0 -14495400000.0 -21888500000.0 -23806700000.0 -18247900000.0 -16813100000.0 -15804700000.0 -14099000000.0 -14073900000.0 -15300900000.0 -13586600000.0 -13497800000.0 -13276300000.0 -15049000000.0 -12557700000.0 -14087000000.0 -14471100000.0 -12911300000.0 -12992200000.0 -13511000000.0 -13885400000.0 -12985600000.0 -12870200000.0 -18005900000.0 -15794600000.0 -12591300000.0 -13270700000.0 -13467300000.0 -15926200000.0 -12549700000.0 -13559400000.0 -12774000000.0 -12874900000.0 -12689400000.0 -12587200000.0 -13667200000.0 -13535600000.0 -13017800000.0 -13006500000.0 -13516100000.0 -12876500000.0 -14573100000.0 -13208200000.0 -12799000000.0 -13589100000.0 -13171900000.0 -12937700000.0 -13285300000.0 -12567000000.0 -12951200000.0 -12588700000.0 -12660600000.0 -12554800000.0 -14919600000.0 -12578200000.0 -13710100000.0 -13535700000.0 -14334900000.0 -14660300000.0 -12571000000.0 -12601300000.0 -13682200000.0 -13634200000.0 -15273700000.0 -12681600000.0 -12706200000.0 -13299700000.0 -13755900000.0 -14190200000.0 -13345900000.0 -17908800000.0 -13430500000.0 -16422900000.0 -16457500000.0 -13049000000.0 -19616500000.0 -22155700000.0 -19020500000.0 -19807400000.0 -18798200000.0 -16069200000.0 -14441300000.0 -14758500000.0 -14508600000.0 -14492300000.0 -14297000000.0 -17805000000.0 -16558100000.0 -13188400000.0 -13933800000.0 -14622800000.0 -13120500000.0 -12549700000.0 -17050400000.0 -14578600000.0 -13847500000.0 -14260700000.0 -12876000000.0 -15811700000.0 -14707600000.0 -13243500000.0 -16816600000.0 -12955200000.0 -12786100000.0 -18361200000.0 -17784400000.0 -17734800000.0 -17034800000.0 -12549700000.0 -15671700000.0 -12549700000.0 -16667800000.0 -12896000000.0 -14625000000.0 -12655200000.0 -12591800000.0 -14910000000.0 -12894900000.0 -13637300000.0 -12925800000.0 -14963700000.0 -12755400000.0 -14145000000.0 -13630400000.0 -13958300000.0 -17238800000.0 -15473800000.0 -15343400000.0 -16221800000.0 -16770200000.0 -14140600000.0 -14411700000.0 -14320700000.0 -14921000000.0 -14415700000.0 -14288200000.0 -14470900000.0 -13113400000.0 -13293800000.0 -14002200000.0 -12638100000.0 -15159800000.0 -13658700000.0 -13752800000.0 -14483700000.0 -13942000000.0 -14093700000.0 -14027200000.0 -14086300000.0 -12936300000.0 -12549700000.0 -13041500000.0 -12931600000.0 -12659000000.0 -15249400000.0 -12680000000.0 -13122600000.0 -13136200000.0 -14594200000.0 -14802500000.0 -13655600000.0 -14230200000.0 -13215500000.0 -12666700000.0 -15247900000.0 -12549700000.0 -12560900000.0 -13295000000.0 -15193500000.0 -13267500000.0 -14707800000.0 -13907900000.0 -17384000000.0 -12549700000.0 -12549700000.0 -16796300000.0 -18116900000.0 -16373700000.0 -12924100000.0 -17181300000.0 -16356700000.0 -15428400000.0 -15758700000.0 -13107900000.0 -13677100000.0 -13520200000.0 -13088300000.0 -15096300000.0 -12549700000.0 -16517800000.0 -18050800000.0 -16798800000.0 -17165700000.0 -16770700000.0 -18937500000.0 -20652000000.0 -14574000000.0 -14890300000.0 -15591900000.0 -12764900000.0 -17877000000.0 -13587200000.0 -14171300000.0 -16186700000.0 -13379800000.0 -14018200000.0 -13369900000.0 -12920400000.0 -19794300000.0 -13614300000.0 -19261600000.0 -15839300000.0 -17394200000.0 -18297600000.0 -21007800000.0 -21666400000.0 -20366200000.0 -19805000000.0 -21142700000.0 -20370200000.0 -21115100000.0 -20412300000.0 -17881100000.0 -14938500000.0 -16488200000.0 -19860000000.0 -19402400000.0 -20090400000.0 -23010600000.0 -16660300000.0 -12581700000.0 -13628600000.0 -14224800000.0 -13404300000.0 -13331500000.0 -13218200000.0 -13331200000.0 -12746200000.0 -12741200000.0 -12833300000.0 -14408300000.0 -13880500000.0 -13712100000.0 -13781700000.0 -14771300000.0 -16499200000.0 -12892100000.0 -13361400000.0 -13674500000.0 -12550900000.0 -13126900000.0 -12766700000.0 -15045300000.0 -15063600000.0 -14975200000.0 -15720400000.0 -14336700000.0 -14529100000.0 -14330800000.0 -14725600000.0 -15447700000.0 -13919800000.0 -12942100000.0 -13515400000.0 -13471900000.0 -13661100000.0 -14509800000.0 -15800100000.0 -15274100000.0 -17772500000.0 -14251800000.0 -15182300000.0 -17953200000.0 -12549700000.0 -22825800000.0 -21717500000.0 -18410600000.0 -16320400000.0 -21124200000.0 -17742000000.0 -13593300000.0 -13367800000.0 -13502700000.0 -16104500000.0 -17079500000.0 -15513900000.0 -15256000000.0 -19377900000.0 -13405600000.0 -12602400000.0 -13257900000.0 -15878100000.0 -14042400000.0 -15898500000.0 -12568300000.0 -12552000000.0 -15368200000.0 -16739000000.0 -21183300000.0 -16711700000.0 -13261000000.0 -15508900000.0 -13396600000.0 -13460800000.0 -13181800000.0 -13132100000.0 -20307700000.0 -15183600000.0 -17901600000.0 -13091800000.0 -12821900000.0 -14477600000.0 -12651100000.0 -13473900000.0 -14172300000.0 -13529000000.0 -12965400000.0 -14528000000.0 -15532700000.0 -15791700000.0 -15102200000.0 -15216500000.0 -13301600000.0 -12562600000.0 -12549800000.0 -12551000000.0 -12549700000.0 -19071300000.0 -18090000000.0 -12701200000.0 -13417600000.0 -13574300000.0 -13638300000.0 -12791700000.0 -13139300000.0 -12674800000.0 -12603800000.0 -13461000000.0 -12823100000.0 -12901800000.0 -12845300000.0 -13121500000.0 -13369900000.0 -12549700000.0 -15312300000.0 -14770300000.0 -14252900000.0 -15153300000.0 -14683100000.0 -14536700000.0 -14913000000.0 -13417800000.0 -13678600000.0 -12730900000.0 -13376000000.0 -15191000000.0 -13872000000.0 -13067400000.0 -12648800000.0 -12582800000.0 -15401600000.0 -12894300000.0 -12592500000.0 -12628000000.0 -13141100000.0 -12704500000.0 -16652300000.0 -12556300000.0 -13862800000.0 -13782200000.0 -17677600000.0 -13234000000.0 -13642600000.0 -13058100000.0 -18799100000.0 -20421600000.0 -22838100000.0 -12699600000.0 -12683400000.0 -24610100000.0 -19183300000.0 -14803800000.0 -14672400000.0 -12672100000.0 -14099600000.0 -12839100000.0 -13128600000.0 -13822700000.0 -12796900000.0 -12712900000.0 -13716900000.0 -18721600000.0 -13576700000.0 -15225400000.0 -17363200000.0 -15268600000.0 -16403300000.0 -12888900000.0 -18430100000.0 -17003000000.0 -14695200000.0 -15219500000.0 -15745500000.0 -15613300000.0 -14798000000.0 -17728300000.0 -13870000000.0 -12585600000.0 -13840400000.0 -12755600000.0 -15005700000.0 -17191600000.0 -14856600000.0 -18018500000.0 -17710300000.0 -16062900000.0 -15749100000.0 -13916100000.0 -12681400000.0 -18552300000.0 -16784200000.0 -14765100000.0 -13465900000.0 -15461900000.0 -13258400000.0 -12669400000.0 -12610200000.0 -12615300000.0 -12575300000.0 -13663200000.0 -19616100000.0 -16609200000.0 -16510700000.0 -13884300000.0 -13645900000.0 -13160700000.0 -13146500000.0 -14564500000.0 -13857200000.0 -13022300000.0 -12962300000.0 -13554900000.0 -13963500000.0 -12621800000.0 -12730900000.0 -12569500000.0 -12879000000.0 -13163700000.0 -12848100000.0 -14712000000.0 -12745800000.0 -12655600000.0 -13074900000.0 -12573300000.0 -13043300000.0 -12562200000.0 -13976300000.0 -13316500000.0 -14069800000.0 -15900500000.0 -17507100000.0 -13693800000.0 -12725100000.0 -15127600000.0 -13399400000.0 -14010500000.0 -13449200000.0 -12860700000.0 -12642100000.0 -13131700000.0 -17130400000.0 -12999900000.0 -13711800000.0 -12593200000.0 -17029200000.0 -16862400000.0 -21314100000.0 -20163600000.0 -19621100000.0 -21101500000.0 -21494000000.0 -22220300000.0 -12970800000.0 -12583100000.0 -17658200000.0 -12758800000.0 -12763600000.0 -16499600000.0 -13147400000.0 -12960200000.0 -13362300000.0 -13499900000.0 -13673500000.0 -20034500000.0 -16107900000.0 -19929800000.0 -15251800000.0 -14586500000.0 -14353800000.0 -17770200000.0 -13064300000.0 -12971700000.0 -13780900000.0 -12565200000.0 -15921000000.0 -12587700000.0 -14596100000.0 -17709600000.0 -13466900000.0 -13557200000.0 -14352200000.0 -15565300000.0 -15316300000.0 -18843000000.0 -16874700000.0 -14979300000.0 -17193200000.0 -13750100000.0 -15654900000.0 -17437700000.0 -18030200000.0 -15196600000.0 -14802800000.0 -16284500000.0 -14871700000.0 -15299900000.0 -13106100000.0 -12665400000.0 -12744400000.0 -12758600000.0 -12829400000.0 -13461500000.0 -17766400000.0 -16069600000.0 -13454000000.0 -14295200000.0 -13809900000.0 -13337300000.0 -13637600000.0 -13690600000.0 -13760800000.0 -13865100000.0 -13867100000.0 -13300300000.0 -13186000000.0 -15038000000.0 -13390700000.0 -12656200000.0 -12559300000.0 -13166100000.0 -12579400000.0 -12943600000.0 -12549700000.0 -13662300000.0 -13588100000.0 -13274300000.0 -13171800000.0 -15118600000.0 -14581600000.0 -13758700000.0 -14931100000.0 -15479900000.0 -13253400000.0 -13552100000.0 -13338700000.0 -13183400000.0 -12736800000.0 -18319300000.0 -14254800000.0 -12804500000.0 -15011400000.0 -12642200000.0 -16125000000.0 -15196500000.0 -13766500000.0 -13897800000.0 -26341100000.0 -13946300000.0 -35921600000.0 -25341900000.0 -18182200000.0 -12583300000.0 -12558900000.0 -18376800000.0 -20732000000.0 -22547300000.0 -12633000000.0 -13821700000.0 -14825200000.0 -14375000000.0 -16126000000.0 -12743300000.0 -20683900000.0 -20379200000.0 -12549700000.0 -12781700000.0 -15096100000.0 -12581600000.0 -13958200000.0 -13976800000.0 -14700500000.0 -17726400000.0 -12887600000.0 -12793800000.0 -13854800000.0 -14354300000.0 -16242400000.0 -15278200000.0 -13772100000.0 -13217000000.0 -17259000000.0 -15061300000.0 -14681600000.0 -16437600000.0 -14315500000.0 -15050500000.0 -17118900000.0 -15386800000.0 -16831500000.0 -12595400000.0 -12577200000.0 -13082200000.0 -14973400000.0 -12549700000.0 -13942900000.0 -12600100000.0 -13577500000.0 -14301700000.0 -13154100000.0 -14818900000.0 -12991500000.0 -12666800000.0 -12808600000.0 -12583400000.0 -12624700000.0 -13113500000.0 -14738600000.0 -15315600000.0 -12558400000.0 -12549700000.0 -14274900000.0 -13290000000.0 -12972700000.0 -13269100000.0 -12764000000.0 -13101100000.0 -12745100000.0 -12798700000.0 -12906600000.0 -12632400000.0 -12549700000.0 -14110300000.0 -14062000000.0 -14033700000.0 -14225900000.0 -14562000000.0 -14856900000.0 -12882200000.0 -12957800000.0 -12910100000.0 -13404900000.0 -14465400000.0 -13780600000.0 -15737300000.0 -14889700000.0 -13990900000.0 -13160200000.0 -14387800000.0 -12549700000.0 -14914500000.0 -19996400000.0 -15944200000.0 -15739600000.0 -17057000000.0 -17119900000.0 -16384300000.0 -17163900000.0 -16127000000.0 -15539600000.0 -18603900000.0 -21233500000.0 -18646500000.0 -22445200000.0 -14921400000.0 -21853300000.0 -17793300000.0 -14620900000.0 -23227700000.0 -16569100000.0 -15343700000.0 -14793300000.0 -14933200000.0 -15795500000.0 -14836400000.0 -13802900000.0 -16439100000.0 -13792800000.0 -13530000000.0 -15965100000.0 -15108400000.0 -12549700000.0 -12561500000.0 -14529600000.0 -13843100000.0 -16774900000.0 -15033600000.0 -14279500000.0 -16122900000.0 -12658200000.0 -12558000000.0 -17079300000.0 -14264200000.0 -14965800000.0 -15383100000.0 -17354300000.0 -16825400000.0 -17527900000.0 -12549700000.0 -16895800000.0 -13172200000.0 -15110500000.0 -12899900000.0 -14513200000.0 -12873000000.0 -12664800000.0 -12776000000.0 -12736100000.0 -12725900000.0 -12800600000.0 -12947500000.0 -15013400000.0 -12611100000.0 -14648600000.0 -15047400000.0 -13583700000.0 -13324900000.0 -12892900000.0 -12809700000.0 -13056800000.0 -12765300000.0 -13250200000.0 -12847200000.0 -13467200000.0 -13268300000.0 -13257900000.0 -13461300000.0 -13530200000.0 -12794700000.0 -12692100000.0 -12552600000.0 -12606200000.0 -12831700000.0 -12821900000.0 -14752800000.0 -14579200000.0 -14143400000.0 -14705300000.0 -16297300000.0 -12549700000.0 -14652500000.0 -15643000000.0 -13895400000.0 -14242500000.0 -13200500000.0 -13130500000.0 -16311100000.0 -16326700000.0 -12549700000.0 -14555900000.0 -21086500000.0 -15272300000.0 -12627300000.0 -14349300000.0 -13580200000.0 -13807000000.0 -12562200000.0 -17903300000.0 -18381600000.0 -15823600000.0 -41467500000.0 -12689800000.0 -20839100000.0 -18167000000.0 -22770200000.0 -31205600000.0 -26623400000.0 -18544400000.0 -17157700000.0 -18580700000.0 -23095400000.0 -12591600000.0 -16365200000.0 -13152800000.0 -13220700000.0 -12549700000.0 -16550900000.0 -13766300000.0 -12937400000.0 -14843000000.0 -13824600000.0 -14217900000.0 -14879800000.0 -15237100000.0 -13454400000.0 -12703000000.0 -12549700000.0 -12566700000.0 -12601700000.0 -13580700000.0 -15248000000.0 -14127700000.0 -13416500000.0 -15344300000.0 -13873400000.0 -15311000000.0 -13289600000.0 -13100600000.0 -12624300000.0 -13827600000.0 -13415100000.0 -13563800000.0 -12616700000.0 -17508600000.0 -16958100000.0 -17858000000.0 -19394500000.0 -15563700000.0 -12717800000.0 -12549700000.0 -12742100000.0 -12592600000.0 -12585300000.0 -12632700000.0 -12876800000.0 -13847600000.0 -13393000000.0 -14215900000.0 -12643600000.0 -14062200000.0 -13372700000.0 -12647600000.0 -12646400000.0 -12822400000.0 -12802100000.0 -12624200000.0 -13317600000.0 -12680500000.0 -12611900000.0 -12677500000.0 -12671500000.0 -12793300000.0 -12957400000.0 -12591800000.0 -12562500000.0 -12566600000.0 -12549700000.0 -12566800000.0 -13536600000.0 -13715000000.0 -12573900000.0 -12667700000.0 -14779500000.0 -14341000000.0 -16551300000.0 -17553700000.0 -13456600000.0 -18734200000.0 -15716600000.0 -13840600000.0 -18185500000.0 -19346000000.0 -18766700000.0 -18068500000.0 -12570900000.0 -16649100000.0 -14068800000.0 -14276100000.0 -24347500000.0 -20799200000.0 -22883500000.0 -31415700000.0 -24875700000.0 -26400000000.0 -28822200000.0 -13123500000.0 -17285200000.0 -22358800000.0 -16811300000.0 -15910100000.0 -19607900000.0 -23398900000.0 -15765000000.0 -18219600000.0 -18908500000.0 -14494100000.0 -14057900000.0 -16610200000.0 -13154700000.0 -13142100000.0 -13204400000.0 -13477400000.0 -13695100000.0 -13679400000.0 -12552200000.0 -12549700000.0 -12910400000.0 -13550300000.0 -12967200000.0 -12840900000.0 -13010800000.0 -14589200000.0 -13795600000.0 -12622600000.0 -15233100000.0 -13035600000.0 -14537600000.0 -12549700000.0 -14640800000.0 -14130800000.0 -13411300000.0 -13930000000.0 -13349900000.0 -12967000000.0 -13793900000.0 -13848000000.0 -14265400000.0 -16197000000.0 -14429600000.0 -14542300000.0 -15331000000.0 -14653300000.0 -12674400000.0 -12771600000.0 -12549700000.0 -13156200000.0 -12594700000.0 -12585400000.0 -13117600000.0 -12759300000.0 -12592900000.0 -12954000000.0 -13984900000.0 -12549700000.0 -13026300000.0 -13128000000.0 -12701000000.0 -12581300000.0 -12665100000.0 -12549700000.0 -12813700000.0 -13067600000.0 -13351000000.0 -12608000000.0 -12592300000.0 -12556100000.0 -12588200000.0 -12676300000.0 -12550700000.0 -12731600000.0 -12562700000.0 -12596800000.0 -12554900000.0 -12585400000.0 -12588900000.0 -12977100000.0 -12940600000.0 -14051800000.0 -14488100000.0 -14458600000.0 -12610300000.0 -16723600000.0 -13662800000.0 -13196600000.0 -13399600000.0 -20579900000.0 -18986100000.0 -13962700000.0 -18172200000.0 -19465000000.0 -26948700000.0 -12906300000.0 -20215200000.0 -17395300000.0 -17174100000.0 -14669100000.0 -12966500000.0 -12803400000.0 -18368800000.0 -27158400000.0 -25597500000.0 -26373500000.0 -26183600000.0 -19999000000.0 -18286000000.0 -20981100000.0 -25134100000.0 -15670400000.0 -14859300000.0 -12549700000.0 -25439000000.0 -12652200000.0 -17288000000.0 -16587300000.0 -13067600000.0 -13407100000.0 -12719600000.0 -12915300000.0 -13505400000.0 -13387900000.0 -13498100000.0 -13684700000.0 -13565900000.0 -13461300000.0 -13378100000.0 -12569200000.0 -13114100000.0 -12829100000.0 -14034500000.0 -13476900000.0 -13417800000.0 -12930800000.0 -13528000000.0 -13244700000.0 -14409200000.0 -14114200000.0 -13246100000.0 -12887900000.0 -13129900000.0 -13377200000.0 -13327600000.0 -13331900000.0 -13649000000.0 -13331900000.0 -14426100000.0 -12559500000.0 -12553500000.0 -16688000000.0 -13640100000.0 -13119700000.0 -12550000000.0 -13114000000.0 -12987200000.0 -12998800000.0 -12988700000.0 -12634100000.0 -13632700000.0 -12678100000.0 -13726800000.0 -13555600000.0 -13145400000.0 -13145400000.0 -13167300000.0 -12939400000.0 -13048000000.0 -12555400000.0 -12783200000.0 -12549700000.0 -12555200000.0 -12595700000.0 -12675300000.0 -13025600000.0 -12599300000.0 -12930600000.0 -12697200000.0 -12592600000.0 -12556700000.0 -13123400000.0 -12740400000.0 -12695800000.0 -12565800000.0 -13941200000.0 -16824700000.0 -15771500000.0 -16699700000.0 -19279700000.0 -19174300000.0 -12991200000.0 -14957800000.0 -14685600000.0 -14297400000.0 -18402000000.0 -14636600000.0 -20092100000.0 -23741300000.0 -17443200000.0 -23079100000.0 -15614700000.0 -15363200000.0 -30033500000.0 -43512300000.0 -12872300000.0 -12758400000.0 -12682600000.0 -25871700000.0 -14839700000.0 -14074100000.0 -18114800000.0 -12549700000.0 -22490000000.0 -14792000000.0 -13220300000.0 -14123000000.0 -16304600000.0 -13192100000.0 -13182100000.0 -12963500000.0 -12690700000.0 -13763400000.0 -12936400000.0 -12562100000.0 -13522900000.0 -13761200000.0 -12732400000.0 -12656900000.0 -13222600000.0 -12711700000.0 -12923200000.0 -12993300000.0 -12549700000.0 -13341400000.0 -14879600000.0 -12549700000.0 -12886600000.0 -13135200000.0 -12591800000.0 -12566100000.0 -12554000000.0 -12881100000.0 -12693700000.0 -13363200000.0 -14064800000.0 -14218200000.0 -12939800000.0 -13780200000.0 -15839700000.0 -13491100000.0 -13235500000.0 -12771000000.0 -12551200000.0 -12577400000.0 -12688100000.0 -12646400000.0 -12611100000.0 -12672600000.0 -12658400000.0 -12625100000.0 -12933300000.0 -12841300000.0 -12676700000.0 -12713800000.0 -12747300000.0 -12801700000.0 -12947700000.0 -13062000000.0 -12961500000.0 -12769900000.0 -12836200000.0 -12889800000.0 -12993700000.0 -12872900000.0 -13009600000.0 -12849100000.0 -13201100000.0 -13599000000.0 -13342600000.0 -13973900000.0 -13726200000.0 -15569700000.0 -14768700000.0 -14807900000.0 -16185600000.0 -12967400000.0 -14130400000.0 -12679100000.0 -17512100000.0 -17561500000.0 -18594200000.0 -13206600000.0 -14292000000.0 -23109900000.0 -15598200000.0 -19779500000.0 -15169800000.0 -26178300000.0 -27014200000.0 -12549700000.0 -19526400000.0 -17580800000.0 -12549700000.0 -32061700000.0 -13781400000.0 -13916200000.0 -36130200000.0 -12733900000.0 -13125600000.0 -12921900000.0 -26422400000.0 -18078600000.0 -22270900000.0 -18754300000.0 -16456200000.0 -18369400000.0 -19084800000.0 -18628100000.0 -15177600000.0 -14453300000.0 -14622700000.0 -14786200000.0 -15099200000.0 -15024100000.0 -13883400000.0 -12666200000.0 -12616900000.0 -13527300000.0 -13103500000.0 -13049200000.0 -12577200000.0 -13977200000.0 -12965900000.0 -12925200000.0 -13284300000.0 -13410300000.0 -12972600000.0 -14048500000.0 -13658800000.0 -13381400000.0 -13407400000.0 -12552900000.0 -12780200000.0 -13076500000.0 -12566700000.0 -12927700000.0 -14837100000.0 -12933500000.0 -13125100000.0 -12683900000.0 -12645300000.0 -12549700000.0 -12549800000.0 -12556700000.0 -12617900000.0 -12585300000.0 -12557900000.0 -12549700000.0 -12634400000.0 -12664400000.0 -12554900000.0 -12549900000.0 -12549700000.0 -12553700000.0 -12549700000.0 -12688700000.0 -12937200000.0 -12904300000.0 -12888300000.0 -12816300000.0 -12779100000.0 -12955100000.0 -15231100000.0 -12952800000.0 -13484400000.0 -13239500000.0 -15680000000.0 -14265000000.0 -13937800000.0 -14855400000.0 -12598100000.0 -17715300000.0 -16138100000.0 -12582200000.0 -17207600000.0 -18591500000.0 -21371400000.0 -24222200000.0 -12724000000.0 -15063400000.0 -36401700000.0 -21330200000.0 -14892500000.0 -24089600000.0 -18425600000.0 -32667200000.0 -12966600000.0 -15206800000.0 -37554800000.0 -12562800000.0 -22677000000.0 -26969200000.0 -33154600000.0 -21605900000.0 -25435400000.0 -16875200000.0 -19125000000.0 -21637100000.0 -16324500000.0 -14316400000.0 -12615600000.0 -12549700000.0 -14030600000.0 -14302600000.0 -14850200000.0 -15072300000.0 -15173100000.0 -13728700000.0 -15675600000.0 -14157000000.0 -12907500000.0 -12745400000.0 -12550100000.0 -12549700000.0 -13390300000.0 -12773900000.0 -12852600000.0 -12849500000.0 -12945500000.0 -14068800000.0 -12902800000.0 -12911000000.0 -12959300000.0 -12742500000.0 -12920000000.0 -13307500000.0 -12646600000.0 -12627500000.0 -12962500000.0 -12572300000.0 -13881400000.0 -13578700000.0 -13241400000.0 -13072000000.0 -12588700000.0 -12570200000.0 -12604200000.0 -12549700000.0 -12550500000.0 -12556700000.0 -12596000000.0 -12570300000.0 -12549700000.0 -12549700000.0 -12549700000.0 -12607100000.0 -12551400000.0 -12549700000.0 -12549700000.0 -12554700000.0 -12567200000.0 -12678700000.0 -12593800000.0 -12593200000.0 -12555100000.0 -12608400000.0 -12604500000.0 -12682300000.0 -12667300000.0 -12838500000.0 -12944500000.0 -12935900000.0 -12870700000.0 -12649600000.0 -13441000000.0 -13756800000.0 -12974600000.0 -13876000000.0 -14221400000.0 -14696500000.0 -14930000000.0 -15265800000.0 -15243100000.0 -16043500000.0 -13513800000.0 -19861200000.0 -21934000000.0 -19285700000.0 -21672500000.0 -22732500000.0 -25980300000.0 -28127200000.0 -23883800000.0 -26950300000.0 -32003500000.0 -36401500000.0 -41489500000.0 -31325500000.0 -25515000000.0 -27322100000.0 -19854400000.0 -15948200000.0 -16644200000.0 -23743800000.0 -19107700000.0 -17548100000.0 -14302300000.0 -12962900000.0 -13024100000.0 -12870400000.0 -13813400000.0 -12612900000.0 -12839700000.0 -12694600000.0 -12928800000.0 -13771500000.0 -13928000000.0 -12922200000.0 -13490700000.0 -12847200000.0 -13046400000.0 -12840800000.0 -12758900000.0 -12705800000.0 -13171600000.0 -12552200000.0 -12601500000.0 -12562600000.0 -12589500000.0 -13421000000.0 -12602700000.0 -12572700000.0 -12899800000.0 -12549700000.0 -12628000000.0 -13569000000.0 -13378900000.0 -13761000000.0 -13964900000.0 -13339000000.0 -12726800000.0 -12893700000.0 -12577100000.0 -12559600000.0 -12549700000.0 -12565800000.0 -12549700000.0 -12549900000.0 -12551400000.0 -12565900000.0 -12556500000.0 -12549700000.0 -12549700000.0 -12549700000.0 -12570800000.0 -12549700000.0 -12549700000.0 -12549700000.0 -12550800000.0 -12559100000.0 -12635600000.0 -12609300000.0 -12611800000.0 -12563500000.0 -12571800000.0 -12582200000.0 -12670700000.0 -12590400000.0 -12630700000.0 -12812800000.0 -12714300000.0 -12644800000.0 -12919800000.0 -12625700000.0 -12763700000.0 -12955500000.0 -13262800000.0 -13378800000.0 -12844200000.0 -13306500000.0 -15125300000.0 -17691400000.0 -26371700000.0 -12619200000.0 -16588500000.0 -24252000000.0 -15877600000.0 -17195300000.0 -19257300000.0 -26758200000.0 -18474800000.0 -21123800000.0 -30711900000.0 -13820900000.0 -17027900000.0 -16301700000.0 -15938700000.0 -30400200000.0 -12897700000.0 -14212300000.0 -13494500000.0 -14118200000.0 -13952600000.0 -13896500000.0 -12664700000.0 -12581400000.0 -12568800000.0 -12579800000.0 -12668600000.0 -12684000000.0 -12611900000.0 -12581300000.0 -13087100000.0 -12950100000.0 -12549700000.0 -12640300000.0 -12616900000.0 -12619200000.0 -12722800000.0 -12702800000.0 -12686700000.0 -12731200000.0 -12812300000.0 -12551100000.0 -12881600000.0 -12817800000.0 -12580600000.0 -12661100000.0 -12589900000.0 -12701500000.0 -12615600000.0 -12591500000.0 -12710000000.0 -12603500000.0 -12578600000.0 -13141600000.0 -13107400000.0 -12843900000.0 -14821500000.0 -15028200000.0 -14250200000.0 -17960400000.0 -19547000000.0 -25896400000.0 -20558900000.0 -23620800000.0 -20473600000.0 -18461100000.0 -19933400000.0 -34264500000.0 -12590500000.0 -19297700000.0 -18937400000.0 -29446800000.0 -18425400000.0 -16061300000.0 -16847100000.0 -16620300000.0 -28157100000.0 -12898000000.0 -15026700000.0 -13723000000.0 -19891800000.0 -23272000000.0 -14738200000.0 -15889100000.0 -12954400000.0 -33583200000.0 -20180100000.0 -22908500000.0 -12684800000.0 -19063400000.0 -16778200000.0 -14817900000.0 -49065500000.0 -27016600000.0 -32508200000.0 -25007200000.0 -18277700000.0 -16801300000.0 -27521000000.0 -13716300000.0 -15490600000.0 -17070100000.0 -18367900000.0 -18431700000.0 -24884700000.0 -21697200000.0 -14454000000.0 -25891800000.0 -33053500000.0 -46613200000.0 -19366300000.0 -25473700000.0 -20811000000.0 -15598000000.0 -12549700000.0 -16681300000.0 -31676300000.0 -13117700000.0 -12979000000.0 -13331900000.0 -12549700000.0 -15412600000.0 -14652600000.0 -17450500000.0 -18314900000.0 -27854800000.0 -21990300000.0 -12631800000.0 -21400400000.0 -13686600000.0 -13348300000.0 -13593700000.0 -43655700000.0 -19774600000.0 -12626600000.0 -14655400000.0 -12549700000.0 -15445100000.0 -18707200000.0 -17607100000.0 -27832800000.0 -13620100000.0 -13004500000.0 -13062300000.0 -12549700000.0 -13376900000.0 -17642800000.0 -15835300000.0 -24527500000.0 -14821700000.0 -23823100000.0 -19234600000.0 -19145000000.0 -16272700000.0 -18381600000.0 -26646600000.0 -16365900000.0 -23883500000.0 -24956100000.0 -15111600000.0 -13293600000.0 -12549700000.0 -12549700000.0 -12549700000.0 -12549700000.0 -12549700000.0 -12549700000.0 -13234800000.0 -15950300000.0 -14793700000.0 -19851400000.0 -15681000000.0 -20519200000.0 -19263300000.0 -15707500000.0 -20967900000.0 -21057300000.0 -16134200000.0 -45759200000.0 -22188400000.0 -18791800000.0 -17144500000.0 -24962400000.0 -14525100000.0 -30740200000.0 -19240000000.0 -14149400000.0 -13284000000.0 -12549700000.0 -12549700000.0 -12549700000.0 -12549700000.0 -12549700000.0 -12549700000.0 -12549700000.0 -12549700000.0 -12549700000.0 -12549700000.0 -12549700000.0 -12549700000.0 -12549700000.0 -12549700000.0 -12549700000.0 -12549700000.0 -12549700000.0 -12549700000.0 -12549700000.0 -12549700000.0 -12549700000.0 -12549700000.0 -12549700000.0 -12549700000.0 -12549700000.0 -12549700000.0 -12549700000.0 -12549700000.0 -12549700000.0 -12549700000.0 -12549700000.0 -12549700000.0 -12549700000.0 -12549700000.0 -12550900000.0 -12549700000.0 -12549700000.0 -12758100000.0 -15740300000.0 -14656300000.0 -12687200000.0 -15695000000.0 -21360800000.0 -31849700000.0 -25126700000.0 -22310100000.0 -50992900000.0 -13415700000.0 -18701100000.0 -15791300000.0 -13231300000.0 -31463100000.0 -29953200000.0 -19054300000.0 -13095100000.0 -17878500000.0 -12678700000.0 -17333700000.0 -21708600000.0 -13580000000.0 -12714600000.0 -12549700000.0 -12549700000.0 -12549700000.0 -12549700000.0 -12549700000.0 -12549700000.0 -12549700000.0 -12549700000.0 -12549700000.0 -12549700000.0 -12549700000.0 -12549700000.0 -12549700000.0 -12549700000.0 -12549700000.0 -12549700000.0 -12549700000.0 -12549700000.0 -12549700000.0 -12549700000.0 -12549700000.0 -12549700000.0 -12549700000.0 -12549700000.0 -12549900000.0 -12553500000.0 -14597400000.0 -15991900000.0 -21545400000.0 -23093200000.0 -28915900000.0 -19312400000.0 -13940000000.0 -20510900000.0 -18209700000.0 -24906400000.0 -33393400000.0 -23279300000.0 -25600600000.0 -28544200000.0 -23210700000.0 -12588000000.0 -14282000000.0 -23329400000.0 -12923600000.0 -12752500000.0 -14100800000.0 -12799100000.0 -12561900000.0 -12549700000.0 -12549700000.0 -12549700000.0 -12549700000.0 -12549700000.0 -12549700000.0 -12549700000.0 -12549700000.0 -12549700000.0 -12549700000.0 -12549700000.0 -12549700000.0 -12549700000.0 -12549700000.0 -12549700000.0 -12549700000.0 -12549700000.0 -12549700000.0 -12549700000.0 -12549700000.0 -12549700000.0 -12549700000.0 -12549700000.0 -12549700000.0 -12549700000.0 -12549700000.0 -12549700000.0 -12549700000.0 -12549700000.0 -12549700000.0 -12549700000.0 -12549700000.0 -12549700000.0 -12549700000.0 -12549700000.0 -12549700000.0 -12549700000.0 -12549700000.0 -12549700000.0 -12549700000.0 -12549700000.0 -12549700000.0 -12549700000.0 -12644300000.0 -13045200000.0 -13256200000.0 -13622300000.0 -14040200000.0 -16664900000.0 -14609800000.0 -17301100000.0 -23636800000.0 -19050300000.0 -20631500000.0 -30178400000.0 -29577000000.0 -40145300000.0 -30251300000.0 -29620400000.0 -23718900000.0 -28977500000.0 -13960200000.0 -13940400000.0 -21455800000.0 -22776300000.0 -15506500000.0 -13297800000.0 -12606500000.0 -12668500000.0 -12576100000.0 -12549700000.0 -12549700000.0 -12549700000.0 -12549700000.0 -12549700000.0 -12549700000.0 -12549700000.0 -12549700000.0 -12549700000.0 -12549700000.0 -12549700000.0 -12549700000.0 -12549700000.0 -12549700000.0 -12549700000.0 -12549700000.0 -12549700000.0 -12549700000.0 -12549700000.0 -12549700000.0 -12549700000.0 -12549700000.0 -12549700000.0 -12549700000.0 -12549700000.0 -12549700000.0 -12549700000.0 -12549700000.0 -12549700000.0 -12549700000.0 -12549700000.0 -12549700000.0 -12549700000.0 -12549700000.0 -12549700000.0 -12549700000.0 -12549700000.0 -12549700000.0 -12549700000.0 -12549700000.0 -12549700000.0 -12549700000.0 -12549700000.0 -12555700000.0 -12570400000.0 -12768600000.0 -14035200000.0 -12836200000.0 -16730200000.0 -19727700000.0 -21172300000.0 -24975700000.0 -12670800000.0 -25159100000.0 -28424900000.0 -26224500000.0 -23409200000.0 -28745300000.0 -12549700000.0 -22224800000.0 -23417600000.0 -21929300000.0 -15754300000.0 -13780100000.0 -12704500000.0 -12592900000.0 -12551700000.0 -12550800000.0 -12550000000.0 -12549700000.0 -12549700000.0 -12549700000.0 -12549700000.0 -12549700000.0 -12549700000.0 -12549700000.0 -12549700000.0 -12549700000.0 -12549700000.0 -12549700000.0 -12549700000.0 -12549700000.0 -12549700000.0 -12549700000.0 -12549700000.0 -12549700000.0 -12549700000.0 -12549700000.0 -12549700000.0 -12549700000.0 -12549700000.0 -12549700000.0 -12549700000.0 -12549700000.0 -12549700000.0 -12549700000.0 -12549700000.0 -12549700000.0 -12549700000.0 -12549700000.0 -12549700000.0 -12549700000.0 -12549700000.0 -12549700000.0 -12549700000.0 -12549700000.0 -12549700000.0 -12549700000.0 -12549700000.0 -12549700000.0 -12593100000.0 -12879500000.0 -13123300000.0 -14876600000.0 -13715500000.0 -14283000000.0 -14541700000.0 -13628900000.0 -34228300000.0 -30564700000.0 -21880000000.0 -19839200000.0 -37117100000.0 -21705900000.0 -16051100000.0 -17028300000.0 -16406800000.0 -27242700000.0 -12760600000.0 -26477300000.0 -41267600000.0 -32735600000.0 -19863400000.0 -15651300000.0 -12752800000.0 -12897900000.0 -12549700000.0 -12574500000.0 -12561200000.0 -12554700000.0 -12549700000.0 -12549700000.0 -12549700000.0 -12549700000.0 -12549700000.0 -12549700000.0 -12549700000.0 -12549700000.0 -12549700000.0 -12549700000.0 -12549700000.0 -12549700000.0 -12549700000.0 -12549700000.0 -12549700000.0 -12549700000.0 -12549700000.0 -12549700000.0 -12549700000.0 -12549700000.0 -12549700000.0 -12549700000.0 -12549700000.0 -12549700000.0 -12549700000.0 -12549700000.0 -12549700000.0 -12549700000.0 -12549700000.0 -12549700000.0 -12549700000.0 -12549700000.0 -12549700000.0 -12549700000.0 -12549700000.0 -12549700000.0 -12549700000.0 -12549700000.0 -12549700000.0 -12549700000.0 -12549700000.0 -12549700000.0 -12549700000.0 -12549700000.0 -12549700000.0 -12549700000.0 -12549700000.0 -12549700000.0 -12549700000.0 -12549700000.0 -12549700000.0 -12549700000.0 -13531000000.0 -17369300000.0 -21070900000.0 -12783400000.0 -28664200000.0 -12549700000.0 -18645900000.0 -23968400000.0 -28529100000.0 -33957400000.0 -15721600000.0 -25329000000.0 -15031800000.0 -19879600000.0 -23501900000.0 -21541800000.0 -12848800000.0 -46067400000.0 -20358600000.0 -13700900000.0 -12803000000.0 -12829100000.0 -13255300000.0 -12616200000.0 -12549700000.0 -12549700000.0 -12549700000.0 -12549700000.0 -12549700000.0 -12549700000.0 -12549700000.0 -12549700000.0 -12549700000.0 -12549700000.0 -12549700000.0 -12549700000.0 -12549700000.0 -12549700000.0 -12549700000.0 -12549700000.0 -12549700000.0 -12549700000.0 -12549700000.0 -12549700000.0 -12549700000.0 -12549700000.0 -12549700000.0 -12549700000.0 -12549700000.0 -12549700000.0 -12549700000.0 -12549700000.0 -12549700000.0 -12549700000.0 -12549700000.0 -12549700000.0 -12549700000.0 -12549700000.0 -12549700000.0 -12549700000.0 -12549700000.0 -12549700000.0 -12549700000.0 -13187900000.0 -30749600000.0 -13411200000.0 -16713700000.0 -15873500000.0 -19680100000.0 -16019700000.0 -23292900000.0 -13293800000.0 -24577600000.0 -25092500000.0 -15759000000.0 -15843400000.0 -25790400000.0 -42174900000.0 -12549700000.0 -22569200000.0 -14331300000.0 -13591200000.0 -12549700000.0 -12549700000.0 -12549700000.0 -12549700000.0 -12549700000.0 -12549700000.0 -12549700000.0 -12549700000.0 -12549700000.0 -12549700000.0 -12549700000.0 -12549700000.0 -12549700000.0 -12549700000.0 -12549700000.0 -12549700000.0 -12549700000.0 -12549700000.0 -12549700000.0 -12549700000.0 -12549700000.0 -12549700000.0 -12549700000.0 -12549700000.0 -12549700000.0 -12549700000.0 -12549700000.0 -12549700000.0 -12549700000.0 -12549700000.0 -12549700000.0 -12549700000.0 -12549700000.0 -12549700000.0 -12549700000.0 -12549700000.0 -12549700000.0 -12549700000.0 -12549700000.0 -12549700000.0 -12549700000.0 -12549700000.0 -12549700000.0 -13828500000.0 -21556800000.0 -26186300000.0 -18874300000.0 -15920700000.0 -13850000000.0 -15986100000.0 -12723300000.0 -12565500000.0 -22583500000.0 -25195400000.0 -20373900000.0 -21921600000.0 -24975200000.0 -16232200000.0 -37636700000.0 -42359700000.0 -12549700000.0 -13452000000.0 -21769200000.0 -13972000000.0 -12549700000.0 -12549700000.0 -12549700000.0 -12549700000.0 -12549700000.0 -12549700000.0 -12549700000.0 -12549700000.0 -12549700000.0 -12549700000.0 -12549700000.0 -12549700000.0 -12549700000.0 -12549700000.0 -12549700000.0 -12549700000.0 -12549700000.0 -12549700000.0 -12549700000.0 -12549700000.0 -12549700000.0 -12549700000.0 -12549700000.0 -12549700000.0 -12549700000.0 -12549700000.0 -12549700000.0 -12549700000.0 -12549700000.0 -12549700000.0 -12549700000.0 -12549700000.0 -12549700000.0 -12549700000.0 -12549700000.0 -12549700000.0 -12549700000.0 -12549700000.0 -13921100000.0 -19413300000.0 -31221200000.0 -16371300000.0 -13200300000.0 -18094800000.0 -18270400000.0 -22400800000.0 -33668500000.0 -18712200000.0 -48222500000.0 -47770500000.0 -38466300000.0 -22312000000.0 -27096200000.0 -14229500000.0 -12549700000.0 -12549700000.0 -12549700000.0 -12549700000.0 -12549700000.0 -12549700000.0 -12549700000.0 -12549700000.0 -12549700000.0 -12549700000.0 -12549700000.0 -12549700000.0 -12480600000.0 -12549700000.0 -12549700000.0 -12549700000.0 -12549700000.0 -12549700000.0 -12549700000.0 -12549700000.0 -12549700000.0 -12549700000.0 -12549700000.0 -12549700000.0 -12549700000.0 -12549700000.0 -12549700000.0 -12549700000.0 -12549700000.0 -12549700000.0 -12549700000.0 -12549700000.0 -12549700000.0 -12549700000.0 -12549700000.0 -12549700000.0 -12549700000.0 -12549700000.0 -12549700000.0 -12549700000.0 -12549700000.0 -12549700000.0 -12549700000.0 -12549700000.0 -12549700000.0 -13432300000.0 -20977600000.0 -30918900000.0 -12784800000.0 -13890700000.0 -15682300000.0 -17651900000.0 -22967600000.0 -19161500000.0 -37416500000.0 -21705600000.0 -29776900000.0 -37494000000.0 -35355100000.0 -39207700000.0 -36309900000.0 -17907000000.0 -47310800000.0 -27539200000.0 -27669400000.0 -14929900000.0 -13332200000.0 -17237700000.0 -12740000000.0 -12549700000.0 -12549700000.0 -12549700000.0 -12549700000.0 -12549700000.0 -12549700000.0 -12549700000.0 -12549700000.0 -12549700000.0 -12549700000.0 -12549700000.0 -12549700000.0 -12549700000.0 -12549700000.0 -12549700000.0 -12549700000.0 -12549700000.0 -12549700000.0 -12549700000.0 -12549700000.0 -12549700000.0 -12549700000.0 -12549700000.0 -12549700000.0 -12549700000.0 -12549700000.0 -22901400000.0 -12549700000.0 -12549700000.0 -12742100000.0 -13721500000.0 -21865700000.0 -29472000000.0 -12888200000.0 -12674900000.0 -16422200000.0 -17125300000.0 -28611000000.0 -24491500000.0 -20119500000.0 -20087900000.0 -25783700000.0 -27184600000.0 -39580400000.0 -27403800000.0 -54276400000.0 -40305100000.0 -57310500000.0 -74752000000.0 -32505100000.0 -12662800000.0 -12549700000.0 -12549700000.0 -15049800000.0 -15185200000.0 -13701200000.0 -12789800000.0 -12549700000.0 -12549700000.0 -12549700000.0 -12549700000.0 -12549700000.0 -3.66392e+12 -3.39593e+12 -5.22516e+12 -4.84197e+12 -12537200000.0 -137272000000.0 -569928000000.0 -3.38716e+12 -3.91699e+12 -3.62095e+12 -1.19086e+12 -306608000000.0 -4.94522e+12 -3.86838e+12 -247297000000.0 -1.32819e+12 -4.34534e+12 -2.25949e+12 -4.73418e+12 -6.25043e+12 -1.8794e+12 -2.68101e+12 -3.20881e+12 -4.73921e+12 -6.05267e+12 -4.05942e+12 -4.76641e+12 -5.41953e+12 -5.40528e+12 -5.71861e+12 -12549700000.0 -2.83293e+12 -4.06496e+12 -4.09158e+12 -5.38982e+12 -3.25714e+12 -389151000000.0 -3.53876e+12 -4.73762e+12 -4.58836e+12 -4.18671e+12 -3.51836e+12 -47428900000.0 -51233600000.0 -26072400000.0 -13575600000.0 -12549700000.0 -12547500000.0 -2.03681e+12 -12549700000.0 -3.0911e+12 -4.46507e+12 -4.88766e+12 -4.3225e+12 -6.04617e+12 -3.7932e+12 -12549700000.0 -31382400000.0 -28688500000.0 -33217800000.0 -13183300000.0 -34700200000.0 -35767500000.0 -36973600000.0 -45942400000.0 -29031700000.0 -12834800000.0 -31747700000.0 -35006700000.0 -17301400000.0 -42600700000.0 -19911600000.0 -38423700000.0 -44390000000.0 -36265600000.0 -26197800000.0 -46869200000.0 -16019300000.0 -75729300000.0 -21870400000.0 -12549300000.0 -12548300000.0 -55276900000.0 -492104000000.0 -4.0663e+12 -4.98422e+12 -3.96834e+12 -3.40134e+12 -1.89066e+12 -5.17752e+12 -2.57034e+12 -4.96199e+12 -5.37799e+12 -7.10581e+12 -6.50714e+12 -12549700000.0 -12549600000.0 -12549700000.0 -12549700000.0 -13830000000.0 -14103300000.0 -13538900000.0 -3.82609e+12 -1.89163e+12 -3.82167e+12 -12545000000.0 -3.38339e+12 -6.23492e+12 -6.27044e+12 -4.84762e+12 -6.49474e+12 -5.10201e+12 -4.58092e+12 -4.50719e+12 -3.53741e+12 -4.17705e+12 -6.02193e+12 -5.36167e+12 -4.03743e+12 -5.19434e+12 -5.18362e+12 -12549700000.0 -3.00608e+12 -12549700000.0 -5.54257e+12 -4.29909e+12 -5.97097e+12 -4.21049e+12 -2.61614e+12 -3.77631e+12 -5.28818e+12 -6.20213e+12 -4.17231e+12 -4.80602e+12 -12549700000.0 -6.32201e+12 -12549600000.0 -3.13262e+12 -3.46918e+12 -3.7203e+12 -6.51114e+12 -5.91259e+12 -5.66319e+12 -7.90567e+12 -5.95237e+12 -4.5998e+12 -4.48227e+12 -4.07948e+12 -4.9855e+12 -5.23829e+12 -3.96509e+12 -5.07165e+12 -4.91095e+12 -3.91077e+12 -2.09397e+12 -7.02419e+12 -8.73891e+12 -3.59154e+12 -3.04378e+12 -6.5751e+12 -5.29673e+12 -4.59645e+12 -6.87374e+12 -7.15933e+12 -4.2308e+12 -8.24148e+12 -1.11771e+13 -4.72296e+12 -5.45385e+12 -3.95147e+12 -6.1992e+12 -6.45328e+12 -4.52703e+12 -5.3082e+12 -7.78437e+12 -7.20665e+12 -8.83418e+12 -7.98154e+12 -8.13217e+12 -5.13712e+12 -5.45552e+12 -5.92436e+12 -7.11809e+12 -5.84146e+12 -6.71613e+12 -5.36962e+12 -6.50245e+12 -8.67593e+12 -6.52098e+12 -8.25518e+12 -7.02716e+12 -6.27673e+12 -3.71254e+12 -7.63044e+12 -3.93015e+12 -4.51284e+12 -7.08415e+12 -9.25332e+12 -5.7367e+12 -6.30621e+12 -4.52693e+12 -7.26264e+12 -3.70892e+12 -5.03103e+12 -3.38133e+12 -5.05032e+12 -4.02732e+12 -8.91823e+12 -5.09061e+12 -4.13153e+12 -4.02228e+12 -6.88251e+12 -5.93869e+12 -6.64888e+12 -7.77318e+12 -3.78742e+12 -4.10245e+12 -3.4384e+12 -2.86337e+12 -3.85905e+12 -12549700000.0 -12549700000.0 -23118200000.0 -18266100000.0 -20051500000.0 -16099600000.0 -17850300000.0 -21011000000.0 -35897300000.0 -42171900000.0 -39817200000.0 -15685600000.0 -14917700000.0 -48623600000.0 -15735300000.0 -46843700000.0 -26342700000.0 -24509300000.0 -49888000000.0 -2.37886e+12 -6.03342e+12 -5.95943e+12 -3.73583e+12 -4.58064e+12 -6.27923e+12 -6.00968e+12 -3.85753e+12 -9.9317e+12 -7.75915e+12 -5.98522e+12 -4.52867e+12 -4.08154e+12 -7.60483e+12 -7.19015e+12 -4.23343e+12 -3.99277e+12 -5.70242e+12 -4.97957e+12 -9.13937e+12 -7.46164e+12 -4.57193e+12 -5.57473e+12 -4.6993e+12 -7.1363e+12 -4.89548e+12 -4.55365e+12 -6.39757e+12 -7.7642e+12 -7.57222e+12 -4.06119e+12 -5.7948e+12 -6.47042e+12 -8.38919e+12 -6.69483e+12 -8.85522e+12 -6.97211e+12 -6.12023e+12 -5.23944e+12 -9.84766e+12 -2.94271e+12 -5.88066e+12 -7.34807e+12 -5.65786e+12 -6.56037e+12 -4.79094e+12 -6.90167e+12 -6.49574e+12 -7.07975e+12 -8.35704e+12 -6.91671e+12 -6.44535e+12 -7.78776e+12 -5.99412e+12 -5.01383e+12 -4.66838e+12 -8.24689e+12 -4.29286e+12 -8.10831e+12 -6.44778e+12 -5.52586e+12 -7.21426e+12 -8.53707e+12 -8.35713e+12 -8.23167e+12 -6.60514e+12 -7.59882e+12 -4.75578e+12 -5.86087e+12 -5.85253e+12 -5.78657e+12 -5.4e+12 -7.05471e+12 -6.83947e+12 -8.32832e+12 -4.23368e+12 -3.98235e+12 -3.32185e+12 -4.55769e+12 -2.61483e+12 -5.40564e+12 -8.06765e+12 -6.22498e+12 -7.43733e+12 -7.48516e+12 -1.03094e+13 -3.81171e+12 -6.49814e+12 -5.30672e+12 -4.46245e+12 -6.93251e+12 -9.11021e+12 -5.31044e+12 -4.25744e+12 -3.44057e+12 -2.45817e+12 -5.61941e+12 -5.82572e+12 -5.68871e+12 -3.95405e+12 -7.19279e+12 -2.42259e+12 -7.15319e+12 -6.18328e+12 -5.82184e+12 -8.91991e+12 -8.78504e+12 -5.38673e+12 -6.03993e+12 -5.57697e+12 -6.88629e+12 -8.96221e+12 -5.142e+12 -6.21223e+12 -7.28903e+12 -6.71629e+12 -6.4134e+12 -7.92605e+12 -4.44654e+12 -7.13942e+12 -1.03928e+13 -5.40439e+12 -3.96123e+12 -5.02654e+12 -3.17922e+12 -7.48756e+12 -5.72704e+12 -6.23023e+12 -7.43675e+12 -6.76163e+12 -6.567e+12 -6.18297e+12 -4.1972e+12 -2.88374e+12 -4.62866e+12 -5.86692e+12 -6.35037e+12 -6.20204e+12 -1.01905e+13 -3.3143e+12 -4.39792e+12 -6.38414e+12 -6.24271e+12 -6.77767e+12 -3.07067e+12 -3.581e+12 -4.5875e+12 -4.63864e+12 -2.59953e+12 -15890400000.0 -31953800000.0 -18695500000.0 -23562900000.0 -17529400000.0 -16581300000.0 -19451600000.0 -19906600000.0 -15785200000.0 -16146600000.0 -29673000000.0 -24392400000.0 -76765400000.0 -15284700000.0 -47337200000.0 -59946400000.0 -66273500000.0 -12549600000.0 -4.88301e+12 -4.8401e+12 -7.80298e+12 -7.5251e+12 -5.44846e+12 -1.00473e+13 -3.19718e+12 -2.40889e+12 -4.76433e+12 -6.78255e+12 -7.20582e+12 -5.19423e+12 -8.91328e+12 -6.07921e+12 -9.71814e+12 -9.28182e+12 -1.03129e+13 -7.02973e+12 -8.26377e+12 -5.1041e+12 -1.01445e+13 -5.23291e+12 -6.69906e+12 -7.63507e+12 -7.17004e+12 -4.47369e+12 -9.93322e+12 -8.90431e+12 -7.63829e+12 -7.93538e+12 -4.52014e+12 -4.6368e+12 -7.8196e+12 -5.89865e+12 -7.86276e+12 -6.52385e+12 -5.90425e+12 -6.91509e+12 -5.0217e+12 -5.45691e+12 -5.78841e+12 -6.31591e+12 -1.28911e+12 -5.16166e+12 -2.68379e+12 -6.35885e+12 -4.25151e+12 -5.75815e+12 -6.93099e+12 -9.90902e+12 -5.62272e+12 -6.50765e+12 -5.1078e+12 -4.23964e+12 -4.06559e+12 -4.0523e+12 -5.61245e+12 -7.23842e+12 -3.99326e+12 -8.01651e+12 -9.86983e+12 -5.07749e+12 -5.12144e+12 -7.94627e+12 -7.61708e+12 -4.80224e+12 -4.86041e+12 -6.44027e+12 -6.92501e+12 -6.72998e+12 -5.02908e+12 -5.57396e+12 -5.60884e+12 -4.65928e+12 -5.88983e+12 -6.86946e+12 -4.3313e+12 -2.23893e+12 -6.52082e+12 -4.64066e+12 -1.69377e+12 -6.55662e+12 -6.53522e+12 -5.81015e+12 -5.90956e+12 -4.40238e+12 -5.63893e+12 -6.2315e+12 -5.57132e+12 -6.01466e+12 -5.08704e+12 -6.27472e+12 -6.6729e+12 -6.33245e+12 -4.18466e+12 -5.10814e+12 -3.96943e+12 -4.75948e+12 -8.44209e+12 -8.02691e+12 -7.32093e+12 -6.26269e+12 -6.13302e+12 -6.69101e+12 -5.62917e+12 -8.34428e+12 -6.09592e+12 -4.7535e+12 -7.16608e+12 -2.69404e+12 -6.08517e+12 -2.82492e+12 -6.2762e+12 -8.23797e+12 -9.33849e+12 -4.88462e+12 -5.01143e+12 -4.73446e+12 -5.83529e+12 -8.64154e+12 -3.75338e+12 -3.90944e+12 -5.08408e+12 -4.60467e+12 -6.70104e+12 -3.75339e+12 -5.37036e+12 -8.01297e+12 -6.52791e+12 -4.07889e+12 -6.30148e+12 -5.065e+12 -13133000000.0 -51360300000.0 -12653300000.0 -12662700000.0 -12754500000.0 -13332800000.0 -15684400000.0 -16328600000.0 -13921000000.0 -19599200000.0 -12921400000.0 -31587500000.0 -24607700000.0 -18066400000.0 -33023700000.0 -64640300000.0 -93038000000.0 -69296900000.0 -20867800000.0 -107120000000.0 -4.53462e+12 -3.93492e+12 -4.17175e+12 -8.45071e+12 -2.99986e+12 -1.99592e+12 -4.28651e+12 -4.52339e+12 -6.44423e+12 -1.04959e+13 -7.52939e+12 -6.58104e+12 -6.12274e+12 -2.82621e+12 -4.44362e+12 -4.96368e+12 -5.84903e+12 -3.85278e+12 -4.19129e+12 -7.6369e+12 -6.83848e+12 -5.44017e+12 -5.04417e+12 -5.32255e+12 -3.60402e+12 -9.93508e+12 -6.33735e+12 -6.42409e+12 -3.6914e+12 -9.11809e+12 -9.58445e+12 -2.83579e+12 -3.58408e+12 -4.80285e+12 -7.43866e+12 -4.34255e+12 -5.76846e+12 -7.29569e+12 -4.68527e+12 -6.16522e+12 -5.8573e+12 -6.2187e+12 -5.77436e+12 -5.42098e+12 -7.30865e+12 -7.85108e+12 -5.71721e+12 -8.10689e+12 -3.8464e+12 -3.88704e+12 -6.13267e+12 -5.4603e+12 -5.55779e+12 -3.50445e+12 -4.20756e+12 -3.97728e+12 -4.41157e+12 -6.42146e+12 -4.4538e+12 -3.05066e+12 -8.24398e+12 -4.3135e+12 -4.0397e+12 -4.11928e+12 -3.07006e+12 -1.98338e+12 -6.25252e+12 -3.62936e+12 -4.23588e+12 -8.4859e+12 -7.02732e+12 -6.54937e+12 -9.59097e+12 -4.9135e+12 -3.68781e+12 -4.57608e+12 -4.22022e+12 -9.47348e+12 -5.02467e+12 -5.563e+12 -5.03849e+12 -4.5762e+12 -4.78354e+12 -3.93746e+12 -5.0255e+12 -2.99484e+12 -6.92177e+12 -4.60419e+12 -4.07759e+12 -6.99606e+12 -8.01e+12 -6.5246e+12 -7.68362e+12 -3.90397e+12 -4.51868e+12 -4.24431e+12 -3.34605e+12 -2.19545e+12 -5.76263e+12 -4.22688e+12 -4.12696e+12 -4.98372e+12 -5.5214e+12 -3.84894e+12 -7.6685e+12 -6.5207e+12 -8.90239e+12 -5.49457e+12 -3.97422e+12 -5.19796e+12 -6.54649e+12 -3.01035e+12 -5.94062e+12 -7.59129e+12 -5.89632e+12 -4.41902e+12 -2.71289e+12 -5.96205e+12 -5.67913e+12 -5.47173e+12 -6.26385e+12 -5.05453e+12 -5.78946e+12 -3.55745e+12 -1.9924e+12 -63553900000.0 -79308200000.0 -12966300000.0 -12549700000.0 -12549700000.0 -15402400000.0 -17085800000.0 -12549700000.0 -17125200000.0 -17912000000.0 -17147100000.0 -36172500000.0 -31734600000.0 -42597400000.0 -14288800000.0 -64598500000.0 -76853000000.0 -108853000000.0 -4.66563e+12 -3.66908e+12 -4.19692e+12 -3.22295e+12 -5.40597e+12 -5.84908e+12 -4.70759e+12 -7.32548e+12 -7.94829e+12 -4.27006e+12 -6.17193e+12 -2.49106e+12 -3.89006e+12 -5.14916e+12 -4.9741e+12 -3.76755e+12 -5.29227e+12 -6.52277e+12 -7.10808e+12 -4.13619e+12 -9.02267e+12 -3.58596e+12 -5.71568e+12 -2.81985e+12 -2.18561e+12 -3.64889e+12 -3.528e+12 -7.9506e+12 -3.16099e+12 -2.74081e+12 -4.07277e+12 -4.15317e+12 -4.63585e+12 -2.37566e+12 -6.55768e+12 -7.47347e+12 -6.11088e+12 -6.69125e+12 -3.431e+12 -2.85227e+12 -3.92066e+12 -3.28924e+12 -5.85829e+12 -6.06597e+12 -5.72158e+12 -4.35729e+12 -5.59951e+12 -5.66987e+12 -5.90391e+12 -4.8685e+12 -3.98016e+12 -5.23206e+12 -4.25257e+12 -4.25246e+12 -5.11024e+12 -4.2876e+12 -4.11422e+12 -5.18499e+12 -7.05623e+12 -3.22803e+12 -5.47333e+12 -6.08322e+12 -7.11235e+12 -7.6447e+12 -1.91042e+12 -5.91215e+12 -5.54882e+12 -4.05887e+12 -4.74166e+12 -2.68358e+12 -4.37034e+12 -9.53665e+12 -4.13443e+12 -6.42799e+12 -7.66038e+12 -3.97218e+12 -584227000000.0 -5.22801e+12 -3.98773e+12 -5.81284e+12 -4.10338e+12 -4.85267e+12 -4.746e+12 -4.29408e+12 -5.16851e+12 -4.79299e+12 -4.31752e+12 -1.72887e+12 -5.7737e+12 -6.05119e+12 -4.40596e+12 -2.60509e+12 -3.96413e+12 -6.17292e+12 -5.3966e+12 -5.7516e+12 -4.99521e+12 -7.11685e+12 -7.12683e+12 -3.88043e+12 -6.82753e+12 -2.67849e+12 -6.07799e+12 -5.87464e+12 -6.86133e+12 -3.22051e+12 -3.6242e+12 -5.20222e+12 -4.76838e+12 -5.31557e+12 -3.75991e+12 -6.36291e+12 -6.21982e+12 -7.10842e+12 -4.5638e+12 -4.46297e+12 -3.35638e+12 -4.2434e+12 -4.39751e+12 -2.82482e+12 -5.32079e+12 -2.31166e+12 -1.95595e+12 -2.78322e+12 -12549700000.0 -38972000000.0 -28725800000.0 -18877600000.0 -14361500000.0 -12963700000.0 -12982300000.0 -14483300000.0 -13558800000.0 -18510700000.0 -28714000000.0 -29996300000.0 -14777900000.0 -16588400000.0 -58397100000.0 -24107400000.0 -21971800000.0 -63208900000.0 -34807200000.0 -26825200000.0 -45091800000.0 -12549700000.0 -5.03397e+12 -4.45631e+12 -6.30868e+12 -4.20398e+12 -4.05116e+12 -4.00105e+12 -3.39921e+12 -3.42896e+12 -3.88161e+12 -3.53069e+12 -5.3178e+12 -3.27223e+12 -4.12996e+12 -4.59453e+12 -5.53833e+12 -3.76193e+12 -4.8742e+12 -5.9425e+12 -3.52933e+12 -4.83597e+12 -2.58717e+12 -3.67765e+12 -3.99099e+12 -5.22555e+12 -4.82402e+12 -3.44892e+12 -2.91387e+12 -5.29842e+12 -3.03528e+12 -5.91448e+12 -3.90541e+12 -4.87655e+12 -2.97799e+12 -3.45228e+12 -5.75722e+12 -5.67728e+12 -5.63534e+12 -5.79562e+12 -6.99876e+12 -2.47723e+12 -4.19377e+12 -4.09768e+12 -5.90626e+12 -2.23674e+12 -2.73023e+12 -4.15296e+12 -3.87357e+12 -5.73948e+12 -4.58809e+12 -2.96407e+12 -2.83067e+12 -3.70889e+12 -5.381e+12 -6.22125e+12 -4.66975e+12 -3.43926e+12 -4.07634e+12 -5.03535e+12 -2.36043e+12 -5.87972e+12 -5.80381e+12 -4.03198e+12 -5.44561e+12 -3.63624e+12 -4.51723e+12 -5.84319e+12 -5.14252e+12 -5.59829e+12 -5.70477e+12 -3.31728e+12 -5.30349e+12 -4.99672e+12 -2.93976e+12 -4.69812e+12 -2.97382e+12 -6.00247e+12 -5.45433e+12 -2.86531e+12 -2.12277e+12 -4.92223e+12 -4.23297e+12 -3.51375e+12 -3.87997e+12 -3.37894e+12 -2.89882e+12 -4.72111e+12 -8.31617e+12 -3.21664e+12 -3.54499e+12 -5.2122e+12 -3.0898e+12 -2.92936e+12 -4.65901e+12 -5.5579e+12 -4.38299e+12 -4.57294e+12 -6.40652e+12 -3.22947e+12 -7.09268e+12 -4.93103e+12 -640861000000.0 -2.91714e+12 -4.87587e+12 -4.87869e+12 -4.04897e+12 -4.28018e+12 -4.13267e+12 -6.02518e+12 -1.75584e+12 -14376700000.0 -19760400000.0 -14036500000.0 -15928700000.0 -13413600000.0 -13688600000.0 -14128300000.0 -15735000000.0 -16245200000.0 -18220800000.0 -13386900000.0 -13078000000.0 -17056700000.0 -16488000000.0 -20588200000.0 -25673600000.0 -22704800000.0 -17751800000.0 -41643300000.0 -19753200000.0 -4.50304e+12 -5.22518e+12 -3.19434e+12 -3.22632e+12 -5.82347e+12 -5.02839e+12 -3.30902e+12 -3.55886e+12 -3.85184e+12 -3.87464e+12 -6.44122e+12 -3.60791e+12 -2.99948e+12 -7.87707e+12 -2.46368e+12 -3.4386e+12 -4.96317e+12 -2.58906e+12 -4.45321e+12 -3.25236e+12 -3.21914e+12 -3.46418e+12 -2.37496e+12 -4.89089e+12 -3.47586e+12 -5.61132e+12 -1.71842e+12 -4.76282e+12 -5.61835e+12 -5.36499e+12 -4.34625e+12 -3.65506e+12 -6.38443e+12 -3.01696e+12 -2.24785e+12 -4.9018e+12 -4.38968e+12 -4.06458e+12 -4.41553e+12 -2.49315e+12 -1.65115e+12 -3.54129e+12 -6.66234e+12 -3.78318e+12 -4.35254e+12 -6.24098e+12 -3.32777e+12 -2.72603e+12 -1.51958e+12 -4.94398e+12 -3.2973e+12 -5.12115e+12 -6.49738e+12 -3.02415e+12 -5.36989e+12 -3.73923e+12 -4.12785e+12 -2.70593e+12 -3.18353e+12 -2.75398e+12 -2.50136e+12 -2.28783e+12 -4.42286e+12 -3.79666e+12 -4.15915e+12 -2.22817e+12 -3.55718e+12 -1.87669e+12 -2.87288e+12 -2.95671e+12 -4.49811e+12 -2.53607e+12 -4.7209e+12 -4.11006e+12 -2.43394e+12 -3.92454e+12 -3.81315e+12 -2.81496e+12 -3.60832e+12 -3.67067e+12 -5.93104e+12 -4.36899e+12 -2.03733e+12 -2.22992e+12 -1.7817e+12 -3.89769e+12 -3.67818e+12 -3.41959e+12 -3.87875e+12 -2.9352e+12 -3.61236e+12 -2.24237e+12 -3.75325e+12 -2.38858e+12 -4.02784e+12 -1.85148e+12 -4.40034e+12 -2.50502e+12 -3.13943e+12 -6.07476e+12 -3.82853e+12 -2.29375e+12 -3.73974e+12 -3.96704e+12 -1.93846e+12 -2.93725e+12 -3.69737e+12 -3.14725e+12 -5.04305e+12 -3.66292e+12 -2.49164e+12 -3.72085e+12 -2.6644e+12 -3.62672e+12 -3.21072e+12 -5.13488e+12 -5.05958e+12 -4.51445e+12 -2.22366e+12 -2.85917e+12 -20637600000.0 -24038800000.0 -12547900000.0 -12549700000.0 -3.94902e+12 -3.10405e+12 -5.04228e+12 -1.81267e+12 -3.89829e+12 -3.17468e+12 -3.72671e+12 -1.83664e+12 -3.46872e+12 -2.41055e+12 -4.74974e+12 -2.63235e+12 -3.41621e+12 -5.85072e+12 -5.70813e+12 -5.85578e+12 -6.35065e+12 -4.0481e+12 -4.13887e+12 -3.29307e+12 -1.94203e+12 -2.64014e+12 -4.24346e+12 -3.50738e+12 -1.87834e+12 -2.78089e+12 -3.62063e+12 -679014000000.0 -3.54083e+12 -708817000000.0 -3.6325e+12 -1.37033e+12 -4.23237e+12 -2.94538e+12 -5.25063e+12 -3.58777e+12 -3.62616e+12 -2.33056e+12 -3.51057e+12 -3.55326e+12 -2.0833e+12 -2.4886e+12 -4.82288e+12 -3.71628e+12 -3.51361e+12 -3.39336e+12 -2.24574e+12 -3.25969e+12 -4.36035e+12 -2.12295e+12 -3.98531e+12 -3.69972e+12 -6.44421e+12 -3.21744e+12 -1.79885e+12 -1.9924e+12 -1.94352e+12 -2.25695e+12 -2.75077e+12 -4.07224e+12 -2.78699e+12 -1.94822e+12 -1.64676e+12 -3.5268e+12 -4.28731e+12 -1.95145e+12 -2.38762e+12 -1.4792e+12 -2.70293e+12 -2.96656e+12 -2.56288e+12 -3.23723e+12 -3.9777e+12 -3.18793e+12 -3.19047e+12 -1.29633e+12 -2.95444e+12 -3.75511e+12 -2.8037e+12 -2.75333e+12 -3.62152e+12 -4.96483e+12 -1.82615e+12 -2.28548e+12 -4.23122e+12 -3.2087e+12 -2.38029e+12 -3.06225e+12 -2.73081e+12 -1.26092e+12 -2.56987e+12 -2.61866e+12 -2.01402e+12 -1.82243e+12 -2.75899e+12 -3.06309e+12 -1.42402e+12 -4.24699e+12 -2.9336e+12 -3.3656e+12 -3.24703e+12 -4.28187e+12 -2.00256e+12 -2.56858e+12 -2.77022e+12 -1.55717e+12 -3.1381e+12 -5.7303e+12 -3.6877e+12 -2.86629e+12 -4.16332e+12 -3.38525e+12 -4.43789e+12 -2.62186e+12 -2.65086e+12 -2.50786e+12 -2.32177e+12 -3.26044e+12 -5.09123e+12 -3.24862e+12 -1.60853e+12 -2.24367e+12 -2.24981e+12 -3.74599e+12 -1.70285e+12 -1.8749e+12 -2.48025e+12 -2.29134e+12 -4.21277e+12 -1.87089e+12 -2.96463e+12 -5.17584e+12 -2.48337e+12 -3.30765e+12 -4.0255e+12 -2.03799e+12 -1.99681e+12 -3.17957e+12 -1.4736e+12 -3.02081e+12 -3.10028e+12 -2.94728e+12 -3.55173e+12 -3.845e+12 -1.83653e+12 -3.0184e+12 -3.74931e+12 -2.62499e+12 -2.64594e+12 -1.20516e+12 -2.79409e+12 -3.89296e+12 -3.77201e+12 -3.1964e+12 -922595000000.0 -2.30948e+12 -2.47978e+12 -1.79395e+12 -2.11119e+12 -159216000000.0 -2.56628e+12 -1.83279e+12 -2.23552e+12 -1.28668e+12 -3.31097e+12 -2.41556e+12 -2.01889e+12 -1.70901e+12 -1.90345e+12 -1.31989e+12 -1.37417e+12 -1.98181e+12 -2.85187e+12 -887035000000.0 -2.71901e+12 -2.08357e+12 -4.86409e+12 -3.10793e+12 -3.7588e+12 -1.34667e+12 -1.58943e+12 -3.04641e+12 -5.688e+12 -2.54838e+12 -4.06627e+12 -2.98731e+12 -1.41018e+12 -2.34809e+12 -4.13267e+12 -3.51135e+12 -4.04399e+12 -4.90388e+12 -1.84389e+12 -2.61718e+12 -2.25268e+12 -2.17208e+12 -1.79481e+12 -2.13993e+12 -1.24795e+12 -1.74855e+12 -1.42963e+12 -3.87197e+12 -880281000000.0 -2.15706e+12 -3.84123e+12 -2.23894e+12 -1.2045e+12 -3.42428e+12 -849041000000.0 -2.25749e+12 -1.61713e+12 -1.06921e+12 -3.58329e+12 -2.86159e+12 -2.05104e+12 -2.15318e+12 -3.10616e+12 -2.11093e+12 -1.5903e+12 -1.74228e+12 -1.65218e+12 -1.49516e+12 -2.70865e+12 -3.19627e+12 -1.89902e+12 -2.41852e+12 -2.32154e+12 -1.57901e+12 -2.89494e+12 -2.20172e+12 -1.33056e+12 -2.77595e+12 -3.65428e+12 -4.16207e+12 -2.39209e+12 -4.04206e+12 -2.86335e+12 -2.53836e+12 -1.31473e+12 -3.38208e+12 -1.65211e+12 -3.25634e+12 -2.71612e+12 -2.15604e+12 -2.88101e+12 -2.74153e+12 -3.69921e+12 -1.25404e+12 -1.94927e+12 -3.42181e+12 -3.07851e+12 -3.14501e+12 -2.12366e+12 -2.89293e+12 -2.04711e+12 -2.4896e+12 -2.06033e+12 -1.29387e+12 -2.30919e+12 -2.93422e+12 -1.68977e+12 -1.52134e+12 -2.08525e+12 -1.70738e+12 -1.03452e+12 -711974000000.0 -1.59337e+12 -1.24934e+12 -1.04548e+12 -2.06859e+12 -1.60189e+12 -1.22753e+12 -1.57695e+12 -1.50682e+12 -2.32757e+12 -2.31777e+12 -1.95513e+12 -1.54241e+12 -1.31043e+12 -1.46526e+12 -739167000000.0 -2.67212e+12 -2.31813e+12 -2.09308e+12 -1.95854e+12 -3.22265e+12 -1.44339e+12 -2.12243e+12 -1.9055e+12 -1.52676e+12 -2.2308e+12 -1.28936e+12 -2.54976e+12 -905834000000.0 -1.31588e+12 -1.39946e+12 -1.32477e+12 -1.06882e+12 -1.34415e+12 -2.7137e+12 -2.61525e+12 -1.64701e+12 -1.31725e+12 -1.46883e+12 -1.99755e+12 -2.83595e+12 -1.21618e+12 -1.23826e+12 -1.6686e+12 -1.10346e+12 -1.2275e+12 -2.75569e+12 -1.71417e+12 -1.94782e+12 -624309000000.0 -1.30645e+12 -2.22237e+12 -1.63283e+12 -2.30746e+12 -3.16836e+12 -2.80516e+12 -2.02313e+12 -1.46667e+12 -1.88862e+12 -1.08484e+12 -1.87155e+12 -1.49025e+12 -1.35956e+12 -1.64847e+12 -1.94692e+12 -2.0969e+12 -1.09581e+12 -2.95573e+12 -2.50182e+12 -1.17372e+12 -2.70246e+12 -1.71966e+12 -1.72079e+12 -2.29121e+12 -1.24773e+12 -1.74328e+12 -1.96409e+12 -2.2284e+12 -1.85184e+12 -2.23896e+12 -2.68431e+12 -3.53311e+12 -1.22559e+12 -1.58267e+12 -1.64009e+12 -2.02666e+12 -1.97419e+12 -486620000000.0 -1.66356e+12 -975089000000.0 -1.08631e+12 -256929000000.0 -1.8089e+12 -402283000000.0 -1.05013e+12 -1.62281e+12 -1.86231e+12 -989691000000.0 -641011000000.0 -1.0081e+12 -1.03726e+12 -1.3208e+12 -1.35155e+12 -1.1633e+12 -2.31272e+12 -1.2288e+12 -1.67212e+12 -970768000000.0 -1.41548e+12 -1.11778e+12 -886718000000.0 -1.05853e+12 -2.5557e+12 -1.29094e+12 -923886000000.0 -1.627e+12 -1.82105e+12 -594353000000.0 -1.09994e+12 -1.11901e+12 -1.15814e+12 -1.57726e+12 -1.03293e+12 -2.22202e+12 -1.26415e+12 -837614000000.0 -761171000000.0 -918762000000.0 -349010000000.0 -232013000000.0 -794638000000.0 -2.47117e+12 -1.36426e+12 -1.68356e+12 -1.98672e+12 -376803000000.0 -1.06206e+12 -2.52608e+12 -381620000000.0 -1.84847e+12 -687736000000.0 -547039000000.0 -597438000000.0 -1.96109e+12 -951123000000.0 -2.14727e+12 -1.69331e+12 -2.22929e+12 -1.04823e+12 -447273000000.0 -1.52457e+12 -808846000000.0 -1.43698e+12 -1.60904e+12 -1.45884e+12 -2.11084e+12 -1.97449e+12 -1.5649e+12 -1.5849e+12 -1.20296e+12 -718965000000.0 -889303000000.0 -1.09525e+12 -1.14615e+12 -80486000000.0 -1.4868e+12 -844315000000.0 -2.00732e+12 -844952000000.0 -1.33681e+12 -1.15406e+12 -600880000000.0 -1.03344e+12 -1.14827e+12 -1.77339e+12 -2.01558e+12 -1.39155e+12 -1.06122e+12 -1.76786e+12 -1.20393e+12 -1.48291e+12 -1.89706e+12 -1.09758e+12 -999819000000.0 -821956000000.0 -865705000000.0 -187902000000.0 -80455400000.0 -1.00835e+12 -545674000000.0 -723274000000.0 -402097000000.0 -684273000000.0 -479373000000.0 -819481000000.0 -251591000000.0 -607695000000.0 -452764000000.0 -817965000000.0 -294969000000.0 -165848000000.0 -339128000000.0 -1.02747e+12 -520261000000.0 -76345500000.0 -173489000000.0 -985026000000.0 -1.23934e+12 -880639000000.0 -261097000000.0 -724796000000.0 -158015000000.0 -127099000000.0 -896647000000.0 -545540000000.0 -122329000000.0 -1.25462e+12 -496164000000.0 -678925000000.0 -1.12684e+12 -855451000000.0 -634327000000.0 -1.28656e+12 -1.01662e+12 -438960000000.0 -200643000000.0 -365866000000.0 -325478000000.0 -165292000000.0 -234267000000.0 -443103000000.0 -268500000000.0 -1.4325e+12 -450825000000.0 -622844000000.0 -411678000000.0 -608955000000.0 -674251000000.0 -739437000000.0 -1.6339e+12 -579544000000.0 -372931000000.0 -328070000000.0 -744325000000.0 -1.19217e+12 -560152000000.0 -287083000000.0 -1.05861e+12 -153566000000.0 -190982000000.0 -396800000000.0 -301568000000.0 -285861000000.0 -712791000000.0 -218399000000.0 -220035000000.0 -254542000000.0 -664068000000.0 -375861000000.0 -318851000000.0 -755841000000.0 -345677000000.0 -195793000000.0 -705179000000.0 -559791000000.0 -361343000000.0 -532702000000.0 -223616000000.0 -500222000000.0 -564382000000.0 -285973000000.0 -458920000000.0 -671741000000.0 -864087000000.0 -275917000000.0 -587680000000.0 -273406000000.0 -238207000000.0 -203584000000.0 -217284000000.0 -309509000000.0 -166227000000.0 -199044000000.0 -233764000000.0 -290805000000.0 -137052000000.0 -258885000000.0 -159674000000.0 -88021300000.0 -209309000000.0 -148257000000.0 -336936000000.0 -135411000000.0 -244449000000.0 -178407000000.0 