# vtk DataFile Version 2.0
Time step 41
ASCII
DATASET UNSTRUCTURED_GRID
POINTS 5000 float
2398.29 108075.0 0
8533.08 107449.0 0
12438.9 107283.0 0
16747.6 106601.0 0
22243.6 108248.0 0
27669.4 104984.0 0
33204.3 107672.0 0
38184.7 108255.0 0
42703.4 108408.0 0
47472.4 108315.0 0
52137.1 108414.0 0
57005.0 107254.0 0
62763.5 108329.0 0
67994.7 108463.0 0
72702.5 107595.0 0
77500.0 108342.0 0
82500.0 108331.0 0
87407.7 107630.0 0
92500.0 108370.0 0
97192.7 108391.0 0
101292.0 108308.0 0
105946.0 107698.0 0
111936.0 108177.0 0
117850.0 108362.0 0
123330.0 108439.0 0
128345.0 108560.0 0
133428.0 107808.0 0
138124.0 108492.0 0
142500.0 108413.0 0
147500.0 108347.0 0
152501.0 108316.0 0
157589.0 107944.0 0
162561.0 108099.0 0
167010.0 107641.0 0
171830.0 106524.0 0
177734.0 106562.0 0
182938.0 105749.0 0
187393.0 107603.0 0
196079.0 107927.0 0
201747.0 107288.0 0
207650.0 108052.0 0
212985.0 107388.0 0
218128.0 108473.0 0
222480.0 108486.0 0
225794.0 107715.0 0
230434.0 107587.0 0
235810.0 108585.0 0
241170.0 107289.0 0
252679.0 107274.0 0
259052.0 107749.0 0
268740.0 107747.0 0
273935.0 108042.0 0
278881.0 106693.0 0
286325.0 108333.0 0
297319.0 106658.0 0
303664.0 107443.0 0
312126.0 107867.0 0
317928.0 108485.0 0
323245.0 108390.0 0
327581.0 108660.0 0
332206.0 108259.0 0
337223.0 107968.0 0
345896.0 107514.0 0
355259.0 108421.0 0
361815.0 107061.0 0
372012.0 105079.0 0
367954.0 108395.0 0
377031.0 107051.0 0
382609.0 107925.0 0
388132.0 107225.0 0
394019.0 106541.0 0
399200.0 108210.0 0
403649.0 105468.0 0
408587.0 106680.0 0
412474.0 108330.0 0
417500.0 108375.0 0
422737.0 106487.0 0
427271.0 108196.0 0
432479.0 105999.0 0
437540.0 108352.0 0
442089.0 107293.0 0
446251.0 106874.0 0
450665.0 107642.0 0
455208.0 107582.0 0
460242.0 107427.0 0
465794.0 107815.0 0
471628.0 107072.0 0
477063.0 105875.0 0
485844.0 105807.0 0
491674.0 107346.0 0
497601.0 105839.0 0
2284.49 113091.0 0
6062.0 110769.0 0
11086.9 111801.0 0
17332.2 112503.0 0
23005.0 113759.0 0
28519.0 111336.0 0
34968.8 112946.0 0
40341.3 113265.0 0
44464.1 113606.0 0
48279.3 112309.0 0
52500.0 113374.0 0
57995.1 112695.0 0
62849.9 113429.0 0
67505.2 113101.0 0
72116.2 112715.0 0
77500.0 113500.0 0
82116.1 113146.0 0
87907.8 112388.0 0
92500.0 113509.0 0
97183.5 113139.0 0
102467.0 113043.0 0
108243.0 112289.0 0
112500.0 113446.0 0
117500.0 113527.0 0
122500.0 113450.0 0
127727.0 112993.0 0
132494.0 113344.0 0
137520.0 113358.0 0
142774.0 112836.0 0
146926.0 113184.0 0
151938.0 113061.0 0
156861.0 111993.0 0
161296.0 112814.0 0
166509.0 112313.0 0
172971.0 112093.0 0
178375.0 111975.0 0
183532.0 110817.0 0
188603.0 112049.0 0
192498.0 108765.0 0
193570.0 112909.0 0
198250.0 112272.0 0
203920.0 112907.0 0
213692.0 111938.0 0
209357.0 113122.0 0
217601.0 113544.0 0
222033.0 113310.0 0
226801.0 111950.0 0
232205.0 113012.0 0
243283.0 113661.0 0
246502.0 109291.0 0
248462.0 113364.0 0
257263.0 112388.0 0
263773.0 108838.0 0
262325.0 113013.0 0
267062.0 112590.0 0
271611.0 111894.0 0
277074.0 112298.0 0
282030.0 110026.0 0
282828.0 113712.0 0
287500.0 113424.0 0
291717.0 108789.0 0
292912.0 113281.0 0
298249.0 112168.0 0
303118.0 113113.0 0
307730.0 110013.0 0
307441.0 113306.0 0
312501.0 113618.0 0
317476.0 113360.0 0
322433.0 112858.0 0
327500.0 113404.0 0
332500.0 113476.0 0
341019.0 109179.0 0
337713.0 112810.0 0
343307.0 112204.0 0
350687.0 109437.0 0
347752.0 112601.0 0
352668.0 113327.0 0
361441.0 112373.0 0
357755.0 112841.0 0
365114.0 112067.0 0
372930.0 111880.0 0
378819.0 111602.0 0
382004.0 112740.0 0
388375.0 112313.0 0
393554.0 112688.0 0
402999.0 111667.0 0
398136.0 113123.0 0
408387.0 110960.0 0
412864.0 112272.0 0
417519.0 112891.0 0
422128.0 111123.0 0
428326.0 113138.0 0
433428.0 111232.0 0
437510.0 113420.0 0
443214.0 111576.0 0
447601.0 110884.0 0
451945.0 112120.0 0
457176.0 112310.0 0
462429.0 113798.0 0
466599.0 112385.0 0
470193.0 113565.0 0
475181.0 112365.0 0
481305.0 108738.0 0
486589.0 111996.0 0
496837.0 111348.0 0
6739.18 115815.0 0
11843.5 117631.0 0
16323.5 117711.0 0
20503.0 117721.0 0
27043.2 118169.0 0
32615.7 118002.0 0
38263.2 117777.0 0
42970.1 118164.0 0
47588.5 117030.0 0
51800.3 118795.0 0
56554.3 118315.0 0
62114.8 118286.0 0
67697.4 117945.0 0
73695.5 118258.0 0
78211.1 118698.0 0
81954.6 117873.0 0
86960.4 117903.0 0
92531.5 118260.0 0
97548.4 117658.0 0
102630.0 118805.0 0
107924.0 117069.0 0
116732.0 118130.0 0
112494.0 118343.0 0
120857.0 117980.0 0
125864.0 117361.0 0
140992.0 116957.0 0
146306.0 118075.0 0
156245.0 116554.0 0
161703.0 118504.0 0
169997.0 116880.0 0
176294.0 117732.0 0
182187.0 115956.0 0
188049.0 118210.0 0
194261.0 117935.0 0
199972.0 117377.0 0
208111.0 118030.0 0
204288.0 118372.0 0
213300.0 116749.0 0
217709.0 118478.0 0
222564.0 117585.0 0
226872.0 116955.0 0
232444.0 118477.0 0
237686.0 113836.0 0
237422.0 118262.0 0
241792.0 118915.0 0
246842.0 117433.0 0
252678.0 113835.0 0
251784.0 118726.0 0
257737.0 117140.0 0
262719.0 117791.0 0
267489.0 117045.0 0
273047.0 117134.0 0
279878.0 116360.0 0
283554.0 118645.0 0
287216.0 118713.0 0
291017.0 117588.0 0
296734.0 117212.0 0
302234.0 118348.0 0
307700.0 117736.0 0
313207.0 118861.0 0
318189.0 117850.0 0
322509.0 116863.0 0
326812.0 118745.0 0
336511.0 117474.0 0
331856.0 118461.0 0
341414.0 116409.0 0
346845.0 116988.0 0
351893.0 118162.0 0
356026.0 116715.0 0
361260.0 117075.0 0
366513.0 116148.0 0
371101.0 118021.0 0
377673.0 117537.0 0
384354.0 116077.0 0
392424.0 117511.0 0
397217.0 117470.0 0
402858.0 117908.0 0
409243.0 116605.0 0
419144.0 117580.0 0
424121.0 115941.0 0
432249.0 116855.0 0
437341.0 117594.0 0
442358.0 116813.0 0
448274.0 115957.0 0
454177.0 117524.0 0
458991.0 118573.0 0
463187.0 118336.0 0
467519.0 118445.0 0
472372.0 116887.0 0
477747.0 117836.0 0
480797.0 114013.0 0
482622.0 118708.0 0
492077.0 114247.0 0
491506.0 118308.0 0
496591.0 117917.0 0
2238.62 119013.0 0
2182.12 123427.0 0
8050.25 121655.0 0
13471.8 122258.0 0
17752.2 121555.0 0
22417.1 122095.0 0
32072.2 122290.0 0
37588.8 122982.0 0
43205.4 123227.0 0
49063.5 121822.0 0
53807.2 123496.0 0
59222.9 122994.0 0
63616.9 122617.0 0
68064.9 123617.0 0
72603.0 123133.0 0
77068.8 122617.0 0
82136.1 122894.0 0
87334.1 123077.0 0
92269.2 123591.0 0
97732.2 123010.0 0
107685.0 122567.0 0
113113.0 122672.0 0
118139.0 122607.0 0
123420.0 121968.0 0
127500.0 123524.0 0
131158.0 119060.0 0
136445.0 119012.0 0
137738.0 122926.0 0
132691.0 123888.0 0
142524.0 123075.0 0
151834.0 119673.0 0
148001.0 122683.0 0
156828.0 121949.0 0
160406.0 123317.0 0
166528.0 120323.0 0
164429.0 124026.0 0
170842.0 122909.0 0
182233.0 121434.0 0
186625.0 123845.0 0
191646.0 123332.0 0
197223.0 122662.0 0
203055.0 122517.0 0
214360.0 122419.0 0
218717.0 123726.0 0
222021.0 121843.0 0
227506.0 122505.0 0
234332.0 122856.0 0
237874.0 121586.0 0
241749.0 123517.0 0
246211.0 122618.0 0
251519.0 123984.0 0
255872.0 121855.0 0
260337.0 121525.0 0
266350.0 121727.0 0
271757.0 123403.0 0
278361.0 121863.0 0
284358.0 123384.0 0
288758.0 121867.0 0
292983.0 123583.0 0
298941.0 123512.0 0
303985.0 123744.0 0
307500.0 123568.0 0
316256.0 122565.0 0
312166.0 123387.0 0
321078.0 122090.0 0
325851.0 123677.0 0
329893.0 122287.0 0
339780.0 121800.0 0
346088.0 123242.0 0
352844.0 123737.0 0
357350.0 120672.0 0
361674.0 123063.0 0
366551.0 120840.0 0
371934.0 123654.0 0
382813.0 121593.0 0
387369.0 123451.0 0
388338.0 119266.0 0
399508.0 123078.0 0
408059.0 121954.0 0
404321.0 123104.0 0
412347.0 123624.0 0
414412.0 119160.0 0
416949.0 122962.0 0
427685.0 118977.0 0
425658.0 122604.0 0
431066.0 123047.0 0
437115.0 121789.0 0
441812.0 122398.0 0
446525.0 120954.0 0
450849.0 121453.0 0
455408.0 123296.0 0
461201.0 122986.0 0
466977.0 122771.0 0
472595.0 121846.0 0
478847.0 123335.0 0
487506.0 119810.0 0
484705.0 123849.0 0
492124.0 122164.0 0
1482.5 128103.0 0
7154.52 127963.0 0
11904.7 125997.0 0
17161.3 126734.0 0
23052.7 127479.0 0
26988.5 124092.0 0
30224.0 126829.0 0
34874.8 127623.0 0
39764.1 127046.0 0
43682.7 128881.0 0
48582.1 127046.0 0
57213.3 127386.0 0
63065.1 127392.0 0
68310.9 128792.0 0
73400.9 127192.0 0
78302.0 127766.0 0
83593.3 127834.0 0
88397.7 127895.0 0
92508.4 128433.0 0
97237.0 128425.0 0
101195.0 128491.0 0
102767.0 124261.0 0
105586.0 128083.0 0
111306.0 127256.0 0
116640.0 127865.0 0
122098.0 127158.0 0
126931.0 127567.0 0
131218.0 128268.0 0
136577.0 127476.0 0
142212.0 128769.0 0
147011.0 126960.0 0
151801.0 128893.0 0
153419.0 124326.0 0
157942.0 127886.0 0
167047.0 126900.0 0
163658.0 128511.0 0
171003.0 128917.0 0
177032.0 124300.0 0
182933.0 128354.0 0
193693.0 127418.0 0
189204.0 128250.0 0
198249.0 128550.0 0
203175.0 127617.0 0
208748.0 124376.0 0
212115.0 128628.0 0
216320.0 127036.0 0
221176.0 127375.0 0
231983.0 127355.0 0
237943.0 126322.0 0
242843.0 128172.0 0
248029.0 127696.0 0
252898.0 128013.0 0
257727.0 127037.0 0
262637.0 125100.0 0
267588.0 127679.0 0
278480.0 128517.0 0
283574.0 127971.0 0
288835.0 127187.0 0
293487.0 128180.0 0
302639.0 128049.0 0
307115.0 128409.0 0
311942.0 128128.0 0
316966.0 127001.0 0
322297.0 127685.0 0
330938.0 127802.0 0
327151.0 128547.0 0
334357.0 124283.0 0
341521.0 127294.0 0
337122.0 128181.0 0
357892.0 127250.0 0
367105.0 125748.0 0
362982.0 128037.0 0
377880.0 124988.0 0
383272.0 127606.0 0
388209.0 127632.0 0
393045.0 124182.0 0
397893.0 129015.0 0
403054.0 127080.0 0
408162.0 126804.0 0
414684.0 127271.0 0
417929.0 128523.0 0
421365.0 124211.0 0
422499.0 129072.0 0
427477.0 127055.0 0
431261.0 128476.0 0
436126.0 126773.0 0
441995.0 128059.0 0
448330.0 126466.0 0
454027.0 128456.0 0
459445.0 128598.0 0
464981.0 127877.0 0
473888.0 127063.0 0
469646.0 128728.0 0
481986.0 128289.0 0
489148.0 124573.0 0
486773.0 128184.0 0
492177.0 128741.0 0
496754.0 124560.0 0
2749.59 132141.0 0
12670.8 130502.0 0
18088.3 132504.0 0
23745.3 133237.0 0
28648.3 130876.0 0
33632.6 133180.0 0
39134.7 131887.0 0
43745.2 133090.0 0
48693.9 133016.0 0
53134.6 129496.0 0
54181.4 134200.0 0
59719.9 132397.0 0
64871.4 133497.0 0
68289.6 132982.0 0
72212.6 131071.0 0
76319.4 132662.0 0
81940.6 133255.0 0
87885.9 132964.0 0
96906.4 132998.0 0
92636.8 133360.0 0
101491.0 133128.0 0
106437.0 133420.0 0
111043.0 132105.0 0
115385.0 132581.0 0
120870.0 133182.0 0
127440.0 132831.0 0
133301.0 132721.0 0
138726.0 133208.0 0
143743.0 133376.0 0
148389.0 132978.0 0
152799.0 133483.0 0
157000.0 133583.0 0
161442.0 132361.0 0
166774.0 132252.0 0
176728.0 130592.0 0
186882.0 133251.0 0
192410.0 132758.0 0
202629.0 132193.0 0
207321.0 129757.0 0
210631.0 133156.0 0
216384.0 132931.0 0
222686.0 133019.0 0
226331.0 129143.0 0
236017.0 131305.0 0
240939.0 133739.0 0
250905.0 132163.0 0
256765.0 133245.0 0
262830.0 130679.0 0
268273.0 133035.0 0
272698.0 129288.0 0
272894.0 134185.0 0
282084.0 131901.0 0
287110.0 133273.0 0
293046.0 132600.0 0
297507.0 129558.0 0
301871.0 131976.0 0
306177.0 133890.0 0
311437.0 133855.0 0
316864.0 132126.0 0
322341.0 133605.0 0
328008.0 133159.0 0
333888.0 132032.0 0
346660.0 129209.0 0
342204.0 133274.0 0
351579.0 129388.0 0
347982.0 133962.0 0
355551.0 131514.0 0
352293.0 133666.0 0
360518.0 132780.0 0
366515.0 132889.0 0
370165.0 129195.0 0
374542.0 129211.0 0
372526.0 134152.0 0
378546.0 132561.0 0
383422.0 131744.0 0
387241.0 132103.0 0
392170.0 130428.0 0
400401.0 133314.0 0
405312.0 132321.0 0
411971.0 131389.0 0
417776.0 133261.0 0
422968.0 133941.0 0
427293.0 131308.0 0
432240.0 133065.0 0
437084.0 132104.0 0
441852.0 133665.0 0
447111.0 132631.0 0
452640.0 133646.0 0
458109.0 133960.0 0
462539.0 133557.0 0
466555.0 132558.0 0
471813.0 133294.0 0
477663.0 130135.0 0
482254.0 133646.0 0
487738.0 133033.0 0
497457.0 130295.0 0
3057.83 137941.0 0
7838.98 134483.0 0
13609.6 136350.0 0
23880.2 138939.0 0
28782.3 136219.0 0
33719.6 138884.0 0
38541.6 137072.0 0
43271.2 137348.0 0
49671.9 137909.0 0
53686.8 138945.0 0
58566.3 138266.0 0
63416.5 137444.0 0
67007.1 137906.0 0
71705.5 136407.0 0
77975.3 137991.0 0
83400.2 139337.0 0
88019.1 137996.0 0
93070.6 137979.0 0
97999.9 137468.0 0
105783.0 137856.0 0
102078.0 139120.0 0
110766.0 137459.0 0
116642.0 137360.0 0
126500.0 138092.0 0
122654.0 138651.0 0
131193.0 137416.0 0
135219.0 139242.0 0
139747.0 138760.0 0
145104.0 137969.0 0
150851.0 138029.0 0
156884.0 138941.0 0
162036.0 137023.0 0
167180.0 137349.0 0
172235.0 134701.0 0
177078.0 134917.0 0
176185.0 138642.0 0
181363.0 134965.0 0
185795.0 138536.0 0
191577.0 138638.0 0
197843.0 134258.0 0
202645.0 137630.0 0
206636.0 134369.0 0
207608.0 138391.0 0
212134.0 137536.0 0
217212.0 139318.0 0
223347.0 138989.0 0
228326.0 134688.0 0
233994.0 135844.0 0
243836.0 138782.0 0
246424.0 134291.0 0
248990.0 138394.0 0
252376.0 136438.0 0
262543.0 137841.0 0
268735.0 138004.0 0
273494.0 138732.0 0
277851.0 134527.0 0
282796.0 137280.0 0
287975.0 139264.0 0
293224.0 137933.0 0
297883.0 134914.0 0
302611.0 137823.0 0
308390.0 138806.0 0
313173.0 138398.0 0
317437.0 137880.0 0
325880.0 137143.0 0
322201.0 139181.0 0
329966.0 138321.0 0
335031.0 138867.0 0
337524.0 135458.0 0
340298.0 139276.0 0
351084.0 138133.0 0
356011.0 136110.0 0
360814.0 138656.0 0
366436.0 138633.0 0
371143.0 139089.0 0
383497.0 136191.0 0
390733.0 135062.0 0
396043.0 134838.0 0
403887.0 138358.0 0
409494.0 136986.0 0
414469.0 137238.0 0
417767.0 137396.0 0
420956.0 137752.0 0
427627.0 137818.0 0
433304.0 137431.0 0
437889.0 137083.0 0
442651.0 138558.0 0
448517.0 138515.0 0
453997.0 138511.0 0
458540.0 138930.0 0
462991.0 138710.0 0
467794.0 137538.0 0
472983.0 139040.0 0
476954.0 134855.0 0
479981.0 138759.0 0
484309.0 138612.0 0
488547.0 138159.0 0
492470.0 134596.0 0
492634.0 138750.0 0
497459.0 135379.0 0
2142.5 143844.0 0
8752.08 140367.0 0
13671.6 143993.0 0
18379.9 140086.0 0
22344.1 143424.0 0
27491.6 143870.0 0
32329.5 143135.0 0
37271.4 143683.0 0
46373.3 141710.0 0
51408.2 144097.0 0
57399.9 144395.0 0
63644.8 142614.0 0
68688.7 141189.0 0
73557.3 144257.0 0
79820.6 143469.0 0
85124.1 144261.0 0
90126.5 142478.0 0
95037.4 144334.0 0
98602.8 141644.0 0
105637.0 142366.0 0
111336.0 143796.0 0
118204.0 142930.0 0
123813.0 143179.0 0
128387.0 141509.0 0
133268.0 143585.0 0
137790.0 142700.0 0
141902.0 143552.0 0
147422.0 143280.0 0
152993.0 143236.0 0
161786.0 142591.0 0
167144.0 142320.0 0
171462.0 140026.0 0
170762.0 144057.0 0
176882.0 143635.0 0
180973.0 140567.0 0
186887.0 143562.0 0
191537.0 143942.0 0
197331.0 139788.0 0
201627.0 143103.0 0
207154.0 143359.0 0
212988.0 143048.0 0
219801.0 144406.0 0
228979.0 140683.0 0
224911.0 144309.0 0
233411.0 140311.0 0
232796.0 144091.0 0
238461.0 139503.0 0
242101.0 143033.0 0
246558.0 142759.0 0
251470.0 142358.0 0
255538.0 139345.0 0
262740.0 143915.0 0
268253.0 143621.0 0
274071.0 143693.0 0
278387.0 139916.0 0
284549.0 143314.0 0
289722.0 144195.0 0
293311.0 142293.0 0
297717.0 140192.0 0
302307.0 143511.0 0
307427.0 144070.0 0
312021.0 142570.0 0
316759.0 142474.0 0
321330.0 144314.0 0
326427.0 142765.0 0
331733.0 143273.0 0
345918.0 139999.0 0
351164.0 143309.0 0
356392.0 141677.0 0
366974.0 143504.0 0
371656.0 143571.0 0
377226.0 139817.0 0
382201.0 143742.0 0
386895.0 144091.0 0
387808.0 139367.0 0
392749.0 139393.0 0
391451.0 143900.0 0
398357.0 140353.0 0
405864.0 144131.0 0
411606.0 142510.0 0
416992.0 141121.0 0
422629.0 142751.0 0
428258.0 143903.0 0
432998.0 142075.0 0
438724.0 142730.0 0
444698.0 143439.0 0
455669.0 142905.0 0
461373.0 143799.0 0
468722.0 142763.0 0
477805.0 143271.0 0
482449.0 143440.0 0
486595.0 142315.0 0
490650.0 142765.0 0
497770.0 140139.0 0
495005.0 144120.0 0
2239.97 148417.0 0
7229.67 146445.0 0
18603.7 145028.0 0
18049.2 149484.0 0
23274.8 148278.0 0
32590.6 146609.0 0
35952.7 149500.0 0
42440.0 145005.0 0
40992.4 149223.0 0
47007.5 148192.0 0
52812.1 148840.0 0
62195.4 148008.0 0
67963.5 148075.0 0
78090.1 148066.0 0
82804.2 148978.0 0
88773.9 148799.0 0
93972.5 149177.0 0
101293.0 145000.0 0
97844.1 147701.0 0
101251.0 149285.0 0
105727.0 147858.0 0
110243.0 149234.0 0
115522.0 148810.0 0
121623.0 148011.0 0
128112.0 147548.0 0
137500.0 146641.0 0
133715.0 148420.0 0
142031.0 148819.0 0
157246.0 144854.0 0
153546.0 148056.0 0
157984.0 149033.0 0
163103.0 148430.0 0
173356.0 147304.0 0
168439.0 147590.0 0
177762.0 148078.0 0
182321.0 145387.0 0
186463.0 148829.0 0
191579.0 148454.0 0
196350.0 145235.0 0
201125.0 148696.0 0
207148.0 149420.0 0
212098.0 147981.0 0
216813.0 149193.0 0
228653.0 144776.0 0
226069.0 148838.0 0
231021.0 148124.0 0
236990.0 144744.0 0
235877.0 149383.0 0
241284.0 147942.0 0
246730.0 147695.0 0
252429.0 147869.0 0
257766.0 144613.0 0
263720.0 149418.0 0
269613.0 149285.0 0
274591.0 148675.0 0
279359.0 145439.0 0
284011.0 147775.0 0
288599.0 149210.0 0
292658.0 147618.0 0
296529.0 145114.0 0
303660.0 148464.0 0
307811.0 148389.0 0
312333.0 147798.0 0
317609.0 147511.0 0
323360.0 149303.0 0
328006.0 147430.0 0
332710.0 148386.0 0
337285.0 144575.0 0
342892.0 144607.0 0
346829.0 144567.0 0
345479.0 148282.0 0
341916.0 148536.0 0
349519.0 147501.0 0
355329.0 147878.0 0
361678.0 144761.0 0
366486.0 148224.0 0
373421.0 148722.0 0
378336.0 146423.0 0
383175.0 149386.0 0
392582.0 148271.0 0
388073.0 148496.0 0
395529.0 144652.0 0
397115.0 148510.0 0
400530.0 145462.0 0
408060.0 148888.0 0
412515.0 147755.0 0
417169.0 146248.0 0
421021.0 148299.0 0
425371.0 147936.0 0
431956.0 147720.0 0
437684.0 148969.0 0
443669.0 149021.0 0
450508.0 145194.0 0
454497.0 148152.0 0
458798.0 149090.0 0
463933.0 148914.0 0
465833.0 145442.0 0
469296.0 148249.0 0
473166.0 144612.0 0
474375.0 149149.0 0
479087.0 148159.0 0
486588.0 146519.0 0
491387.0 148587.0 0
497411.0 148737.0 0
2127.41 152784.0 0
6960.15 152329.0 0
12440.3 150056.0 0
16008.4 153491.0 0
20037.2 153769.0 0
24884.8 153529.0 0
29082.4 149843.0 0
32221.7 154208.0 0
43317.9 153646.0 0
48686.0 154189.0 0
53579.3 153369.0 0
57602.7 150556.0 0
62542.2 153240.0 0
67219.3 153326.0 0
73651.3 150963.0 0
79098.2 153586.0 0
84542.0 153576.0 0
88605.8 153835.0 0
92508.1 153284.0 0
97466.5 152093.0 0
102445.0 153711.0 0
107194.0 152611.0 0
111837.0 153397.0 0
117995.0 154317.0 0
123248.0 153243.0 0
127767.0 152936.0 0
132819.0 153490.0 0
138523.0 152745.0 0
143145.0 153649.0 0
148122.0 149862.0 0
151877.0 153648.0 0
156564.0 153866.0 0
161568.0 153363.0 0
166875.0 152466.0 0
173249.0 153525.0 0
181596.0 149959.0 0
178608.0 153674.0 0
183533.0 154611.0 0
189457.0 153679.0 0
195893.0 150986.0 0
199741.0 153711.0 0
203874.0 154293.0 0
208360.0 154560.0 0
212779.0 152639.0 0
219058.0 153941.0 0
221590.0 150011.0 0
223358.0 153510.0 0
227641.0 153539.0 0
232481.0 152835.0 0
237726.0 153843.0 0
242288.0 154265.0 0
246693.0 152532.0 0
251866.0 154120.0 0
257588.0 149859.0 0
257453.0 154157.0 0
267689.0 153473.0 0
271758.0 153037.0 0
279916.0 150783.0 0
276114.0 153504.0 0
284285.0 152188.0 0
288579.0 154449.0 0
293600.0 152160.0 0
298742.0 149819.0 0
298814.0 154580.0 0
302641.0 153408.0 0
306701.0 152261.0 0
311690.0 153491.0 0
316843.0 152343.0 0
321344.0 154235.0 0
324883.0 153195.0 0
328697.0 152141.0 0
334155.0 154009.0 0
337434.0 149888.0 0
339612.0 153795.0 0
344144.0 152498.0 0
350101.0 153157.0 0
360665.0 149949.0 0
363253.0 154614.0 0
369397.0 153013.0 0
374924.0 154040.0 0
378300.0 150919.0 0
388069.0 152996.0 0
397922.0 152690.0 0
393145.0 153342.0 0
401988.0 153936.0 0
403355.0 149610.0 0
406596.0 153512.0 0
412747.0 153651.0 0
418442.0 151681.0 0
423545.0 153099.0 0
428716.0 151742.0 0
433882.0 154204.0 0
445499.0 153740.0 0
450715.0 151626.0 0
456147.0 153234.0 0
463205.0 152959.0 0
460062.0 153697.0 0
467453.0 153514.0 0
472541.0 153447.0 0
477866.0 153488.0 0
483695.0 149842.0 0
482744.0 154090.0 0
487589.0 153085.0 0
492465.0 153776.0 0
497811.0 153498.0 0
3067.47 157893.0 0
8554.28 156829.0 0
12580.6 155465.0 0
16420.2 157663.0 0
21311.6 158672.0 0
27465.2 158884.0 0
32650.5 158018.0 0
37673.0 155102.0 0
42304.5 158798.0 0
47950.7 159698.0 0
53255.7 158325.0 0
57458.4 155467.0 0
58928.6 159358.0 0
62499.3 157663.0 0
71132.8 155732.0 0
66930.3 157763.0 0
76176.7 158777.0 0
82350.9 157181.0 0
86392.7 157517.0 0
91253.6 158366.0 0
96601.4 157214.0 0
101325.0 158373.0 0
106449.0 157779.0 0
112395.0 158909.0 0
118078.0 159744.0 0
123220.0 158495.0 0
128380.0 157438.0 0
133236.0 158974.0 0
138695.0 158477.0 0
143897.0 157690.0 0
147994.0 155837.0 0
152641.0 158080.0 0
158023.0 158343.0 0
162828.0 157496.0 0
168108.0 157918.0 0
172596.0 159202.0 0
177246.0 158960.0 0
182427.0 159567.0 0
187087.0 158565.0 0
192265.0 158833.0 0
193908.0 154809.0 0
197934.0 158432.0 0
202908.0 158275.0 0
207315.0 159262.0 0
212052.0 157582.0 0
217205.0 159011.0 0
222465.0 157732.0 0
227444.0 159082.0 0
232441.0 157541.0 0
237066.0 158156.0 0
241373.0 158736.0 0
246107.0 157549.0 0
254523.0 158592.0 0
250346.0 159131.0 0
258824.0 159221.0 0
262304.0 155646.0 0
267464.0 158809.0 0
272516.0 156924.0 0
277258.0 158785.0 0
283201.0 157580.0 0
288220.0 159004.0 0
292771.0 157764.0 0
297381.0 158532.0 0
302104.0 158547.0 0
306890.0 156988.0 0
316043.0 157237.0 0
311367.0 159006.0 0
320407.0 158655.0 0
326140.0 157982.0 0
338274.0 159056.0 0
343317.0 157443.0 0
348161.0 158641.0 0
356713.0 154724.0 0
353180.0 159195.0 0
372381.0 158182.0 0
367630.0 158573.0 0
377383.0 159543.0 0
379745.0 154890.0 0
382004.0 158071.0 0
384038.0 155012.0 0
387375.0 157620.0 0
391836.0 158058.0 0
396414.0 157273.0 0
401428.0 158838.0 0
406577.0 158375.0 0
417742.0 157606.0 0
428007.0 157950.0 0
435854.0 159476.0 0
440195.0 155135.0 0
448655.0 156288.0 0
444885.0 158892.0 0
448961.0 159402.0 0
453284.0 158009.0 0
458569.0 157120.0 0
463269.0 157151.0 0
468255.0 158571.0 0
473568.0 158630.0 0
478469.0 158400.0 0
481960.0 158927.0 0
485373.0 157547.0 0
490340.0 157662.0 0
495333.0 157753.0 0
2830.06 163799.0 0
7503.99 161248.0 0
12197.9 160012.0 0
12524.0 163651.0 0
17164.6 163203.0 0
23590.2 164105.0 0
28518.0 163972.0 0
32915.9 162125.0 0
37795.7 160468.0 0
44154.2 164158.0 0
51665.6 162814.0 0
56222.1 162905.0 0
61495.0 163336.0 0
71359.6 159912.0 0
67361.9 163263.0 0
73114.3 164279.0 0
80897.5 161442.0 0
86724.1 163142.0 0
92877.6 164350.0 0
98368.9 162586.0 0
103676.0 162528.0 0
108521.0 163175.0 0
113658.0 164291.0 0
123558.0 163528.0 0
128427.0 162613.0 0
133082.0 163495.0 0
137596.0 163854.0 0
146817.0 160075.0 0
143072.0 161816.0 0
146707.0 164121.0 0
150635.0 162017.0 0
155609.0 162097.0 0
161150.0 162379.0 0
167133.0 163996.0 0
172930.0 163491.0 0
178055.0 164470.0 0
183653.0 164333.0 0
189253.0 163306.0 0
194195.0 163354.0 0
203778.0 162493.0 0
199079.0 164082.0 0
208282.0 164303.0 0
213126.0 162841.0 0
217850.0 164316.0 0
222500.0 163484.0 0
227501.0 163660.0 0
231368.0 161677.0 0
235338.0 162201.0 0
241012.0 163127.0 0
246229.0 163398.0 0
252670.0 163877.0 0
257745.0 163010.0 0
262637.0 162142.0 0
268648.0 163526.0 0
272486.0 161576.0 0
276646.0 163834.0 0
282614.0 163359.0 0
287960.0 163417.0 0
293356.0 163244.0 0
298041.0 162399.0 0
302180.0 164457.0 0
306759.0 161862.0 0
311375.0 164228.0 0
317141.0 162926.0 0
322857.0 163191.0 0
326678.0 162932.0 0
331450.0 164474.0 0
332574.0 160061.0 0
340793.0 163753.0 0
345207.0 161841.0 0
349873.0 163262.0 0
358609.0 160241.0 0
361543.0 164819.0 0
363217.0 160105.0 0
367146.0 163970.0 0
372563.0 163097.0 0
382878.0 162726.0 0
389046.0 162592.0 0
397275.0 162452.0 0
393441.0 164745.0 0
402362.0 164476.0 0
407528.0 163084.0 0
411926.0 160012.0 0
417011.0 163306.0 0
422243.0 160533.0 0
426096.0 164057.0 0
432013.0 163344.0 0
437800.0 164431.0 0
440095.0 160085.0 0
443153.0 163913.0 0
447789.0 163082.0 0
452658.0 163923.0 0
457753.0 161969.0 0
463134.0 162324.0 0
468196.0 163714.0 0
473085.0 163790.0 0
478099.0 163238.0 0
482742.0 163549.0 0
487709.0 162454.0 0
493260.0 162489.0 0
497791.0 162044.0 0
2518.08 169142.0 0
9656.89 165102.0 0
7269.72 168545.0 0
12116.4 168878.0 0
17592.3 169478.0 0
28809.2 168480.0 0
32722.6 166823.0 0
37936.8 166134.0 0
43273.6 169589.0 0
48946.9 165848.0 0
47708.7 169668.0 0
52883.6 168508.0 0
58210.0 167680.0 0
64169.4 168940.0 0
71362.6 167824.0 0
69258.0 169886.0 0
75108.7 169652.0 0
78024.3 165285.0 0
81048.5 169450.0 0
87053.6 169803.0 0
96751.2 168407.0 0
92020.4 168932.0 0
101923.0 166881.0 0
107424.0 169269.0 0
113364.0 169287.0 0
118712.0 165046.0 0
123398.0 168595.0 0
128618.0 167778.0 0
133599.0 168024.0 0
141641.0 166386.0 0
137995.0 169663.0 0
145475.0 168983.0 0
150726.0 167728.0 0
156814.0 167323.0 0
162657.0 168446.0 0
170995.0 168357.0 0
183159.0 168285.0 0
179616.0 169157.0 0
187239.0 168387.0 0
192616.0 167962.0 0
197965.0 169721.0 0
202934.0 167503.0 0
206812.0 169861.0 0
210962.0 168411.0 0
215629.0 168631.0 0
221238.0 168707.0 0
227184.0 169020.0 0
231614.0 165864.0 0
237590.0 167894.0 0
243851.0 168599.0 0
248905.0 168369.0 0
257368.0 166348.0 0
260306.0 168387.0 0
265515.0 167311.0 0
272406.0 167880.0 0
279500.0 168602.0 0
285572.0 167488.0 0
290282.0 167357.0 0
297350.0 167597.0 0
302308.0 169562.0 0
306881.0 167337.0 0
318329.0 168744.0 0
323489.0 168139.0 0
328119.0 166433.0 0
335630.0 164958.0 0
332372.0 168928.0 0
340948.0 168332.0 0
337054.0 169543.0 0
345694.0 167133.0 0
350920.0 169243.0 0
355447.0 165428.0 0
359291.0 169625.0 0
364353.0 169316.0 0
368943.0 168633.0 0
373329.0 167966.0 0
377582.0 165279.0 0
381329.0 168552.0 0
386961.0 168735.0 0
393351.0 169599.0 0
398526.0 168031.0 0
402912.0 169416.0 0
407774.0 168484.0 0
411987.0 165318.0 0
415878.0 169116.0 0
421587.0 165159.0 0
424598.0 168093.0 0
428964.0 168629.0 0
434132.0 168323.0 0
438737.0 169614.0 0
442787.0 168275.0 0
447718.0 168346.0 0
453045.0 168945.0 0
458330.0 167774.0 0
463623.0 167142.0 0
468161.0 169041.0 0
473598.0 168201.0 0
478149.0 168397.0 0
482809.0 167748.0 0
487497.0 168035.0 0
492502.0 167440.0 0
497556.0 166691.0 0
2475.48 174136.0 0
7677.29 173567.0 0
12004.7 173078.0 0
15772.1 174512.0 0
23416.4 170164.0 0
26808.2 174550.0 0
34064.7 172213.0 0
39402.0 171102.0 0
44705.0 174055.0 0
48759.3 173378.0 0
53065.0 173681.0 0
59515.1 172773.0 0
63885.3 174077.0 0
67606.3 173336.0 0
71691.9 173277.0 0
78264.4 173159.0 0
82472.0 174440.0 0
91999.4 173572.0 0
97000.1 173522.0 0
102128.0 172773.0 0
111124.0 173582.0 0
115819.0 174950.0 0
118426.0 170307.0 0
121102.0 174953.0 0
126570.0 173300.0 0
132454.0 172998.0 0
137140.0 174133.0 0
142292.0 173265.0 0
147728.0 172732.0 0
152626.0 173383.0 0
157521.0 172407.0 0
162025.0 174016.0 0
167210.0 172447.0 0
172467.0 173505.0 0
175347.0 170083.0 0
178178.0 174416.0 0
183467.0 172208.0 0
190430.0 172978.0 0
195416.0 174423.0 0
203351.0 172858.0 0
199785.0 175041.0 0
208221.0 173842.0 0
212605.0 172911.0 0
217696.0 173317.0 0
223414.0 173556.0 0
227695.0 174017.0 0
232732.0 173244.0 0
237918.0 173911.0 0
242250.0 172791.0 0
246579.0 172685.0 0
254147.0 170006.0 0
251459.0 174469.0 0
257658.0 174279.0 0
262656.0 172510.0 0
268086.0 172568.0 0
273563.0 174588.0 0
279477.0 174797.0 0
284058.0 171746.0 0
289116.0 172456.0 0
293632.0 170730.0 0
293859.0 174950.0 0
298811.0 173345.0 0
302794.0 173028.0 0
307471.0 172895.0 0
312363.0 170279.0 0
316382.0 173661.0 0
321289.0 173764.0 0
327597.0 172309.0 0
333606.0 173910.0 0
340751.0 172464.0 0
346463.0 173687.0 0
352479.0 174063.0 0
362684.0 173180.0 0
367601.0 173908.0 0
377200.0 170363.0 0
373234.0 173091.0 0
383127.0 173963.0 0
388875.0 174615.0 0
397598.0 172448.0 0
393912.0 174877.0 0
401995.0 174034.0 0
407554.0 174286.0 0
417738.0 173276.0 0
413356.0 174311.0 0
421177.0 170418.0 0
420741.0 174560.0 0
426078.0 174004.0 0
432064.0 173102.0 0
436731.0 173457.0 0
442765.0 173296.0 0
453408.0 173116.0 0
458510.0 174303.0 0
463598.0 171684.0 0
467768.0 174357.0 0
471814.0 171900.0 0
476448.0 173429.0 0
481099.0 171738.0 0
485657.0 172700.0 0
490709.0 173735.0 0
496001.0 171971.0 0
3210.76 179264.0 0
8257.4 178666.0 0
12762.8 178303.0 0
17406.2 179271.0 0
20838.9 175209.0 0
22006.1 179806.0 0
26228.9 179335.0 0
30951.9 177836.0 0
40053.6 175346.0 0
35931.8 177951.0 0
43629.5 178040.0 0
47754.8 177411.0 0
51808.5 177740.0 0
56829.2 177960.0 0
62578.8 178091.0 0
67170.3 178514.0 0
72520.2 178463.0 0
77991.4 177257.0 0
82526.8 178866.0 0
86294.4 179460.0 0
87140.9 175394.0 0
90159.9 178707.0 0
95222.2 178545.0 0
101125.0 178442.0 0
106970.0 175148.0 0
111795.0 178444.0 0
118332.0 179621.0 0
123280.0 179379.0 0
132214.0 178314.0 0
127624.0 178420.0 0
137231.0 178732.0 0
141708.0 180005.0 0
146468.0 177728.0 0
156132.0 177350.0 0
169286.0 178830.0 0
181607.0 179225.0 0
186111.0 176610.0 0
190992.0 178283.0 0
195753.0 179098.0 0
204961.0 177378.0 0
208467.0 179622.0 0
211619.0 177478.0 0
216505.0 178637.0 0
221706.0 177961.0 0
226697.0 178509.0 0
231957.0 177515.0 0
236067.0 178796.0 0
241437.0 177284.0 0
246765.0 177797.0 0
251420.0 178720.0 0
256144.0 179386.0 0
261548.0 177852.0 0
266314.0 177007.0 0
270639.0 179469.0 0
276599.0 179544.0 0
284957.0 176885.0 0
290184.0 177322.0 0
293754.0 179569.0 0
297270.0 177768.0 0
302710.0 176188.0 0
307444.0 176829.0 0
310131.0 179407.0 0
312805.0 176097.0 0
316962.0 177808.0 0
326196.0 177693.0 0
321557.0 179739.0 0
331853.0 178893.0 0
336695.0 179428.0 0
337889.0 175416.0 0
341783.0 178342.0 0
346626.0 179560.0 0
350387.0 177994.0 0
354412.0 179273.0 0
358046.0 175207.0 0
363422.0 178522.0 0
368529.0 179130.0 0
372653.0 177782.0 0
377756.0 175096.0 0
381263.0 178474.0 0
385750.0 179082.0 0
391602.0 179630.0 0
397806.0 178530.0 0
403437.0 179010.0 0
408194.0 179403.0 0
412655.0 179476.0 0
417328.0 177975.0 0
422294.0 178307.0 0
433144.0 179036.0 0
438898.0 177517.0 0
448811.0 175445.0 0
443938.0 178887.0 0
453764.0 178072.0 0
463037.0 178763.0 0
468112.0 179126.0 0
472249.0 176945.0 0
476530.0 178463.0 0
481590.0 177007.0 0
487406.0 177611.0 0
492246.0 180145.0 0
497268.0 177622.0 0
2743.23 184693.0 0
8042.93 183689.0 0
14922.2 183504.0 0
19910.0 184082.0 0
25329.5 184177.0 0
32699.4 184632.0 0
40008.5 181075.0 0
47201.8 182685.0 0
52669.4 181935.0 0
57753.4 184202.0 0
63751.2 183450.0 0
69579.1 183806.0 0
74694.5 184344.0 0
78841.1 182012.0 0
82761.3 183634.0 0
87411.7 183893.0 0
93077.6 183967.0 0
98832.3 183802.0 0
106555.0 180170.0 0
103893.0 184355.0 0
107222.0 184176.0 0
111638.0 184316.0 0
120397.0 184348.0 0
124184.0 183647.0 0
128406.0 183044.0 0
132872.0 182649.0 0
136853.0 183423.0 0
141100.0 184188.0 0
146522.0 183695.0 0
151573.0 180192.0 0
156635.0 183790.0 0
161834.0 180317.0 0
166704.0 185098.0 0
172255.0 183815.0 0
175976.0 180191.0 0
179233.0 183805.0 0
184127.0 184429.0 0
189314.0 182798.0 0
193668.0 183700.0 0
197502.0 183283.0 0
200538.0 180221.0 0
202965.0 184068.0 0
206276.0 181943.0 0
212258.0 183315.0 0
216809.0 183168.0 0
220977.0 182794.0 0
225742.0 183478.0 0
230983.0 181910.0 0
235664.0 183719.0 0
240544.0 182531.0 0
248382.0 182575.0 0
252560.0 182363.0 0
259973.0 182444.0 0
256059.0 184389.0 0
265489.0 182257.0 0
272928.0 182937.0 0
275665.0 183523.0 0
281962.0 182399.0 0
288337.0 182078.0 0
293478.0 184242.0 0
298770.0 182165.0 0
304642.0 180894.0 0
309150.0 183072.0 0
313928.0 180862.0 0
317700.0 182774.0 0
323366.0 184927.0 0
327808.0 182202.0 0
332500.0 183549.0 0
336870.0 184039.0 0
342208.0 183916.0 0
351679.0 182814.0 0
347216.0 183931.0 0
357651.0 182812.0 0
363234.0 184877.0 0
368505.0 183392.0 0
376988.0 180245.0 0
373400.0 184609.0 0
382576.0 182505.0 0
379100.0 184651.0 0
387079.0 184681.0 0
395893.0 183261.0 0
400749.0 183724.0 0
405935.0 183348.0 0
411228.0 184651.0 0
416962.0 183805.0 0
422189.0 183208.0 0
427069.0 180694.0 0
431391.0 184733.0 0
437982.0 182941.0 0
443846.0 184768.0 0
448492.0 181292.0 0
453591.0 183299.0 0
457908.0 180216.0 0
458352.0 184414.0 0
462240.0 183753.0 0
467267.0 184131.0 0
472251.0 182091.0 0
478243.0 183227.0 0
483445.0 182131.0 0
487729.0 182283.0 0
492457.0 185134.0 0
497114.0 183224.0 0
2122.09 189518.0 0
6629.77 188623.0 0
11765.4 186169.0 0
10874.7 189822.0 0
16445.1 188749.0 0
22133.5 188881.0 0
26805.7 188753.0 0
38045.7 190075.0 0
42537.6 186045.0 0
47182.2 187816.0 0
52162.2 187362.0 0
57345.6 190299.0 0
62695.8 188830.0 0
67631.1 189150.0 0
72734.0 188889.0 0
77869.6 188264.0 0
83358.2 188348.0 0
88733.9 188853.0 0
93487.6 188826.0 0
97430.5 188437.0 0
102461.0 189565.0 0
107419.0 187427.0 0
116412.0 187005.0 0
120437.0 190210.0 0
125857.0 187970.0 0
131746.0 187373.0 0
137378.0 188302.0 0
143319.0 189086.0 0
151900.0 185583.0 0
148470.0 188646.0 0
152879.0 190113.0 0
157301.0 188789.0 0
160657.0 185858.0 0
163242.0 188215.0 0
170863.0 187250.0 0
175911.0 187823.0 0
181671.0 189638.0 0
189132.0 188045.0 0
194263.0 188444.0 0
199454.0 187634.0 0
203612.0 189655.0 0
207411.0 186729.0 0
216143.0 188692.0 0
221749.0 187041.0 0
226488.0 188750.0 0
232442.0 187896.0 0
238430.0 187650.0 0
244737.0 186855.0 0
251358.0 187354.0 0
256820.0 188916.0 0
261842.0 187028.0 0
270071.0 186285.0 0
274196.0 189022.0 0
278051.0 186563.0 0
283489.0 188715.0 0
289032.0 187404.0 0
293267.0 189752.0 0
297213.0 187048.0 0
303005.0 187371.0 0
308804.0 188280.0 0
312953.0 185605.0 0
318356.0 188052.0 0
328791.0 187426.0 0
334065.0 189174.0 0
339591.0 188582.0 0
344932.0 188381.0 0
349988.0 187917.0 0
354428.0 186430.0 0
358649.0 189535.0 0
368160.0 188108.0 0
372314.0 189343.0 0
376963.0 189185.0 0
382471.0 188147.0 0
387497.0 189161.0 0
392324.0 185815.0 0
392129.0 189923.0 0
396150.0 188636.0 0
401229.0 189193.0 0
406693.0 188510.0 0
411220.0 189523.0 0
415491.0 188843.0 0
421158.0 188794.0 0
426356.0 186251.0 0
428521.0 189759.0 0
430959.0 189163.0 0
435836.0 188962.0 0
446665.0 189132.0 0
449070.0 185642.0 0
451288.0 190358.0 0
456078.0 188084.0 0
461499.0 188804.0 0
466931.0 189539.0 0
472915.0 187289.0 0
478057.0 188697.0 0
482525.0 186594.0 0
487864.0 187413.0 0
493644.0 189035.0 0
498089.0 187905.0 0
2813.69 194311.0 0
8166.05 193567.0 0
12894.9 192931.0 0
16332.5 193580.0 0
20384.9 193459.0 0
25269.2 194689.0 0
31181.3 192432.0 0
37228.8 195416.0 0
44045.0 190563.0 0
41794.2 194425.0 0
47445.5 194546.0 0
53101.2 193856.0 0
63565.3 193983.0 0
68267.8 193546.0 0
72453.4 193738.0 0
77185.3 193377.0 0
86321.8 192472.0 0
82034.6 193456.0 0
91303.6 193391.0 0
96817.4 192838.0 0
101396.0 195456.0 0
111801.0 190681.0 0
116464.0 193415.0 0
121274.0 194946.0 0
126005.0 194130.0 0
132122.0 193757.0 0
137820.0 193942.0 0
142840.0 194476.0 0
147532.0 193198.0 0
152629.0 194755.0 0
157562.0 193778.0 0
162712.0 192717.0 0
168106.0 190512.0 0
172608.0 193013.0 0
177852.0 193118.0 0
182305.0 194734.0 0
186375.0 192380.0 0
192084.0 192916.0 0
196623.0 193607.0 0
201112.0 193114.0 0
206769.0 192916.0 0
210865.0 190405.0 0
212749.0 193525.0 0
217644.0 194608.0 0
221801.0 191703.0 0
226800.0 193857.0 0
231548.0 193524.0 0
236391.0 192555.0 0
241208.0 192121.0 0
245774.0 192204.0 0
250432.0 193247.0 0
255180.0 193097.0 0
260750.0 193207.0 0
266228.0 190376.0 0
271142.0 192682.0 0
278164.0 192277.0 0
288463.0 192698.0 0
293484.0 194652.0 0
298392.0 192256.0 0
303460.0 192923.0 0
308192.0 193289.0 0
314355.0 193396.0 0
319270.0 193001.0 0
324039.0 190377.0 0
328968.0 192986.0 0
333146.0 193385.0 0
336742.0 193334.0 0
342591.0 193744.0 0
347880.0 192889.0 0
353211.0 192599.0 0
357774.0 195216.0 0
363896.0 190469.0 0
362516.0 195283.0 0
367792.0 193757.0 0
373565.0 193974.0 0
382650.0 193398.0 0
378335.0 193692.0 0
387500.0 193698.0 0
390841.0 193500.0 0
394210.0 193091.0 0
397990.0 193095.0 0
405861.0 194541.0 0
412257.0 194157.0 0
417886.0 193661.0 0
423011.0 194059.0 0
427877.0 193650.0 0
432790.0 194119.0 0
437676.0 194607.0 0
442046.0 190707.0 0
441768.0 195375.0 0
447084.0 193388.0 0
456330.0 193031.0 0
461273.0 194459.0 0
466168.0 194121.0 0
470975.0 192282.0 0
476162.0 193724.0 0
482656.0 192596.0 0
488908.0 192978.0 0
497008.0 192688.0 0
2317.05 198752.0 0
7488.63 198413.0 0
11899.6 196898.0 0
17721.8 197823.0 0
22192.6 198416.0 0
25714.1 199214.0 0
33500.7 198016.0 0
36829.7 200438.0 0
41261.3 199654.0 0
46266.7 199775.0 0
51636.3 199200.0 0
58687.6 195590.0 0
56873.3 199851.0 0
62241.3 199439.0 0
67515.9 198262.0 0
72506.6 198350.0 0
81267.0 198578.0 0
76625.3 199412.0 0
87014.8 197493.0 0
92308.9 198660.0 0
97255.6 198681.0 0
107501.0 195656.0 0
111799.0 199484.0 0
113002.0 195508.0 0
117643.0 198956.0 0
123436.0 198682.0 0
128783.0 199185.0 0
134059.0 198797.0 0
137961.0 198529.0 0
142163.0 198478.0 0
147505.0 198998.0 0
152870.0 199689.0 0
158962.0 198165.0 0
162909.0 198089.0 0
167293.0 195541.0 0
167203.0 200180.0 0
171990.0 197451.0 0
177729.0 198655.0 0
183254.0 199415.0 0
188243.0 197355.0 0
193899.0 198211.0 0
199056.0 197932.0 0
204159.0 198369.0 0
214028.0 196881.0 0
209493.0 197984.0 0
217436.0 198990.0 0
222151.0 197195.0 0
226340.0 197719.0 0
230558.0 199049.0 0
235732.0 197297.0 0
240055.0 195494.0 0
243732.0 196404.0 0
240025.0 199453.0 0
250366.0 198640.0 0
256478.0 198525.0 0
262642.0 198834.0 0
266798.0 195896.0 0
272519.0 198324.0 0
278324.0 198092.0 0
283290.0 195551.0 0
289987.0 198195.0 0
294958.0 199100.0 0
299384.0 197611.0 0
303666.0 196921.0 0
307823.0 198446.0 0
313036.0 199588.0 0
317921.0 197805.0 0
322912.0 196125.0 0
327987.0 198023.0 0
333195.0 197670.0 0
338997.0 199036.0 0
344322.0 199025.0 0
346990.0 196444.0 0
351177.0 198699.0 0
358164.0 199597.0 0
362967.0 200189.0 0
367648.0 199121.0 0
372886.0 199604.0 0
377591.0 198370.0 0
387666.0 198154.0 0
383033.0 198564.0 0
390579.0 199041.0 0
394661.0 197709.0 0
400640.0 197479.0 0
409727.0 200004.0 0
416361.0 199442.0 0
422813.0 199717.0 0
428624.0 198481.0 0
433383.0 198939.0 0
438577.0 199859.0 0
448819.0 198249.0 0
444221.0 199172.0 0
452130.0 195520.0 0
452094.0 199510.0 0
457220.0 199291.0 0
462827.0 198938.0 0
466793.0 200207.0 0
470795.0 197471.0 0
476400.0 200103.0 0
482885.0 199336.0 0
488671.0 198499.0 0
492846.0 195830.0 0
492896.0 199552.0 0
497140.0 198551.0 0
2878.93 202584.0 0
7660.86 202874.0 0
13295.9 201297.0 0
17519.2 202715.0 0
21982.4 202702.0 0
29625.0 201004.0 0
25925.5 203107.0 0
33841.2 203870.0 0
38550.8 203906.0 0
43314.5 204715.0 0
47500.0 203511.0 0
51975.0 204847.0 0
58910.4 204405.0 0
64497.6 204630.0 0
69007.5 203358.0 0
73877.3 202819.0 0
77217.1 203237.0 0
80691.5 203681.0 0
86321.5 203801.0 0
92811.5 203667.0 0
98242.9 203942.0 0
102435.0 200606.0 0
106772.0 200800.0 0
103094.0 204570.0 0
109027.0 203979.0 0
113211.0 203595.0 0
122442.0 203465.0 0
117544.0 204665.0 0
126563.0 204077.0 0
131864.0 203534.0 0
136845.0 203076.0 0
140200.0 205390.0 0
144007.0 203765.0 0
150412.0 203560.0 0
157086.0 203385.0 0
162990.0 202475.0 0
167632.0 204844.0 0
173049.0 203085.0 0
183030.0 204025.0 0
178838.0 204721.0 0
186680.0 202734.0 0
191843.0 203090.0 0
196806.0 202284.0 0
201799.0 203380.0 0
207325.0 203089.0 0
213594.0 201148.0 0
216949.0 204184.0 0
220484.0 202030.0 0
225385.0 201567.0 0
229374.0 204084.0 0
235824.0 202776.0 0
240224.0 204474.0 0
245171.0 202485.0 0
252495.0 203650.0 0
257218.0 203984.0 0
262354.0 203614.0 0
267377.0 201412.0 0
272615.0 204432.0 0
277797.0 203112.0 0
282853.0 201091.0 0
289757.0 202968.0 0
285974.0 204593.0 0
293416.0 202674.0 0
297870.0 203608.0 0
303739.0 202073.0 0
309258.0 204011.0 0
315428.0 205007.0 0
320302.0 202129.0 0
324618.0 200694.0 0
323691.0 205651.0 0
328766.0 203674.0 0
334658.0 202981.0 0
338217.0 205236.0 0
342801.0 204172.0 0
348333.0 203502.0 0
354571.0 203420.0 0
358832.0 203558.0 0
362305.0 204242.0 0
366732.0 204160.0 0
371988.0 204989.0 0
376885.0 202192.0 0
380638.0 202844.0 0
386648.0 203341.0 0
391380.0 202426.0 0
396439.0 203418.0 0
400517.0 201857.0 0
404214.0 200782.0 0
407475.0 205467.0 0
413219.0 205298.0 0
418109.0 204485.0 0
422107.0 204872.0 0
426878.0 203325.0 0
431420.0 203226.0 0
436288.0 205204.0 0
442100.0 204514.0 0
447550.0 203429.0 0
452804.0 203697.0 0
457500.0 205363.0 0
461586.0 203155.0 0
465842.0 204263.0 0
470827.0 203266.0 0
480519.0 203754.0 0
485119.0 204380.0 0
491128.0 204345.0 0
497365.0 204042.0 0
2104.64 206741.0 0
6793.25 208371.0 0
12523.0 206657.0 0
18520.4 207752.0 0
24345.7 207479.0 0
30115.2 207849.0 0
35415.9 209286.0 0
39873.1 207961.0 0
43534.0 210000.0 0
47481.3 207685.0 0
51744.4 209686.0 0
56705.2 209435.0 0
61964.2 209446.0 0
66638.1 209125.0 0
71690.6 207706.0 0
77191.3 206855.0 0
82291.3 208668.0 0
88450.0 210118.0 0
93313.1 207773.0 0
97500.0 208545.0 0
107094.0 208119.0 0
102236.0 208345.0 0
112291.0 207847.0 0
117489.0 209280.0 0
122473.0 207535.0 0
132589.0 208294.0 0
127669.0 209042.0 0
137654.0 208019.0 0
142126.0 208454.0 0
147637.0 208237.0 0
153045.0 207570.0 0
157497.0 209265.0 0
161579.0 207412.0 0
165668.0 209099.0 0
171230.0 208952.0 0
176236.0 208945.0 0
180328.0 209393.0 0
184961.0 207813.0 0
190263.0 207380.0 0
195405.0 207867.0 0
201311.0 208834.0 0
206583.0 209158.0 0
212322.0 206978.0 0
218106.0 208513.0 0
222871.0 206490.0 0
227523.0 209101.0 0
232627.0 207648.0 0
238165.0 208458.0 0
243791.0 208820.0 0
248620.0 207390.0 0
254998.0 207709.0 0
251704.0 210716.0 0
259925.0 207880.0 0
266658.0 208454.0 0
272632.0 209375.0 0
276489.0 207979.0 0
281554.0 206838.0 0
287001.0 209184.0 0
292798.0 207494.0 0
298711.0 209475.0 0
303425.0 207367.0 0
307680.0 208666.0 0
312789.0 210282.0 0
319110.0 209372.0 0
323804.0 209876.0 0
328217.0 209317.0 0
332683.0 207620.0 0
337213.0 209017.0 0
341745.0 209410.0 0
346955.0 208900.0 0
352959.0 208698.0 0
358289.0 207377.0 0
363852.0 208635.0 0
368577.0 208271.0 0
377264.0 206494.0 0
372516.0 208866.0 0
383137.0 207813.0 0
392796.0 207162.0 0
388492.0 209045.0 0
396698.0 208940.0 0
401633.0 206932.0 0
408624.0 210061.0 0
412939.0 210261.0 0
417500.0 208443.0 0
423655.0 208772.0 0
429096.0 207522.0 0
432842.0 208703.0 0
439598.0 208856.0 0
445091.0 208507.0 0
449570.0 208161.0 0
453928.0 208506.0 0
458052.0 209925.0 0
461735.0 207712.0 0
466235.0 208972.0 0
472009.0 209292.0 0
476634.0 206027.0 0
477068.0 210645.0 0
481396.0 208376.0 0
487085.0 209597.0 0
492809.0 210241.0 0
497596.0 209076.0 0
3506.58 213822.0 0
8912.79 213636.0 0
12819.2 212083.0 0
18045.9 213963.0 0
23734.8 212845.0 0
29009.0 213645.0 0
33721.4 213448.0 0
38524.6 213769.0 0
43678.3 214721.0 0
47740.8 212448.0 0
52003.9 214243.0 0
56979.4 214842.0 0
61796.3 214153.0 0
66400.1 213717.0 0
71634.2 213591.0 0
78211.3 214072.0 0
84123.0 213412.0 0
87688.3 215193.0 0
94100.3 211987.0 0
99300.5 213242.0 0
103853.0 214679.0 0
108319.0 213083.0 0
113637.0 212688.0 0
122393.0 211926.0 0
118189.0 213725.0 0
126889.0 213988.0 0
131335.0 213138.0 0
135400.0 211774.0 0
139962.0 212724.0 0
145195.0 213371.0 0
151682.0 213680.0 0
157462.0 214432.0 0
162225.0 212842.0 0
167838.0 213416.0 0
173462.0 214589.0 0
178657.0 213366.0 0
183498.0 213360.0 0
188826.0 211484.0 0
193402.0 214112.0 0
198163.0 212579.0 0
202226.0 214157.0 0
207012.0 214327.0 0
212377.0 213379.0 0
217313.0 212978.0 0
221939.0 211830.0 0
226297.0 213896.0 0
231236.0 213043.0 0
236066.0 213640.0 0
240758.0 213484.0 0
247331.0 212856.0 0
251815.0 214723.0 0
256819.0 212860.0 0
262023.0 213000.0 0
266303.0 215781.0 0
272433.0 214119.0 0
277768.0 212408.0 0
282670.0 212336.0 0
287572.0 214667.0 0
294277.0 214111.0 0
299740.0 214290.0 0
304166.0 212377.0 0
308988.0 213648.0 0
315364.0 215184.0 0
320387.0 214383.0 0
326099.0 214615.0 0
333158.0 213783.0 0
339145.0 214304.0 0
343439.0 213429.0 0
347373.0 213699.0 0
351810.0 214245.0 0
357561.0 212728.0 0
363012.0 213671.0 0
368206.0 213111.0 0
373385.0 212526.0 0
378060.0 211595.0 0
382808.0 213963.0 0
392116.0 212117.0 0
388001.0 214767.0 0
397058.0 213290.0 0
402872.0 213604.0 0
407560.0 213610.0 0
411391.0 214556.0 0
416297.0 213407.0 0
421524.0 213204.0 0
427086.0 212588.0 0
431836.0 214853.0 0
436283.0 212367.0 0
442626.0 213772.0 0
449564.0 213787.0 0
454946.0 213175.0 0
459034.0 214208.0 0
462488.0 211945.0 0
466447.0 213834.0 0
470795.0 214459.0 0
475072.0 214201.0 0
479814.0 214691.0 0
485459.0 215258.0 0
491394.0 214450.0 0
496535.0 214553.0 0
3164.76 220485.0 0
7860.78 217700.0 0
13198.6 217994.0 0
18016.5 219937.0 0
22913.6 218476.0 0
28302.8 218789.0 0
33684.8 218358.0 0
38744.3 218707.0 0
42462.6 218552.0 0
47500.0 218320.0 0
52557.6 218639.0 0
57797.4 220156.0 0
62773.9 218620.0 0
67039.9 218518.0 0
72935.3 219641.0 0
78321.3 219871.0 0
82589.4 218465.0 0
87056.7 219108.0 0
92062.5 217303.0 0
97669.7 218531.0 0
102295.0 218350.0 0
107409.0 218916.0 0
113346.0 218105.0 0
121263.0 217216.0 0
117556.0 219456.0 0
125793.0 219909.0 0
129830.0 217403.0 0
135551.0 217573.0 0
141807.0 217591.0 0
147625.0 219721.0 0
152815.0 219029.0 0
156960.0 218909.0 0
162563.0 218955.0 0
168612.0 218935.0 0
178546.0 218452.0 0
173681.0 219962.0 0
183146.0 220084.0 0
188007.0 217370.0 0
193372.0 218919.0 0
197866.0 217604.0 0
202705.0 218353.0 0
206537.0 218717.0 0
210415.0 217960.0 0
215937.0 217500.0 0
222031.0 217970.0 0
227891.0 218360.0 0
232869.0 217511.0 0
237577.0 218117.0 0
243286.0 217965.0 0
248664.0 218330.0 0
254447.0 218393.0 0
259269.0 217702.0 0
262862.0 219498.0 0
270745.0 218402.0 0
276853.0 216975.0 0
282830.0 218492.0 0
288068.0 219998.0 0
292394.0 219666.0 0
298265.0 218584.0 0
306027.0 217972.0 0
310185.0 219519.0 0
311332.0 216700.0 0
314051.0 220205.0 0
318483.0 218435.0 0
322500.0 218606.0 0
328894.0 219282.0 0
333249.0 220159.0 0
337017.0 218171.0 0
341123.0 218092.0 0
346185.0 218224.0 0
357135.0 218046.0 0
352140.0 220353.0 0
361937.0 218584.0 0
372172.0 217140.0 0
367473.0 219881.0 0
377870.0 217588.0 0
383977.0 220009.0 0
389039.0 219527.0 0
392970.0 217332.0 0
398548.0 218711.0 0
404604.0 218763.0 0
408305.0 218767.0 0
411601.0 218848.0 0
415648.0 218203.0 0
420774.0 218693.0 0
427258.0 219141.0 0
432708.0 218922.0 0
437828.0 218973.0 0
443856.0 220020.0 0
448897.0 219909.0 0
453713.0 218010.0 0
458585.0 218299.0 0
462382.0 216414.0 0
466455.0 218714.0 0
471665.0 219116.0 0
476743.0 218780.0 0
482112.0 219563.0 0
489724.0 218576.0 0
493000.0 220565.0 0
497149.0 220547.0 0
2175.08 225732.0 0
6289.97 224684.0 0
11599.4 224110.0 0
17536.7 224400.0 0
22463.8 224148.0 0
27690.2 223849.0 0
32846.5 223738.0 0
37849.1 223240.0 0
42860.5 223341.0 0
47500.0 223403.0 0
52500.0 223322.0 0
57471.2 224616.0 0
62273.8 223676.0 0
67614.2 222904.0 0
72220.4 225362.0 0
81627.5 223370.0 0
77001.2 223758.0 0
86238.9 223230.0 0
91741.1 223716.0 0
97809.6 223919.0 0
102672.0 222898.0 0
106903.0 225062.0 0
111197.0 222989.0 0
115541.0 223787.0 0
120820.0 223106.0 0
126021.0 224741.0 0
131559.0 223391.0 0
137589.0 223761.0 0
143033.0 224200.0 0
152334.0 223017.0 0
148508.0 225528.0 0
156774.0 223589.0 0
161250.0 224804.0 0
165866.0 223466.0 0
170815.0 223893.0 0
176300.0 224535.0 0
181148.0 223600.0 0
186187.0 225601.0 0
190723.0 222305.0 0
195906.0 223241.0 0
202303.0 222039.0 0
207017.0 223731.0 0
212686.0 222179.0 0
217359.0 221927.0 0
221319.0 223474.0 0
226106.0 223191.0 0
231886.0 222565.0 0
236933.0 224676.0 0
240965.0 222212.0 0
246407.0 224298.0 0
252566.0 223662.0 0
257956.0 221752.0 0
262510.0 224543.0 0
267433.0 221477.0 0
272735.0 222491.0 0
277835.0 221672.0 0
276230.0 225897.0 0
283410.0 225530.0 0
290024.0 224515.0 0
296064.0 223766.0 0
302090.0 222635.0 0
308497.0 223486.0 0
313706.0 225336.0 0
318496.0 223003.0 0
325751.0 222970.0 0
322152.0 225724.0 0
331013.0 224721.0 0
336305.0 223844.0 0
342218.0 223492.0 0
347987.0 224423.0 0
352469.0 226010.0 0
357715.0 223911.0 0
363371.0 223506.0 0
372128.0 223260.0 0
367625.0 225990.0 0
377595.0 223551.0 0
388203.0 224398.0 0
393858.0 223008.0 0
403548.0 224562.0 0
409206.0 225307.0 0
413408.0 223035.0 0
418015.0 223645.0 0
422331.0 223734.0 0
427432.0 225894.0 0
432985.0 223179.0 0
437053.0 223899.0 0
442560.0 225509.0 0
447415.0 223283.0 0
451703.0 223864.0 0
455863.0 222279.0 0
461827.0 223592.0 0
468601.0 224293.0 0
474668.0 224202.0 0
480001.0 223669.0 0
486587.0 223791.0 0
493165.0 224941.0 0
498364.0 224867.0 0
2648.29 230013.0 0
6704.61 228553.0 0
11883.6 230896.0 0
17237.5 228897.0 0
21689.6 229022.0 0
26625.8 229051.0 0
32269.6 229192.0 0
37800.7 228310.0 0
42911.0 228457.0 0
48373.5 228276.0 0
53049.3 228505.0 0
57491.6 228901.0 0
62500.0 228490.0 0
67351.0 228513.0 0
72974.1 229698.0 0
77090.0 228686.0 0
80945.3 228673.0 0
86598.4 228402.0 0
92662.9 230310.0 0
98143.0 228964.0 0
102893.0 227915.0 0
107106.0 230416.0 0
112144.0 228290.0 0
117789.0 228157.0 0
127517.0 228456.0 0
123040.0 229824.0 0
131674.0 230196.0 0
135063.0 227266.0 0
139793.0 229893.0 0
146645.0 230763.0 0
153456.0 228813.0 0
159439.0 229349.0 0
165968.0 228680.0 0
171465.0 229119.0 0
177279.0 230754.0 0
183204.0 230882.0 0
191883.0 227044.0 0
195940.0 230892.0 0
201238.0 226997.0 0
206406.0 230464.0 0
211861.0 227948.0 0
217585.0 226644.0 0
222974.0 228127.0 0
228684.0 228151.0 0
233717.0 227532.0 0
236983.0 229221.0 0
241135.0 227559.0 0
246168.0 230725.0 0
251686.0 229104.0 0
257178.0 226221.0 0
263480.0 230134.0 0
268884.0 227460.0 0
274512.0 230140.0 0
279022.0 228956.0 0
288596.0 229264.0 0
293684.0 229462.0 0
300195.0 228804.0 0
305283.0 227150.0 0
305008.0 231134.0 0
308884.0 229402.0 0
313475.0 230342.0 0
316783.0 228160.0 0
320576.0 229863.0 0
326684.0 229406.0 0
333861.0 229676.0 0
338665.0 228219.0 0
342799.0 228956.0 0
347415.0 229394.0 0
352858.0 230835.0 0
357815.0 229696.0 0
362633.0 228328.0 0
367022.0 230336.0 0
371863.0 228731.0 0
377440.0 229477.0 0
382625.0 230638.0 0
382670.0 226279.0 0
386622.0 229927.0 0
391984.0 229189.0 0
397810.0 226869.0 0
396543.0 230986.0 0
406986.0 229510.0 0
411809.0 229008.0 0
417019.0 228184.0 0
422567.0 229471.0 0
432185.0 229772.0 0
437979.0 229119.0 0
442950.0 231063.0 0
448192.0 228339.0 0
455966.0 228191.0 0
461566.0 230150.0 0
466226.0 228803.0 0
471900.0 230519.0 0
477523.0 229001.0 0
481988.0 227646.0 0
486495.0 231108.0 0
491854.0 230049.0 0
497014.0 229630.0 0
162838.0 232336.0 0
188838.0 231190.0 0
201230.0 232432.0 0
204477.0 234995.0 0
210793.0 233612.0 0
216418.0 232390.0 0
222472.0 233858.0 0
227960.0 233556.0 0
233922.0 232358.0 0
236556.0 235684.0 0
240341.0 233340.0 0
248993.0 235274.0 0
253469.0 233868.0 0
258378.0 231209.0 0
261359.0 234276.0 0
265887.0 235025.0 0
270704.0 232980.0 0
278602.0 234436.0 0
284479.0 231909.0 0
289820.0 233809.0 0
297136.0 234175.0 0
302386.0 234722.0 0
401644.0 231283.0 0
427263.0 231598.0 0
452071.0 231509.0 0
481329.0 231488.0 0
199570.0 237352.0 0
204445.0 239128.0 0
209453.0 238601.0 0
215732.0 238496.0 0
221140.0 239239.0 0
226646.0 239273.0 0
231464.0 236899.0 0
235322.0 238855.0 0
244602.0 236396.0 0
240447.0 239440.0 0
252385.0 238806.0 0
257901.0 236765.0 0
262173.0 237358.0 0
271469.0 238117.0 0
276417.0 239803.0 0
283460.0 236554.0 0
280936.0 239689.0 0
284564.0 240982.0 0
287255.0 238117.0 0
293224.0 238690.0 0
299483.0 239544.0 0
200569.0 243639.0 0
206827.0 243616.0 0
212345.0 242817.0 0
218218.0 244172.0 0
223360.0 243158.0 0
227343.0 245231.0 0
231816.0 242206.0 0
236724.0 242520.0 0
240957.0 245163.0 0
245799.0 241546.0 0
250599.0 243107.0 0
256856.0 243166.0 0
262923.0 241429.0 0
268033.0 242263.0 0
273344.0 244484.0 0
278892.0 243706.0 0
283257.0 244570.0 0
288819.0 243407.0 0
294304.0 244288.0 0
298360.0 244250.0 0
202165.0 250016.0 0
208343.0 249115.0 0
213594.0 247898.0 0
218682.0 249546.0 0
223710.0 249164.0 0
228232.0 249795.0 0
231677.0 247579.0 0
236092.0 246581.0 0
240599.0 249243.0 0
246379.0 247413.0 0
252214.0 247842.0 0
257463.0 249058.0 0
261596.0 246568.0 0
266660.0 247493.0 0
271774.0 249246.0 0
276905.0 248471.0 0
279542.0 251331.0 0
281084.0 247625.0 0
285901.0 248609.0 0
291467.0 248347.0 0
297266.0 248848.0 0
341742.0 251110.0 0
10310.7 253446.0 0
206117.0 254518.0 0
210332.0 253119.0 0
215197.0 253436.0 0
220811.0 253773.0 0
226490.0 254740.0 0
231214.0 252186.0 0
237006.0 252014.0 0
243164.0 252017.0 0
248815.0 252790.0 0
254688.0 252990.0 0
258640.0 256657.0 0
261854.0 251883.0 0
268409.0 253964.0 0
274603.0 252516.0 0
278616.0 255412.0 0
283537.0 253541.0 0
289170.0 253139.0 0
293917.0 252449.0 0
297978.0 255004.0 0
309756.0 254976.0 0
48261.5 260871.0 0
174681.0 259895.0 0
201809.0 257142.0 0
206249.0 259827.0 0
211440.0 257964.0 0
216916.0 258974.0 0
222264.0 258638.0 0
228040.0 259250.0 0
232133.0 257257.0 0
237055.0 257397.0 0
241907.0 257453.0 0
247661.0 258687.0 0
253231.0 258140.0 0
262730.0 259216.0 0
267374.0 260241.0 0
273139.0 258830.0 0
279212.0 261135.0 0
282867.0 257796.0 0
287184.0 259369.0 0
293021.0 257654.0 0
297887.0 261513.0 0
362467.0 261120.0 0
368610.0 260902.0 0
389098.0 259967.0 0
404603.0 258232.0 0
421499.0 259504.0 0
443009.0 259151.0 0
455114.0 259532.0 0
472319.0 260276.0 0
492537.0 261252.0 0
497243.0 259100.0 0
6878.9 263256.0 0
56374.4 264784.0 0
63868.7 264794.0 0
68827.6 265813.0 0
79658.9 266547.0 0
96187.4 265060.0 0
100416.0 264508.0 0
107589.0 266244.0 0
115161.0 266546.0 0
121008.0 266439.0 0
126005.0 264228.0 0
154054.0 266849.0 0
158565.0 266244.0 0
167796.0 263118.0 0
177286.0 263948.0 0
191569.0 265101.0 0
196244.0 266029.0 0
201363.0 261918.0 0
200885.0 266277.0 0
205141.0 264721.0 0
210420.0 263635.0 0
215510.0 263666.0 0
220080.0 263090.0 0
225521.0 262741.0 0
231420.0 263388.0 0
237509.0 262311.0 0
242308.0 265332.0 0
248058.0 264752.0 0
253776.0 263486.0 0
258820.0 261851.0 0
259055.0 266259.0 0
263576.0 264407.0 0
269203.0 265359.0 0
274269.0 264090.0 0
284338.0 264346.0 0
288858.0 263966.0 0
292819.0 262936.0 0
297458.0 266516.0 0
309917.0 266482.0 0
317421.0 263196.0 0
322450.0 264586.0 0
357807.0 262703.0 0
374583.0 263544.0 0
391311.0 266645.0 0
437044.0 262793.0 0
461586.0 263393.0 0
476569.0 263519.0 0
481239.0 264612.0 0
14254.8 267809.0 0
17655.2 271126.0 0
22442.4 269125.0 0
30433.9 269029.0 0
36537.1 269563.0 0
48339.7 271774.0 0
53010.0 271771.0 0
75161.9 267849.0 0
85031.3 267245.0 0
93065.2 271162.0 0
111005.0 268089.0 0
124379.0 271334.0 0
131855.0 268551.0 0
137504.0 267563.0 0
142262.0 269816.0 0
150902.0 271139.0 0
173221.0 268972.0 0
178042.0 270815.0 0
178735.0 267314.0 0
207999.0 267717.0 0
204081.0 269365.0 0
213358.0 268535.0 0
217847.0 267334.0 0
222322.0 267257.0 0
220063.0 271327.0 0
227457.0 268039.0 0
233020.0 269121.0 0
238128.0 268266.0 0
241701.0 270116.0 0
245361.0 269262.0 0
251059.0 269625.0 0
255502.0 268024.0 0
257880.0 271906.0 0
261790.0 268706.0 0
267220.0 270407.0 0
273096.0 268384.0 0
277796.0 267804.0 0
282145.0 268128.0 0
284676.0 270619.0 0
287763.0 268118.0 0
292967.0 267940.0 0
296827.0 271022.0 0
322451.0 269298.0 0
326630.0 270057.0 0
330913.0 270331.0 0
339605.0 269675.0 0
345114.0 271868.0 0
388726.0 271159.0 0
396056.0 268083.0 0
417127.0 269149.0 0
423600.0 267455.0 0
426612.0 271024.0 0
431907.0 271726.0 0
439714.0 270015.0 0
449230.0 269165.0 0
462790.0 269842.0 0
466760.0 268655.0 0
471850.0 267252.0 0
479717.0 269895.0 0
484429.0 269975.0 0
497839.0 268551.0 0
2631.23 276416.0 0
8033.11 273445.0 0
14588.8 274633.0 0
18911.2 276960.0 0
30589.4 275231.0 0
40985.6 273967.0 0
45936.2 275443.0 0
88220.9 273235.0 0
92904.6 276170.0 0
97919.2 273286.0 0
102310.0 275393.0 0
113050.0 275451.0 0
119140.0 273436.0 0
126262.0 275542.0 0
137141.0 277001.0 0
146000.0 273268.0 0
155278.0 274504.0 0
169989.0 274223.0 0
177569.0 274984.0 0
183086.0 276639.0 0
188923.0 275289.0 0
194747.0 276561.0 0
199534.0 273889.0 0
204406.0 274504.0 0
209315.0 272091.0 0
215066.0 274068.0 0
222086.0 275593.0 0
225949.0 273021.0 0
230701.0 273876.0 0
236386.0 273615.0 0
241424.0 273890.0 0
247379.0 274687.0 0
253469.0 274132.0 0
262773.0 272935.0 0
267282.0 275742.0 0
271752.0 272834.0 0
276231.0 274288.0 0
280752.0 272360.0 0
287946.0 273074.0 0
292566.0 272852.0 0
300501.0 273437.0 0
296385.0 275768.0 0
304858.0 273930.0 0
308759.0 273115.0 0
314014.0 276021.0 0
318278.0 273320.0 0
335045.0 272991.0 0
342101.0 275269.0 0
348027.0 275423.0 0
364943.0 274425.0 0
368691.0 277058.0 0
377600.0 275287.0 0
383597.0 274078.0 0
390690.0 275089.0 0
393964.0 272967.0 0
398809.0 275118.0 0
407296.0 272236.0 0
403236.0 275989.0 0
412976.0 274558.0 0
422388.0 272921.0 0
436080.0 273564.0 0
444222.0 272272.0 0
458451.0 272031.0 0
473827.0 276680.0 0
478880.0 275115.0 0
489239.0 272901.0 0
492521.0 276899.0 0
497266.0 276655.0 0
4198.95 281519.0 0
10165.2 279669.0 0
27252.5 279283.0 0
31965.1 281768.0 0
37311.7 277563.0 0
44551.6 280924.0 0
49617.5 281859.0 0
54909.3 278432.0 0
60744.6 279481.0 0
73247.1 281518.0 0
79797.4 282017.0 0
85759.2 278451.0 0
91010.0 278584.0 0
96476.5 277608.0 0
100409.0 279776.0 0
105708.0 278484.0 0
118044.0 280741.0 0
127597.0 280270.0 0
132697.0 278920.0 0
140009.0 281228.0 0
145853.0 281245.0 0
166524.0 278279.0 0
169946.0 281983.0 0
175196.0 280319.0 0
182125.0 281881.0 0
208774.0 277301.0 0
204249.0 280019.0 0
213000.0 280463.0 0
218417.0 279157.0 0
222787.0 279489.0 0
226654.0 277851.0 0
231895.0 279066.0 0
237319.0 279030.0 0
242504.0 278526.0 0
247181.0 281060.0 0
252149.0 279054.0 0
257610.0 277688.0 0
262740.0 277634.0 0
265987.0 281499.0 0
272533.0 278536.0 0
278426.0 278421.0 0
284101.0 277260.0 0
281568.0 281871.0 0
290975.0 278203.0 0
296244.0 281899.0 0
305457.0 277863.0 0
301917.0 280898.0 0
309713.0 277278.0 0
308862.0 281894.0 0
312812.0 281272.0 0
335177.0 280498.0 0
341691.0 280162.0 0
360423.0 278227.0 0
373639.0 279477.0 0
380959.0 280067.0 0
385630.0 278809.0 0
388242.0 282047.0 0
394399.0 277756.0 0
398411.0 279136.0 0
402468.0 280892.0 0
411664.0 281998.0 0
415149.0 279001.0 0
431773.0 277249.0 0
462565.0 279663.0 0
468005.0 281321.0 0
483291.0 278713.0 0
488293.0 280161.0 0
494690.0 281605.0 0
1396.57 284510.0 0
8211.08 283475.0 0
11918.4 284950.0 0
16619.4 284420.0 0
21754.5 283116.0 0
31750.6 286511.0 0
40529.6 285390.0 0
36111.9 285760.0 0
53511.7 283401.0 0
65233.2 282625.0 0
75981.4 286406.0 0
97591.4 283211.0 0
101262.0 284327.0 0
122206.0 282739.0 0
125707.0 283963.0 0
132217.0 285004.0 0
137709.0 286484.0 0
150246.0 284661.0 0
157949.0 283414.0 0
162385.0 284194.0 0
166757.0 286771.0 0
178322.0 283833.0 0
173828.0 285139.0 0
182575.0 286658.0 0
203600.0 285600.0 0
208493.0 282782.0 0
212185.0 285359.0 0
217002.0 286026.0 0
221535.0 283427.0 0
226387.0 282795.0 0
231036.0 284408.0 0
236952.0 284978.0 0
242597.0 283589.0 0
247335.0 285514.0 0
251018.0 284186.0 0
255658.0 282917.0 0
261566.0 283031.0 0
265044.0 286295.0 0
270038.0 285319.0 0
276308.0 284271.0 0
282379.0 286803.0 0
286618.0 282824.0 0
291669.0 285366.0 0
305266.0 284673.0 0
315851.0 285098.0 0
321609.0 284865.0 0
329672.0 283588.0 0
345721.0 285322.0 0
350533.0 282915.0 0
355714.0 284409.0 0
365233.0 287121.0 0
368277.0 282562.0 0
371514.0 287030.0 0
376826.0 284521.0 0
392773.0 286514.0 0
397327.0 284351.0 0
402414.0 285651.0 0
406830.0 283505.0 0
417627.0 283813.0 0
430432.0 286562.0 0
435876.0 284897.0 0
440796.0 282503.0 0
443743.0 286792.0 0
448497.0 284861.0 0
472750.0 282355.0 0
472922.0 286679.0 0
477904.0 286800.0 0
490331.0 284745.0 0
498185.0 284698.0 0
9024.03 288354.0 0
22141.1 288602.0 0
27556.0 289626.0 0
42506.5 289032.0 0
47221.1 289746.0 0
55082.9 287503.0 0
57767.4 291243.0 0
71070.6 287853.0 0
66580.1 290892.0 0
78232.9 291779.0 0
87177.6 289349.0 0
92596.4 291797.0 0
101304.0 289550.0 0
105416.0 289957.0 0
110427.0 291839.0 0
115988.0 287569.0 0
121376.0 288376.0 0
119859.0 292031.0 0
127453.0 287409.0 0
125026.0 290809.0 0
134374.0 289361.0 0
136926.0 289657.0 0
142940.0 289117.0 0
149278.0 291248.0 0
154955.0 290050.0 0
159503.0 288774.0 0
162950.0 291089.0 0
170964.0 288578.0 0
178095.0 288095.0 0
179935.0 291496.0 0
188423.0 288588.0 0
193802.0 291417.0 0
198192.0 288246.0 0
202879.0 291203.0 0
208335.0 287825.0 0
213345.0 290018.0 0
221887.0 288677.0 0
227463.0 288533.0 0
232909.0 289415.0 0
238286.0 291195.0 0
244006.0 289031.0 0
249419.0 288882.0 0
253932.0 289115.0 0
259255.0 287570.0 0
263830.0 290307.0 0
268008.0 289712.0 0
272687.0 289791.0 0
278029.0 290601.0 0
283189.0 292146.0 0
287568.0 288988.0 0
292511.0 290803.0 0
296088.0 287537.0 0
296864.0 291545.0 0
305810.0 292152.0 0
310186.0 288276.0 0
315912.0 290966.0 0
326129.0 288064.0 0
329885.0 290008.0 0
332766.0 287981.0 0
354804.0 291791.0 0
359390.0 288078.0 0
363529.0 291731.0 0
368250.0 292185.0 0
375763.0 290423.0 0
382983.0 287360.0 0
388117.0 290895.0 0
405524.0 288614.0 0
418256.0 288978.0 0
423877.0 289030.0 0
448865.0 289736.0 0
453540.0 291057.0 0
457751.0 288302.0 0
463509.0 288413.0 0
469551.0 289797.0 0
473869.0 290795.0 0
480010.0 292274.0 0
485101.0 290877.0 0
492549.0 288601.0 0
497345.0 289595.0 0
12432.9 293989.0 0
18261.9 293950.0 0
31572.7 296125.0 0
35807.4 293125.0 0
40409.5 293833.0 0
62118.7 292749.0 0
83627.7 294045.0 0
88025.0 294857.0 0
98112.3 295498.0 0
115498.0 293670.0 0
119756.0 295920.0 0
124322.0 294839.0 0
137186.0 296916.0 0
145130.0 293122.0 0
152637.0 294487.0 0
157044.0 294597.0 0
175791.0 292844.0 0
203858.0 296293.0 0
208377.0 293288.0 0
213631.0 295588.0 0
218055.0 292529.0 0
223604.0 293610.0 0
220713.0 295921.0 0
229038.0 293516.0 0
226284.0 296601.0 0
233881.0 294572.0 0
238182.0 296215.0 0
242504.0 294724.0 0
247734.0 293640.0 0
252004.0 292496.0 0
255720.0 294423.0 0
260652.0 293520.0 0
265216.0 294310.0 0
269722.0 293860.0 0
274712.0 295290.0 0
281330.0 296484.0 0
288140.0 294807.0 0
293575.0 295598.0 0
297768.0 295199.0 0
301394.0 292693.0 0
309213.0 293276.0 0
320548.0 295056.0 0
332502.0 292906.0 0
332244.0 296840.0 0
337497.0 292799.0 0
344487.0 293715.0 0
350089.0 293254.0 0
359342.0 293607.0 0
379842.0 292992.0 0
383935.0 293061.0 0
396224.0 295063.0 0
401114.0 297020.0 0
420703.0 292704.0 0
428710.0 292540.0 0
443848.0 295228.0 0
460614.0 296240.0 0
475351.0 295998.0 0
486287.0 296426.0 0
2385.26 299043.0 0
11457.4 300127.0 0
19755.7 298475.0 0
23726.9 299702.0 0
28043.2 300458.0 0
37894.0 299982.0 0
42563.5 297752.0 0
44669.6 302404.0 0
48901.4 300581.0 0
59411.4 299109.0 0
57735.5 302582.0 0
73236.5 297865.0 0
78992.8 299694.0 0
84814.0 299910.0 0
103476.0 298925.0 0
108327.0 300354.0 0
127047.0 299142.0 0
133529.0 299624.0 0
141682.0 299669.0 0
147366.0 301575.0 0
166764.0 302589.0 0
178009.0 299912.0 0
182816.0 299586.0 0
188845.0 299513.0 0
195076.0 301776.0 0
203965.0 301838.0 0
208073.0 298779.0 0
212466.0 300349.0 0
217763.0 299296.0 0
223043.0 299212.0 0
230320.0 298434.0 0
235415.0 299510.0 0
240556.0 299679.0 0
245782.0 299189.0 0
251494.0 297642.0 0
251771.0 302221.0 0
256395.0 299480.0 0
259937.0 302513.0 0
262262.0 298354.0 0
267760.0 298665.0 0
272921.0 300449.0 0
278143.0 299976.0 0
284670.0 299481.0 0
290895.0 300201.0 0
296523.0 300019.0 0
320417.0 300648.0 0
324961.0 300573.0 0
327915.0 297564.0 0
349617.0 299973.0 0
356286.0 300892.0 0
366109.0 301141.0 0
370489.0 301435.0 0
373783.0 298161.0 0
391305.0 298503.0 0
405441.0 299137.0 0
410203.0 301058.0 0
415232.0 299540.0 0
420447.0 300191.0 0
429055.0 302587.0 0
436061.0 301001.0 0
441300.0 299493.0 0
447423.0 299080.0 0
452098.0 300859.0 0
463371.0 300561.0 0
468386.0 297994.0 0
472620.0 300891.0 0
478625.0 301158.0 0
482264.0 298788.0 0
488314.0 300298.0 0
491602.0 298015.0 0
497634.0 301832.0 0
6006.39 302738.0 0
10345.6 305552.0 0
14356.5 306487.0 0
17628.4 304171.0 0
21198.9 306356.0 0
31549.5 303430.0 0
53337.5 302674.0 0
81396.5 304012.0 0
88732.2 305249.0 0
94616.0 305953.0 0
115852.0 306458.0 0
131487.0 303674.0 0
151889.0 305338.0 0
157006.0 303932.0 0
162148.0 303630.0 0
172721.0 302751.0 0
208987.0 304020.0 0
204535.0 307619.0 0
215423.0 304959.0 0
220829.0 303558.0 0
223891.0 306641.0 0
226901.0 302737.0 0
232157.0 303252.0 0
233633.0 307635.0 0
237585.0 304252.0 0
242700.0 303399.0 0
241572.0 307675.0 0
247669.0 305102.0 0
255609.0 304667.0 0
264650.0 303206.0 0
269297.0 303290.0 0
275665.0 305224.0 0
282087.0 304806.0 0
288378.0 305355.0 0
294167.0 305280.0 0
307859.0 304264.0 0
313339.0 305824.0 0
318165.0 304905.0 0
333604.0 306342.0 0
339112.0 302764.0 0
344315.0 304906.0 0
348224.0 306873.0 0
361855.0 303705.0 0
373349.0 304437.0 0
382120.0 304503.0 0
377846.0 305040.0 0
386421.0 304731.0 0
412280.0 307545.0 0
424465.0 303036.0 0
425494.0 306980.0 0
434661.0 306002.0 0
444448.0 305512.0 0
456662.0 305961.0 0
461427.0 307408.0 0
475464.0 304177.0 0
478873.0 306842.0 0
484076.0 305245.0 0
2520.43 311232.0 0
23712.7 309705.0 0
27712.7 310618.0 0
38957.8 311689.0 0
64003.3 311818.0 0
69034.9 311730.0 0
73587.4 309127.0 0
78890.1 310954.0 0
99836.4 308988.0 0
106851.0 312103.0 0
111993.0 311569.0 0
115838.0 312219.0 0
124424.0 307780.0 0
129417.0 308092.0 0
132091.0 311505.0 0
137331.0 309672.0 0
141484.0 311308.0 0
178121.0 309945.0 0
173534.0 311330.0 0
182877.0 308491.0 0
190151.0 308710.0 0
198863.0 310141.0 0
194183.0 311948.0 0
206165.0 312099.0 0
209812.0 308990.0 0
214273.0 310681.0 0
219382.0 308871.0 0
223634.0 311201.0 0
228553.0 308521.0 0
232406.0 312105.0 0
237509.0 310147.0 0
249635.0 309876.0 0
245266.0 310520.0 0
254553.0 310126.0 0
260839.0 308247.0 0
267630.0 308132.0 0
273080.0 310239.0 0
278624.0 310118.0 0
282937.0 309776.0 0
286582.0 309937.0 0
291009.0 309784.0 0
295787.0 310593.0 0
304833.0 308692.0 0
320801.0 312151.0 0
326082.0 311137.0 0
339966.0 312144.0 0
345237.0 309424.0 0
348323.0 311204.0 0
353398.0 312376.0 0
375332.0 307805.0 0
387759.0 311434.0 0
391971.0 312632.0 0
396070.0 309690.0 0
405148.0 309710.0 0
416387.0 309200.0 0
422843.0 311864.0 0
431748.0 309996.0 0
439140.0 307805.0 0
452878.0 309419.0 0
457920.0 310916.0 0
465643.0 309461.0 0
493893.0 311869.0 0
35470.8 313310.0 0
31330.3 313723.0 0
58276.5 316454.0 0
62760.5 316605.0 0
79117.6 315773.0 0
83595.1 313404.0 0
102136.0 313717.0 0
118035.0 315735.0 0
122579.0 313854.0 0
182265.0 317762.0 0
187621.0 314146.0 0
186511.0 317847.0 0
204357.0 315196.0 0
210208.0 313592.0 0
219003.0 313753.0 0
214471.0 315499.0 0
223352.0 315970.0 0
227926.0 314161.0 0
236317.0 315204.0 0
241301.0 313445.0 0
246217.0 315702.0 0
251079.0 313979.0 0
256303.0 316107.0 0
262861.0 314953.0 0
268059.0 313342.0 0
272177.0 315360.0 0
277010.0 315042.0 0
282246.0 314545.0 0
286579.0 313614.0 0
288280.0 317201.0 0
292295.0 314344.0 0
296349.0 314098.0 0
296139.0 317323.0 0
334097.0 316389.0 0
338749.0 315351.0 0
344226.0 313369.0 0
377578.0 313909.0 0
383309.0 316044.0 0
417562.0 313592.0 0
429251.0 314639.0 0
440415.0 315589.0 0
448734.0 313093.0 0
444373.0 314666.0 0
476982.0 317721.0 0
483950.0 315313.0 0
488519.0 313182.0 0
23860.2 320370.0 0
85357.4 318075.0 0
89677.3 319244.0 0
114635.0 319440.0 0
119205.0 319894.0 0
148593.0 319014.0 0
154063.0 320090.0 0
160451.0 320804.0 0
172783.0 321340.0 0
177642.0 319574.0 0
204007.0 319652.0 0
209786.0 319043.0 0
219173.0 318442.0 0
215089.0 319900.0 0
222790.0 320429.0 0
226786.0 318937.0 0
232143.0 319319.0 0
237492.0 319493.0 0
241630.0 318522.0 0
247322.0 320664.0 0
251264.0 318542.0 0
257638.0 320862.0 0
261119.0 319973.0 0
267903.0 318808.0 0
273126.0 319794.0 0
279254.0 319346.0 0
284087.0 319494.0 0
287843.0 321506.0 0
292284.0 319820.0 0
295739.0 322803.0 0
343860.0 320697.0 0
354633.0 320710.0 0
362728.0 319879.0 0
367860.0 318286.0 0
374256.0 318622.0 0
378320.0 322398.0 0
388742.0 318502.0 0
441465.0 321781.0 0
447200.0 322175.0 0
449043.0 318144.0 0
472532.0 318272.0 0
487877.0 320877.0 0
18980.9 324285.0 0
24601.3 325496.0 0
29372.6 326671.0 0
41944.7 326849.0 0
46285.1 324805.0 0
57656.8 323137.0 0
59419.7 327038.0 0
125705.0 327742.0 0
131308.0 326396.0 0
136308.0 326264.0 0
164978.0 324533.0 0
169679.0 325737.0 0
175845.0 323213.0 0
203274.0 325421.0 0
207137.0 323828.0 0
212541.0 323997.0 0
216903.0 323432.0 0
216026.0 327174.0 0
221029.0 324645.0 0
226469.0 324106.0 0
231407.0 324404.0 0
236716.0 324453.0 0
242994.0 323886.0 0
247799.0 324836.0 0
251624.0 323094.0 0
256146.0 324668.0 0
260920.0 324265.0 0
263538.0 328028.0 0
265926.0 324178.0 0
270797.0 323404.0 0
273818.0 327081.0 0
276141.0 323594.0 0
281425.0 323835.0 0
285814.0 324891.0 0
291085.0 324737.0 0
295574.0 327718.0 0
300751.0 324644.0 0
347413.0 323183.0 0
351113.0 324205.0 0
354750.0 327496.0 0
359569.0 323883.0 0
378180.0 326780.0 0
388980.0 328085.0 0
496741.0 323390.0 0
3000.82 329936.0 0
34198.8 328631.0 0
38189.5 331683.0 0
44756.1 330305.0 0
49720.9 329132.0 0
78998.1 329832.0 0
109302.0 331055.0 0
203607.0 329001.0 0
199008.0 331530.0 0
209617.0 329696.0 0
215005.0 330800.0 0
219941.0 329576.0 0
225128.0 329670.0 0
230481.0 329043.0 0
235397.0 329858.0 0
240006.0 329118.0 0
245797.0 329763.0 0
252776.0 329681.0 0
259145.0 329094.0 0
264996.0 332123.0 0
269638.0 328529.0 0
277558.0 328998.0 0
282425.0 328317.0 0
286250.0 328622.0 0
290629.0 330222.0 0
286405.0 333112.0 0
303326.0 330040.0 0
318205.0 331059.0 0
324319.0 332253.0 0
344872.0 330825.0 0
374379.0 328438.0 0
382647.0 329325.0 0
399809.0 332619.0 0
425901.0 333082.0 0
430527.0 331168.0 0
435600.0 330520.0 0
441425.0 328189.0 0
463934.0 329279.0 0
5576.43 334337.0 0
30674.9 337579.0 0
40981.1 334428.0 0
78850.0 333285.0 0
104572.0 334882.0 0
110496.0 335815.0 0
114684.0 337278.0 0
199280.0 337251.0 0
204506.0 333825.0 0
213855.0 334076.0 0
209705.0 336997.0 0
217595.0 333460.0 0
215563.0 338251.0 0
222169.0 334236.0 0
222849.0 338033.0 0
227333.0 334440.0 0
232822.0 334381.0 0
238449.0 333979.0 0
242878.0 334009.0 0
241918.0 338217.0 0
247483.0 335503.0 0
251330.0 334452.0 0
255291.0 335337.0 0
260317.0 334309.0 0
270308.0 334792.0 0
275508.0 333283.0 0
275365.0 337931.0 0
280916.0 334070.0 0
285529.0 338203.0 0
290401.0 335791.0 0
295369.0 333516.0 0
306624.0 336315.0 0
321222.0 333329.0 0
349594.0 337674.0 0
389404.0 338276.0 0
394819.0 336109.0 0
406576.0 334903.0 0
412274.0 334582.0 0
420030.0 334536.0 0
466754.0 335736.0 0
470906.0 337093.0 0
13308.9 341027.0 0
118920.0 339768.0 0
123167.0 342024.0 0
190052.0 341445.0 0
194107.0 338373.0 0
203762.0 338716.0 0
207021.0 342600.0 0
219946.0 338973.0 0
222500.0 343416.0 0
226713.0 340097.0 0
231988.0 339427.0 0
236794.0 339019.0 0
242687.0 342765.0 0
246392.0 340287.0 0
252119.0 338634.0 0
251700.0 342766.0 0
255129.0 340071.0 0
259939.0 339532.0 0
265585.0 338856.0 0
270872.0 340717.0 0
280265.0 339943.0 0
289387.0 341907.0 0
294635.0 339666.0 0
336311.0 341645.0 0
351904.0 343088.0 0
355596.0 340474.0 0
417609.0 340660.0 0
431254.0 341987.0 0
4937.82 345254.0 0
2103.89 347814.0 0
9627.86 345507.0 0
187646.0 347683.0 0
203372.0 344930.0 0
213627.0 343552.0 0
209713.0 346762.0 0
218154.0 343553.0 0
218306.0 348213.0 0
222726.0 348326.0 0
228118.0 345354.0 0
233101.0 344007.0 0
237975.0 343811.0 0
241624.0 347412.0 0
247738.0 344484.0 0
255829.0 344248.0 0
260264.0 344591.0 0
265036.0 344245.0 0
262430.0 348210.0 0
269992.0 346080.0 0
275872.0 344062.0 0
280221.0 346873.0 0
284132.0 344071.0 0
288836.0 347461.0 0
294885.0 346293.0 0
329037.0 348101.0 0
341778.0 345112.0 0
361777.0 346828.0 0
367623.0 346880.0 0
378832.0 345608.0 0
204452.0 348564.0 0
208611.0 351044.0 0
213389.0 349248.0 0
218165.0 352966.0 0
222182.0 353042.0 0
226681.0 349885.0 0
231449.0 348676.0 0
236417.0 348601.0 0
247090.0 349599.0 0
253246.0 348810.0 0
258473.0 348865.0 0
256535.0 353474.0 0
261403.0 353091.0 0
266448.0 350102.0 0
273824.0 349437.0 0
271274.0 353412.0 0
278168.0 350378.0 0
282084.0 349904.0 0
285751.0 351367.0 0
289876.0 352139.0 0
294931.0 353051.0 0
315116.0 353562.0 0
320148.0 351437.0 0
325382.0 351827.0 0
371598.0 350443.0 0
375018.0 352376.0 0
385884.0 349629.0 0
390115.0 351984.0 0
35193.8 355663.0 0
68661.0 355220.0 0
74935.4 356822.0 0
139476.0 355923.0 0
144683.0 356623.0 0
154306.0 357753.0 0
161601.0 358639.0 0
204665.0 354217.0 0
208958.0 356597.0 0
213534.0 354465.0 0
225758.0 354452.0 0
230740.0 354158.0 0
236519.0 353820.0 0
242380.0 353759.0 0
247901.0 355165.0 0
252047.0 353674.0 0
266160.0 355965.0 0
276404.0 355467.0 0
281975.0 354366.0 0
287124.0 356370.0 0
292000.0 357326.0 0
302840.0 357961.0 0
61778.3 360979.0 0
68580.0 359593.0 0
71617.3 361108.0 0
81810.3 363645.0 0
90847.8 359178.0 0
137181.0 360637.0 0
149546.0 359559.0 0
157366.0 361911.0 0
295743.0 359162.0 0
300503.0 362091.0 0
306217.0 361271.0 0
78448.2 366460.0 0
132100.0 363988.0 0
135499.0 367511.0 0
309713.0 366435.0 0
1670.46 375608.0 0
5454.57 375218.0 0
9912.79 375277.0 0
14373.5 375195.0 0
18531.1 375139.0 0
23066.9 375102.0 0
26955.8 375423.0 0
30819.8 375237.0 0
34494.7 375510.0 0
37411.8 375618.0 0
41295.9 375466.0 0
45973.0 375110.0 0
49345.4 375243.0 0
53058.3 375792.0 0
57173.7 375467.0 0
61210.1 375895.0 0
65948.2 375023.0 0
69515.3 375492.0 0
72900.6 375635.0 0
76678.0 375165.0 0
80846.9 375342.0 0
85426.9 375209.0 0
90406.8 375329.0 0
94787.8 375273.0 0
99364.8 375309.0 0
103408.0 375384.0 0
111198.0 375296.0 0
107255.0 375307.0 0
115450.0 375203.0 0
119470.0 375645.0 0
123532.0 375172.0 0
128937.0 375201.0 0
132403.0 376538.0 0
137435.0 375647.0 0
134725.0 375348.0 0
141139.0 375050.0 0
146348.0 375124.0 0
143838.0 376787.0 0
151127.0 375797.0 0
155390.0 375217.0 0
158707.0 376197.0 0
162509.0 375815.0 0
166105.0 375301.0 0
169765.0 375553.0 0
172646.0 375699.0 0
176112.0 375127.0 0
180168.0 375573.0 0
183289.0 376056.0 0
186167.0 375163.0 0
190059.0 375965.0 0
194122.0 375035.0 0
198171.0 375057.0 0
196584.0 377305.0 0
199864.0 376643.0 0
301223.0 375652.0 0
305102.0 371912.0 0
308816.0 370974.0 0
308407.0 375914.0 0
312013.0 375300.0 0
316454.0 375990.0 0
320596.0 375709.0 0
323911.0 375602.0 0
327340.0 375477.0 0
331415.0 375359.0 0
335719.0 375061.0 0
339607.0 375770.0 0
343481.0 375402.0 0
348471.0 375789.0 0
352601.0 376005.0 0
356225.0 375031.0 0
360851.0 375298.0 0
365746.0 375935.0 0
370460.0 375277.0 0
376025.0 375304.0 0
373194.0 377286.0 0
380042.0 375730.0 0
383998.0 375465.0 0
388426.0 375971.0 0
393670.0 375214.0 0
397208.0 375485.0 0
400217.0 375332.0 0
404214.0 375320.0 0
408607.0 375037.0 0
410683.0 377364.0 0
413287.0 375113.0 0
418035.0 375158.0 0
422285.0 375475.0 0
426526.0 375608.0 0
430249.0 375261.0 0
434279.0 375427.0 0
438664.0 375069.0 0
443243.0 375214.0 0
441424.0 377228.0 0
446661.0 375191.0 0
451773.0 375480.0 0
456527.0 375622.0 0
461483.0 375651.0 0
465753.0 375648.0 0
470321.0 375560.0 0
474377.0 375318.0 0
479449.0 375308.0 0
484215.0 375479.0 0
488001.0 375275.0 0
492824.0 375207.0 0
497790.0 375462.0 0
4051.26 378763.0 0
1268.53 378705.0 0
1382.74 381448.0 0
7737.66 378050.0 0
10013.6 380673.0 0
5653.73 382291.0 0
12119.9 378232.0 0
13851.0 382151.0 0
16146.0 379041.0 0
20675.3 378545.0 0
25220.4 378454.0 0
23271.3 382282.0 0
26986.8 381079.0 0
28978.7 378365.0 0
30186.7 381710.0 0
32855.4 378690.0 0
37324.7 378956.0 0
38751.9 382177.0 0
40731.5 379868.0 0
44799.6 377943.0 0
43832.6 381094.0 0
48686.4 377937.0 0
47774.1 381119.0 0
50898.1 382048.0 0
51902.0 379241.0 0
54425.1 382035.0 0
56467.5 379031.0 0
60045.3 380359.0 0
65076.8 379094.0 0
69397.6 378267.0 0
68385.0 382290.0 0
72037.9 380104.0 0
75014.8 378203.0 0
75965.8 382584.0 0
78707.5 378365.0 0
81154.3 381809.0 0
83310.6 378461.0 0
85594.9 381878.0 0
87814.8 378848.0 0
92711.3 379428.0 0
96882.6 378857.0 0
101099.0 378640.0 0
98776.7 381713.0 0
104933.0 378595.0 0
102557.0 382089.0 0
109186.0 378592.0 0
107138.0 382347.0 0
111517.0 382314.0 0
113187.0 378695.0 0
115247.0 382088.0 0
117380.0 379021.0 0
121353.0 379493.0 0
126068.0 379134.0 0
122708.0 382413.0 0
129931.0 379251.0 0
130040.0 382094.0 0
132556.0 379980.0 0
136252.0 379038.0 0
140158.0 378535.0 0
147596.0 378589.0 0
143819.0 380168.0 0
147786.0 382411.0 0
151268.0 380513.0 0
155035.0 378657.0 0
160919.0 378777.0 0
158412.0 379987.0 0
161721.0 381368.0 0
166900.0 378128.0 0
164143.0 379372.0 0
167715.0 381410.0 0
170355.0 378832.0 0
171566.0 382691.0 0
174356.0 379126.0 0
177814.0 377657.0 0
176753.0 383522.0 0
179148.0 379708.0 0
181152.0 382564.0 0
182507.0 379115.0 0
184549.0 381745.0 0
186640.0 378899.0 0
190467.0 380238.0 0
193142.0 378114.0 0
195226.0 379915.0 0
198951.0 379705.0 0
300656.0 380072.0 0
304878.0 376965.0 0
304112.0 381045.0 0
308369.0 380925.0 0
312240.0 379030.0 0
320301.0 379477.0 0
316496.0 381335.0 0
323115.0 378104.0 0
323540.0 381090.0 0
325795.0 378709.0 0
326724.0 381006.0 0
329574.0 379122.0 0
329407.0 382584.0 0
333731.0 378471.0 0
340675.0 378863.0 0
337568.0 377964.0 0
337646.0 380986.0 0
344758.0 379920.0 0
349347.0 380102.0 0
353589.0 380142.0 0
357605.0 377942.0 0
357972.0 381662.0 0
361804.0 379702.0 0
366578.0 380647.0 0
369814.0 379086.0 0
373199.0 380816.0 0
377188.0 379776.0 0
381483.0 379096.0 0
385295.0 378742.0 0
383712.0 382395.0 0
388156.0 381394.0 0
392405.0 379524.0 0
395832.0 381709.0 0
397748.0 378660.0 0
400681.0 381733.0 0
402186.0 378083.0 0
406456.0 377723.0 0
404444.0 380280.0 0
408813.0 380992.0 0
412920.0 379925.0 0
415811.0 377743.0 0
416924.0 382225.0 0
419840.0 378908.0 0
421842.0 382421.0 0
427903.0 379225.0 0
424161.0 379242.0 0
431280.0 378320.0 0
431042.0 380928.0 0
433059.0 381008.0 0
428998.0 382543.0 0
434833.0 378697.0 0
437591.0 378324.0 0
436325.0 382047.0 0
440026.0 380508.0 0
444679.0 379184.0 0
448565.0 382562.0 0
448790.0 378050.0 0
452321.0 379710.0 0
455270.0 379306.0 0
457129.0 382428.0 0
459546.0 379254.0 0
461087.0 382436.0 0
463791.0 379832.0 0
468268.0 379148.0 0
471365.0 381944.0 0
472748.0 378685.0 0
476330.0 378383.0 0
475758.0 382194.0 0
482444.0 378327.0 0
479556.0 380409.0 0
484093.0 382271.0 0
486225.0 378577.0 0
488386.0 382359.0 0
490018.0 378722.0 0
494660.0 379177.0 0
492560.0 382595.0 0
498640.0 379069.0 0
497798.0 382617.0 0
1880.58 384833.0 0
10089.3 384117.0 0
6188.46 387140.0 0
14508.1 386234.0 0
10375.8 387627.0 0
18487.3 383264.0 0
19314.7 387104.0 0
23082.6 385995.0 0
26925.1 384262.0 0
30775.3 385425.0 0
34840.5 382681.0 0
34741.1 386998.0 0
38361.1 385751.0 0
41156.0 386525.0 0
45017.1 383477.0 0
41421.4 383480.0 0
44113.0 386826.0 0
48526.2 384921.0 0
52166.4 384459.0 0
55732.4 385885.0 0
57388.7 382675.0 0
59767.6 384711.0 0
63622.7 383475.0 0
63158.2 387705.0 0
67075.6 385846.0 0
70330.3 387526.0 0
71653.3 384182.0 0
74789.9 387444.0 0
79185.2 385943.0 0
83650.3 385582.0 0
90218.1 382851.0 0
87389.2 385097.0 0
91234.0 387588.0 0
94993.1 383842.0 0
99702.0 385118.0 0
104492.0 385430.0 0
109327.0 385743.0 0
114380.0 386174.0 0
118939.0 383436.0 0
119238.0 387575.0 0
126475.0 383501.0 0
122670.0 385666.0 0
130099.0 385740.0 0
134111.0 383635.0 0
136861.0 387381.0 0
139392.0 383156.0 0
144256.0 383874.0 0
147308.0 386225.0 0
150899.0 384664.0 0
155246.0 383230.0 0
153576.0 387098.0 0
159632.0 383642.0 0
162115.0 386491.0 0
164561.0 383732.0 0
168527.0 385676.0 0
172715.0 386018.0 0
175623.0 388058.0 0
180603.0 387172.0 0
183591.0 384314.0 0
187685.0 383549.0 0
191273.0 384223.0 0
193395.0 382407.0 0
189952.0 387189.0 0
196551.0 382980.0 0
194507.0 386402.0 0
199558.0 382792.0 0
199069.0 386470.0 0
301419.0 384636.0 0
305092.0 383948.0 0
307816.0 385113.0 0
312383.0 382450.0 0
314231.0 384878.0 0
310973.0 384865.0 0
317788.0 386539.0 0
320772.0 383834.0 0
325740.0 385004.0 0
330990.0 386743.0 0
333688.0 382802.0 0
335605.0 387374.0 0
340751.0 382701.0 0
337546.0 384315.0 0
339998.0 386959.0 0
344155.0 384513.0 0
346465.0 386628.0 0
347876.0 383555.0 0
351345.0 383669.0 0
349462.0 386954.0 0
355331.0 384121.0 0
353032.0 386184.0 0
359750.0 384852.0 0
363569.0 383430.0 0
364503.0 386848.0 0
367044.0 384542.0 0
370144.0 383205.0 0
374836.0 385370.0 0
379543.0 383257.0 0
379297.0 387580.0 0
382357.0 385854.0 0
386566.0 386354.0 0
392323.0 385109.0 0
397536.0 384865.0 0
401548.0 385604.0 0
405113.0 384272.0 0
409159.0 384934.0 0
412778.0 383751.0 0
415788.0 386545.0 0
419763.0 385494.0 0
425493.0 383111.0 0
423805.0 386866.0 0
428299.0 386528.0 0
432570.0 384111.0 0
436526.0 386010.0 0
439504.0 384076.0 0
443246.0 383251.0 0
445922.0 386798.0 0
453356.0 383035.0 0
451151.0 386268.0 0
455938.0 386890.0 0
463585.0 383863.0 0
459912.0 385184.0 0
462454.0 386653.0 0
466759.0 382822.0 0
466458.0 386926.0 0
469600.0 385009.0 0
473262.0 385923.0 0
477326.0 385534.0 0
480175.0 384033.0 0
483999.0 386110.0 0
488536.0 386616.0 0
494029.0 386361.0 0
498377.0 386442.0 0
1899.23 388791.0 0
1445.57 392425.0 0
8821.91 390227.0 0
5546.49 391828.0 0
12149.7 390294.0 0
16635.6 390732.0 0
22536.2 390501.0 0
26854.2 388186.0 0
26709.9 392844.0 0
31830.2 390432.0 0
37162.9 389965.0 0
40916.3 389240.0 0
44462.2 391223.0 0
47814.1 388830.0 0
51770.9 387779.0 0
54732.1 389838.0 0
58989.4 388892.0 0
62233.2 391825.0 0
66894.8 390447.0 0
71700.7 390824.0 0
75954.2 391739.0 0
78661.7 389508.0 0
82341.0 389094.0 0
86559.5 388499.0 0
84957.1 391640.0 0
88596.9 391701.0 0
96550.4 388467.0 0
93378.1 392255.0 0
101641.0 388849.0 0
106771.0 388964.0 0
110973.0 389037.0 0
109368.0 392466.0 0
116546.0 389780.0 0
113376.0 391093.0 0
119631.0 390752.0 0
126274.0 388112.0 0
122730.0 389821.0 0
126374.0 392267.0 0
129833.0 390076.0 0
133156.0 387880.0 0
133965.0 391984.0 0
142284.0 387711.0 0
138705.0 390958.0 0
146742.0 390222.0 0
150636.0 388477.0 0
150640.0 392352.0 0
154502.0 390684.0 0
157878.0 387867.0 0
161536.0 389792.0 0
165523.0 388898.0 0
163196.0 392341.0 0
170803.0 389746.0 0
174982.0 391526.0 0
178845.0 391194.0 0
183527.0 391861.0 0
185652.0 387605.0 0
188361.0 391114.0 0
192895.0 390243.0 0
198022.0 391049.0 0
305284.0 387511.0 0
301139.0 388842.0 0
304566.0 391266.0 0
309410.0 388093.0 0
307657.0 390900.0 0
310815.0 391915.0 0
313693.0 388714.0 0
317927.0 390674.0 0
322279.0 388822.0 0
327834.0 390279.0 0
333000.0 390935.0 0
337385.0 391079.0 0
341695.0 391045.0 0
343928.0 388010.0 0
346746.0 390618.0 0
356191.0 387866.0 0
352123.0 390509.0 0
356558.0 391803.0 0
360755.0 389533.0 0
365327.0 390244.0 0
369596.0 388192.0 0
371846.0 392695.0 0
373716.0 389882.0 0
376838.0 390191.0 0
375025.0 392568.0 0
379764.0 390942.0 0
382691.0 389304.0 0
385592.0 390889.0 0
390010.0 390161.0 0
396289.0 388109.0 0
394117.0 389266.0 0
394042.0 392130.0 0
397526.0 391609.0 0
399938.0 388555.0 0
402213.0 392357.0 0
403752.0 388428.0 0
405858.0 390913.0 0
407533.0 388239.0 0
411787.0 387878.0 0
409815.0 392360.0 0
415000.0 391234.0 0
419066.0 389205.0 0
422763.0 391286.0 0
426505.0 390282.0 0
429570.0 390121.0 0
432675.0 388002.0 0
432685.0 392252.0 0
436633.0 390020.0 0
441118.0 387859.0 0
440050.0 391943.0 0
444635.0 391666.0 0
448826.0 389498.0 0
452869.0 390260.0 0
457049.0 391201.0 0
459836.0 388787.0 0
460646.0 392182.0 0
463823.0 389942.0 0
468366.0 391248.0 0
470183.0 388048.0 0
472934.0 389986.0 0
476152.0 388275.0 0
477492.0 392134.0 0
480527.0 388064.0 0
481798.0 391662.0 0
484838.0 389343.0 0
488248.0 390558.0 0
492360.0 390345.0 0
497733.0 390304.0 0
2771.52 396637.0 0
9734.35 393159.0 0
7503.15 395718.0 0
13033.2 393892.0 0
11182.3 397053.0 0
19885.4 393432.0 0
16748.5 397257.0 0
22509.9 395569.0 0
26362.8 397560.0 0
31451.0 395717.0 0
36018.0 393761.0 0
40286.3 392938.0 0
38099.3 395374.0 0
40733.4 397175.0 0
44477.8 394921.0 0
50404.8 393039.0 0
47308.7 396821.0 0
54146.9 396529.0 0
57208.7 393115.0 0
58063.1 397321.0 0
61385.9 395512.0 0
65586.6 394507.0 0
69614.2 394240.0 0
73370.1 393852.0 0
73131.1 397132.0 0
76795.1 395693.0 0
80635.9 393402.0 0
85300.8 395844.0 0
89777.3 395167.0 0
96023.2 394864.0 0
93637.7 397738.0 0
99016.2 393020.0 0
97863.5 397244.0 0
104239.0 393264.0 0
107420.0 396682.0 0
117123.0 393140.0 0
112914.0 395497.0 0
122000.0 394223.0 0
117900.0 396967.0 0
127009.0 397223.0 0
129855.0 393796.0 0
132838.0 397282.0 0
137931.0 395534.0 0
142900.0 393248.0 0
147202.0 393860.0 0
145728.0 396649.0 0
150038.0 397129.0 0
154407.0 394828.0 0
158919.0 392795.0 0
158171.0 397707.0 0
167232.0 393349.0 0
163213.0 396773.0 0
172338.0 395177.0 0
176707.0 394506.0 0
180137.0 395206.0 0
183876.0 396050.0 0
187160.0 395083.0 0
191390.0 394399.0 0
194801.0 393851.0 0
196768.0 395530.0 0
194403.0 397176.0 0
199399.0 395058.0 0
301278.0 393777.0 0
306983.0 395673.0 0
314847.0 392994.0 0
311931.0 395397.0 0
315445.0 396999.0 0
318454.0 394799.0 0
321242.0 392790.0 0
324907.0 393258.0 0
322278.0 396140.0 0
326062.0 396630.0 0
330190.0 394960.0 0
335092.0 394612.0 0
339440.0 394461.0 0
337412.0 397630.0 0
343978.0 394506.0 0
348990.0 394649.0 0
353519.0 395008.0 0
360145.0 393413.0 0
357777.0 394957.0 0
361410.0 396778.0 0
363646.0 393463.0 0
365772.0 396646.0 0
367899.0 392986.0 0
370266.0 396467.0 0
374723.0 396406.0 0
378040.0 393507.0 0
379052.0 397193.0 0
382415.0 393802.0 0
385351.0 397305.0 0
387375.0 394000.0 0
391645.0 394567.0 0
395693.0 394972.0 0
393714.0 397305.0 0
399554.0 395081.0 0
405892.0 394242.0 0
403213.0 397585.0 0
413414.0 395826.0 0
419008.0 394416.0 0
423292.0 395352.0 0
425707.0 393539.0 0
426815.0 397113.0 0
428720.0 393395.0 0
431463.0 396332.0 0
436337.0 394695.0 0
438293.0 397435.0 0
441516.0 395581.0 0
446023.0 396082.0 0
449265.0 393217.0 0
450883.0 397162.0 0
454045.0 393931.0 0
458120.0 394961.0 0
461684.0 395711.0 0
464782.0 393881.0 0
468166.0 395882.0 0
464476.0 397868.0 0
472192.0 393889.0 0
476328.0 396856.0 0
481485.0 395683.0 0
485353.0 393121.0 0
485975.0 396721.0 0
490046.0 394522.0 0
493920.0 397803.0 0
498835.0 393716.0 0
495196.0 393835.0 0
498252.0 396843.0 0
2882.1 402366.0 0
7800.85 399818.0 0
12373.4 401453.0 0
17545.1 402804.0 0
21792.0 399893.0 0
25700.3 401799.0 0
30654.2 400899.0 0
35944.1 398351.0 0
40070.5 401994.0 0
44885.8 400176.0 0
50419.9 399533.0 0
55432.8 400949.0 0
61027.5 400778.0 0
64431.4 398113.0 0
65235.5 402067.0 0
68675.1 398813.0 0
76448.0 398939.0 0
73415.7 401398.0 0
80455.6 398453.0 0
77783.6 402084.0 0
81269.9 402408.0 0
84624.8 400642.0 0
89042.0 399421.0 0
93005.1 402293.0 0
101858.0 398088.0 0
97595.0 401193.0 0
105324.0 400842.0 0
110677.0 400926.0 0
115189.0 399355.0 0
121837.0 399260.0 0
118142.0 400607.0 0
129774.0 401092.0 0
133858.0 402144.0 0
137821.0 400036.0 0
142086.0 398226.0 0
142113.0 402626.0 0
146429.0 400637.0 0
151027.0 402305.0 0
153801.0 398905.0 0
156153.0 402369.0 0
161514.0 402110.0 0
165069.0 400794.0 0
168081.0 398561.0 0
172633.0 399448.0 0
169995.0 403107.0 0
176882.0 398308.0 0
174850.0 402387.0 0
181696.0 398946.0 0
179418.0 402138.0 0
186133.0 399001.0 0
184282.0 402501.0 0
190398.0 398336.0 0
189162.0 402526.0 0
198263.0 398489.0 0
194467.0 401632.0 0
199047.0 402004.0 0
302247.0 398404.0 0
306777.0 401654.0 0
311228.0 399429.0 0
315706.0 401502.0 0
319411.0 398609.0 0
323965.0 400177.0 0
328817.0 399419.0 0
331223.0 402238.0 0
333576.0 399195.0 0
337953.0 401492.0 0
341301.0 398095.0 0
346236.0 398648.0 0
342822.0 402777.0 0
351035.0 399083.0 0
356361.0 399079.0 0
360383.0 399995.0 0
364009.0 400819.0 0
368231.0 399342.0 0
372231.0 400740.0 0
376604.0 400542.0 0
380683.0 401130.0 0
382283.0 398285.0 0
385051.0 401658.0 0
389496.0 398410.0 0
389567.0 402867.0 0
393690.0 400764.0 0
397739.0 398667.0 0
401317.0 401589.0 0
405871.0 402508.0 0
408802.0 398037.0 0
410322.0 402188.0 0
413270.0 400339.0 0
416904.0 398482.0 0
417449.0 402843.0 0
421836.0 399141.0 0
426126.0 401320.0 0
430019.0 399946.0 0
428975.0 402689.0 0
434930.0 400047.0 0
439620.0 399341.0 0
439445.0 402928.0 0
443048.0 399739.0 0
447516.0 400462.0 0
452393.0 401573.0 0
455576.0 398383.0 0
456498.0 402461.0 0
460238.0 399232.0 0
464413.0 402203.0 0
467791.0 399767.0 0
471718.0 398540.0 0
474881.0 401016.0 0
479499.0 400251.0 0
484003.0 399610.0 0
489202.0 399021.0 0
486643.0 402875.0 0
490329.0 402247.0 0
493323.0 401576.0 0
497708.0 400594.0 0
3331.93 407970.0 0
8253.31 404885.0 0
13414.3 406742.0 0
18456.0 406676.0 0
22395.4 404663.0 0
27403.5 405318.0 0
31412.0 405392.0 0
35385.9 403279.0 0
34456.1 407526.0 0
38975.1 407080.0 0
43932.1 405694.0 0
47811.7 403596.0 0
48598.9 408002.0 0
51620.7 404190.0 0
55374.2 404998.0 0
58735.6 404138.0 0
57949.5 407710.0 0
63084.8 406220.0 0
69104.2 404360.0 0
74886.6 405903.0 0
79671.1 405567.0 0
84145.1 404954.0 0
88386.8 403675.0 0
91659.7 405862.0 0
96449.9 405723.0 0
101596.0 403725.0 0
100297.0 407667.0 0
106745.0 404779.0 0
104104.0 407919.0 0
111673.0 406117.0 0
115502.0 403197.0 0
116954.0 407671.0 0
119941.0 403572.0 0
121929.0 407026.0 0
125255.0 403125.0 0
130209.0 405764.0 0
134821.0 405950.0 0
138349.0 404464.0 0
142074.0 407275.0 0
145926.0 404917.0 0
149816.0 406372.0 0
154173.0 406565.0 0
158689.0 406152.0 0
163236.0 406680.0 0
165840.0 403655.0 0
173059.0 406772.0 0
177058.0 405446.0 0
181494.0 406532.0 0
187116.0 406655.0 0
192758.0 407009.0 0
197951.0 405296.0 0
301501.0 403018.0 0
304811.0 405718.0 0
307816.0 406364.0 0
311544.0 404838.0 0
320354.0 403065.0 0
316756.0 406285.0 0
323933.0 404510.0 0
321524.0 407546.0 0
325985.0 407770.0 0
327247.0 403328.0 0
330618.0 406327.0 0
334684.0 404014.0 0
339045.0 406767.0 0
343592.0 406981.0 0
348232.0 403559.0 0
351026.0 407172.0 0
353437.0 403508.0 0
359342.0 404397.0 0
364364.0 406288.0 0
368259.0 403283.0 0
371399.0 405307.0 0
368548.0 407815.0 0
374842.0 404522.0 0
378501.0 403988.0 0
381923.0 405164.0 0
377942.0 408079.0 0
386514.0 406504.0 0
390917.0 406289.0 0
393395.0 404297.0 0
397390.0 403765.0 0
398705.0 406759.0 0
401891.0 405729.0 0
406231.0 405751.0 0
409721.0 406145.0 0
413195.0 403612.0 0
414772.0 407529.0 0
419575.0 406595.0 0
422743.0 404094.0 0
427516.0 405776.0 0
431680.0 403594.0 0
431725.0 407705.0 0
435405.0 405087.0 0
442050.0 407354.0 0
438927.0 406920.0 0
443992.0 404174.0 0
449251.0 405299.0 0
453946.0 404779.0 0
457513.0 406804.0 0
460152.0 403412.0 0
462242.0 406646.0 0
466294.0 406246.0 0
470851.0 403677.0 0
473725.0 407464.0 0
477236.0 404599.0 0
482142.0 403847.0 0
485090.0 406483.0 0
491040.0 406957.0 0
495444.0 404192.0 0
498574.0 404180.0 0
1624.49 411987.0 0
8659.82 409498.0 0
5548.7 412620.0 0
12764.0 411984.0 0
17602.7 410745.0 0
21223.0 408333.0 0
25042.2 408655.0 0
22094.1 411659.0 0
30170.2 409889.0 0
25959.9 412637.0 0
35973.1 411756.0 0
41105.0 411234.0 0
44729.6 409983.0 0
47532.5 411884.0 0
53323.4 408253.0 0
51435.9 412206.0 0
56204.2 411694.0 0
60366.8 410360.0 0
64011.8 411897.0 0
67190.3 408924.0 0
71349.7 408680.0 0
74302.3 410073.0 0
78028.6 409444.0 0
82628.7 409021.0 0
85270.1 412102.0 0
87810.8 408426.0 0
92821.7 409382.0 0
94481.5 413160.0 0
97470.4 410293.0 0
101742.0 411532.0 0
106444.0 411778.0 0
108103.0 408331.0 0
111767.0 411100.0 0
116931.0 412905.0 0
121291.0 410857.0 0
125882.0 408411.0 0
129989.0 411096.0 0
133785.0 408938.0 0
137764.0 408603.0 0
140471.0 411739.0 0
146649.0 409446.0 0
143402.0 410270.0 0
151469.0 410272.0 0
155708.0 410380.0 0
159966.0 409972.0 0
164410.0 410964.0 0
168201.0 408012.0 0
168076.0 412832.0 0
172358.0 411592.0 0
176842.0 409326.0 0
180755.0 411055.0 0
184463.0 410134.0 0
188798.0 411616.0 0
193791.0 412356.0 0
198004.0 409634.0 0
301467.0 407969.0 0
305461.0 409391.0 0
301890.0 412119.0 0
309535.0 409506.0 0
313454.0 408933.0 0
318042.0 411792.0 0
323819.0 411680.0 0
329594.0 411463.0 0
334582.0 408945.0 0
338293.0 411899.0 0
342684.0 410756.0 0
347039.0 408595.0 0
351161.0 411296.0 0
355556.0 408479.0 0
360924.0 410173.0 0
365530.0 410319.0 0
369038.0 411363.0 0
372853.0 409067.0 0
375574.0 412703.0 0
379527.0 411956.0 0
382633.0 409340.0 0
386910.0 411441.0 0
390212.0 409225.0 0
395015.0 408258.0 0
397122.0 412345.0 0
399971.0 409504.0 0
405323.0 409573.0 0
410838.0 411185.0 0
415692.0 412822.0 0
419010.0 410099.0 0
423910.0 409331.0 0
428369.0 410087.0 0
431882.0 412842.0 0
435881.0 409557.0 0
436496.0 413188.0 0
440968.0 411518.0 0
445224.0 408684.0 0
446267.0 413270.0 0
448997.0 409998.0 0
453251.0 408623.0 0
456593.0 411817.0 0
460353.0 409933.0 0
464293.0 410399.0 0
469428.0 409890.0 0
474344.0 411400.0 0
477165.0 408813.0 0
478444.0 411899.0 0
481148.0 408245.0 0
482363.0 412890.0 0
486050.0 410504.0 0
494059.0 411548.0 0
490060.0 412906.0 0
497402.0 408163.0 0
497935.0 412916.0 0
2422.38 416008.0 0
9119.15 413632.0 0
7217.51 417659.0 0
12003.7 416619.0 0
19745.9 414196.0 0
16393.3 415332.0 0
22868.8 415407.0 0
28878.3 413594.0 0
27587.4 417327.0 0
31998.7 414824.0 0
35752.8 416571.0 0
39759.4 415387.0 0
44349.5 414310.0 0
42490.5 418172.0 0
48673.2 415143.0 0
50350.1 418091.0 0
54576.8 416515.0 0
59761.9 414496.0 0
64055.4 416689.0 0
69770.2 414042.0 0
75745.5 413418.0 0
74643.0 417539.0 0
80723.9 413768.0 0
85272.3 415903.0 0
82364.8 417227.0 0
89569.7 413593.0 0
93678.3 417955.0 0
98507.5 414965.0 0
103757.0 416616.0 0
109294.0 415791.0 0
113391.0 415561.0 0
116725.0 417769.0 0
121289.0 415782.0 0
125400.0 413228.0 0
129886.0 417000.0 0
135495.0 413795.0 0
140693.0 416948.0 0
144317.0 413543.0 0
145785.0 417560.0 0
148620.0 413709.0 0
149832.0 417367.0 0
153486.0 414526.0 0
157901.0 413549.0 0
157499.0 417384.0 0
161583.0 413768.0 0
161829.0 417722.0 0
165001.0 414852.0 0
170702.0 415920.0 0
177420.0 414505.0 0
173927.0 417151.0 0
180769.0 418125.0 0
183731.0 414632.0 0
188053.0 416092.0 0
191169.0 415162.0 0
198068.0 414729.0 0
194390.0 416360.0 0
301849.0 416109.0 0
306725.0 414098.0 0
310934.0 417459.0 0
312345.0 413150.0 0
315817.0 417307.0 0
321436.0 415978.0 0
326468.0 415618.0 0
334178.0 413132.0 0
331511.0 416497.0 0
337192.0 417048.0 0
342443.0 415294.0 0
346704.0 413303.0 0
346604.0 418041.0 0
351016.0 415942.0 0
356347.0 413913.0 0
361263.0 414728.0 0
365824.0 414417.0 0
363177.0 417970.0 0
371020.0 415233.0 0
375353.0 416732.0 0
379050.0 415742.0 0
383069.0 413917.0 0
387398.0 416695.0 0
392082.0 413421.0 0
396424.0 416626.0 0
401549.0 414441.0 0
407307.0 415016.0 0
412318.0 416324.0 0
416960.0 416999.0 0
421258.0 414601.0 0
426777.0 413927.0 0
424806.0 418192.0 0
430058.0 418145.0 0
435055.0 416640.0 0
438898.0 415461.0 0
443017.0 416540.0 0
448296.0 418231.0 0
451683.0 413635.0 0
452533.0 417381.0 0
456048.0 416252.0 0
461045.0 414474.0 0
466478.0 414389.0 0
471443.0 414833.0 0
479354.0 415215.0 0
475902.0 415257.0 0
482390.0 417141.0 0
486266.0 415147.0 0
490297.0 417261.0 0
494345.0 415424.0 0
497988.0 416850.0 0
2726.23 420995.0 0
7233.18 422097.0 0
10990.6 420951.0 0
15272.1 419694.0 0
19814.7 418504.0 0
18490.5 422377.0 0
23661.2 418962.0 0
22928.0 422653.0 0
28403.8 422807.0 0
32576.6 419385.0 0
38317.3 420566.0 0
43749.0 422441.0 0
46435.0 418363.0 0
49269.3 422154.0 0
54826.0 422295.0 0
59573.9 419275.0 0
64108.3 421606.0 0
67474.6 419114.0 0
71193.2 419511.0 0
74690.3 422544.0 0
78980.4 419202.0 0
83926.7 420111.0 0
88480.6 419025.0 0
98942.2 420624.0 0
103792.0 421750.0 0
107885.0 420562.0 0
112537.0 419696.0 0
116265.0 421805.0 0
120478.0 420570.0 0
124989.0 419258.0 0
135425.0 420173.0 0
139662.0 420737.0 0
143245.0 421686.0 0
148483.0 421705.0 0
153421.0 419739.0 0
158412.0 422570.0 0
166987.0 418630.0 0
163494.0 421786.0 0
171962.0 420897.0 0
176744.0 419491.0 0
180738.0 422424.0 0
185591.0 419914.0 0
191258.0 419410.0 0
197173.0 420066.0 0
302300.0 420536.0 0
306747.0 419295.0 0
310691.0 422020.0 0
315429.0 421982.0 0
319734.0 420544.0 0
323972.0 419362.0 0
328361.0 420313.0 0
333193.0 421245.0 0
337556.0 422410.0 0
342036.0 420571.0 0
346606.0 422966.0 0
350866.0 420920.0 0
354843.0 418637.0 0
359108.0 418519.0 0
362438.0 422978.0 0
367321.0 419345.0 0
372653.0 420707.0 0
378053.0 420119.0 0
381730.0 423263.0 0
382696.0 418710.0 0
386965.0 422497.0 0
392254.0 419633.0 0
396367.0 423337.0 0
399507.0 419605.0 0
404264.0 419163.0 0
406236.0 423092.0 0
409027.0 419744.0 0
414873.0 420950.0 0
420191.0 419964.0 0
426675.0 421853.0 0
434499.0 420592.0 0
439011.0 419728.0 0
443916.0 421289.0 0
453837.0 421648.0 0
459114.0 419425.0 0
464081.0 418801.0 0
469093.0 418775.0 0
466826.0 422548.0 0
473854.0 418998.0 0
478290.0 418586.0 0
476798.0 422830.0 0
481573.0 421581.0 0
486148.0 419811.0 0
494062.0 419271.0 0
490491.0 422508.0 0
494642.0 422968.0 0
497860.0 420972.0 0
1118.7 424655.0 0
4801.05 425939.0 0
1165.26 427189.0 0
9784.15 425460.0 0
14477.7 424399.0 0
19559.4 427264.0 0
25275.1 427202.0 0
30208.5 427660.0 0
33837.1 424075.0 0
38414.7 425747.0 0
42618.0 427210.0 0
46918.3 426388.0 0
51691.1 426868.0 0
56251.5 427227.0 0
59963.2 424437.0 0
64637.3 426683.0 0
69113.9 423703.0 0
72849.8 427276.0 0
81108.3 423861.0 0
77382.9 426576.0 0
86904.6 424706.0 0
91302.3 427873.0 0
92648.0 423392.0 0
96970.0 425805.0 0
101626.0 425209.0 0
106561.0 425494.0 0
111033.0 423880.0 0
115021.0 425783.0 0
118908.0 424272.0 0
123054.0 424377.0 0
129203.0 423892.0 0
134879.0 424998.0 0
139138.0 423725.0 0
142376.0 426372.0 0
138005.0 427996.0 0
145843.0 424996.0 0
148664.0 425805.0 0
152908.0 425247.0 0
162767.0 426528.0 0
167513.0 423969.0 0
172226.0 427162.0 0
176186.0 423728.0 0
176724.0 427186.0 0
180387.0 427617.0 0
185001.0 425175.0 0
189103.0 423511.0 0
193398.0 424269.0 0
198004.0 425309.0 0
302028.0 425149.0 0
306023.0 423500.0 0
305561.0 428067.0 0
309081.0 426079.0 0
313480.0 426329.0 0
318723.0 425727.0 0
324382.0 424265.0 0
329889.0 425031.0 0
335011.0 425911.0 0
340819.0 426882.0 0
346203.0 427040.0 0
350660.0 426031.0 0
355976.0 423507.0 0
359290.0 428269.0 0
364197.0 428474.0 0
368595.0 425205.0 0
376591.0 426020.0 0
384070.0 427123.0 0
391573.0 424283.0 0
388804.0 427652.0 0
394000.0 428220.0 0
398904.0 427623.0 0
401665.0 423734.0 0
402339.0 427428.0 0
406128.0 427720.0 0
410746.0 424482.0 0
414765.0 427306.0 0
418263.0 424380.0 0
422847.0 424017.0 0
426734.0 425763.0 0
431263.0 424131.0 0
437174.0 424736.0 0
434060.0 428633.0 0
442590.0 426303.0 0
448284.0 423712.0 0
452167.0 427986.0 0
457286.0 426204.0 0
462072.0 424013.0 0
467115.0 427475.0 0
471488.0 423602.0 0
475151.0 428485.0 0
480680.0 426245.0 0
485203.0 424376.0 0
488846.0 427241.0 0
484690.0 428326.0 0
493513.0 426447.0 0
497824.0 425369.0 0
2467.95 430417.0 0
4940.82 433352.0 0
7814.93 430142.0 0
12933.3 429318.0 0
17211.2 433034.0 0
22502.0 431891.0 0
27525.4 432051.0 0
34888.7 429140.0 0
39438.7 430110.0 0
43227.1 431322.0 0
48384.8 431827.0 0
54255.2 431287.0 0
60338.7 429835.0 0
65473.7 431929.0 0
68749.9 428574.0 0
71430.9 431551.0 0
75834.4 430933.0 0
82186.2 429610.0 0
85687.2 433137.0 0
87685.8 430115.0 0
90987.2 432868.0 0
95106.9 430391.0 0
100288.0 429790.0 0
105637.0 430872.0 0
110925.0 428938.0 0
109474.0 433422.0 0
115539.0 430063.0 0
119837.0 428384.0 0
122472.0 432155.0 0
118412.0 433169.0 0
124895.0 428598.0 0
126279.0 432803.0 0
128904.0 429868.0 0
133109.0 428960.0 0
141605.0 431451.0 0
146480.0 429432.0 0
151333.0 429837.0 0
157614.0 428701.0 0
154371.0 433355.0 0
167055.0 428822.0 0
163368.0 431332.0 0
167367.0 433271.0 0
172148.0 433016.0 0
176642.0 430813.0 0
181156.0 432442.0 0
184323.0 429615.0 0
189625.0 428827.0 0
195138.0 428574.0 0
198223.0 431239.0 0
301556.0 429175.0 0
304056.0 433019.0 0
310417.0 431766.0 0
316315.0 430428.0 0
322358.0 429287.0 0
324594.0 432730.0 0
327079.0 429185.0 0
331882.0 429395.0 0
336530.0 431646.0 0
341481.0 433160.0 0
344940.0 430658.0 0
349395.0 431221.0 0
354295.0 429878.0 0
357922.0 433109.0 0
367747.0 430179.0 0
369104.0 433430.0 0
372015.0 430037.0 0
376599.0 431195.0 0
380590.0 430554.0 0
385534.0 431913.0 0
390708.0 432357.0 0
397541.0 432280.0 0
402213.0 430863.0 0
406773.0 433049.0 0
410741.0 429720.0 0
415218.0 432581.0 0
418979.0 428859.0 0
420798.0 433509.0 0
423828.0 429101.0 0
429278.0 429774.0 0
433487.0 433392.0 0
438669.0 430306.0 0
443785.0 431589.0 0
446999.0 428246.0 0
448751.0 432118.0 0
453527.0 433611.0 0
457199.0 430655.0 0
461489.0 429374.0 0
465060.0 432261.0 0
470288.0 432396.0 0
481300.0 431067.0 0
486381.0 432902.0 0
492393.0 431500.0 0
497608.0 429720.0 0
11093.5 435022.0 0
32710.0 433985.0 0
38047.8 434600.0 0
58125.4 434663.0 0
78957.3 434264.0 0
96640.7 435199.0 0
101954.0 434984.0 0
113718.0 433951.0 0
136386.0 433523.0 0
159472.0 433795.0 0
186016.0 433684.0 0
193876.0 433703.0 0
320128.0 433642.0 0
374435.0 433822.0 0
425894.0 433794.0 0
460453.0 434252.0 0
477264.0 434071.0 0
481870.0 435343.0 0
490327.0 436434.0 0
494485.0 436097.0 0
497932.0 434107.0 0
POINT_DATA 5000
SCALARS Radius float 1
LOOKUP_TABLE default
4796.58 3979.26 3471.03 5253.55 5820.48 5782.6 4862.21 5113.21 3929.19 4107.03 4478.15 5379.87 5925.6 4501.51 4792.73 4736.58 4931.38 3485.26 4329.05 4151.94 4049.23 5337.48 6124.89 5708.81 5252.48 4780.03 5495.39 3996.0 3856.1 4665.12 3383.4 4133.88 4834.9 3850.77 6044.04 5415.48 5120.0 3863.18 4998.37 6182.6 5492.18 5258.36 5061.3 3642.12 3163.97 5812.43 5122.66 5906.14 7513.1 5254.28 5733.48 4672.91 5580.89 5645.7 6810.52 5840.26 6110.27 5561.06 5073.35 3615.22 5670.04 4380.59 6716.79 5759.91 7613.27 5529.52 4951.03 5255.32 6037.08 5096.78 6756.95 4129.43 6324.23 3843.58 3320.52 4194.5 4270.53 5344.25 5191.63 4593.7 4150.99 4216.92 4742.68 4344.58 5634.83 5495.84 6268.1 4861.06 5320.28 6739.08 4797.52 4569.12 4298.67 5960.66 6608.73 5011.84 7034.11 6261.42 4502.5 3771.48 4043.57 4271.69 5681.38 4138.42 3708.04 5513.6 3240.09 4556.36 6082.81 3191.99 4685.34 5601.05 4929.8 3586.91 3103.0 3554.9 4015.92 5542.21 4487.31 3936.02 4044.71 5980.74 4094.62 4927.02 5546.39 5325.36 5484.83 5085.53 5351.6 2356.98 4730.36 4715.55 5867.73 3951.75 5013.56 4499.64 4375.68 5542.27 5054.98 5170.02 5484.19 3557.27 4688.68 4436.4 4402.52 4517.56 4182.53 5903.42 3588.44 3955.56 3761.32 5176.86 4118.05 4366.19 5553.16 3672.51 2938.66 4940.78 4231.61 4008.92 3942.53 3379.84 3589.27 4827.82 3997.1 3607.45 3260.67 5123.52 3038.33 4392.68 4333.2 7199.21 4523.7 2240.39 5091.39 5293.9 6142.94 3912.37 4727.24 4602.25 4790.08 5082.47 4763.45 5445.87 3815.26 4704.72 4177.94 4571.7 5896.46 5022.8 3784.5 3780.23 6481.79 5374.51 7042.12 6326.39 5873.69 4962.09 3999.48 4359.62 6946.21 2586.12 5433.8 4011.77 5499.11 3633.87 5922.5 5198.77 5987.17 6013.14 2765.2 4901.41 5110.37 5664.98 4382.74 5927.43 4651.28 3693.63 4384.42 4516.43 5481.78 5043.05 5816.2 5109.54 6483.19 5945.65 6759.9 5538.89 7021.47 5416.38 6059.59 4955.55 2720.68 5701.86 3563.63 4238.81 4468.59 5885.03 6030.06 2837.58 5325.02 5200.76 4927.31 5017.13 4862.64 5185.34 4432.58 6684.56 3968.64 4688.67 2635.86 5292.64 6166.5 5065.13 5936.02 5305.17 4861.08 4003.05 5390.22 4805.87 4712.33 5227.21 5697.78 4667.36 4091.31 6372.62 4295.38 5615.42 7565.34 5923.5 4612.68 4973.83 6342.25 6691.39 5135.69 5344.0 6045.46 4245.72 5908.1 6048.7 6133.92 3719.84 4178.4 3095.48 4166.08 4123.6 5224.12 4850.14 4819.73 3382.7 6817.32 4471.58 4319.79 6098.14 4472.17 4203.26 5188.81 6057.22 5062.71 6125.34 4527.08 5347.48 4850.01 3970.25 5147.67 3979.82 5011.31 5138.31 5264.06 4659.59 6327.9 6355.42 4362.19 5690.56 4948.92 3115.91 5637.59 4937.14 3307.12 4493.48 5924.89 5693.81 4002.16 4174.52 3486.22 3829.13 4684.5 6230.49 5418.62 4601.27 5493.32 5740.68 5926.61 5836.15 3261.21 4345.55 6704.06 3653.41 3871.88 3856.01 5246.2 4390.66 5279.39 3673.74 5205.43 6116.18 7447.37 4924.6 4385.06 4733.32 7184.19 2899.43 2924.37 4290.3 3867.67 5399.73 4660.72 3888.21 6038.78 6902.81 6644.76 4254.17 5629.19 5090.24 5740.84 5530.87 4310.18 4281.49 5978.9 4187.56 3629.62 4997.27 4840.84 4301.06 4020.32 4290.14 6562.18 4156.38 5316.75 4541.21 4164.68 5669.65 5934.22 5624.49 5762.59 7092.87 5163.55 4666.81 3954.91 2965.01 6643.85 3637.61 6222.42 5654.31 4730.41 3745.84 5690.26 4156.2 4497.59 5965.78 4810.12 5643.58 5215.05 4292.06 5577.04 5006.58 4602.86 3688.8 4548.16 3369.23 4048.37 5449.18 5492.26 5244.78 5762.84 3937.74 4749.8 6084.86 5478.92 4778.34 5551.36 4138.16 6894.71 3091.3 4414.54 5789.98 6458.82 7054.71 3641.64 5489.43 5747.75 4277.89 6051.14 4796.33 4195.44 5539.32 6496.85 5600.93 4874.39 5541.59 4124.71 5728.85 4827.23 4911.47 5863.59 4381.97 6257.19 3255.82 2812.98 4065.69 5603.15 4695.45 6052.7 3921.18 3798.62 5891.05 5308.1 3666.57 5655.21 4786.6 4645.41 6445.94 5542.14 4218.06 7134.64 6308.71 4716.19 5514.76 3456.98 3498.2 4877.67 5105.16 3066.13 4302.5 6006.16 6009.88 7055.53 5013.67 5826.04 5339.78 4970.88 4143.78 4636.5 3703.1 4940.42 5923.4 6471.55 5499.39 5501.93 5463.38 5945.21 4938.74 5696.88 5607.14 3923.03 5975.63 4374.35 5252.34 6396.74 4138.46 2775.04 3821.72 4986.77 6318.18 5586.81 4621.75 3948.17 4551.24 5358.59 4220.88 4515.71 6519.71 6640.13 5082.6 5810.84 4230.54 5094.44 3748.24 4655.49 4467.94 4850.81 6138.47 5527.54 5573.7 4727.62 5054.25 4055.8 7325.81 5280.17 5360.19 4794.96 6186.19 5083.08 6834.49 6337.56 5525.39 5803.39 3998.5 4024.3 6394.38 5555.28 5242.73 4737.14 4686.65 5834.74 5556.96 5788.23 5581.75 6392.01 4907.89 6730.19 4937.02 4907.06 4073.93 3735.44 6043.3 5952.75 4433.59 4320.28 6332.36 6122.55 2739.94 4931.53 5480.13 3323.28 6695.82 6405.76 5794.24 4678.38 5448.61 5050.65 4827.33 5206.48 5513.57 5729.23 5226.0 3365.82 4538.95 5965.15 4763.66 6090.91 4946.42 5085.71 6116.33 5644.82 6343.14 5462.21 5750.71 5470.77 4831.47 4643.85 4004.04 4289.17 5564.02 4274.61 2965.79 6898.19 6035.6 5137.34 4481.53 5330.45 4581.13 3610.4 4219.07 6387.01 5367.52 3092.35 4322.15 5210.03 3629.96 5478.47 5351.39 6142.37 6061.47 4933.21 5375.47 6038.14 2540.31 5120.49 6029.66 5262.61 6302.8 5697.4 6038.2 4270.95 4005.44 5206.78 5555.88 6732.43 6425.26 5143.58 4484.76 4839.34 4840.01 2980.99 7933.0 4455.12 5173.87 5938.34 5380.13 5711.87 5118.27 5169.36 5932.23 5791.61 3369.13 4479.66 3043.85 5367.2 5461.13 4726.76 3599.45 5839.13 5489.34 5163.9 5708.14 5537.72 3920.42 6155.31 4223.33 5911.67 5709.62 5835.78 4127.74 2476.04 3942.07 7443.72 3937.08 5260.34 4709.35 6586.45 4373.3 4750.78 4163.5 5724.64 5078.86 4780.2 5100.1 3561.29 4963.34 5019.93 3295.83 5081.78 4260.92 6263.44 5960.56 5774.97 4020.95 6313.06 3474.39 6470.3 6062.05 5082.74 6915.83 6072.45 4410.55 7099.43 5526.14 5198.29 5423.0 5077.33 3856.59 5413.79 6338.89 6202.55 5025.39 4714.54 5893.5 3320.11 5030.91 6022.17 5119.37 6163.38 4566.18 4723.12 3459.9 4964.09 5201.36 5024.9 4306.53 5409.61 5094.81 5972.06 5713.22 5861.71 5028.96 4359.04 3866.16 3794.63 6362.12 3778.1 5152.36 4511.82 5611.2 4220.65 6820.42 4816.2 4894.16 4896.52 4751.02 3372.79 4941.22 5282.64 4715.72 4669.66 4808.52 5046.33 5607.24 5053.92 5495.68 4863.72 5002.48 4262.82 5102.36 8332.24 4342.9 5069.84 4553.56 5329.64 4051.44 6049.55 5941.72 5991.09 5133.97 6600.94 4788.58 5371.02 6155.1 5876.71 5029.78 6515.84 4888.6 4918.77 4371.99 4219.78 3885.86 4459.28 5235.29 4479.94 6250.23 4118.84 4863.27 5862.86 3493.7 5374.98 4200.03 4719.7 6939.12 4735.33 5092.37 6444.77 4287.63 5315.4 6449.45 3975.31 4746.52 3689.45 3824.16 5572.95 3868.18 6723.16 5584.06 7111.16 4547.19 3817.13 5507.24 3982.23 4583.31 4503.89 5806.08 4853.39 4997.27 4093.08 4809.42 5543.27 4717.05 5659.17 6135.57 5998.38 4312.67 5423.8 3183.98 4989.15 5017.78 4524.28 5015.69 6175.81 4727.24 6677.09 5826.64 6959.81 4829.35 5201.67 6321.41 4089.76 5526.55 3192.41 5184.56 4987.87 3315.57 5804.71 4764.96 5727.3 4242.52 5356.51 6352.26 3847.38 3818.59 4087.15 3057.03 4143.08 7500.97 6623.85 5228.18 5787.31 5065.11 5868.82 4978.31 4050.9 4241.89 4099.77 5054.74 4537.32 4656.78 5126.91 3600.43 5131.24 5196.67 6496.67 5474.8 6262.72 3664.11 5117.47 4925.63 2990.77 5882.65 4739.14 4434.19 5187.7 4188.3 6261.75 5177.64 4255.31 5453.3 6413.02 3492.19 4584.5 5122.63 6049.79 4703.08 5274.19 5516.95 4406.4 5411.85 4844.57 4027.46 6314.07 5776.37 4516.28 3627.82 4044.45 5125.78 5344.43 4373.47 5045.38 5350.88 5372.61 3686.21 6480.17 5023.15 4377.07 6851.54 3813.22 5570.3 4336.42 5243.29 7589.94 4449.22 3130.65 5628.24 5856.11 5287.2 4109.88 4234.94 4562.29 5013.13 5080.66 4270.24 3417.33 4926.42 4164.13 4642.34 4520.1 4947.52 5874.89 4305.57 4293.03 4389.21 3791.79 4424.7 4925.44 4754.05 4951.47 6084.93 5215.15 4307.28 3697.96 4739.42 5538.93 5020.12 4745.45 2631.9 5281.28 6255.18 4277.88 4668.71 4758.21 7228.46 3948.23 6719.88 5978.82 5266.5 3927.99 4948.98 4414.48 5227.52 4092.24 4981.9 5163.02 7144.24 4906.82 5687.83 5004.23 6442.69 4648.04 6607.87 4721.32 3293.56 3163.78 5274.14 4903.82 5746.28 4623.61 4082.47 5511.6 4338.08 4378.3 6134.99 4094.73 4407.9 4440.57 5548.29 6766.43 2315.64 6345.13 5226.56 5599.49 5313.22 4413.85 3905.51 3999.94 4470.98 4864.22 5759.46 3921.08 4190.31 5678.96 5262.19 4244.9 6070.58 6034.41 5452.83 5130.91 5402.24 4519.22 6445.22 3844.9 5101.59 3963.86 3848.93 4306.11 5935.47 3402.32 5903.66 4528.49 5004.67 5365.89 3327.49 5992.26 3960.8 5070.39 4980.85 5714.58 5110.45 5208.32 5248.77 4083.97 4607.02 5153.74 4528.09 3895.51 4165.81 5813.4 6291.51 4128.98 5882.89 6246.22 4188.32 5246.61 4100.38 5344.77 4723.48 4899.11 5097.87 4278.07 7267.18 5320.92 5269.18 4406.1 6362.14 5034.59 4454.63 5080.18 5912.61 4523.88 3279.1 4066.38 4403.98 4560.84 4729.43 5776.57 4562.74 5598.74 7493.3 4814.55 6320.71 3464.83 5698.77 2477.07 6413.11 4305.16 5092.28 4965.89 5659.95 4152.85 2908.7 4453.64 4517.73 5469.47 5660.16 4989.56 4718.54 2588.37 6736.03 6235.57 3623.87 5916.16 4390.41 6113.95 4097.57 5017.5 5563.79 3901.8 6171.13 5511.88 5083.41 7055.42 5486.68 6048.86 4285.32 5490.43 5022.28 4959.34 4948.5 4527.02 4531.14 3695.36 4564.34 3838.56 4871.44 5076.35 6020.48 6375.99 5200.05 5234.29 5313.66 5419.37 4466.03 4511.54 5409.33 5196.0 4923.9 4973.78 3329.99 3947.47 3296.27 4713.25 4204.84 6243.0 6673.96 3556.85 5441.96 3435.9 5174.89 4288.3 5370.52 4652.29 5774.81 3746.31 5498.32 5027.98 5346.27 6475.1 4969.21 2691.29 2845.98 6256.02 5314.85 4305.43 5450.44 4942.77 5742.65 4263.33 5592.32 5381.16 6193.35 6086.96 5233.78 3701.27 5653.9 5046.21 5683.26 5894.61 5139.5 5304.13 5944.09 5833.06 3527.05 4923.41 4497.31 5384.76 5529.42 5257.12 5243.43 4537.14 5551.9 3757.34 6415.61 4687.64 4419.71 5037.06 3838.47 4541.8 5175.29 5842.56 5412.31 3087.09 6934.37 4890.5 4050.08 3981.07 5452.42 5328.22 6853.85 2395.5 3497.9 5941.61 4512.11 5782.48 6248.6 5683.61 3836.45 5100.25 6894.26 4986.51 5197.52 5178.99 5383.07 4591.87 5013.42 4790.78 4247.15 6552.22 5651.07 6248.81 5273.35 2651.49 4645.58 5512.23 5275.32 5985.29 4898.94 4178.15 4613.31 4733.04 6119.09 5788.66 5091.68 7531.29 5069.25 5048.89 3161.47 3991.03 6390.78 7435.25 6826.57 4788.87 4495.87 6022.72 4643.31 5527.33 5402.21 4989.09 4880.14 5289.52 4982.31 3848.54 4307.48 5941.4 5331.02 6510.17 4871.96 4863.23 4402.67 4470.61 5565.13 4384.88 6887.27 6008.49 4806.34 4287.53 5612.21 4929.14 5945.08 3979.54 3306.14 5490.58 4863.79 4702.06 3830.46 6031.67 4689.15 6138.12 4428.78 5409.66 4345.67 4765.72 4642.66 4752.14 5329.59 4888.12 4950.97 5512.16 3197.63 4863.96 5887.15 5203.08 7480.41 3423.15 4488.85 3731.84 4901.07 5186.3 3436.15 4151.76 4020.4 3493.47 4596.75 5443.58 4558.46 5805.86 4470.4 5311.03 5339.38 5255.12 6169.11 5615.35 4027.09 6422.84 4502.18 5379.09 4602.85 4962.77 5872.05 4853.02 4091.8 6259.23 5181.4 5670.2 4711.62 4247.23 4114.24 4268.65 4694.83 5509.42 4354.08 4256.43 5936.36 4520.62 3903.75 4755.47 5935.03 4485.99 5127.16 5475.8 5314.69 6050.81 5543.46 4249.46 5965.81 3702.37 4750.17 5660.85 2330.66 4177.19 6917.52 3587.05 6229.37 6718.19 5282.91 4425.84 7256.35 4800.69 3555.86 6386.78 4631.83 4996.99 6081.14 5480.83 4220.46 4607.85 5128.57 6000.7 3169.67 5604.21 4968.03 3361.92 6710.88 5395.14 3967.48 6213.04 3685.13 6790.73 4655.16 5251.4 3867.19 5857.79 4039.91 5276.7 5036.58 6119.63 5411.02 4752.9 4287.16 5199.44 5191.08 4062.5 4435.51 5374.07 5163.77 4588.7 3766.55 4579.69 3554.48 6496.52 5005.85 4216.17 6484.17 4721.02 4254.37 3374.08 4933.65 4031.78 6098.1 5708.99 4049.02 5346.68 5296.29 4611.53 4896.11 4285.66 5172.53 4135.62 5801.99 5210.48 7552.94 5323.3 5088.44 4998.21 4662.56 5349.31 2976.22 4649.22 5394.55 5094.52 4946.74 2682.24 5928.32 5229.48 5475.7 4016.18 5526.75 5435.74 4244.99 5327.45 5560.26 6185.89 3997.96 4439.35 3460.94 3990.25 3691.0 3758.07 4752.51 4236.14 4407.87 5733.62 5282.51 4460.92 3797.33 5945.89 4042.28 4105.55 4340.76 6566.1 6065.22 4221.28 4456.39 4896.39 3633.79 5421.53 5937.08 6070.3 5233.29 4312.56 4612.06 5204.04 4750.58 6667.68 5235.11 6622.11 5211.38 4590.55 5920.32 4255.85 5097.69 3988.3 6543.13 5149.72 5776.96 5464.25 5486.48 5301.47 4617.55 5424.88 5415.85 8659.64 5683.95 6027.62 5010.2 6123.03 5966.61 5711.11 4575.94 4938.72 3546.71 5768.57 5564.23 5950.04 5687.85 4231.83 2435.33 6401.43 5020.71 2681.29 5094.48 3872.61 4238.4 4318.48 6132.95 5534.94 4860.33 7644.38 6004.68 4051.34 6101.92 3627.55 6239.84 4635.6 4256.67 3457.48 5166.79 3931.07 3405.98 5417.15 3688.16 4681.72 4945.39 5996.33 3950.63 5415.19 4612.62 3619.07 4275.57 4467.04 6385.23 2983.99 2614.4 6363.92 6205.93 4923.24 5830.72 6184.4 3828.81 4373.45 4082.57 5255.18 5169.9 3004.16 4767.78 5235.17 4421.12 4779.5 5254.49 6649.96 4303.19 5514.84 5784.3 3914.2 4256.57 6088.68 4135.08 5620.74 4778.82 6124.08 5467.84 5053.95 5926.11 5253.37 5767.9 6515.8 5089.62 5869.4 4741.26 3701.16 4186.6 5895.77 4732.09 6136.49 4356.25 4216.95 4209.49 5742.74 4244.21 4947.24 3645.12 3875.05 6200.54 5148.58 4199.45 6599.66 5469.13 4233.8 5765.42 6098.95 4997.83 4893.49 5325.44 5021.88 5956.65 4498.25 4188.87 3735.24 6574.95 4074.48 4558.47 5731.57 5997.88 5839.71 5576.92 6408.83 5266.22 3930.79 4004.35 5226.97 3685.13 3312.06 3361.26 6799.4 5278.36 5865.39 4427.28 6079.11 3082.32 6430.39 7440.72 3949.6 5703.6 6326.18 5661.62 6631.19 6648.68 4713.74 5626.61 5817.25 4084.49 5061.98 6632.99 4537.6 5147.36 4419.61 7177.44 4563.46 5309.98 6553.94 5460.65 5652.0 5463.41 5225.33 4929.75 4435.36 6045.22 5134.39 3532.3 5769.98 5442.32 2221.99 4643.56 3580.58 4863.01 5356.79 5657.36 3619.79 5029.47 6306.21 5266.01 2978.76 2040.66 7016.27 3876.21 3685.65 5689.26 4916.22 6022.7 4940.84 5750.07 4809.67 4757.74 6045.67 3946.28 3821.94 5439.9 5367.73 3540.11 3456.47 4652.01 5421.64 7234.66 4207.54 4055.54 4886.12 6419.12 4976.12 5453.98 3991.42 4388.63 5102.75 4200.09 4597.29 5931.77 5151.21 5398.64 6333.29 4477.04 3886.68 5703.74 5662.55 5737.92 4360.23 5365.24 5293.51 4763.96 5754.18 5180.76 3418.99 4480.95 4993.35 4409.63 5521.25 3661.9 5370.85 5949.46 3658.37 3178.54 4765.02 5376.71 4448.13 5070.29 4807.28 4867.08 4266.03 5280.69 4220.03 6923.84 5407.78 5449.46 6179.96 6113.54 4662.43 6260.79 3963.76 5528.53 6799.88 3062.43 5726.66 5426.78 2967.38 4159.35 6477.91 4237.98 6439.37 4081.97 4614.3 5401.99 5580.92 5973.33 5067.46 3583.21 2511.46 4011.37 2775.69 4785.25 6519.43 5876.64 5424.46 4857.84 4908.49 4962.21 4858.44 5884.9 3468.42 4673.35 4992.42 5297.19 4351.38 4833.46 5933.7 7248.4 5280.12 5984.81 3498.16 4409.27 4640.06 5471.74 3548.39 3673.28 4858.51 3375.28 5625.65 4301.61 6107.89 4817.16 4446.84 5660.55 5148.08 4834.87 5760.22 3672.21 5938.17 4795.43 5097.95 6817.57 4693.52 3614.96 6853.04 4745.43 5831.96 4747.55 3056.7 3755.95 6234.32 4586.19 4446.06 3450.93 5008.63 4270.74 5132.68 6595.03 4558.15 6218.95 5222.16 5107.23 5136.08 3776.94 5558.68 4010.57 5629.39 2684.03 6157.04 4768.61 2261.36 5075.55 4522.21 5506.19 6719.94 4950.67 5227.59 6166.29 5453.6 5703.07 5294.77 4709.05 4630.82 4043.66 4813.08 5860.67 4540.86 5990.52 4835.83 5604.35 6316.56 4332.87 3091.67 6420.81 4715.58 4450.7 5151.52 5369.08 4347.74 4009.62 5291.9 2081.58 6505.78 5461.55 6865.76 6449.64 6464.8 4684.44 4749.59 5799.69 3809.69 5571.72 4771.13 3208.96 7051.9 4184.23 4144.57 5550.75 6834.41 6226.14 5466.33 4444.97 3000.29 5721.05 4247.69 4514.39 4588.99 4321.21 4344.34 4928.27 3583.49 5052.84 4366.74 5297.16 3184.64 5206.33 5530.49 5653.03 3718.69 4514.79 2216.82 4509.89 6752.75 5269.38 5607.3 5108.06 3573.73 2928.82 4222.4 4000.43 3420.08 4568.41 4912.04 4539.07 5464.68 2685.81 5591.76 4585.31 6625.18 5323.91 5097.45 6293.89 2761.07 5737.75 4983.39 5366.52 4690.55 5533.72 5533.42 4802.32 3678.08 4599.38 5246.47 4187.31 6191.29 3240.51 7422.36 5161.01 4298.15 4628.4 5832.37 6051.83 4642.93 5409.63 4263.16 3973.12 3077.84 6024.75 6109.49 5567.93 5987.42 5332.65 3764.1 4442.22 6451.33 5413.31 3012.99 6400.08 4743.59 5208.14 3317.83 3763.05 5092.24 5549.49 3101.75 4518.04 4766.06 4874.18 5435.19 3298.2 4270.15 4953.1 5818.95 4093.99 3940.49 4406.05 4680.94 5828.35 5876.72 5236.43 5285.07 4680.14 4608.41 4187.94 5980.59 3796.15 4801.8 7216.98 5271.02 4209.31 5718.28 6242.79 5950.45 5713.03 5849.65 5134.67 4165.21 4215.0 4936.96 4481.76 5452.78 5065.26 4304.41 6192.0 4940.28 5885.28 6579.31 3004.34 3022.6 4914.45 4811.76 4698.87 4661.03 3624.7 4691.91 5262.35 4475.83 4510.8 5889.35 5010.04 4394.56 4570.98 4275.07 5825.38 4185.61 4047.87 5742.47 3778.02 6552.21 5417.8 5146.37 7132.12 4836.16 5518.57 5151.11 5463.48 5730.33 5545.46 4527.99 4376.7 4543.1 5190.61 8325.01 3764.06 4440.81 5941.9 5434.47 6642.76 5829.22 4497.78 4243.79 5811.18 5433.65 4008.15 4887.76 4669.06 4811.32 4286.49 6184.88 5829.32 4396.25 5551.95 3918.87 5423.42 2275.45 6605.86 5012.5 4383.56 3562.79 7093.13 4516.53 4122.92 3604.14 4452.54 5089.1 2711.19 4028.32 4099.92 4884.59 3858.06 4511.7 4083.79 5263.27 6300.92 5021.77 4173.54 5599.29 6038.68 5046.12 4807.4 7013.17 3805.67 4601.74 6506.86 5088.57 5580.34 3852.6 5775.31 4706.5 4603.5 4647.67 5375.12 4356.36 4892.44 5578.94 7610.49 4286.17 3684.56 5323.55 5375.1 4172.6 5313.12 5351.56 5160.59 3984.88 4732.09 4320.42 4255.34 5064.79 5480.3 7509.24 4146.81 5896.26 5388.78 6101.13 4573.72 5099.21 4917.99 5636.4 4367.78 4350.12 5227.02 5670.0 4232.16 5300.96 4344.51 5680.94 3781.77 5581.55 5193.01 3474.5 6550.44 3860.83 6348.03 5732.27 4523.39 5278.56 5146.37 6917.62 4013.38 5631.14 4343.78 5263.3 4909.65 6523.86 7693.4 4326.48 4437.07 3449.37 5491.9 6405.0 4659.16 5789.55 4633.05 4901.2 5711.62 4990.79 4798.17 5166.79 6479.39 2895.63 4997.91 5079.22 5381.54 5810.77 4714.83 5474.15 7519.2 6355.68 4478.6 3953.55 4304.63 4469.54 4314.56 3928.53 5606.51 5740.65 3834.47 6349.67 6329.53 4590.01 6101.86 4227.41 5993.0 4803.57 5966.42 4110.59 3332.49 5354.66 4214.44 5378.23 4787.97 3746.36 6789.23 3989.7 4777.03 4246.61 6028.09 5452.36 3804.5 6486.37 5498.42 5318.53 3344.57 5220.76 4281.98 7165.9 5344.83 7046.11 3427.63 4863.97 6342.48 5756.75 5599.7 4587.67 4163.74 6969.28 3665.95 5698.96 4095.75 3603.51 4298.45 5222.51 6609.84 5135.96 3834.43 5658.37 4707.06 6074.94 5491.37 4250.88 3783.54 3475.67 4792.39 7038.89 3863.67 4814.12 5067.56 6137.8 2735.53 3352.35 5116.6 3747.03 2783.85 4356.49 4526.81 3994.07 4219.94 5907.46 4264.91 6740.71 5399.29 4909.31 5971.22 6522.59 6602.43 3568.28 5425.98 5996.66 4405.42 2995.67 3598.08 4599.81 5698.23 7300.58 3608.06 6633.61 5217.95 4867.7 5484.36 4277.24 4063.9 5291.05 5161.1 4619.2 5166.41 5067.56 2596.96 5701.75 4350.15 4139.3 6541.45 4750.49 5078.31 5391.48 4923.43 5131.15 4847.14 3950.27 5116.66 3566.79 5374.67 4981.43 4741.28 5069.89 4215.2 4157.29 6813.72 5327.75 4609.02 4896.65 4638.18 4196.37 6448.66 4453.97 6945.98 5138.2 5783.48 4449.98 4701.5 4504.35 4771.65 4840.44 5093.82 5951.81 3924.14 6918.35 4296.69 6238.32 3319.67 6471.42 5283.8 4076.59 4428.14 5164.1 6464.15 4479.11 4972.17 6685.4 5699.53 4222.77 6332.01 5268.38 5527.23 4805.33 4234.18 7085.01 5980.95 6193.08 6069.3 5887.01 5168.35 5388.39 5335.47 3728.18 5633.61 5048.19 6799.23 4888.27 4592.15 6487.56 4854.11 5533.19 4998.22 5417.21 5583.61 6063.64 7382.3 4022.56 5522.21 3772.3 4855.01 6208.9 4923.57 3340.09 6061.63 2279.05 4829.35 4075.28 8137.11 5484.32 6650.77 4067.96 7104.73 6162.3 3272.75 4264.54 3516.27 7043.44 4263.78 4643.9 5228.75 6047.14 5009.83 5210.38 5717.8 3629.44 5003.78 3299.24 6246.56 4061.6 2603.64 5107.0 6212.15 6502.97 4783.07 4946.23 4852.58 6083.28 5211.6 3556.79 5806.31 5456.71 3503.41 7317.04 6412.67 7001.83 5012.97 5589.37 5439.49 6639.64 5212.43 4834.3 6348.54 6804.79 5642.35 6372.13 5369.5 5404.01 6016.19 4124.49 3230.13 5714.25 6176.67 5325.96 4850.06 5016.02 7044.29 4920.21 4049.16 3936.95 6153.94 6836.82 3862.77 3858.17 4631.99 4740.98 3185.39 5128.77 7122.87 5797.36 4243.26 4153.84 5119.86 5089.26 5084.17 4901.44 3776.8 5096.43 6156.21 2460.79 6104.26 4653.83 6171.71 4986.71 3628.89 4668.88 5027.43 5522.75 5867.64 6059.93 5602.53 5073.02 6545.43 6760.92 4989.2 4711.04 7144.05 4506.18 4824.12 6542.5 4383.47 5971.21 4036.91 5454.12 4066.57 4206.98 5156.76 6357.47 6101.57 4891.38 5535.91 2949.12 5955.86 4533.37 4848.46 5412.24 2779.99 5887.38 4581.37 6942.34 5851.61 5478.11 5526.31 5030.15 6589.82 4438.58 3472.91 2970.9 6318.23 4058.87 5174.75 5932.07 4984.46 5948.71 4793.65 3856.53 4532.89 5460.89 5260.85 5742.09 2884.65 5807.46 4648.21 3658.05 4393.16 3311.29 4549.69 6423.81 6192.77 6413.15 6103.11 5048.55 6459.51 4024.31 4955.16 5844.72 3992.97 5989.05 6040.74 4054.22 7228.94 5393.65 4961.99 6551.93 4595.12 3110.13 6484.43 4625.67 3485.54 6735.97 5305.59 5416.45 4330.58 5754.6 3288.01 4904.51 4147.31 2202.77 5751.15 5950.88 4149.55 4441.22 5853.89 3380.69 4140.4 3639.44 4386.8 5446.4 4725.01 5966.75 4729.42 3104.96 5244.78 3636.15 6114.89 5135.63 6384.7 4355.83 6870.97 5351.86 6056.87 5474.01 5307.35 6201.86 7554.58 5166.89 4731.21 5491.63 5725.37 3868.62 5138.33 3477.1 4811.22 5216.26 4844.83 5377.37 5652.87 5483.7 5018.69 3152.86 5952.38 3896.27 5807.52 5963.36 5230.02 4342.18 5169.48 6016.08 6776.22 3124.7 6064.71 6102.98 6060.17 4385.81 6592.93 5096.24 5769.14 3381.82 4831.93 4023.93 5494.28 4834.39 5493.89 5261.19 4918.76 4208.41 5826.78 6214.73 3758.22 4268.19 4532.7 5561.74 6100.73 4788.08 4593.7 4349.13 6379.14 3687.65 5478.95 3851.85 4749.96 4019.34 4658.24 5869.67 4311.48 4899.73 5457.66 6394.19 5973.89 5366.22 6193.73 5518.11 5087.14 3742.11 5712.35 5701.52 4743.9 5321.17 3719.11 4467.13 3877.8 6418.11 5934.82 4501.78 5415.45 6350.71 5039.12 7107.63 5868.89 4099.26 5206.47 3831.52 4263.65 6106.43 6761.81 5467.63 4127.53 5210.75 2856.55 4553.68 5361.87 3205.68 4473.29 4908.75 6556.26 3971.08 4482.9 6818.91 3503.65 3634.5 3623.19 4869.48 4906.11 4387.39 4564.1 4745.16 5825.55 5509.51 4848.14 3199.4 4316.5 5254.24 4192.21 4914.03 3597.43 5144.56 4158.91 5311.55 3360.86 3034.16 4869.25 5545.21 4333.87 4922.49 3572.94 5001.58 6456.58 5244.98 5366.11 4824.81 7307.21 5135.5 3619.72 4565.93 5615.84 5788.97 3274.85 5007.21 5545.59 4580.06 4835.97 4057.17 5262.47 7066.96 4587.7 5196.92 5644.81 5666.95 4642.2 5175.89 3894.64 5232.85 4374.74 5975.23 6816.66 4745.79 4211.82 6204.65 6550.4 5513.8 4887.52 6631.28 5350.88 6571.31 4392.65 5429.3 5510.96 6653.07 4697.91 4584.81 5071.98 5719.79 4371.08 7261.51 4968.14 5086.29 5527.13 5139.18 4278.57 5551.43 5049.99 4201.03 4458.64 5001.87 4312.15 3657.69 4078.93 6015.02 4820.17 3814.65 3886.72 4034.05 5127.82 5798.38 6436.74 3419.87 4384.28 3908.98 5944.3 5113.6 6328.42 5640.72 4504.52 4464.73 6440.38 4954.81 5610.53 6419.64 3926.11 5464.83 5414.58 4991.35 4807.35 5334.36 4568.64 5750.35 4489.99 6555.44 5293.75 5473.72 7124.45 6358.93 2205.51 3703.49 5144.44 4757.2 5034.69 5079.64 5470.04 6003.78 5684.25 4891.67 5188.53 4882.66 4027.63 4944.51 5603.68 5610.95 5532.72 3220.8 5179.17 5579.39 5270.51 5148.1 5490.75 5224.64 5949.73 4312.48 5783.94 6370.33 5081.08 6318.25 4202.77 6864.06 6008.81 3644.78 5510.9 4883.63 4505.28 3492.83 7039.98 6006.89 7778.01 5690.96 5805.1 3862.91 4456.11 4456.26 4027.33 4810.98 5091.22 3563.14 5851.63 5556.0 5748.9 5755.15 4608.34 5695.79 2781.96 3512.94 4467.0 4994.65 5601.55 3903.91 3919.62 4929.6 3683.86 5658.14 4508.18 2617.39 4062.56 4198.94 3217.67 6163.54 5212.37 5438.92 3766.69 5110.11 5036.98 4521.75 4813.33 5569.2 5635.32 4526.34 4316.45 5409.08 5042.75 4598.92 5241.22 6647.08 4979.52 3422.29 4407.79 5214.63 3495.68 3990.96 5352.24 7362.42 5793.12 5836.14 5473.05 4583.52 6280.13 5244.22 5585.14 4960.64 5792.98 4983.3 5053.15 5910.86 5124.17 6239.68 4234.88 5782.43 4708.31 5026.76 6282.38 5657.55 5727.79 5212.92 5188.82 5043.14 3742.31 3663.0 6304.49 4420.6 3622.8 4431.23 4258.98 6545.99 4368.28 4945.0 4548.45 4658.11 5730.61 5114.07 7142.95 5064.67 6618.21 3717.47 4504.86 6200.63 5969.37 4928.35 1937.5 4509.46 3844.54 3538.53 996.652 6500.49 5965.58 5058.51 4244.49 4050.03 4120.07 3840.21 3429.57 6746.66 5410.33 5420.67 5661.6 4827.61 5285.75 5481.64 5673.75 5360.67 5968.54 6263.3 4501.05 4537.03 6548.29 4114.2 4326.06 5034.46 5757.29 5016.46 5469.17 5061.75 4373.2 3769.24 3743.76 6711.21 4971.29 5832.29 2606.51 4438.76 5372.82 5401.4 4775.49 4681.29 5749.6 7320.78 4834.44 3873.92 4092.07 5347.9 4717.73 4928.85 5072.5 4749.18 4546.96 4316.0 5424.55 5134.72 4475.38 5287.25 5917.34 5740.98 5630.9 4728.55 4554.68 4551.26 4559.74 4383.68 6666.67 4583.94 5046.31 4337.32 4680.69 2628.22 3352.34 4901.29 4952.52 3242.31 6099.28 5372.25 5385.03 4169.15 3234.26 4778.37 3494.16 5134.17 4074.16 4904.35 5592.54 3247.97 5124.34 4904.37 4358.81 4651.64 5729.92 4179.87 6224.13 4761.84 3661.67 5153.18 3425.69 5510.45 3864.92 3994.39 6119.99 4159.81 4446.58 4402.17 3845.9 4174.44 6331.74 4198.9 4213.05 4224.3 5235.87 3904.07 6502.99 4921.1 4770.51 6511.37 3787.08 4462.87 4218.16 6139.64 4140.92 4692.32 4474.83 4585.04 3127.83 6570.35 4242.63 7407.91 6063.44 4051.18 5849.53 4420.11 5863.0 6127.39 4124.76 4802.98 4833.55 7224.99 3908.56 5265.63 4898.29 4431.06 5730.2 4830.13 5370.9 4529.77 4325.13 6172.27 5390.33 3783.79 5078.73 4248.14 5278.54 5729.0 5192.92 5275.57 4786.66 5891.25 5370.1 5393.76 3684.15 4730.14 5906.57 7541.76 4990.23 3784.94 5499.59 5667.51 5431.29 4833.67 5325.91 5157.38 4546.44 6203.03 4700.07 5273.37 4732.37 5713.36 5553.94 4704.92 4287.25 4392.75 3814.16 4191.01 4589.06 5577.41 4216.44 3999.5 4012.92 4346.07 4933.49 5236.24 3269.54 5836.26 6015.22 6449.06 4651.99 5640.12 4972.18 5329.76 7200.89 5684.88 5764.52 6523.78 4645.86 4045.67 5620.88 4941.52 4308.49 5900.0 4262.74 4581.1 6241.77 5317.19 5279.19 4016.6 5821.49 7050.08 5580.44 5998.13 5902.67 5454.11 4236.86 6010.59 7123.04 4128.1 4618.73 4932.29 4506.66 4439.71 4141.21 4064.58 5023.41 4646.51 952.938 4184.21 6089.45 4985.3 4966.07 3987.69 4666.12 6219.34 4920.88 4013.86 4177.47 4770.63 5678.58 4385.49 6102.49 5114.23 6061.85 5512.44 4826.52 2904.46 5241.75 4731.53 3763.9 4577.73 4288.45 4147.49 5419.57 5760.98 4954.76 4642.74 5384.86 3770.22 4390.64 5150.84 4608.01 5087.97 6005.95 4519.03 4930.17 4085.96 4745.44 5762.82 7360.12 6223.98 5462.6 5617.29 3035.06 4262.19 4597.88 5095.52 4763.4 4941.02 5806.61 3682.35 2955.36 3965.3 6110.48 3220.29 4125.9 4564.41 5426.4 5951.86 3791.41 5853.12 5702.4 5473.89 5265.21 4657.24 4400.14 5340.05 2918.64 5345.73 4639.8 4212.15 4263.18 5495.0 4454.74 5120.92 4685.4 4636.53 4081.34 3646.95 3402.44 4848.98 5184.98 4491.96 4467.51 5339.82 5460.57 5110.27 5703.34 4612.68 6668.98 6649.52 4232.33 4939.56 4747.68 5770.92 3093.38 4845.91 4878.93 2002.78 4461.67 5784.37 3142.09 5182.13 5515.73 6715.73 5247.01 4841.7 4678.7 5810.17 3450.07 5308.33 4271.07 5674.63 5759.79 4489.29 4301.93 4924.07 3200.6 4918.64 6206.98 6638.25 4775.04 5162.67 5537.61 6084.88 4199.44 4397.06 4053.12 4479.5 6261.67 3435.13 5065.78 4431.46 4521.42 3207.84 3977.98 6043.34 4128.93 4959.72 4712.17 3808.04 4723.71 4405.61 5003.3 3756.96 3954.77 6793.1 6016.87 5077.29 5209.55 6740.35 4550.92 3306.84 3484.81 6023.07 6710.14 4598.54 5218.42 4512.07 4896.43 4462.35 3986.41 6240.42 5146.0 4788.7 5078.59 4607.18 2403.72 3228.27 4721.98 5252.82 3543.98 4142.1 5056.26 5878.55 4014.44 6604.72 6002.77 3794.47 4610.55 4967.02 4614.49 3361.11 5400.69 4462.5 2807.46 5573.31 5004.68 4023.88 5348.11 5428.24 6273.6 3668.93 4009.24 5800.81 6245.52 3125.13 5866.91 6506.63 5995.4 5188.22 4841.23 4196.62 5984.8 3469.18 6347.72 3956.24 6334.53 7558.99 3393.59 5043.14 5333.04 5445.91 4521.99 4812.59 6842.54 7115.67 5675.45 5329.84 6038.56 5599.16 4179.8 3488.34 5658.35 4577.98 5684.05 4708.17 3779.45 5167.53 5166.05 7035.54 5763.05 5797.21 4208.37 6019.35 6075.99 5191.26 4184.47 3825.48 2804.54 3372.95 5819.0 3460.93 5124.86 5117.64 5580.95 3549.92 6598.99 4032.06 5250.56 5246.81 2468.16 5089.1 5888.95 5394.78 3463.34 5169.09 5122.38 2853.68 5262.85 4998.37 6559.82 3879.83 5342.9 6565.95 5733.12 5043.34 5886.81 5136.87 2741.2 7145.73 5233.76 6405.69 5357.39 4252.18 6296.54 3669.32 4762.1 5700.79 4629.02 4927.73 4705.68 5469.35 4313.38 5827.3 3633.58 3825.98 6294.14 4339.97 5203.75 3906.41 4691.15 2459.88 4512.6 4210.24 5470.67 5901.71 5225.11 5252.22 4962.35 6436.29 7350.26 4556.19 4168.52 4659.88 5685.74 3495.3 4140.04 5890.25 5766.05 2832.83 6036.99 4084.87 3010.1 5259.29 3584.05 4589.22 5087.03 4667.84 5584.64 4123.08 4260.38 4636.45 4932.27 3799.55 5638.51 6793.49 3563.33 6060.19 5536.0 6786.37 5790.42 5591.77 5106.46 6562.92 3612.44 4474.96 4758.76 4790.63 4088.72 3945.62 4916.75 4818.53 5097.85 6189.04 6224.64 4221.03 5189.4 4576.71 5082.66 4550.77 4894.15 4337.93 3550.88 4345.51 4048.73 6223.33 5024.32 5813.79 4644.88 4068.31 3671.06 4850.5 4683.28 4658.59 5532.75 6949.65 4608.62 5407.96 4987.28 6562.03 5367.05 4449.73 5647.11 3743.85 6236.46 5342.17 6379.3 5015.67 3795.63 6538.04 6157.59 5201.3 5848.41 4090.28 4932.56 4176.32 3185.09 3587.93 5676.61 5064.23 5721.14 5084.5 4071.75 4246.83 4493.79 4279.44 2945.34 6006.16 3565.32 5638.7 4668.8 5322.11 4697.49 5735.08 4726.2 5034.05 4816.51 4711.15 4474.39 3810.68 6478.35 3990.94 4756.8 5477.8 5463.06 6069.78 5260.52 4241.68 4975.85 4095.83 5323.95 5846.95 5716.42 5268.15 5701.63 4603.04 4870.94 4620.95 5368.93 4488.39 6121.56 5914.5 4602.57 4096.86 3419.07 5710.33 5344.44 3622.48 6432.8 4626.72 5131.77 5549.71 4815.47 4759.99 3899.7 5134.33 5214.4 3629.49 5399.43 5034.34 5695.44 3835.81 3422.21 3916.42 5537.34 3667.93 3487.31 5192.49 4899.19 6643.4 5058.34 4028.22 5575.11 4983.1 5293.13 4507.36 6224.85 6406.8 5403.97 4795.08 5648.78 6875.73 5501.73 6081.3 4697.24 4983.43 5117.52 6311.89 6549.8 2820.07 5129.68 4825.73 5076.84 4165.36 5288.33 4871.77 5811.26 5062.77 4884.93 5069.9 6028.63 3673.6 4494.15 5146.1 6215.87 6485.77 6060.06 5866.42 5544.27 5393.43 6896.55 4685.65 5377.01 6470.23 5939.22 4271.93 4215.05 3626.86 5125.17 4604.1 6371.96 4859.01 5076.11 5524.45 7133.44 4426.02 5600.21 3953.26 4750.81 4282.11 5467.51 5459.92 2347.41 4625.53 5453.77 4096.47 4357.11 5114.67 2809.19 5005.6 4916.7 5486.89 5589.53 7208.19 4549.51 5025.42 5196.08 4517.29 6379.38 5695.25 6257.79 4495.75 4849.5 6171.01 6229.83 5796.26 4468.26 4523.81 5578.18 5106.33 5293.37 5791.25 5198.94 5271.88 4028.35 5933.54 5559.79 7168.2 2980.31 3763.85 3148.79 4571.74 5740.78 4796.12 5001.51 5997.91 4742.82 5385.86 5115.42 3186.07 4082.4 4209.0 4410.82 4369.86 4967.51 4368.12 5173.82 6443.99 2646.13 7212.97 4365.58 3889.98 5193.58 3720.7 5490.64 5698.53 3769.2 4507.46 5036.14 6022.78 5884.99 4087.32 6647.85 5726.42 4674.9 7025.09 3392.26 4433.12 3918.94 2549.95 5461.72 4361.24 5487.63 3768.46 3852.82 5138.93 6945.69 5118.86 7086.69 5368.66 4304.64 6170.9 5833.78 4436.48 5226.42 5758.98 5615.35 3967.76 5288.64 6213.24 6734.39 4217.36 5679.74 5942.45 4150.76 4851.18 4228.53 6123.46 5005.72 5368.52 6142.88 5155.28 5111.26 5205.38 5388.73 4764.83 1969.87 3132.34 4949.55 4600.71 3957.38 4841.28 5262.79 5927.2 6889.5 5035.71 4710.88 4419.79 5300.17 5407.69 3869.39 5152.78 5960.5 5534.23 4117.9 4753.76 6025.77 4638.09 4781.9 6815.96 4441.91 5339.6 5330.26 5828.25 5917.08 4725.11 5483.37 5418.12 5322.07 5934.05 5770.07 4714.66 5990.75 5101.6 4984.17 4656.01 5781.62 6589.13 4037.86 5602.62 2030.03 3543.37 4542.16 5714.51 5628.97 4104.04 5353.66 2638.82 5030.33 5593.79 5104.39 5234.2 4612.13 4965.24 5846.6 5327.05 5438.55 5353.23 4434.65 6688.53 5977.66 5209.5 5065.74 4873.23 6731.89 5464.05 4733.41 5879.24 5410.6 5453.2 6348.93 5136.51 6824.53 4332.64 5232.16 4422.23 6791.86 3989.26 4820.68 4930.72 5482.76 5728.58 3745.02 4887.73 6297.99 4211.36 5378.24 3856.73 3604.31 4538.89 4450.49 5817.74 3468.45 5887.71 5517.65 4009.68 3303.49 2569.12 4161.32 4622.73 5256.75 5161.74 7336.37 5932.28 6599.28 5560.23 5099.9 2960.5 5783.38 4975.32 3043.77 4298.7 3902.48 5237.55 4183.4 3909.94 6030.39 4733.79 4905.53 3799.01 4823.06 7392.65 5254.49 5319.1 3757.23 6828.8 6883.86 5987.88 3579.59 6161.94 4065.28 5057.59 4461.14 5285.6 4574.54 5575.11 5615.06 5490.54 5203.54 4047.95 5507.38 6142.94 4416.87 5001.69 6581.56 4057.4 4052.43 3980.46 4896.67 5383.9 3934.11 5158.44 3886.56 4466.22 4496.51 6153.71 6561.94 5259.21 5092.93 4256.08 2803.01 5881.93 4444.0 6771.18 6182.19 5327.39 5910.66 7415.84 4981.81 4138.59 4970.55 4938.33 4484.78 4621.33 5527.27 5157.73 5847.91 4934.66 4984.01 4109.44 4903.84 4290.49 4557.1 4605.39 5927.1 6270.59 6175.27 5876.51 4103.76 4907.55 4286.61 4094.63 2932.52 5264.83 4603.66 4757.87 4969.68 3901.53 6636.43 6815.51 5431.14 5313.86 4457.05 5178.07 5189.91 6031.22 3618.64 5485.84 4171.02 6424.77 4335.79 5453.69 5797.32 5918.95 5432.04 5689.56 6556.86 5114.51 5129.4 4746.15 4655.37 3720.38 4758.84 5585.25 5023.61 6351.89 6530.78 5059.37 4742.35 5394.79 4139.39 5645.54 5088.64 6264.03 4526.87 6589.8 4151.74 6920.92 4174.22 3729.16 3783.36 3573.84 3038.91 4181.93 3922.28 6570.43 3350.99 3820.19 3445.92 5236.69 4979.5 5524.28 4586.82 3133.28 4745.37 5939.29 6026.04 6200.05 5418.98 5859.17 4034.41 4052.49 5061.74 5522.34 5326.03 6189.67 4420.35 5717.45 4948.96 5256.82 4013.86 4061.87 4645.93 5165.31 5448.64 3798.09 4585.37 4288.5 6417.61 5715.51 3721.69 4511.05 3456.3 6074.39 5317.83 6738.9 4399.52 4460.89 4554.24 4157.1 3939.96 8052.53 4867.12 6044.01 6520.19 4637.3 5141.03 1458.87 5734.07 4840.44 8123.59 3997.68 4819.83 5765.14 4801.16 4767.54 4541.22 4946.08 3539.68 5121.08 4696.03 6217.33 6177.68 4698.7 2848.44 6229.64 6045.26 4220.43 6500.45 5743.8 5084.76 6666.34 6605.11 4645.91 6834.92 3557.46 6379.33 5971.95 6298.8 3689.24 3979.46 6321.97 5151.19 5777.26 6412.84 5703.84 6509.54 7012.36 3530.82 5028.06 4002.99 4886.99 5159.67 3921.27 3161.1 3572.73 3702.45 6275.25 6892.33 4731.37 4505.3 4491.26 4452.36 3976.0 4672.86 4511.34 4068.41 6463.71 5009.21 4574.03 4379.91 5290.37 5850.38 5264.08 3562.8 4227.66 4730.97 4691.01 4594.89 5192.82 5245.95 5821.42 4067.89 4515.02 6294.09 4924.52 4571.57 5131.07 4121.07 2970.24 4197.87 5105.54 5658.05 5731.43 6353.81 3414.67 3518.14 5444.36 4150.44 5044.68 5771.98 2649.69 5899.78 5000.74 5117.83 5772.57 5268.27 4813.81 3882.37 5244.95 4634.25 4095.4 5901.8 6351.48 5395.12 5783.69 3830.7 6210.0 5432.4 3483.61 5350.9 4262.52 7430.48 5992.06 5545.68 6080.69 4970.12 4967.93 6369.66 5973.57 5922.62 6241.48 6033.28 5957.82 6286.27 5071.38 3717.22 6327.54 2927.84 5616.66 5688.77 4802.36 2943.17 5368.28 5466.13 5257.38 6263.87 5075.23 4975.56 7282.36 3826.01 5581.01 3928.99 4125.75 5749.53 5130.57 5652.73 5090.48 5402.45 5582.28 3985.93 5945.25 6071.59 2589.19 6119.0 3792.06 6079.55 5128.59 5485.61 4993.49 4937.36 4293.3 5308.4 5587.3 5310.33 4864.38 6583.37 3688.83 5631.32 6322.0 5793.14 6345.2 4609.65 5704.61 4832.21 3720.92 5410.73 5087.3 4942.63 6139.74 6637.38 4975.57 7066.26 3057.3 6150.31 3677.85 5214.71 4677.84 4811.11 3463.53 5379.52 6126.03 4866.8 5314.67 6044.69 5563.47 5651.46 6593.1 4066.36 4000.51 5462.1 6033.93 6032.45 5011.37 4026.03 2827.92 6908.32 3467.11 5336.61 4817.75 6153.26 4848.15 5637.53 4439.09 5523.81 5648.59 4718.61 5188.57 3873.79 5717.67 5357.33 5252.37 5515.59 3224.81 4499.54 5037.58 6457.89 5640.67 6572.17 3751.73 5555.89 4766.47 4871.1 5678.08 3917.09 6009.93 5872.45 4414.09 5270.1 5125.45 3784.68 4188.16 4947.64 6305.9 6649.21 5507.07 4654.92 5327.71 4880.78 4322.56 5509.09 5625.02 3873.72 5212.05 4592.49 5479.86 4829.77 6474.5 4444.92 4702.32 6959.88 5971.9 3746.62 5247.73 4876.37 5034.02 4769.62 5260.13 4649.5 5181.31 3856.4 4696.06 4137.16 6189.29 5984.55 6581.13 4569.32 6126.5 4034.88 3511.5 6007.1 5488.96 5067.92 3188.21 5357.14 4850.95 5128.03 5919.27 4793.06 6271.22 3421.81 6188.33 3920.64 6111.23 6916.18 5786.06 5873.62 3868.69 4137.41 4996.91 3920.44 4450.51 5447.74 6033.72 3768.62 3851.47 4966.74 2329.93 4959.94 1635.31 5639.4 3162.27 6185.73 4083.24 5516.37 5092.44 4441.44 5432.2 4232.44 3312.3 4612.4 5563.09 6381.58 3282.57 5212.2 4798.13 4611.21 5108.42 6697.45 4630.5 6296.36 4432.32 4451.76 7885.41 3775.38 4046.22 4104.97 4844.2 4575.72 5114.61 6118.13 3374.62 4926.62 4420.3 6332.64 4202.12 6492.44 4613.32 4083.1 3482.73 5191.29 5130.56 4957.99 4063.26 5345.05 4997.89 4542.62 3470.69 4859.95 5286.55 4132.08 5522.18 5223.1 4699.77 4850.49 4981.55 5144.23 3625.98 6188.62 6153.07 4414.06 4763.04 5944.52 4413.56 4532.67 5050.2 5316.05 2513.38 4908.32 3995.08 5019.84 4810.74 5985.75 3900.93 5784.38 5475.83 4149.17 4329.8 5728.27 5672.46 5803.3 5108.84 4582.12 4487.51 4295.25 4520.14 7394.47 4729.45 6261.13 5374.09 4720.34 5244.47 5378.75 5510.89 6186.24 5822.7 3780.07 4159.89 5466.49 5178.55 4038.17 5007.41 4907.48 3692.99 6213.74 4488.41 4369.87 6938.87 5412.07 5512.57 4806.99 6520.96 3771.91 5856.43 5217.62 3465.03 6178.19 4746.19 5349.85 4616.81 5715.25 5172.1 4362.94 4469.82 6545.78 4870.14 3354.94 4404.87 5237.27 5105.72 5767.65 4750.76 5003.49 5782.25 4907.03 5497.27 4081.77 5617.91 4948.21 2181.29 4987.01 4706.31 2694.25 6265.48 4735.99 4203.68 4739.56 5145.39 3818.37 3996.93 3352.46 6351.95 5195.09 5200.1 7679.2 5093.28 4881.51 6131.52 4311.92 2626.41 6009.88 6729.99 5093.41 6842.35 5464.34 3621.63 4777.96 5801.89 5908.57 6833.5 7296.47 5742.39 4821.41 4780.16 4924.53 3834.01 5616.11 4499.52 4433.23 3874.12 4813.24 4028.13 4457.73 6476.35 3113.64 4304.75 6260.58 4067.24 3053.19 5202.33 3074.49 4246.24 6805.02 4919.13 5354.48 5640.63 4900.26 5783.88 4167.55 5002.38 6705.93 4865.11 4731.16 5449.09 5502.14 6470.87 4495.33 5282.67 4131.08 5747.9 3864.19 4287.93 5146.69 6203.24 6818.23 5081.65 6679.12 5652.19 5806.74 3878.8 6578.62 4813.55 4698.94 6284.12 4796.04 3839.0 5229.56 6011.4 5799.86 3330.85 4672.34 6052.22 5376.41 5003.63 2932.2 4695.7 4944.08 4082.01 5269.39 3964.03 4216.33 5832.72 3903.9 4444.95 4721.2 5161.02 3943.77 3124.49 5242.38 6081.35 5003.81 6262.18 5566.5 4701.03 5663.36 6225.05 5434.04 5125.53 3997.52 4444.54 5403.81 5779.9 4909.74 5310.33 6664.54 3922.98 5161.73 5259.48 4008.67 5254.93 4803.4 6608.94 2613.78 5417.07 5656.84 5738.37 6789.66 5759.19 4739.41 5847.27 4490.2 5734.84 5480.86 6139.9 6571.26 5402.81 4600.81 5561.63 4124.33 5168.97 4358.06 5093.51 5647.93 4280.92 6201.49 4696.92 5154.74 4605.61 4465.56 6898.8 5386.95 6540.57 5332.11 4893.72 5315.71 6004.72 6158.93 5373.78 4823.14 5438.5 4489.18 4621.32 5699.4 5237.76 4286.84 3948.21 5669.15 5296.05 6988.4 5056.32 5533.52 5410.33 4060.17 4747.24 4380.86 5302.53 4909.13 5576.16 4305.35 5648.02 3308.75 5210.22 2451.27 5677.42 2701.42 4929.35 5606.22 6673.92 5151.68 4884.94 5459.52 4609.98 4738.72 4752.31 5240.97 4276.59 5579.04 5405.6 5994.21 4884.93 5082.25 4759.38 6964.78 4374.05 5299.03 5036.84 4565.36 5813.68 4025.08 5040.9 3618.53 4770.21 8013.28 3846.55 3796.73 4644.68 5283.65 3082.16 2892.36 5981.54 5416.41 5312.2 6760.64 4706.59 2515.5 5177.88 5551.79 3982.31 4950.07 4720.22 4333.23 4328.76 5145.13 3747.96 5611.29 5940.5 6568.45 5004.22 4601.54 7263.57 3832.09 5705.96 6437.99 5739.69 4790.16 6632.04 7360.62 4985.45 4072.4 4983.56 5699.51 4714.52 5345.65 2489.44 5499.37 5863.36 4632.75 4752.94 4994.98 3950.53 6423.96 6058.13 4501.1 5894.69 5263.86 6550.61 4987.01 6635.51 6094.34 6051.35 6779.82 5543.67 4287.61 4867.13 3999.81 4604.34 4439.17 4502.12 3255.93 5442.79 5051.39 6327.61 4633.59 5733.59 5362.15 4455.61 3695.72 6874.6 5106.9 5569.85 5523.96 3929.35 4223.53 4733.37 6960.97 3037.72 4287.15 4523.9 5282.51 5504.65 5669.41 5732.11 3760.4 3919.47 5596.68 3783.35 4602.7 4868.66 4037.16 4004.39 5159.9 4987.48 5943.61 4248.58 5911.29 5479.17 4694.27 4542.25 4414.23 5233.88 4849.21 4785.55 3793.83 6981.47 4582.24 3916.15 3860.8 5438.6 7370.52 4726.5 4521.88 3724.23 5103.3 4963.88 5888.94 4727.98 4122.2 5175.88 5267.65 4516.26 3509.34 3647.26 5360.88 3166.37 4977.64 5369.42 5207.08 5205.53 4587.19 5543.05 4883.13 6028.89 4836.76 5333.16 5551.09 5755.98 5392.85 5581.47 5077.2 4384.91 4274.05 5275.27 4277.54 4713.56 4531.46 5925.82 4739.5 6210.48 6377.45 4863.27 6853.07 5575.8 5268.93 5306.31 4535.94 5126.08 5604.0 4951.02 6395.63 5020.37 5245.4 6189.81 5467.05 3731.58 4888.17 5529.09 5448.68 4072.95 4491.62 3865.5 4182.05 
SCALARS Velocity float 1
LOOKUP_TABLE default
1.19179 1.19181 1.1918 1.19181 1.19178 1.19182 1.19182 1.19181 1.19178 1.19181 1.19178 1.19178 1.19178 1.19178 1.19179 1.19178 1.19178 1.19178 1.19178 1.19178 1.19178 1.1918 1.19179 1.19178 1.19178 1.19178 1.19178 1.19178 1.19178 1.19178 1.19178 1.19179 1.19179 1.1918 1.1918 1.1918 1.19179 1.19178 1.19179 1.19178 1.19178 1.1918 1.19178 1.19178 1.19182 1.1918 1.19178 1.19179 1.19178 1.19179 1.19181 1.19181 1.19178 1.19178 1.19178 1.19182 1.19178 1.19184 1.1918 1.19177 1.19178 1.19178 1.19179 1.19183 1.19179 1.19183 1.19184 1.19184 1.19181 1.19179 1.19179 1.19183 1.19184 1.19182 1.19181 1.19178 1.1918 1.19182 1.19183 1.19179 1.19179 1.19178 1.1918 1.19183 1.19186 1.1918 1.19181 1.1918 1.19178 1.19179 1.19179 1.19187 1.19183 1.1918 1.19181 1.19183 1.19183 1.19181 1.19182 1.19182 1.19182 1.19178 1.19179 1.19178 1.19178 1.19179 1.19178 1.19178 1.19178 1.19178 1.19181 1.19178 1.1918 1.19178 1.19178 1.19178 1.19178 1.19178 1.19178 1.19178 1.19178 1.19178 1.19179 1.1918 1.1918 1.1918 1.1918 1.19179 1.19179 1.19178 1.19178 1.1918 1.19179 1.1918 1.1918 1.19177 1.1918 1.19182 1.19178 1.19182 1.19179 1.1918 1.19178 1.19177 1.19179 1.19182 1.19187 1.19187 1.19177 1.19177 1.19178 1.19179 1.1918 1.19179 1.19182 1.19181 1.19181 1.19178 1.19185 1.1918 1.19178 1.19178 1.19178 1.1918 1.19179 1.19176 1.19184 1.19177 1.19179 1.19182 1.19186 1.19184 1.19183 1.19183 1.19179 1.19179 1.19184 1.19178 1.19182 1.19181 1.19177 1.1918 1.19183 1.19183 1.19178 1.1918 1.19177 1.19181 1.19184 1.19177 1.1918 1.1918 1.19181 1.1918 1.1918 1.19179 1.19183 1.19185 1.19181 1.19185 1.19183 1.19184 1.19181 1.19178 1.19182 1.19179 1.19178 1.19184 1.19178 1.19179 1.19178 1.19178 1.19178 1.19178 1.19181 1.19178 1.1918 1.19178 1.1918 1.19178 1.19179 1.19179 1.19178 1.19179 1.1918 1.19181 1.1918 1.1918 1.19179 1.19178 1.19179 1.19178 1.1918 1.1918 1.19178 1.19181 1.19182 1.19178 1.19177 1.19177 1.19177 1.19182 1.19179 1.1918 1.19178 1.19179 1.19183 1.19189 1.19181 1.19179 1.19181 1.19183 1.1918 1.19182 1.19181 1.1918 1.19186 1.1918 1.19182 1.1918 1.19187 1.19178 1.19184 1.19178 1.19181 1.19178 1.19187 1.19184 1.19183 1.19183 1.19179 1.19178 1.19184 1.19182 1.19178 1.19181 1.19183 1.19191 1.19179 1.19176 1.19181 1.19177 1.19178 1.19188 1.1918 1.19186 1.1918 1.19181 1.19179 1.19179 1.1918 1.19178 1.19178 1.19184 1.19182 1.19182 1.19185 1.19183 1.19181 1.19178 1.19181 1.19178 1.19178 1.19183 1.19179 1.19179 1.1918 1.19178 1.19178 1.19177 1.19181 1.1918 1.19181 1.19179 1.19177 1.19178 1.19178 1.19177 1.19178 1.19178 1.19179 1.19179 1.19179 1.19183 1.1918 1.1918 1.1918 1.19181 1.19179 1.19179 1.19181 1.19178 1.1918 1.1918 1.19174 1.19181 1.19181 1.19181 1.19178 1.19182 1.19182 1.1918 1.1918 1.19183 1.19185 1.1919 1.19181 1.19179 1.19182 1.19182 1.19181 1.19178 1.19178 1.19187 1.19178 1.19192 1.19182 1.19186 1.19179 1.19184 1.19178 1.1918 1.19179 1.19187 1.19182 1.19182 1.19184 1.19184 1.19185 1.19183 1.19181 1.19186 1.19182 1.19178 1.19181 1.19179 1.19182 1.19191 1.1918 1.1918 1.19189 1.19178 1.19185 1.19189 1.1918 1.19185 1.19176 1.19179 1.19181 1.19186 1.19182 1.1918 1.19182 1.19185 1.19185 1.19184 1.19182 1.1918 1.19185 1.1918 1.19177 1.19183 1.19179 1.1918 1.19181 1.19178 1.19179 1.19177 1.1918 1.19178 1.19179 1.19179 1.19181 1.19179 1.19178 1.19184 1.19178 1.19178 1.19179 1.19179 1.19181 1.1918 1.19178 1.19178 1.1918 1.1918 1.1918 1.19178 1.19181 1.19181 1.19179 1.1918 1.19178 1.19177 1.19179 1.19173 1.19184 1.19178 1.19175 1.19182 1.19179 1.1918 1.19182 1.19183 1.19181 1.19179 1.19182 1.19179 1.19178 1.19177 1.19177 1.19185 1.19189 1.19186 1.1918 1.1918 1.19176 1.19184 1.19177 1.19186 1.19179 1.19181 1.19187 1.19184 1.19174 1.19183 1.19183 1.19183 1.19183 1.19177 1.19192 1.19193 1.19187 1.19182 1.19188 1.1918 1.19183 1.19174 1.1918 1.19183 1.19181 1.19182 1.19187 1.19181 1.19181 1.19181 1.1918 1.19186 1.1918 1.1918 1.19184 1.19184 1.19182 1.19179 1.19185 1.1918 1.19174 1.19171 1.19178 1.19178 1.19185 1.19182 1.19183 1.19178 1.19179 1.1918 1.19181 1.19179 1.19179 1.19181 1.19179 1.19176 1.19184 1.19179 1.19179 1.19179 1.1918 1.19178 1.19178 1.19177 1.19179 1.1918 1.19179 1.19181 1.19178 1.19177 1.19179 1.19179 1.19178 1.19179 1.1918 1.19179 1.1918 1.1918 1.19182 1.19186 1.1919 1.19189 1.19179 1.19182 1.19179 1.19181 1.19177 1.19178 1.19175 1.19184 1.19188 1.1918 1.1919 1.19178 1.19174 1.19181 1.19184 1.19183 1.1918 1.19183 1.19177 1.1918 1.19187 1.19184 1.19189 1.19187 1.19187 1.19174 1.19181 1.19183 1.19185 1.1919 1.19192 1.19186 1.19176 1.19187 1.1918 1.19184 1.19176 1.19182 1.19178 1.19181 1.19179 1.19176 1.19187 1.19181 1.1918 1.19186 1.1918 1.19179 1.19183 1.19184 1.19182 1.19179 1.19185 1.19179 1.19172 1.19179 1.19179 1.19175 1.19181 1.19178 1.19178 1.19179 1.19181 1.19181 1.19179 1.19176 1.19178 1.19178 1.19179 1.19181 1.19181 1.19179 1.19178 1.19178 1.19178 1.19178 1.19177 1.19179 1.1918 1.1918 1.1918 1.19179 1.19179 1.19181 1.19179 1.19181 1.19176 1.19175 1.19179 1.19178 1.19178 1.19179 1.19178 1.19184 1.19179 1.19185 1.19191 1.19187 1.19186 1.19188 1.19178 1.19179 1.19182 1.19179 1.19176 1.19177 1.19175 1.19178 1.1918 1.1921 1.19186 1.19176 1.19177 1.19178 1.19177 1.19184 1.19183 1.19181 1.19177 1.19184 1.19187 1.19178 1.19183 1.19182 1.19185 1.19197 1.19189 1.1919 1.19182 1.19174 1.19185 1.19179 1.19184 1.19176 1.19182 1.19186 1.1918 1.19178 1.19178 1.19182 1.19177 1.19181 1.19173 1.19173 1.19179 1.19178 1.1918 1.19177 1.19179 1.19182 1.19173 1.19181 1.19184 1.19181 1.19185 1.19178 1.19178 1.19177 1.19176 1.1918 1.19175 1.1918 1.19183 1.19181 1.19179 1.19179 1.19178 1.19181 1.19179 1.19178 1.19177 1.19179 1.19178 1.19179 1.19178 1.19179 1.19179 1.19179 1.1918 1.19179 1.19179 1.19181 1.19179 1.19182 1.19176 1.19186 1.19177 1.1918 1.19177 1.19178 1.19176 1.19176 1.19179 1.19187 1.19178 1.1918 1.19187 1.19186 1.19187 1.19178 1.1919 1.19186 1.192 1.19172 1.1919 1.19178 1.19175 1.1918 1.19186 1.19184 1.19181 1.19187 1.19184 1.19176 1.19176 1.19183 1.19181 1.19179 1.19187 1.19188 1.19182 1.19182 1.19183 1.1918 1.19183 1.19191 1.19185 1.19178 1.19173 1.19186 1.19181 1.19177 1.19184 1.19181 1.19186 1.19178 1.19186 1.19178 1.19179 1.1918 1.19178 1.19178 1.19179 1.19178 1.19181 1.19181 1.19175 1.19176 1.19179 1.19179 1.19178 1.19177 1.19177 1.1918 1.19177 1.19173 1.19185 1.19179 1.19181 1.19179 1.19179 1.19177 1.19177 1.1918 1.19179 1.19179 1.19178 1.19179 1.19174 1.19179 1.19174 1.19178 1.19178 1.19179 1.1918 1.19178 1.19178 1.19181 1.1918 1.19181 1.19179 1.19185 1.19178 1.1918 1.19177 1.19181 1.19177 1.19177 1.1918 1.19186 1.19178 1.19181 1.19185 1.19184 1.19185 1.19177 1.19188 1.19187 1.1919 1.19175 1.19194 1.19187 1.19175 1.1917 1.19184 1.19183 1.1918 1.19169 1.19178 1.19187 1.19187 1.19177 1.19185 1.19179 1.19181 1.19177 1.19182 1.19181 1.19178 1.1918 1.19185 1.19183 1.19182 1.19181 1.1918 1.19182 1.19191 1.19187 1.19182 1.19178 1.19187 1.19182 1.1918 1.19179 1.19185 1.19182 1.19182 1.1917 1.19172 1.19177 1.19185 1.19186 1.19187 1.19181 1.19177 1.19172 1.19176 1.19175 1.19175 1.1918 1.19174 1.19171 1.19183 1.19177 1.19175 1.19178 1.1918 1.19179 1.19176 1.19182 1.1918 1.19173 1.19178 1.19181 1.19178 1.19178 1.19176 1.19176 1.1918 1.19179 1.19178 1.1918 1.19178 1.19176 1.19177 1.19174 1.19178 1.19178 1.19178 1.19178 1.19178 1.19176 1.19177 1.19179 1.19178 1.19178 1.19178 1.19179 1.1918 1.19183 1.19178 1.19177 1.19188 1.19169 1.19186 1.19186 1.19179 1.19178 1.19178 1.19184 1.19193 1.19178 1.19186 1.19188 1.19187 1.19191 1.19187 1.19187 1.19179 1.19189 1.19175 1.19171 1.19174 1.19183 1.19183 1.1918 1.19169 1.19162 1.19185 1.19185 1.19181 1.19181 1.19179 1.19183 1.1918 1.19184 1.1918 1.1918 1.19182 1.19181 1.1918 1.19182 1.19183 1.19172 1.1918 1.19184 1.19183 1.1918 1.19188 1.19182 1.19171 1.19172 1.19178 1.19185 1.19177 1.19177 1.19178 1.1919 1.19181 1.19177 1.19173 1.19175 1.19172 1.19175 1.19182 1.19187 1.19177 1.19181 1.19177 1.19178 1.19178 1.19176 1.1918 1.19176 1.19179 1.19178 1.1918 1.19179 1.19174 1.1918 1.19178 1.19178 1.19176 1.19176 1.1918 1.19179 1.19178 1.1918 1.19178 1.19176 1.1918 1.19177 1.19178 1.19178 1.1918 1.19176 1.19176 1.19177 1.19178 1.19179 1.19178 1.19178 1.19177 1.19179 1.1918 1.1918 1.19176 1.19188 1.19167 1.19184 1.19185 1.19183 1.19178 1.1919 1.19182 1.19183 1.19195 1.19188 1.19185 1.19185 1.19188 1.19181 1.19163 1.19189 1.19171 1.19163 1.19168 1.19182 1.19175 1.19184 1.19176 1.19177 1.19174 1.1918 1.19188 1.19178 1.19179 1.1917 1.1916 1.1918 1.19172 1.19186 1.19179 1.1918 1.19181 1.19178 1.19181 1.19184 1.19174 1.19174 1.19178 1.1919 1.1917 1.19181 1.19172 1.19178 1.19184 1.1915 1.19188 1.19192 1.19184 1.19173 1.19175 1.19176 1.19177 1.19173 1.19177 1.19183 1.19188 1.19178 1.19177 1.19176 1.19175 1.19177 1.19176 1.19179 1.19179 1.19182 1.19177 1.19177 1.19178 1.19181 1.19177 1.19176 1.19179 1.19178 1.19178 1.1918 1.19177 1.19177 1.19178 1.19181 1.19182 1.19178 1.19177 1.1918 1.19176 1.19178 1.19177 1.19178 1.19175 1.19176 1.19178 1.19179 1.1918 1.19178 1.19176 1.19193 1.19176 1.19183 1.19183 1.1918 1.19178 1.19192 1.19185 1.19195 1.19187 1.19188 1.19184 1.19186 1.19177 1.19182 1.19189 1.19163 1.19178 1.19175 1.1918 1.19178 1.1918 1.19179 1.19187 1.1917 1.19178 1.19177 1.1918 1.19179 1.1918 1.19174 1.19176 1.19176 1.1918 1.19177 1.19179 1.19181 1.19179 1.1918 1.19178 1.19163 1.19176 1.19178 1.19177 1.1917 1.19166 1.19173 1.19181 1.19158 1.1916 1.19184 1.19183 1.19193 1.19176 1.19184 1.19174 1.19179 1.19181 1.19178 1.19172 1.19182 1.19179 1.19175 1.19176 1.19176 1.19176 1.19181 1.19176 1.19178 1.19184 1.19173 1.19183 1.19178 1.19174 1.19176 1.19178 1.19176 1.1918 1.19176 1.19175 1.19175 1.19179 1.19178 1.19178 1.19177 1.19174 1.19178 1.19181 1.19182 1.19179 1.19179 1.19178 1.19177 1.19175 1.19176 1.19176 1.19179 1.19168 1.19173 1.19183 1.19186 1.19173 1.19194 1.19185 1.19188 1.19182 1.19178 1.19178 1.19193 1.19194 1.19182 1.19195 1.19177 1.19183 1.19191 1.19187 1.1918 1.19171 1.19182 1.19183 1.19185 1.19178 1.19176 1.19183 1.19193 1.1918 1.19178 1.19175 1.19176 1.19178 1.19177 1.19171 1.19175 1.1918 1.19173 1.19177 1.19176 1.19181 1.1918 1.19166 1.19178 1.19174 1.19162 1.19178 1.19175 1.19169 1.19166 1.19174 1.19182 1.19157 1.19161 1.19184 1.19182 1.19189 1.19175 1.19184 1.19174 1.19178 1.19179 1.19176 1.19176 1.19167 1.19173 1.19175 1.19177 1.19176 1.19181 1.19176 1.19178 1.19175 1.19176 1.1918 1.19173 1.19176 1.19178 1.19179 1.19176 1.19174 1.19175 1.19172 1.19179 1.19178 1.19174 1.19175 1.19179 1.19182 1.1918 1.19179 1.19181 1.19179 1.19178 1.19177 1.19177 1.19175 1.19175 1.1918 1.19176 1.19175 1.1918 1.19188 1.19187 1.19169 1.19185 1.19182 1.1919 1.19185 1.19178 1.19185 1.19189 1.19187 1.19191 1.19181 1.1918 1.19191 1.19176 1.19184 1.19184 1.19189 1.19209 1.19189 1.19164 1.19166 1.19188 1.19177 1.19186 1.19177 1.19184 1.19196 1.19177 1.19169 1.19178 1.19175 1.19177 1.19173 1.19174 1.19179 1.19177 1.19176 1.19175 1.19179 1.1917 1.19171 1.19168 1.19179 1.19177 1.19175 1.19165 1.19182 1.19182 1.19157 1.19159 1.19181 1.19178 1.19185 1.19184 1.19181 1.19174 1.19179 1.19178 1.19177 1.19178 1.19177 1.19167 1.19171 1.19176 1.19174 1.19178 1.19177 1.19181 1.19178 1.19177 1.19176 1.19177 1.19179 1.19173 1.19176 1.19176 1.19177 1.19177 1.19179 1.19178 1.19176 1.19175 1.19173 1.19178 1.1918 1.19174 1.19177 1.19178 1.19181 1.1918 1.19181 1.19176 1.19175 1.19175 1.19182 1.19163 1.19188 1.19192 1.19183 1.19167 1.1918 1.19177 1.19191 1.19184 1.19185 1.19194 1.19186 1.19186 1.19178 1.19177 1.19186 1.19177 1.19175 1.19187 1.19208 1.19189 1.19165 1.19163 1.19187 1.19177 1.19187 1.19184 1.19159 1.19171 1.19174 1.19175 1.19195 1.1918 1.19179 1.19171 1.19168 1.19175 1.19175 1.19178 1.19174 1.19175 1.19176 1.19174 1.19176 1.19172 1.19171 1.19174 1.19177 1.19174 1.19169 1.19175 1.19177 1.19178 1.19171 1.19177 1.19176 1.19177 1.19184 1.19173 1.19178 1.19174 1.19179 1.1918 1.19178 1.19168 1.19169 1.19173 1.19177 1.1918 1.19177 1.19176 1.19178 1.19174 1.19178 1.19178 1.19177 1.19177 1.19178 1.19177 1.19176 1.19178 1.19175 1.19176 1.19178 1.19179 1.19178 1.19174 1.19178 1.19178 1.19176 1.19175 1.19178 1.19179 1.19181 1.19178 1.19179 1.19183 1.19175 1.1917 1.19189 1.19183 1.19183 1.19174 1.19177 1.19191 1.19183 1.19179 1.19172 1.19176 1.19189 1.19189 1.19186 1.1919 1.19187 1.19183 1.19175 1.19176 1.19183 1.19183 1.19176 1.19185 1.19196 1.19165 1.1919 1.1919 1.19189 1.1918 1.19178 1.19158 1.19173 1.19178 1.19174 1.19184 1.1917 1.19168 1.19176 1.1917 1.19172 1.19176 1.19174 1.19174 1.19172 1.19174 1.19171 1.19182 1.19173 1.19175 1.19177 1.19174 1.1917 1.19169 1.19177 1.19177 1.19175 1.1918 1.19172 1.19178 1.19172 1.19174 1.19183 1.19173 1.19177 1.19174 1.19179 1.19178 1.19178 1.19177 1.19179 1.19167 1.19172 1.19171 1.19177 1.19178 1.19177 1.19176 1.19178 1.19175 1.19178 1.19178 1.19177 1.19176 1.19178 1.19176 1.19178 1.19178 1.19173 1.19179 1.19178 1.19174 1.19179 1.19175 1.19177 1.19174 1.19175 1.1918 1.19184 1.19181 1.19179 1.19182 1.19174 1.19178 1.19189 1.19178 1.19178 1.19188 1.19187 1.19181 1.19176 1.1918 1.19194 1.19185 1.19187 1.19189 1.19174 1.19178 1.19169 1.19187 1.19182 1.19176 1.19185 1.19194 1.19181 1.19189 1.1919 1.19178 1.19172 1.19171 1.19174 1.19175 1.19182 1.19181 1.19173 1.19155 1.19175 1.19175 1.19178 1.19175 1.19175 1.19175 1.1917 1.19173 1.19171 1.19182 1.19173 1.19172 1.19179 1.19179 1.19174 1.19169 1.19169 1.19166 1.19171 1.19179 1.19171 1.19178 1.19171 1.19173 1.19183 1.1917 1.19176 1.19174 1.19178 1.19177 1.19177 1.19178 1.19175 1.1917 1.19173 1.1917 1.1917 1.19168 1.19171 1.19176 1.19178 1.19175 1.19178 1.19178 1.19177 1.19176 1.19178 1.19176 1.19175 1.19174 1.19173 1.19178 1.19178 1.19174 1.19176 1.19177 1.19174 1.19175 1.19184 1.19179 1.19178 1.19175 1.1918 1.19181 1.19185 1.1917 1.19183 1.19199 1.19175 1.19178 1.19186 1.19187 1.19177 1.19178 1.19199 1.19169 1.19193 1.19185 1.19184 1.19184 1.19183 1.19185 1.19191 1.19179 1.19176 1.19188 1.19194 1.19179 1.19177 1.19178 1.19187 1.19191 1.19173 1.19178 1.19172 1.19189 1.19175 1.19181 1.1917 1.19167 1.19174 1.19166 1.19175 1.19178 1.19178 1.19177 1.19179 1.19173 1.19172 1.1917 1.19174 1.19172 1.19181 1.19173 1.19174 1.19171 1.19171 1.19174 1.19172 1.19179 1.19171 1.19174 1.19171 1.19173 1.19183 1.19175 1.19175 1.19178 1.19176 1.19178 1.19178 1.19175 1.1917 1.19168 1.19171 1.1917 1.1917 1.19177 1.19174 1.19176 1.19178 1.19175 1.19178 1.19176 1.19178 1.19176 1.19177 1.19174 1.19174 1.19174 1.19174 1.19175 1.19178 1.19178 1.19178 1.19176 1.19177 1.19174 1.19176 1.19187 1.1918 1.19179 1.19173 1.19174 1.1918 1.19181 1.19182 1.19179 1.19173 1.19188 1.19202 1.19185 1.19187 1.1918 1.19176 1.19197 1.19167 1.19182 1.1919 1.19184 1.19178 1.19185 1.19181 1.19185 1.1919 1.19178 1.19178 1.19175 1.19188 1.19193 1.19179 1.19176 1.19174 1.19184 1.19188 1.19173 1.19165 1.19175 1.1919 1.19179 1.1918 1.19166 1.19173 1.19165 1.19178 1.19186 1.19174 1.19179 1.19179 1.19175 1.1917 1.19178 1.19171 1.19178 1.19173 1.19175 1.19175 1.19173 1.19167 1.19167 1.19177 1.19175 1.19175 1.19173 1.19171 1.19177 1.19172 1.19174 1.19173 1.19173 1.19176 1.19178 1.19178 1.19177 1.19178 1.19173 1.19179 1.19178 1.19168 1.19171 1.19178 1.19169 1.19173 1.19178 1.19179 1.19176 1.19177 1.19177 1.19177 1.19176 1.19177 1.19176 1.19174 1.19176 1.19176 1.19176 1.19178 1.19174 1.19178 1.19178 1.19178 1.19174 1.19176 1.19175 1.19177 1.19187 1.19178 1.19171 1.19183 1.19175 1.1918 1.19181 1.19175 1.19178 1.19197 1.19189 1.19177 1.19188 1.19182 1.19178 1.19197 1.19184 1.19177 1.19187 1.19176 1.19181 1.19175 1.19184 1.19187 1.19179 1.19177 1.19184 1.19177 1.19167 1.1919 1.19178 1.19176 1.19177 1.19185 1.19169 1.19171 1.19171 1.19164 1.19179 1.19174 1.19181 1.1918 1.19168 1.19175 1.19167 1.19178 1.19176 1.19177 1.19179 1.19179 1.19175 1.19173 1.1917 1.19171 1.19183 1.19171 1.1917 1.19174 1.19176 1.19172 1.19171 1.19167 1.1917 1.19176 1.19175 1.19173 1.19177 1.19178 1.19172 1.19173 1.19177 1.19177 1.19178 1.19177 1.19177 1.19178 1.19177 1.19169 1.19174 1.19176 1.19169 1.19176 1.19177 1.19175 1.19178 1.19177 1.19177 1.19176 1.19176 1.19178 1.19178 1.19178 1.19178 1.19174 1.19182 1.19182 1.19177 1.19178 1.19174 1.19178 1.19178 1.19177 1.19179 1.19176 1.19175 1.19177 1.19172 1.1918 1.1918 1.1918 1.19178 1.19176 1.19185 1.19183 1.19188 1.19199 1.1919 1.19177 1.19173 1.1919 1.19181 1.19175 1.19182 1.19173 1.19173 1.19182 1.19183 1.19184 1.19175 1.19166 1.1919 1.19178 1.19174 1.19168 1.1917 1.1917 1.1917 1.19164 1.19177 1.19184 1.19177 1.1918 1.1917 1.19172 1.19176 1.19168 1.19176 1.19179 1.19175 1.19174 1.19174 1.1917 1.19171 1.19178 1.19173 1.19172 1.19178 1.19182 1.19175 1.19178 1.19178 1.19171 1.19183 1.19175 1.19173 1.1917 1.19179 1.19174 1.1917 1.19172 1.19173 1.19177 1.19178 1.19178 1.19177 1.19177 1.19178 1.19177 1.19177 1.19177 1.19175 1.19169 1.19175 1.19177 1.19176 1.19178 1.19177 1.19176 1.19176 1.19177 1.19178 1.19176 1.19178 1.19178 1.19182 1.19177 1.19178 1.19176 1.1918 1.19177 1.19179 1.19178 1.19173 1.19179 1.19173 1.19175 1.1917 1.1918 1.19181 1.19181 1.19179 1.19174 1.19176 1.19183 1.19182 1.19185 1.19186 1.1919 1.19178 1.19174 1.1916 1.19175 1.19184 1.19203 1.19169 1.19173 1.19182 1.19181 1.19184 1.19174 1.19166 1.19191 1.19188 1.19168 1.19167 1.1917 1.19169 1.19177 1.19178 1.19184 1.19172 1.19178 1.19169 1.1917 1.19177 1.19177 1.19175 1.19178 1.19165 1.19174 1.19174 1.19169 1.19175 1.19176 1.19175 1.19171 1.19174 1.19183 1.19177 1.19178 1.19179 1.19175 1.19176 1.19175 1.19174 1.19178 1.19178 1.19171 1.19172 1.19172 1.19177 1.19178 1.19178 1.19178 1.19178 1.19178 1.19177 1.19177 1.19177 1.19178 1.1917 1.19176 1.19178 1.19178 1.19178 1.19177 1.19178 1.19176 1.19177 1.19177 1.19175 1.19178 1.19178 1.19178 1.19178 1.19174 1.19178 1.19179 1.19178 1.19177 1.19178 1.19172 1.19179 1.19173 1.1917 1.19172 1.19172 1.1918 1.19177 1.19179 1.19174 1.19175 1.1918 1.19182 1.19178 1.19185 1.19186 1.19177 1.19176 1.19162 1.19172 1.19204 1.19158 1.19173 1.19181 1.19178 1.1917 1.19166 1.19168 1.19184 1.19181 1.19184 1.19168 1.19175 1.19178 1.19164 1.19177 1.19167 1.19175 1.19185 1.19179 1.19171 1.1917 1.19179 1.19177 1.19179 1.19173 1.19178 1.19179 1.19178 1.19174 1.19178 1.19175 1.19176 1.19175 1.19171 1.19174 1.19174 1.19177 1.19176 1.19178 1.19174 1.19178 1.19175 1.19174 1.19177 1.19175 1.19172 1.19175 1.19172 1.19177 1.19177 1.19177 1.19178 1.19178 1.19178 1.19177 1.19177 1.19178 1.19178 1.19178 1.19176 1.19178 1.19178 1.19178 1.19178 1.19178 1.19176 1.19177 1.19177 1.19178 1.19178 1.19177 1.19176 1.19177 1.19174 1.19177 1.19179 1.19174 1.19173 1.19176 1.19172 1.19169 1.19176 1.19171 1.1917 1.19175 1.19165 1.19173 1.19181 1.19173 1.19173 1.19172 1.19177 1.19172 1.19187 1.19183 1.19182 1.19179 1.19165 1.19169 1.1918 1.19155 1.19174 1.19165 1.19184 1.19177 1.19177 1.19168 1.19159 1.19167 1.19177 1.19168 1.19175 1.1917 1.19163 1.19176 1.19175 1.19173 1.19176 1.19171 1.19172 1.19171 1.19178 1.19172 1.19178 1.19177 1.19179 1.19174 1.19178 1.19175 1.19178 1.19175 1.1917 1.19174 1.19174 1.19176 1.19178 1.19178 1.19178 1.19175 1.19177 1.19175 1.19169 1.19174 1.19175 1.19172 1.19177 1.19178 1.19177 1.19178 1.19178 1.19178 1.19177 1.19177 1.19178 1.19178 1.19178 1.19176 1.19178 1.19178 1.19178 1.19178 1.19178 1.19176 1.19177 1.19177 1.19177 1.19177 1.19178 1.19178 1.19174 1.19177 1.19176 1.19178 1.19174 1.19174 1.19178 1.19168 1.19176 1.19172 1.19171 1.19159 1.19175 1.19167 1.19171 1.19168 1.19172 1.19176 1.19181 1.19189 1.19181 1.19169 1.19169 1.19163 1.1917 1.1918 1.19153 1.1917 1.19176 1.19167 1.19167 1.19163 1.19163 1.19151 1.19166 1.19153 1.19159 1.19185 1.19158 1.19169 1.19174 1.19178 1.19178 1.19176 1.19171 1.19171 1.19172 1.19173 1.1917 1.19174 1.19178 1.19178 1.19175 1.19178 1.19175 1.19175 1.19174 1.19177 1.19179 1.19173 1.19173 1.19175 1.19176 1.19177 1.19176 1.19175 1.19177 1.19175 1.19177 1.19169 1.1917 1.19174 1.19177 1.19173 1.19169 1.1917 1.19164 1.19171 1.19173 1.19182 1.19189 1.19178 1.19182 1.19166 1.19178 1.19178 1.19177 1.19179 1.19159 1.19172 1.19167 1.19177 1.19163 1.19169 1.19177 1.19174 1.19178 1.19174 1.19169 1.19178 1.19163 1.19174 1.1917 1.1918 1.19172 1.19177 1.19182 1.19181 1.19178 1.19178 1.19173 1.1918 1.19168 1.19166 1.19175 1.19175 1.19159 1.19159 1.19166 1.19172 1.19179 1.19171 1.19178 1.19172 1.19181 1.19167 1.19175 1.19184 1.19183 1.19177 1.19182 1.1917 1.19177 1.19172 1.19171 1.19168 1.19178 1.19159 1.19175 1.19171 1.19178 1.19174 1.19179 1.1917 1.19164 1.19176 1.19173 1.19182 1.19183 1.19175 1.19177 1.19178 1.19163 1.19171 1.19178 1.19173 1.19166 1.19162 1.19156 1.1916 1.19174 1.19178 1.19178 1.19175 1.19166 1.19175 1.19166 1.19177 1.19172 1.19182 1.19182 1.19172 1.19178 1.19173 1.19163 1.1917 1.19176 1.19166 1.19159 1.19155 1.19168 1.19186 1.19178 1.19178 1.19178 1.19178 1.19175 1.19169 1.19177 1.19168 1.19176 1.19169 1.19182 1.19183 1.19168 1.19181 1.19177 1.1917 1.19184 1.19166 1.19154 1.19179 1.1918 1.1918 1.19178 1.19178 1.19178 1.19178 1.19178 1.19178 1.19178 1.19178 1.19178 1.19178 1.19178 1.19178 1.19178 1.19178 1.19178 1.19178 1.19178 1.19178 1.19178 1.19178 1.19178 1.19178 1.19178 1.19178 1.19178 1.19178 1.19178 1.19176 1.19176 1.19173 1.19169 1.19178 1.19171 1.19166 1.19167 1.19181 1.19191 1.19162 1.19181 1.19173 1.19174 1.19177 1.19169 1.19178 1.19186 1.19174 1.1918 1.1918 1.19178 1.19178 1.19178 1.19178 1.19178 1.19178 1.19178 1.19178 1.19178 1.19178 1.19178 1.19178 1.19178 1.19178 1.19178 1.19178 1.19178 1.19178 1.19178 1.19178 1.19178 1.19178 1.19178 1.19178 1.19178 1.19178 1.19178 1.19178 1.19178 1.19169 1.19173 1.19176 1.19183 1.19174 1.19177 1.19165 1.19168 1.1919 1.19177 1.19165 1.19166 1.19186 1.1918 1.19172 1.19165 1.19175 1.19182 1.19184 1.19179 1.19176 1.1918 1.19174 1.19178 1.19178 1.19178 1.19178 1.19178 1.19178 1.19178 1.19178 1.19178 1.19178 1.19178 1.19178 1.19178 1.19178 1.19178 1.19178 1.19178 1.19178 1.19178 1.19178 1.19178 1.19178 1.19178 1.19178 1.19178 1.19178 1.19178 1.19178 1.19178 1.19178 1.19178 1.19178 1.19178 1.19178 1.19178 1.19178 1.19178 1.19178 1.19178 1.1918 1.19173 1.19189 1.19173 1.1917 1.19165 1.19176 1.19162 1.19167 1.19171 1.19175 1.1917 1.19158 1.19169 1.19164 1.19173 1.19176 1.19184 1.19174 1.19178 1.19186 1.1918 1.19177 1.19181 1.19178 1.19178 1.19178 1.19178 1.19178 1.19178 1.19178 1.19178 1.19178 1.19178 1.19178 1.19178 1.19178 1.19178 1.19178 1.19178 1.19178 1.19178 1.19178 1.19178 1.19178 1.19178 1.19178 1.19178 1.19178 1.19178 1.19178 1.19178 1.19178 1.19178 1.19178 1.19178 1.19178 1.19178 1.19178 1.19178 1.19178 1.19178 1.19178 1.19178 1.19178 1.19178 1.19178 1.19178 1.19178 1.19178 1.19178 1.19178 1.19177 1.19183 1.19172 1.19173 1.19166 1.19176 1.19162 1.19167 1.19171 1.19174 1.19169 1.19156 1.19152 1.19168 1.19165 1.19173 1.19181 1.19185 1.19169 1.19174 1.19175 1.19175 1.19183 1.19178 1.19177 1.19178 1.19178 1.19178 1.19178 1.19178 1.19178 1.19178 1.19178 1.19178 1.19178 1.19178 1.19178 1.19178 1.19178 1.19178 1.19178 1.19178 1.19178 1.19178 1.19178 1.19178 1.19178 1.19178 1.19178 1.19178 1.19178 1.19178 1.19178 1.19178 1.19178 1.19178 1.19178 1.19178 1.19178 1.19178 1.19178 1.19178 1.19178 1.19178 1.19178 1.19177 1.19178 1.19177 1.19172 1.19166 1.19171 1.19171 1.19172 1.19178 1.19167 1.19171 1.19169 1.19167 1.19168 1.19151 1.19178 1.19167 1.19179 1.19177 1.19167 1.19182 1.19186 1.19171 1.19177 1.19178 1.19178 1.19178 1.19178 1.19178 1.19178 1.19178 1.19178 1.19178 1.19178 1.19178 1.19178 1.19178 1.19178 1.19178 1.19178 1.19178 1.19178 1.19178 1.19178 1.19178 1.19178 1.19178 1.19178 1.19178 1.19178 1.19178 1.19178 1.19178 1.19178 1.19178 1.19178 1.19178 1.19178 1.19178 1.19178 1.19178 1.19178 1.19178 1.19178 1.19178 1.19178 1.19178 1.19178 1.19178 1.19178 1.19178 1.19178 1.19178 1.19178 1.19178 1.19178 1.19177 1.19178 1.19178 1.19173 1.19189 1.19174 1.19178 1.19173 1.19169 1.19175 1.19179 1.19176 1.19168 1.1917 1.19173 1.19153 1.19176 1.19175 1.19177 1.19172 1.19165 1.1917 1.19179 1.19176 1.19175 1.1918 1.19178 1.19178 1.19178 1.19178 1.19178 1.19178 1.19178 1.19178 1.19178 1.19178 1.19178 1.19178 1.19178 1.19178 1.19178 1.19178 1.19178 1.19178 1.19178 1.19178 1.19178 1.19178 1.19178 1.19178 1.19178 1.19178 1.19178 1.19178 1.19178 1.19178 1.19178 1.19178 1.19178 1.19178 1.19178 1.19178 1.19178 1.19178 1.19178 1.19178 1.19178 1.19178 1.19178 1.19178 1.19173 1.19161 1.19178 1.19174 1.19175 1.19175 1.19174 1.19175 1.19183 1.19171 1.19176 1.19176 1.19183 1.19162 1.19168 1.19168 1.19178 1.19169 1.19176 1.19168 1.19183 1.19176 1.19178 1.19178 1.19178 1.19178 1.19178 1.19178 1.19178 1.19178 1.19178 1.19178 1.19178 1.19178 1.19178 1.19178 1.19178 1.19178 1.19178 1.19178 1.19178 1.19178 1.19178 1.19178 1.19178 1.19178 1.19178 1.19178 1.19178 1.19178 1.19178 1.19178 1.19178 1.19178 1.19178 1.19178 1.19178 1.19178 1.19178 1.19178 1.19178 1.19178 1.19178 1.19178 1.19181 1.19177 1.19168 1.19184 1.19166 1.19175 1.19172 1.1917 1.19175 1.19179 1.19178 1.19177 1.19172 1.19178 1.1917 1.19168 1.19178 1.19185 1.19172 1.19178 1.19178 1.19178 1.19178 1.19178 1.19178 1.19178 1.19178 1.19178 1.19178 1.19178 1.19178 1.19178 1.19178 1.19178 1.19178 1.19178 1.19178 1.19178 1.19178 1.19178 1.19178 1.19178 1.19178 1.19178 1.19178 1.19178 1.19178 1.19178 1.19178 1.19178 1.19178 1.19178 1.19178 1.19178 1.19178 1.19178 1.19178 1.19178 1.19178 1.19178 1.19178 1.19178 1.19175 1.19172 1.19178 1.1919 1.19177 1.19167 1.1918 1.19177 1.19177 1.19179 1.1918 1.19179 1.19178 1.1917 1.19174 1.1917 1.19179 1.19173 1.19178 1.19178 1.19178 1.19178 1.19178 1.19178 1.19178 1.19178 1.19178 1.19178 1.19178 1.19178 1.19178 1.19178 1.19178 1.19178 1.19178 1.19178 1.19178 1.19178 1.19178 1.19178 1.19178 1.19178 1.19178 1.19178 1.19178 1.19178 1.19178 1.19178 1.19178 1.19178 1.19178 1.19178 1.19178 1.19178 1.19178 1.19178 1.19178 1.19178 1.19178 1.19178 1.19178 1.19178 1.19178 1.19178 1.19177 1.19176 1.19179 1.19173 1.19176 1.19181 1.19187 1.19176 1.19174 1.19179 1.19177 1.19171 1.19176 1.19178 1.19166 1.19179 1.19173 1.19181 1.19179 1.19178 1.19178 1.19178 1.19178 1.19178 1.19178 1.19178 1.19178 1.19178 1.19178 1.19178 1.19178 1.19178 1.19178 1.19178 1.19178 1.19178 1.19178 1.19178 1.19178 1.19178 1.19178 1.19178 1.19178 1.19178 1.19178 1.19178 1.19178 1.19178 1.19178 1.19178 1.19178 1.19177 1.19176 1.19178 1.19178 1.19176 1.19176 1.19176 1.19176 1.19179 1.19174 1.19177 1.19169 1.19176 1.19176 1.1917 1.19176 1.19173 1.19175 1.19177 1.19177 1.19177 1.19178 1.19178 1.19178 1.19178 1.19178 1.19178 1.19178 1.19178 1.19178 1.19178 1.19178 1.19178 1.19178 1.19178 1.19178 1.19178 1.19178 1.19178 1.19178 1.19178 1.19178 1.19178 1.19178 1.19177 1.19176 1.19178 1.19176 1.19174 1.19179 1.19174 1.19176 1.19176 1.19177 1.19172 1.19175 1.19171 1.19172 1.19176 1.19172 1.19177 1.19175 1.19173 1.19171 1.19178 1.19178 1.19178 1.19178 1.19178 1.19178 1.19178 1.19178 1.19178 1.19178 1.19178 1.19178 1.19178 1.19178 1.19178 1.19178 1.19178 1.19178 1.19178 1.19178 1.19178 1.19178 1.19178 1.19178 1.19178 1.19178 1.19178 1.19175 1.19176 1.19175 1.19173 1.19179 1.19173 1.19175 1.19177 1.19172 1.1917 1.1917 1.1917 1.19178 1.19168 1.19171 1.19171 1.19177 1.19178 1.19178 1.19177 1.19171 1.19178 1.19178 1.19178 1.19178 1.19178 1.19178 1.19178 1.19178 1.19178 1.19178 1.19178 1.19178 1.19178 1.19178 1.19178 1.19178 1.19179 1.19171 1.19174 1.19172 1.19177 1.19173 1.19174 1.19175 1.19171 1.19172 1.19173 1.19179 1.19166 1.1918 1.19178 1.19177 1.19177 1.19178 1.19174 1.19178 1.19178 1.19178 1.19178 1.19178 1.19178 1.19178 1.19178 1.19178 1.19178 1.19178 1.19178 1.19178 1.19178 1.19178 1.19178 1.19178 1.19178 1.19178 1.19176 1.19175 1.19176 1.19172 1.19178 1.19178 1.19178 1.19177 1.19173 1.19175 1.1917 1.19171 1.19173 1.1917 1.19176 1.19177 1.19164 1.19178 1.19171 1.19173 1.19178 1.19177 1.19176 1.19178 1.19178 1.19178 1.19178 1.19178 1.19178 1.19178 1.19178 1.19178 1.19178 1.19178 1.19178 1.19178 1.19177 1.19178 1.19175 1.19174 1.19177 1.19178 1.19177 1.19173 1.19177 1.19178 1.19174 1.19179 1.19172 1.19176 1.19177 1.19171 1.19178 1.19172 1.19178 1.19176 1.19178 1.19178 1.19178 1.19178 1.19178 1.19178 1.19178 1.19178 1.19178 1.19176 1.19177 1.19176 1.19178 1.19178 1.19178 1.19178 1.19174 1.19179 1.19177 1.19173 1.19177 1.19177 1.19171 1.19178 1.19177 1.19178 1.19178 1.19171 1.19172 1.19178 1.19178 1.19178 1.19178 1.19178 1.19178 1.19178 1.19177 1.19177 1.19178 1.19179 1.19177 1.19175 1.19178 1.19172 1.19176 1.19178 1.19176 1.19178 1.19178 1.19177 1.19177 1.19177 1.19178 1.19177 1.1917 1.19177 1.19178 1.19178 1.19178 1.19178 1.19178 1.19178 1.19178 1.19178 1.19178 1.19178 1.19178 1.19178 1.19178 1.19178 1.19178 1.19177 1.19177 1.19176 1.19175 1.19178 1.19174 1.19178 1.19176 1.19177 1.19178 1.19178 1.19178 1.19178 1.19178 1.19178 1.19178 1.19178 1.19178 1.19178 1.19178 1.19178 1.19178 1.19178 1.19178 1.19178 1.19178 1.19178 1.19178 1.19178 0.00508707 0.0169777 0.0182283 0.0258475 0.0312376 0.0196649 0.0196182 0.0184428 0.0228545 0.0412183 0.0376551 0.0515701 0.0562307 0.0583069 0.0635303 0.0455991 0.0400973 0.0445896 0.0502524 0.0561578 0.046217 0.0499974 0.0486881 0.0378869 0.013221 0.00957594 0.0229185 0.0130082 0.0364001 0.0360156 0.0310559 0.0193743 0.0516304 0.0667661 0.0665888 0.0620491 0.0549427 0.060506 0.0363051 0.0222779 0.125986 0.161718 0.0747583 0.118962 0.195554 0.12623 0.65107 0.366699 0.174289 0.038809 0.0869229 0.0295063 0.0215156 0.0159819 0.273872 1.19504 1.179 0.406088 0.394866 0.308159 0.31223 0.29138 0.225459 0.044612 0.0502915 0.0606033 0.0162735 0.0364361 0.0376988 0.0735477 0.074715 0.0708789 0.0590833 0.0389236 0.0362349 0.0219246 0.014218 0.0175314 0.0232002 0.0236631 0.0241303 0.0257812 0.0279662 0.0326281 0.0330527 0.0373725 0.0371101 0.0365933 0.0353169 0.0344806 0.0373602 0.0343414 0.0371476 0.0336221 0.0370929 0.0311531 0.0300075 0.0297724 0.0265928 0.0249338 0.0199149 0.0149989 0.00820065 0.00365978 0.00291626 0.0165204 0.00278494 0.0124469 0.00641583 0.0167551 0.0138221 0.012091 0.0108811 0.0137141 0.00834317 0.0100706 0.011937 0.0088393 0.0169287 0.010556 0.00849131 0.00915351 0.0124319 0.0236573 0.0426818 0.0302228 0.0467173 0.0242518 0.0289229 0.0380005 0.0320212 0.0417591 0.0378599 0.0485334 0.0437386 0.0423046 0.0343671 0.041009 0.0421922 0.0406165 0.0402107 0.0331938 0.0425282 0.0337264 0.0329119 0.0409693 0.024375 0.0355239 0.0198641 0.0361148 0.0153827 0.0269913 0.0216679 0.0138364 0.00877154 0.0107971 0.0231273 0.0289713 0.0283266 0.0364892 0.0544984 0.0890147 0.051944 0.0563481 0.0662946 0.0560181 0.076472 0.0674363 0.0531438 0.112569 0.120013 0.155644 0.277001 0.164416 0.0866494 0.284125 0.12587 0.482768 1.06659 0.42502 0.344605 0.243822 0.511965 0.149086 0.188549 0.10954 0.214462 0.0649112 0.0505309 0.0728486 0.651983 0.704782 0.339175 0.275443 0.0555123 0.144104 0.115107 0.047364 0.0625361 0.0812289 0.0379832 0.135566 0.0209942 0.095444 0.0858681 0.134026 0.0552808 0.0636961 0.058315 0.0489264 0.0692418 0.0685679 0.0551203 0.0472317 0.0343054 0.0247606 0.0199373 0.0178995 0.0262303 0.0220954 0.0211698 0.0233655 0.0249856 0.026427 0.0275476 0.0290894 0.0281934 0.0300492 0.03133 0.0332435 0.0299346 0.0341858 0.0320989 0.0365625 0.0366148 0.0343648 0.0370729 0.0398251 0.0326665 0.0344749 0.0347337 0.0381689 0.0357937 0.0412505 0.0443349 0.0428288 0.0465685 0.0444349 0.0418006 0.0411219 0.0406544 0.0375098 0.0344151 0.0349656 0.0298855 0.0233917 0.026461 0.0142148 0.0201593 0.0159514 0.0116903 0.0158902 0.00554464 0.000981439 0.00908535 0.00315447 0.00560338 0.0131356 0.00879527 0.0141944 0.0119679 0.012075 0.0119318 0.0160938 0.0137231 0.00722716 0.011164 0.00311685 0.0160651 0.0143602 0.00962714 0.0283911 0.0220587 0.0298144 0.017877 0.0333423 0.0346256 0.0230321 0.0206888 0.035752 0.0141634 0.039838 0.0389575 0.0449269 0.0428653 0.0475195 0.0412203 0.042659 0.0335185 0.0285663 0.0390743 0.0430484 0.0508243 0.0454143 0.040983 0.0265874 0.047927 0.0482204 0.0412029 0.0484546 0.0440677 0.0347622 0.0336369 0.0380543 0.074241 0.0805607 0.0871086 0.0970974 0.129314 0.0986911 0.0399043 0.0419005 0.192627 0.281219 0.133834 0.203393 0.0966922 0.102769 0.277929 0.0952319 0.0862879 0.182012 0.077465 0.0687533 0.224941 0.665219 0.455307 0.139305 0.3216 0.396688 0.259571 0.0864789 0.0534234 0.119427 0.152931 0.129995 0.111554 0.148747 0.101218 0.0496137 0.0536469 0.0672249 0.0774053 0.0675779 0.0691195 0.0722842 0.0576527 0.0447888 0.0609538 0.0457703 0.0464152 0.0428417 0.0317199 0.0314674 0.0237437 0.0239206 0.0258179 0.0284381 0.0281717 0.0273358 0.0255968 0.0274643 0.0265254 0.0300061 0.0337423 0.0315353 0.0352163 0.0357497 0.03956 0.0407121 0.0393283 0.0384627 0.0415536 0.0362677 0.0375499 0.0382037 0.0387957 0.0381622 0.034398 0.0354394 0.0307938 0.0287541 0.0221756 0.023633 0.0181225 0.014961 0.00862005 0.00985963 0.00757279 0.0100137 0.0213816 0.0239169 0.0194788 0.0203852 0.0152861 0.0105077 0.0107507 0.00928355 0.0197259 0.0193191 0.0266866 0.0216551 0.0273925 0.013677 0.0298123 0.0286423 0.0271131 0.0229653 0.0294373 0.0425568 0.0428573 0.03576 0.0339989 0.0423116 0.0335372 0.0381015 0.0423978 0.0561425 0.0538225 0.0564517 0.0537578 0.0557456 0.0510797 0.0425195 0.0467875 0.0449613 0.0470421 0.0488903 0.0421456 0.0601711 0.0445241 0.092073 0.0962399 0.0963581 0.114577 0.140162 0.139368 0.0711558 0.126402 0.176306 0.19989 0.0759699 0.0788959 0.100548 0.0788805 0.109266 0.123977 0.449759 0.260106 0.428821 0.339079 0.381255 0.340213 0.318066 0.264008 0.201626 0.199529 0.145978 0.125788 0.0839573 0.0705173 0.0662807 0.0602898 0.0540251 0.0692569 0.0625834 0.0613545 0.0518564 0.0490441 0.046076 0.0329466 0.0382639 0.0274288 0.0273045 0.0269523 0.0285935 0.0277459 0.0285344 0.0308917 0.0286577 0.0252544 0.027667 0.024483 0.0254952 0.0250785 0.0248591 0.026603 0.0266198 0.027966 0.0317512 0.0331817 0.0364498 0.0385344 0.0433914 0.0447418 0.0436798 0.0477295 0.0498933 0.0397414 0.0437244 0.0476133 0.0417872 0.0449989 0.0412801 0.034909 0.0297124 0.0297226 0.0324004 0.0324784 0.0248152 0.0285867 0.0204262 0.0167875 0.0185018 0.01257 0.0171061 0.0253556 0.0265667 0.0182609 0.0196227 0.0187592 0.0154918 0.00591584 0.0146489 0.0194732 0.0194893 0.0205807 0.0169084 0.0224477 0.0213327 0.0194511 0.0191529 0.0111087 0.0066016 0.0100071 0.0100888 0.0204029 0.0290115 0.0292432 0.0255006 0.0210627 0.0298922 0.0337116 0.0344044 0.022724 0.0292825 0.0373708 0.0305817 0.0433402 0.0440109 0.0531289 0.053576 0.0437514 0.0432082 0.0375048 0.0382997 0.0370093 0.0500523 0.0732917 0.0872002 0.0927901 0.0958873 0.103836 0.13728 0.134758 0.157455 0.165141 0.152452 0.130337 0.0566117 0.0858669 0.0449723 0.113155 0.0748762 0.108829 0.112098 0.128913 0.293327 0.314531 0.324936 0.293433 0.257797 0.276418 0.27227 0.230058 0.250259 0.200139 0.181603 0.12447 0.098679 0.0852476 0.0680156 0.0516557 0.0603398 0.0748409 0.0758905 0.0711505 0.070274 0.0591861 0.0607302 0.0526232 0.0440291 0.0324263 0.0371398 0.0300667 0.0361027 0.0301383 0.0313967 0.031207 0.0362386 0.0306469 0.0266311 0.0316315 0.0318195 0.0320749 0.0390593 0.0380937 0.0406577 0.0394523 0.0427834 0.0489177 0.0500461 0.0501332 0.0599697 0.0556901 0.0499997 0.0552939 0.0505544 0.0460019 0.0399655 0.0261699 0.038035 0.0375667 0.04504 0.0327913 0.0254784 0.0263089 0.0199286 0.0189799 0.0166021 0.0181648 0.01906 0.0219391 0.0230024 0.0193511 0.0142499 0.0101401 0.0141426 0.0140546 0.0162612 0.0169215 0.0195788 0.0131547 0.00733723 0.00719249 0.016336 0.00819358 0.0179997 0.0382043 0.0291791 0.0367512 0.0389157 0.0368274 0.0360288 0.0214862 0.0209121 0.0326979 0.0289016 0.0294307 0.0314417 0.0353571 0.0358174 0.0363619 0.036262 0.0389334 0.0443962 0.0641383 0.0469149 0.0927662 0.113057 0.120088 0.120869 0.166052 0.233522 0.195234 0.116423 0.106049 0.0996319 0.0740862 0.0694349 0.0622726 0.00187925 0.0152964 0.0984588 0.07185 0.0946028 0.101058 0.0613674 0.275589 0.251262 0.275546 0.231881 0.219131 0.205111 0.16489 0.146891 0.13453 0.105282 0.0678149 0.0609398 0.086823 0.0615826 0.0702569 0.0776236 0.0716326 0.0609242 0.0531439 0.0438493 0.0408122 0.0385595 0.0416736 0.0378631 0.0455929 0.042258 0.0362917 0.0374342 0.0345944 0.0327582 0.0291814 0.0277539 0.0306198 0.026996 0.0382119 0.0464928 0.0474606 0.0554332 0.0494367 0.0579608 0.045853 0.0537899 0.0350109 0.0271484 0.0461508 0.0357846 0.0492011 0.0630118 0.0127035 0.0388058 0.0568534 0.0522575 0.0318319 0.0200826 0.0278352 0.011001 0.0182676 0.0190166 0.0245865 0.02355 0.0172042 0.0121728 0.00959989 0.00915712 0.0134687 0.0115723 0.0153227 0.0110608 0.0161384 0.0156531 0.0119529 0.0169291 0.0170515 0.00782203 0.0177564 0.00812794 0.0129521 0.0221468 0.0281764 0.0327251 0.0296889 0.0260359 0.0192114 0.0230925 0.0151367 0.0218605 0.0121234 0.0158549 0.0293158 0.0173862 0.0326421 0.0337336 0.0284571 0.0371564 0.0399841 0.0393798 0.0382674 0.0483638 0.0591664 0.0941953 0.112624 0.0383316 0.177027 0.0654459 0.0666746 0.042835 0.0667471 0.107439 0.071387 0.248094 0.223663 0.221125 0.215554 0.210979 0.192263 0.213236 0.187663 0.186649 0.172215 0.1436 0.124032 0.103699 0.0901293 0.0882336 0.0961243 0.0802084 0.0737118 0.0672879 0.0610141 0.0530559 0.0618442 0.0474761 0.0416056 0.0439909 0.0506929 0.0485485 0.0499428 0.0499687 0.0472901 0.0515468 0.0478766 0.0173395 0.02111 0.0237227 0.0250697 0.0413579 0.0440847 0.0492984 0.0502983 0.0525398 0.0400703 0.0310652 0.0391476 0.017206 0.0180594 0.0299154 0.0512271 0.0291951 0.0707621 0.0841726 0.0678512 0.0583336 0.0641563 0.0440184 0.0349109 0.0193742 0.0160241 0.0178254 0.022609 0.0218836 0.0256009 0.0138253 0.0115604 0.00794338 0.00537961 0.0116975 0.0117171 0.0151825 0.0143371 0.007518 0.0103521 0.00791432 0.016392 0.00783972 0.0175522 0.0185039 0.015446 0.0136621 0.0162768 0.0147577 0.013383 0.0213481 0.0241732 0.0275325 0.0253164 0.0182184 0.0202572 0.011294 0.00616378 0.0159012 0.0125098 0.00902881 0.0129391 0.0375199 0.0171803 0.0322746 0.0332699 0.0233914 0.0403394 0.0407068 0.0216261 0.0421383 0.0177924 0.0354812 0.106411 0.0567874 0.0290116 0.0120755 0.0868719 0.114672 0.100307 0.0871599 0.0882832 0.214487 0.191699 0.175067 0.184186 0.18013 0.153751 0.154241 0.152441 0.131415 0.124406 0.0936713 0.0934064 0.0855578 0.0835959 0.072636 0.0660947 0.0615112 0.0555707 0.0520101 0.0515537 0.0509531 0.0529585 0.0524902 0.0518813 0.0552081 0.0487833 0.0391452 0.0276204 0.0367149 0.039876 0.0382386 0.0501579 0.0443095 0.0236236 0.0453204 0.0258906 0.00907883 0.0193614 0.0121186 0.0341487 0.0617342 0.081464 0.0860982 0.0599733 0.0439278 0.0544474 0.0310851 0.0416205 0.0294832 0.0211811 0.0147731 0.0206643 0.0149412 0.0118462 0.0219009 0.0155271 0.0133013 0.0140797 0.0126394 0.0132469 0.0108179 0.0208472 0.0104837 0.0201865 0.0197658 0.0138903 0.0111213 0.0194989 0.0137979 0.0164902 0.0152065 0.0199414 0.0145884 0.014143 0.00686303 0.0169409 0.011601 0.0203073 0.00597615 0.022495 0.0229879 0.0145746 0.00954945 0.00226375 0.00398112 0.00729319 0.0178066 0.0422713 0.0462378 0.0310977 0.0149988 0.022824 0.0207953 0.0178406 0.0288584 0.0237882 0.0219108 0.0209964 0.0322749 0.0167971 0.0140729 0.0679881 0.0886681 0.0571341 0.11612 0.0998154 0.0739002 0.0729752 0.0833352 0.0830439 0.143228 0.144121 0.116835 0.139217 0.105377 0.138807 0.136315 0.12788 0.12242 0.109438 0.0721329 0.0779401 0.0697303 0.0748641 0.0708606 0.0597563 0.0535283 0.0586808 0.054993 0.0532589 0.0529832 0.0545709 0.0583894 0.0544367 0.059955 0.0531625 0.0437092 0.0386998 0.0469497 0.0349 0.0263488 0.0333663 0.0267159 0.0332608 0.0791854 0.0314714 0.0471909 0.034669 0.0237952 0.0409061 0.0805459 0.0789405 0.046787 0.0241452 0.0233209 0.0146503 0.0153272 0.00410669 0.00477841 0.0114703 0.0166191 0.0140281 0.0144779 0.0145494 0.0179514 0.0187912 0.0112727 0.016201 0.0111151 0.0146211 0.019623 0.018509 0.0150865 0.0184993 0.0249929 0.017309 0.0142962 0.0177904 0.0226126 0.014976 0.014004 0.0129885 0.0172561 0.0150807 0.0157662 0.00607997 0.00636701 0.0284208 0.0257649 0.0483984 0.0420738 0.024295 0.0155968 0.0298359 0.0289294 0.0446253 0.0625333 0.0531395 0.0583272 0.0881256 0.0335852 0.0496046 0.0726067 0.0944511 0.112364 0.120905 0.109323 0.0847211 0.0515174 0.0888593 0.0955573 0.114179 0.110768 0.0883098 0.0744531 0.0683578 0.0705493 0.0610829 0.0501572 0.0545138 0.0587208 0.0578602 0.0690331 0.0539419 0.0750912 0.0655857 0.065306 0.059827 0.0568985 0.0593873 0.055675 0.0469469 0.0445575 0.0399461 0.0468366 0.0650926 0.0459667 0.127608 0.0955945 0.0699692 0.0759572 0.0938063 0.0260051 0.0111685 0.0243422 0.0275083 0.0120171 0.00903464 0.00387615 0.00515497 0.0098036 0.0171414 0.0136861 0.0199477 0.0141514 0.0140763 0.0169716 0.0169939 0.00890328 0.0120805 0.0158763 0.0261901 0.0150915 0.0226879 0.0275812 0.0208716 0.0205731 0.0146299 0.0218884 0.0229743 0.0248104 0.0229969 0.0266843 0.0331162 0.0187454 0.012323 0.0209836 0.0184111 0.0277776 0.0214671 0.0276629 0.0325744 0.0222239 0.0163764 0.0118745 0.0112529 0.0203464 0.0331792 0.0377243 0.0830467 0.0683809 0.0616024 0.0688708 0.0505333 0.0243212 0.037125 0.0671908 0.0806825 0.105937 0.0834829 0.111004 0.0851846 0.125265 0.0927084 0.0622291 0.074801 0.086443 0.125847 0.0969081 0.0739578 0.0602583 0.0607744 0.0584556 0.0531272 0.0465803 0.0706172 0.0743852 0.0807749 0.0775018 0.0785865 0.0773 0.0612858 0.0742399 0.0713331 0.0673722 0.0699267 0.0456203 0.0508827 0.0855475 0.071824 0.106953 0.0925604 0.108459 0.112197 0.0576651 0.177557 0.0827301 0.116472 0.0563301 0.0584964 0.030965 0.0297797 0.0119107 0.0196153 0.00321475 0.0109164 0.0241989 0.0267052 0.0115158 0.0156533 0.0193658 0.0147903 0.0213099 0.00498901 0.0089953 0.0319977 0.00695002 0.026444 0.0300753 0.0297701 0.0219413 0.0300989 0.0304075 0.0269257 0.0270723 0.0298432 0.0227622 0.00625811 0.0113204 0.0342201 0.0299039 0.0223182 0.0473011 0.0379482 0.0391022 0.0301265 0.0296994 0.047392 0.0342667 0.0203576 0.0152046 0.0308374 0.0450189 0.0591267 0.0549924 0.058477 0.103003 0.0772671 0.138432 0.0487598 0.0216355 0.0365233 0.074858 0.0855338 0.0470086 0.0696955 0.085217 0.0609044 0.0717318 0.0657082 0.0724791 0.0753208 0.0880971 0.0468992 0.0391432 0.0859032 0.0656387 0.0539796 0.0442899 0.0556257 0.068576 0.0576958 0.0794815 0.0758112 0.0747896 0.0750707 0.0814788 0.0762512 0.0718701 0.0724919 0.0929006 0.0766803 0.0965926 0.0899663 0.0865336 0.124611 0.069559 0.0496267 0.110747 0.118252 0.386719 0.317405 0.319162 0.234281 0.141697 0.0156291 0.00935417 0.00440502 0.0115145 0.0072571 0.0186895 0.0228696 0.0367459 0.018687 0.0543979 0.0550591 0.0484689 0.00616071 0.0494518 0.0793276 0.0805993 0.0756794 0.0572123 0.0908467 0.0827669 0.0643652 0.0171464 0.00135998 0.0123593 0.0131551 
SCALARS Stress float 1
LOOKUP_TABLE default
-12557300000.0 -12557300000.0 -12554600000.0 -12562500000.0 -12549700000.0 -12573500000.0 -12567200000.0 -12567000000.0 -12552000000.0 -12555100000.0 -12549700000.0 -12552500000.0 -12549700000.0 -12549700000.0 -12553600000.0 -12549700000.0 -12549700000.0 -12550300000.0 -12549700000.0 -12550300000.0 -12551600000.0 -12558400000.0 -12562400000.0 -12557100000.0 -12554700000.0 -12553000000.0 -12551400000.0 -12550100000.0 -12549700000.0 -12549700000.0 -12549700000.0 -12551500000.0 -12553900000.0 -12554800000.0 -12562500000.0 -12558200000.0 -12554900000.0 -12551100000.0 -12554000000.0 -12554000000.0 -12550000000.0 -12556900000.0 -12549900000.0 -12550200000.0 -12554900000.0 -12570100000.0 -12567400000.0 -12563300000.0 -12552200000.0 -12555800000.0 -12570100000.0 -12571200000.0 -12550700000.0 -12551100000.0 -12554400000.0 -12569200000.0 -12554100000.0 -12580300000.0 -12562600000.0 -12555500000.0 -12554800000.0 -12553400000.0 -12565000000.0 -12577300000.0 -12561300000.0 -12590500000.0 -12621200000.0 -12600600000.0 -12611200000.0 -12605200000.0 -12599700000.0 -12599200000.0 -12588700000.0 -12557200000.0 -12553700000.0 -12549700000.0 -12554400000.0 -12565000000.0 -12567000000.0 -12557900000.0 -12553600000.0 -12552700000.0 -12560900000.0 -12565600000.0 -12610400000.0 -12601300000.0 -12600400000.0 -12569500000.0 -12550100000.0 -12563800000.0 -12552700000.0 -12662000000.0 -12623300000.0 -12649300000.0 -12671500000.0 -12726400000.0 -12752400000.0 -12707700000.0 -12577800000.0 -12567500000.0 -12567700000.0 -12549700000.0 -12559900000.0 -12550200000.0 -12549700000.0 -12564500000.0 -12549700000.0 -12549700000.0 -12553100000.0 -12549700000.0 -12557000000.0 -12549700000.0 -12581800000.0 -12549700000.0 -12549700000.0 -12549700000.0 -12551100000.0 -12549900000.0 -12549700000.0 -12550200000.0 -12552200000.0 -12559300000.0 -12561800000.0 -12577600000.0 -12577100000.0 -12600300000.0 -12595100000.0 -12567200000.0 -12561700000.0 -12549800000.0 -12554700000.0 -12564500000.0 -12573100000.0 -12568000000.0 -12567000000.0 -12554100000.0 -12562900000.0 -12596900000.0 -12555200000.0 -12579600000.0 -12568000000.0 -12575000000.0 -12563200000.0 -12552600000.0 -12552500000.0 -12579300000.0 -12571900000.0 -12631800000.0 -12550600000.0 -12549800000.0 -12549700000.0 -12554600000.0 -12561100000.0 -12560600000.0 -12602500000.0 -12556400000.0 -12562900000.0 -12549700000.0 -12610100000.0 -12565200000.0 -12549700000.0 -12549700000.0 -12552800000.0 -12556800000.0 -12570000000.0 -12561000000.0 -12557700000.0 -12550800000.0 -12603300000.0 -12623700000.0 -12640200000.0 -12629500000.0 -12678300000.0 -12556700000.0 -12563100000.0 -12558000000.0 -12718400000.0 -12550800000.0 -12589800000.0 -12585900000.0 -12568400000.0 -12570300000.0 -12611300000.0 -12620500000.0 -12549700000.0 -12564000000.0 -12551600000.0 -12584400000.0 -12723600000.0 -12612900000.0 -12603400000.0 -12601900000.0 -12649200000.0 -12582000000.0 -12642100000.0 -12580400000.0 -12776300000.0 -12714100000.0 -12715500000.0 -12721500000.0 -12649600000.0 -12555000000.0 -12711700000.0 -12605000000.0 -12632400000.0 -12600700000.0 -12603200000.0 -12592200000.0 -12555600000.0 -12580600000.0 -12549700000.0 -12550100000.0 -12557000000.0 -12549700000.0 -12571900000.0 -12549700000.0 -12591600000.0 -12550600000.0 -12555200000.0 -12549700000.0 -12557700000.0 -12562600000.0 -12569100000.0 -12583900000.0 -12621300000.0 -12644400000.0 -12566800000.0 -12627100000.0 -12612900000.0 -12594700000.0 -12617900000.0 -12550100000.0 -12552300000.0 -12597200000.0 -12549700000.0 -12570700000.0 -12617900000.0 -12557400000.0 -12569000000.0 -12552800000.0 -12551400000.0 -12635000000.0 -12566100000.0 -12600200000.0 -12559900000.0 -12560000000.0 -12604500000.0 -12751700000.0 -12615300000.0 -12601200000.0 -12588600000.0 -12635200000.0 -12642800000.0 -12787600000.0 -12723700000.0 -12731200000.0 -12729300000.0 -12605500000.0 -12636000000.0 -12658100000.0 -12662800000.0 -12633900000.0 -12656000000.0 -12621700000.0 -12629100000.0 -12579700000.0 -12668200000.0 -12887500000.0 -13026900000.0 -12599700000.0 -12580800000.0 -12573800000.0 -12941200000.0 -12782300000.0 -12645700000.0 -12648800000.0 -12769200000.0 -12667000000.0 -12642300000.0 -12600500000.0 -12733900000.0 -12554300000.0 -12578500000.0 -12561500000.0 -12615800000.0 -12569000000.0 -12666500000.0 -12673300000.0 -12648600000.0 -12657300000.0 -12655500000.0 -12549700000.0 -12549700000.0 -12829400000.0 -12564100000.0 -12635600000.0 -12811600000.0 -12696000000.0 -12751500000.0 -12572300000.0 -12627200000.0 -12549700000.0 -12565400000.0 -12609000000.0 -12582200000.0 -12585300000.0 -12596000000.0 -12573300000.0 -12581700000.0 -12572500000.0 -12617500000.0 -12624400000.0 -12572100000.0 -12564500000.0 -12559700000.0 -12549700000.0 -12557400000.0 -12558900000.0 -12550700000.0 -12553400000.0 -12556300000.0 -12585100000.0 -12551700000.0 -12569100000.0 -12616900000.0 -12609600000.0 -12585200000.0 -12718300000.0 -12651200000.0 -12725100000.0 -12702800000.0 -12709200000.0 -12764100000.0 -12679700000.0 -12647100000.0 -12625400000.0 -12725300000.0 -12573800000.0 -12555600000.0 -12580700000.0 -12649500000.0 -12554100000.0 -12627400000.0 -12583100000.0 -12690000000.0 -12941000000.0 -12617700000.0 -12590700000.0 -12628900000.0 -12584900000.0 -12770200000.0 -12549700000.0 -12549700000.0 -12654600000.0 -12549700000.0 -12763600000.0 -12761200000.0 -12703400000.0 -12642000000.0 -12872000000.0 -12849200000.0 -12681500000.0 -12825800000.0 -12936700000.0 -12613100000.0 -13123000000.0 -13082100000.0 -12600700000.0 -13140600000.0 -12560600000.0 -12555100000.0 -12741400000.0 -12752600000.0 -12754300000.0 -12639700000.0 -12712000000.0 -12813400000.0 -12664200000.0 -12623900000.0 -12591000000.0 -12781000000.0 -12630300000.0 -12728400000.0 -12814600000.0 -12836000000.0 -12949600000.0 -12659200000.0 -12632600000.0 -12559500000.0 -12558800000.0 -13017400000.0 -12582300000.0 -12729200000.0 -12981000000.0 -12625600000.0 -12624600000.0 -12598600000.0 -12735900000.0 -12652500000.0 -12674300000.0 -12563200000.0 -12664700000.0 -12629500000.0 -12573600000.0 -12608200000.0 -12565400000.0 -12569700000.0 -12551800000.0 -12601600000.0 -12550600000.0 -12586400000.0 -12607300000.0 -12636600000.0 -12589200000.0 -12571200000.0 -12576200000.0 -12565300000.0 -12551700000.0 -12581500000.0 -12564600000.0 -12673900000.0 -12600000000.0 -12636500000.0 -12594600000.0 -12566300000.0 -12744100000.0 -12694400000.0 -12797500000.0 -12571000000.0 -12660400000.0 -12584300000.0 -12578300000.0 -12764400000.0 -12705500000.0 -12574100000.0 -12628300000.0 -12919000000.0 -12622400000.0 -12587000000.0 -12691400000.0 -12572000000.0 -12688700000.0 -12717000000.0 -12589800000.0 -12707200000.0 -12598900000.0 -12715200000.0 -12577700000.0 -12549700000.0 -12553800000.0 -12566700000.0 -12713000000.0 -13043800000.0 -12573400000.0 -12557100000.0 -12688200000.0 -12788100000.0 -12769300000.0 -12930100000.0 -12856900000.0 -12765100000.0 -12810300000.0 -12590200000.0 -12763400000.0 -13036900000.0 -12756100000.0 -13099900000.0 -12915800000.0 -12560400000.0 -12550700000.0 -12821100000.0 -12788000000.0 -12559700000.0 -13089900000.0 -13131600000.0 -13179200000.0 -13070700000.0 -12865300000.0 -12905400000.0 -12831300000.0 -12572200000.0 -12621500000.0 -12928500000.0 -12563300000.0 -12766000000.0 -12703000000.0 -12622600000.0 -12929500000.0 -12872000000.0 -12574600000.0 -13031200000.0 -12663700000.0 -12811800000.0 -12816400000.0 -12788500000.0 -12744600000.0 -12566600000.0 -12655000000.0 -12701500000.0 -12567700000.0 -12563500000.0 -12664300000.0 -12798200000.0 -12799600000.0 -12784700000.0 -12780300000.0 -12766200000.0 -12738100000.0 -12856600000.0 -12798500000.0 -12789700000.0 -12827500000.0 -12863400000.0 -12735200000.0 -12740900000.0 -12682000000.0 -12719400000.0 -12550000000.0 -12567500000.0 -12597200000.0 -12553100000.0 -12875000000.0 -12616500000.0 -12681800000.0 -12551200000.0 -12585000000.0 -12551700000.0 -12736300000.0 -12701500000.0 -12729900000.0 -12853600000.0 -12893600000.0 -12911400000.0 -13129800000.0 -12887400000.0 -12813000000.0 -13047200000.0 -13178200000.0 -12824800000.0 -13027800000.0 -12838500000.0 -12868300000.0 -12735000000.0 -12825900000.0 -12906100000.0 -12976900000.0 -13516500000.0 -12975200000.0 -13012500000.0 -12565200000.0 -12712300000.0 -12604600000.0 -12712300000.0 -12835000000.0 -12662900000.0 -12884400000.0 -12902400000.0 -12911300000.0 -12949300000.0 -12696400000.0 -13036900000.0 -12624400000.0 -12816200000.0 -12765200000.0 -12614200000.0 -12948900000.0 -12922600000.0 -12825100000.0 -13464400000.0 -13194300000.0 -12670600000.0 -12676000000.0 -12968200000.0 -12755800000.0 -12718800000.0 -12744100000.0 -12549700000.0 -12692900000.0 -12631700000.0 -12555400000.0 -13063600000.0 -12822000000.0 -12727600000.0 -13302700000.0 -12559800000.0 -12918400000.0 -13402200000.0 -13044800000.0 -12823600000.0 -12767300000.0 -12822000000.0 -12634800000.0 -12594000000.0 -12669400000.0 -12585800000.0 -12581000000.0 -12834100000.0 -12631800000.0 -12550200000.0 -12553600000.0 -12650900000.0 -12640900000.0 -12698500000.0 -12607800000.0 -12574400000.0 -12627800000.0 -12551100000.0 -12557800000.0 -12696500000.0 -12707900000.0 -12747900000.0 -12735900000.0 -12857900000.0 -12815200000.0 -12669100000.0 -12701100000.0 -12974300000.0 -12586400000.0 -12630300000.0 -12566800000.0 -12597800000.0 -12628900000.0 -12660700000.0 -12683800000.0 -12566300000.0 -12616600000.0 -12621700000.0 -12791400000.0 -12786700000.0 -12579000000.0 -12637100000.0 -12577100000.0 -12884500000.0 -12735200000.0 -12571000000.0 -12864200000.0 -12775600000.0 -13191900000.0 -12750800000.0 -12643700000.0 -12931500000.0 -12735500000.0 -12590600000.0 -12767800000.0 -12704800000.0 -12549700000.0 -12555800000.0 -12630200000.0 -13306500000.0 -12722100000.0 -12704700000.0 -12892000000.0 -13205300000.0 -13263100000.0 -13430100000.0 -13234700000.0 -13148800000.0 -13120300000.0 -13575400000.0 -12780700000.0 -12723800000.0 -13409400000.0 -13758700000.0 -13145900000.0 -13063100000.0 -13552500000.0 -12712400000.0 -12720200000.0 -12813500000.0 -12831900000.0 -12773600000.0 -12759200000.0 -12843000000.0 -12604200000.0 -12780600000.0 -12549700000.0 -12605400000.0 -13042600000.0 -12572000000.0 -12571100000.0 -12786100000.0 -12556000000.0 -12804900000.0 -12549700000.0 -13796100000.0 -13713100000.0 -12812000000.0 -13672200000.0 -13200200000.0 -13169500000.0 -13060100000.0 -12997800000.0 -13100100000.0 -13183800000.0 -12908400000.0 -12941300000.0 -12905400000.0 -12838600000.0 -12820200000.0 -12764200000.0 -12681800000.0 -12593100000.0 -12747800000.0 -12592600000.0 -12649600000.0 -12675500000.0 -12665100000.0 -12689500000.0 -12550700000.0 -12613200000.0 -12565600000.0 -12642300000.0 -12773500000.0 -12719900000.0 -12790700000.0 -12884800000.0 -12619000000.0 -12589800000.0 -12622500000.0 -12684400000.0 -12560000000.0 -12655600000.0 -12584800000.0 -12711100000.0 -12601700000.0 -12680200000.0 -12641900000.0 -12718500000.0 -12621700000.0 -12718500000.0 -12618900000.0 -12688600000.0 -12741900000.0 -12782000000.0 -13281500000.0 -13175600000.0 -13539200000.0 -12792900000.0 -12801400000.0 -12732300000.0 -12596200000.0 -12754200000.0 -12592800000.0 -12549700000.0 -12652900000.0 -12619000000.0 -13560800000.0 -12673900000.0 -12737900000.0 -13266200000.0 -12740600000.0 -12556000000.0 -12748500000.0 -12848000000.0 -13335200000.0 -13097800000.0 -13369700000.0 -13448200000.0 -13584900000.0 -12931000000.0 -13684300000.0 -12826700000.0 -13187400000.0 -13052100000.0 -13985700000.0 -12557600000.0 -12570500000.0 -12807100000.0 -13125600000.0 -12722900000.0 -13007700000.0 -12821500000.0 -13137700000.0 -12550400000.0 -12583100000.0 -12552200000.0 -12729000000.0 -12787000000.0 -12549700000.0 -12549700000.0 -13725700000.0 -13477900000.0 -12817000000.0 -12599700000.0 -12590900000.0 -13159400000.0 -12629100000.0 -13129000000.0 -12549700000.0 -12787100000.0 -12787600000.0 -12564700000.0 -12575500000.0 -12620800000.0 -12592800000.0 -12591900000.0 -12666400000.0 -12676500000.0 -12745200000.0 -12557900000.0 -12705600000.0 -12673900000.0 -12573900000.0 -12620300000.0 -12622100000.0 -12746200000.0 -12585200000.0 -12717700000.0 -12720000000.0 -12792500000.0 -12917900000.0 -12754000000.0 -12827400000.0 -12601200000.0 -12748100000.0 -12773800000.0 -12624300000.0 -13044700000.0 -13013800000.0 -12946400000.0 -12882800000.0 -12621600000.0 -12961300000.0 -13036400000.0 -12574000000.0 -13066500000.0 -12931400000.0 -13053100000.0 -13368000000.0 -13152400000.0 -12922200000.0 -12933700000.0 -13325300000.0 -13276200000.0 -13223500000.0 -13155300000.0 -12568800000.0 -12689800000.0 -13042700000.0 -12948900000.0 -12969600000.0 -13123100000.0 -13082600000.0 -12561800000.0 -12630500000.0 -12819400000.0 -12549700000.0 -12854400000.0 -12749500000.0 -12553500000.0 -12936200000.0 -12840300000.0 -12939300000.0 -12664800000.0 -13021700000.0 -12871500000.0 -12549700000.0 -12914400000.0 -13144500000.0 -12756800000.0 -13014700000.0 -13133100000.0 -12705200000.0 -13096600000.0 -12803800000.0 -12904700000.0 -14129200000.0 -12549700000.0 -13055500000.0 -13122300000.0 -12759500000.0 -12552800000.0 -12576400000.0 -13121100000.0 -12737100000.0 -12766100000.0 -12889200000.0 -12555700000.0 -13047800000.0 -12647100000.0 -12864800000.0 -12598500000.0 -12865300000.0 -13244800000.0 -13450900000.0 -12557400000.0 -13304300000.0 -12992400000.0 -12698500000.0 -12583400000.0 -12653600000.0 -13136500000.0 -12743200000.0 -12804500000.0 -12554600000.0 -12552000000.0 -12754700000.0 -12664200000.0 -12575700000.0 -12559000000.0 -12549700000.0 -12677300000.0 -12710800000.0 -12731700000.0 -12673700000.0 -12556300000.0 -12666400000.0 -12605100000.0 -12698700000.0 -12683700000.0 -12550500000.0 -12736400000.0 -12569800000.0 -12590100000.0 -12549800000.0 -12766000000.0 -12812500000.0 -12906500000.0 -12549800000.0 -12805100000.0 -12569600000.0 -12944800000.0 -12549700000.0 -12549900000.0 -12711700000.0 -12552700000.0 -12811200000.0 -12965700000.0 -12549700000.0 -12550200000.0 -12570600000.0 -12792900000.0 -12799900000.0 -12909900000.0 -13265700000.0 -12549700000.0 -12549700000.0 -12931300000.0 -12573000000.0 -12604600000.0 -13270900000.0 -12943500000.0 -12898100000.0 -13383400000.0 -13189300000.0 -12690900000.0 -12588400000.0 -12725500000.0 -12595000000.0 -12821000000.0 -12574200000.0 -13128800000.0 -12652200000.0 -12885900000.0 -12683600000.0 -12702200000.0 -12901500000.0 -13179100000.0 -13104200000.0 -13786500000.0 -13479500000.0 -13459900000.0 -12657400000.0 -13578500000.0 -13521000000.0 -13576200000.0 -13712500000.0 -12870500000.0 -13779400000.0 -14223900000.0 -13018500000.0 -12869300000.0 -14420100000.0 -14702000000.0 -13437200000.0 -12854400000.0 -12860300000.0 -13107600000.0 -12751700000.0 -12729600000.0 -12688400000.0 -13034300000.0 -12768800000.0 -12551100000.0 -12846000000.0 -12931600000.0 -12619600000.0 -12619900000.0 -12703400000.0 -12724800000.0 -12599300000.0 -13417200000.0 -13060700000.0 -12556100000.0 -12569300000.0 -12691500000.0 -13085400000.0 -12549700000.0 -12695800000.0 -12711200000.0 -12585000000.0 -12606300000.0 -12598500000.0 -12554900000.0 -12698000000.0 -12620200000.0 -12618100000.0 -12692600000.0 -12596200000.0 -12848500000.0 -12646300000.0 -12588600000.0 -12693900000.0 -12644200000.0 -12600000000.0 -12658100000.0 -12551800000.0 -12596400000.0 -12554700000.0 -12566000000.0 -12550300000.0 -12883500000.0 -12553300000.0 -12717900000.0 -12689400000.0 -12797000000.0 -12867300000.0 -12788500000.0 -12552900000.0 -12557400000.0 -12714300000.0 -12707400000.0 -12938000000.0 -12577500000.0 -12585800000.0 -12661200000.0 -12747200000.0 -12818600000.0 -12690600000.0 -13413000000.0 -12699100000.0 -13187800000.0 -12912100000.0 -13180200000.0 -12628000000.0 -14136000000.0 -13638500000.0 -13708000000.0 -13545000000.0 -13117100000.0 -12864800000.0 -12916600000.0 -12894200000.0 -12889300000.0 -12857000000.0 -13502600000.0 -12678800000.0 -12829100000.0 -12911700000.0 -13052500000.0 -12629700000.0 -12922600000.0 -12781100000.0 -12818400000.0 -13408200000.0 -12598800000.0 -13354100000.0 -13112700000.0 -13027300000.0 -12649200000.0 -13216800000.0 -12650100000.0 -13658100000.0 -13562400000.0 -13362400000.0 -13747300000.0 -13253000000.0 -13226200000.0 -12549700000.0 -13450100000.0 -12612500000.0 -12983500000.0 -12569300000.0 -12556400000.0 -13005300000.0 -12615500000.0 -12762200000.0 -12618300000.0 -13028900000.0 -12583300000.0 -12763600000.0 -12621100000.0 -12723200000.0 -12790400000.0 -13263500000.0 -13019000000.0 -12983700000.0 -12662600000.0 -13199400000.0 -12840600000.0 -12827200000.0 -12916600000.0 -12570500000.0 -12826500000.0 -12807700000.0 -12714800000.0 -12631200000.0 -12656900000.0 -12759500000.0 -12562300000.0 -12934500000.0 -12709300000.0 -12817300000.0 -12749500000.0 -12766300000.0 -12762000000.0 -12605600000.0 -12604100000.0 -12549700000.0 -12615900000.0 -12603400000.0 -12563900000.0 -12927600000.0 -12567000000.0 -12632200000.0 -12630600000.0 -12834300000.0 -12863600000.0 -12702200000.0 -12779000000.0 -12640500000.0 -12562000000.0 -12914500000.0 -12549700000.0 -12552300000.0 -12642300000.0 -12663600000.0 -12890800000.0 -12756800000.0 -13289200000.0 -12549700000.0 -13251500000.0 -13317300000.0 -13674100000.0 -13248800000.0 -12652000000.0 -13280700000.0 -13141500000.0 -13003700000.0 -13046700000.0 -12623700000.0 -12742400000.0 -12715600000.0 -12647300000.0 -13013800000.0 -12549700000.0 -13266600000.0 -13315200000.0 -13397200000.0 -13327600000.0 -12549700000.0 -14076600000.0 -13357900000.0 -12951100000.0 -13014900000.0 -12590500000.0 -13667900000.0 -12726700000.0 -12822800000.0 -13138800000.0 -12737600000.0 -12566800000.0 -12735500000.0 -13536200000.0 -13904800000.0 -12784900000.0 -13854200000.0 -12549700000.0 -13258900000.0 -13606400000.0 -13801800000.0 -14416400000.0 -14550700000.0 -14307900000.0 -14186300000.0 -14417100000.0 -14333700000.0 -14452600000.0 -14352500000.0 -13698200000.0 -13153600000.0 -12802700000.0 -13670900000.0 -13596600000.0 -13730900000.0 -13211600000.0 -12554400000.0 -13102800000.0 -12817500000.0 -12783400000.0 -12682500000.0 -12654100000.0 -12641200000.0 -12667700000.0 -12577900000.0 -12577500000.0 -12590500000.0 -12834300000.0 -12821400000.0 -12741000000.0 -12715700000.0 -12726700000.0 -12867500000.0 -13119800000.0 -12592400000.0 -12724400000.0 -12694200000.0 -12549700000.0 -12626400000.0 -12767500000.0 -12576300000.0 -12905600000.0 -12904100000.0 -12899800000.0 -12999700000.0 -12796500000.0 -12797500000.0 -12854100000.0 -12951900000.0 -12743900000.0 -12602500000.0 -12679000000.0 -12672500000.0 -12699900000.0 -12812400000.0 -12973600000.0 -12895500000.0 -12886500000.0 -13289200000.0 -12749900000.0 -12869900000.0 -12549700000.0 -12549700000.0 -14085500000.0 -14140500000.0 -13585700000.0 -13148500000.0 -13349000000.0 -12660100000.0 -12713100000.0 -13135700000.0 -13056400000.0 -13014700000.0 -13265100000.0 -13533100000.0 -13775200000.0 -12701800000.0 -12558300000.0 -12672100000.0 -13204800000.0 -13789000000.0 -12759500000.0 -13206600000.0 -12553300000.0 -12550100000.0 -13113100000.0 -13339600000.0 -14296900000.0 -13310100000.0 -12719200000.0 -12965500000.0 -12657300000.0 -12790500000.0 -12794800000.0 -12609800000.0 -12675200000.0 -14039700000.0 -13134700000.0 -13527100000.0 -12665800000.0 -12609600000.0 -12951100000.0 -12569800000.0 -12720100000.0 -12770800000.0 -12642100000.0 -12877900000.0 -13199400000.0 -12992100000.0 -13085100000.0 -12969800000.0 -12664900000.0 -12553700000.0 -12554400000.0 -12572300000.0 -14154600000.0 -13536600000.0 -13409000000.0 -12717900000.0 -12686300000.0 -12705800000.0 -12707000000.0 -12588100000.0 -12640100000.0 -12568300000.0 -12557800000.0 -12679700000.0 -12591900000.0 -12593500000.0 -12632600000.0 -12668200000.0 -12950700000.0 -12863300000.0 -12658200000.0 -12789300000.0 -12901900000.0 -12842500000.0 -12822500000.0 -12871100000.0 -12656700000.0 -12685400000.0 -12569900000.0 -12648400000.0 -12921400000.0 -12731400000.0 -12823400000.0 -12623800000.0 -12563600000.0 -12944300000.0 -12596300000.0 -12555300000.0 -12560400000.0 -12626100000.0 -12569300000.0 -13085500000.0 -12597400000.0 -12784300000.0 -12788500000.0 -13348600000.0 -12648600000.0 -12660900000.0 -13319900000.0 -12640500000.0 -13428000000.0 -13644700000.0 -14308200000.0 -12567400000.0 -12572400000.0 -13993400000.0 -13567100000.0 -12690900000.0 -12924200000.0 -12903900000.0 -12569700000.0 -12593500000.0 -13321700000.0 -12595300000.0 -12647600000.0 -12737200000.0 -13662600000.0 -12736900000.0 -13516400000.0 -13033500000.0 -12636700000.0 -13702200000.0 -13071600000.0 -13411000000.0 -13123300000.0 -13200100000.0 -13114700000.0 -12991600000.0 -13407800000.0 -12840700000.0 -12559400000.0 -12861500000.0 -12683700000.0 -12592900000.0 -13077200000.0 -13316200000.0 -12914700000.0 -13585200000.0 -13255500000.0 -13180600000.0 -12862600000.0 -12822700000.0 -12578800000.0 -13273900000.0 -13215400000.0 -12843600000.0 -12682500000.0 -13101600000.0 -12656200000.0 -12565900000.0 -12554600000.0 -12569700000.0 -12549700000.0 -12555100000.0 -12720400000.0 -13590400000.0 -12566400000.0 -13214400000.0 -12769800000.0 -12726300000.0 -12650800000.0 -12856000000.0 -12749500000.0 -12621900000.0 -12611300000.0 -12693500000.0 -12560600000.0 -12575800000.0 -12600900000.0 -12552000000.0 -12595000000.0 -12634700000.0 -12549700000.0 -12852500000.0 -12580100000.0 -12565400000.0 -12553700000.0 -12614900000.0 -12617600000.0 -12551400000.0 -12741100000.0 -12738700000.0 -13235700000.0 -12566300000.0 -12554300000.0 -12902700000.0 -12666700000.0 -12663600000.0 -12589600000.0 -12626100000.0 -13150100000.0 -12634100000.0 -12700300000.0 -12556200000.0 -13141000000.0 -13872300000.0 -13642900000.0 -13635900000.0 -13836800000.0 -13773600000.0 -14182300000.0 -12599400000.0 -12555200000.0 -14353800000.0 -13394000000.0 -12590900000.0 -12567500000.0 -12799400000.0 -12631500000.0 -12644100000.0 -12778800000.0 -12703200000.0 -12680700000.0 -12870600000.0 -13884600000.0 -13185800000.0 -13037600000.0 -13938400000.0 -12978500000.0 -12874200000.0 -12841000000.0 -13207800000.0 -13480400000.0 -12634200000.0 -12602000000.0 -13004900000.0 -12552500000.0 -13223500000.0 -12562100000.0 -12945400000.0 -13390300000.0 -12743400000.0 -12767700000.0 -12941400000.0 -13194300000.0 -13626800000.0 -13283900000.0 -13538400000.0 -12924300000.0 -12752800000.0 -13418000000.0 -13496600000.0 -13605300000.0 -13027300000.0 -13092800000.0 -13109100000.0 -12987400000.0 -13093300000.0 -12635600000.0 -12571200000.0 -12586100000.0 -12592600000.0 -12688700000.0 -13294700000.0 -13207200000.0 -12689800000.0 -12641000000.0 -12809900000.0 -12735500000.0 -12664100000.0 -12704900000.0 -12750500000.0 -12710600000.0 -12720600000.0 -12733800000.0 -12734300000.0 -12587200000.0 -12652100000.0 -12637800000.0 -12899400000.0 -12565500000.0 -12551100000.0 -12626500000.0 -12555500000.0 -12603900000.0 -12549700000.0 -12693300000.0 -12651500000.0 -12655900000.0 -12979300000.0 -12859500000.0 -12837500000.0 -12704700000.0 -12712700000.0 -12838400000.0 -12933800000.0 -12632000000.0 -12667000000.0 -12738500000.0 -12656800000.0 -12561200000.0 -12577900000.0 -13311900000.0 -12798600000.0 -12888000000.0 -13149100000.0 -12558000000.0 -13085800000.0 -12652800000.0 -12765300000.0 -14597700000.0 -12749200000.0 -14480200000.0 -12552900000.0 -12550800000.0 -13662500000.0 -14196600000.0 -12572600000.0 -12618800000.0 -13126600000.0 -12795800000.0 -12607300000.0 -12577000000.0 -14123000000.0 -13914500000.0 -12549700000.0 -12592200000.0 -13080900000.0 -12554300000.0 -12767900000.0 -12912000000.0 -13469700000.0 -12614200000.0 -12790500000.0 -12603200000.0 -12799200000.0 -12892000000.0 -13260200000.0 -12787800000.0 -12674300000.0 -13312700000.0 -12984200000.0 -12905300000.0 -13266300000.0 -13038000000.0 -12958700000.0 -13361300000.0 -13059800000.0 -13351800000.0 -13260900000.0 -13053600000.0 -12554900000.0 -12666000000.0 -12969000000.0 -12549700000.0 -12787300000.0 -12731500000.0 -12912300000.0 -12625900000.0 -12954400000.0 -12617500000.0 -12568700000.0 -12587600000.0 -12593700000.0 -12554700000.0 -12561200000.0 -12635100000.0 -12847700000.0 -13130500000.0 -12550900000.0 -12549700000.0 -12792900000.0 -12644900000.0 -12598900000.0 -12641300000.0 -12570500000.0 -12620400000.0 -12577600000.0 -12583900000.0 -12599900000.0 -12560400000.0 -12549700000.0 -12664500000.0 -12753100000.0 -12746900000.0 -12767900000.0 -12812300000.0 -12845000000.0 -12693800000.0 -12604300000.0 -12599800000.0 -12595800000.0 -12625400000.0 -12652100000.0 -12690700000.0 -12961600000.0 -12812000000.0 -12750700000.0 -12632600000.0 -12781200000.0 -12549700000.0 -12633700000.0 -13527500000.0 -12595900000.0 -13007800000.0 -13157600000.0 -13203600000.0 -12923500000.0 -13023600000.0 -12959700000.0 -16090500000.0 -13306300000.0 -13723800000.0 -13345800000.0 -13303000000.0 -14168200000.0 -12922700000.0 -12679100000.0 -13356000000.0 -12844400000.0 -13048500000.0 -14259900000.0 -12989700000.0 -12880100000.0 -12938000000.0 -13119400000.0 -12922600000.0 -12794500000.0 -12788400000.0 -12770500000.0 -12726600000.0 -13193800000.0 -13033500000.0 -12549700000.0 -13070300000.0 -12552200000.0 -12919300000.0 -12783200000.0 -13232500000.0 -12983300000.0 -12841700000.0 -13195000000.0 -12840900000.0 -12570100000.0 -12551200000.0 -13327400000.0 -12968100000.0 -12559600000.0 -13042200000.0 -13371900000.0 -13304500000.0 -13412100000.0 -12549700000.0 -12637000000.0 -12822400000.0 -12975800000.0 -12592200000.0 -12897100000.0 -12599300000.0 -12568900000.0 -12586100000.0 -12577600000.0 -12588100000.0 -12608800000.0 -12911400000.0 -12558900000.0 -13017100000.0 -12844600000.0 -12937900000.0 -12682100000.0 -12610100000.0 -12595400000.0 -12630800000.0 -12589100000.0 -12644300000.0 -12604900000.0 -12679000000.0 -12651500000.0 -12649700000.0 -12769700000.0 -12683300000.0 -12569100000.0 -12550000000.0 -12556200000.0 -12584900000.0 -12581700000.0 -12824800000.0 -12792600000.0 -12740700000.0 -12805100000.0 -12795900000.0 -12549700000.0 -12837500000.0 -12920200000.0 -12734800000.0 -12639000000.0 -12630400000.0 -13028900000.0 -13044200000.0 -12861400000.0 -12549700000.0 -13619600000.0 -13049200000.0 -12562900000.0 -12763800000.0 -12704500000.0 -13099700000.0 -13201000000.0 -13370300000.0 -13037700000.0 -16804600000.0 -13345000000.0 -13685500000.0 -13276900000.0 -15249100000.0 -14357200000.0 -14183900000.0 -13638200000.0 -13639000000.0 -14371000000.0 -12557900000.0 -13316300000.0 -12612100000.0 -12618300000.0 -12549700000.0 -13320500000.0 -12775800000.0 -12953600000.0 -12754500000.0 -13257000000.0 -12838900000.0 -12982400000.0 -13058400000.0 -12718200000.0 -12576400000.0 -12549700000.0 -12552300000.0 -12557700000.0 -12737000000.0 -12962600000.0 -12836300000.0 -12706700000.0 -13051300000.0 -12781200000.0 -13026400000.0 -12678100000.0 -12841300000.0 -12644500000.0 -12563100000.0 -12693300000.0 -12730700000.0 -12561400000.0 -13305200000.0 -13411200000.0 -13363900000.0 -13468800000.0 -13053600000.0 -12575000000.0 -12549700000.0 -12579100000.0 -12556800000.0 -12555100000.0 -12562100000.0 -12740200000.0 -12673400000.0 -12795500000.0 -12565500000.0 -12794200000.0 -12679400000.0 -12691700000.0 -12563400000.0 -12563500000.0 -12590200000.0 -12588300000.0 -12560000000.0 -12643300000.0 -12569400000.0 -12558400000.0 -12678000000.0 -12582900000.0 -12583100000.0 -12605700000.0 -12555400000.0 -12551200000.0 -12551800000.0 -12549700000.0 -12551700000.0 -12677700000.0 -12687600000.0 -12553100000.0 -12563300000.0 -13008400000.0 -12831900000.0 -12755300000.0 -13039000000.0 -13126800000.0 -12778700000.0 -12675000000.0 -12945300000.0 -12717300000.0 -12724500000.0 -13253800000.0 -13465900000.0 -12848600000.0 -12551800000.0 -12708600000.0 -12723300000.0 -12552000000.0 -13252000000.0 -12766600000.0 -13691900000.0 -14007100000.0 -15334900000.0 -12567500000.0 -14532800000.0 -14868800000.0 -14080100000.0 -13199700000.0 -13781000000.0 -13249000000.0 -13300500000.0 -13726200000.0 -14309100000.0 -13202100000.0 -13374700000.0 -12772000000.0 -12689600000.0 -13281300000.0 -12619000000.0 -12598900000.0 -12665300000.0 -12642900000.0 -12711500000.0 -12760900000.0 -12764900000.0 -12549700000.0 -12611700000.0 -12732200000.0 -12620100000.0 -12622600000.0 -12891300000.0 -12996500000.0 -12624200000.0 -12900300000.0 -12549700000.0 -12904100000.0 -12816100000.0 -12689800000.0 -12779000000.0 -12767900000.0 -12682800000.0 -12612900000.0 -12761700000.0 -12768800000.0 -12843300000.0 -13154900000.0 -12853100000.0 -12869700000.0 -13715100000.0 -13026400000.0 -12916600000.0 -12568300000.0 -12549700000.0 -12579400000.0 -12557300000.0 -12554900000.0 -12597500000.0 -12580100000.0 -12554700000.0 -12607100000.0 -12757000000.0 -12549700000.0 -12626500000.0 -12651400000.0 -12580300000.0 -12555100000.0 -12569100000.0 -12550500000.0 -12587400000.0 -12647700000.0 -12558500000.0 -12555700000.0 -12567800000.0 -12566900000.0 -12550600000.0 -12555000000.0 -12566600000.0 -12549800000.0 -12574600000.0 -12551300000.0 -12550300000.0 -12554100000.0 -12554600000.0 -12605000000.0 -12600800000.0 -12777000000.0 -12771900000.0 -13049100000.0 -12662000000.0 -12611100000.0 -12643300000.0 -13493100000.0 -13296500000.0 -13267400000.0 -13194200000.0 -13328900000.0 -13497800000.0 -12550900000.0 -13355700000.0 -12935300000.0 -13020400000.0 -13173100000.0 -12861400000.0 -14138400000.0 -12584900000.0 -13350300000.0 -14667700000.0 -14358300000.0 -14264200000.0 -14425900000.0 -12647900000.0 -13649800000.0 -13480900000.0 -13869500000.0 -12904700000.0 -13117200000.0 -12549700000.0 -14543700000.0 -13456400000.0 -13671700000.0 -12578500000.0 -13497100000.0 -13236000000.0 -12590000000.0 -12611000000.0 -12575800000.0 -12674300000.0 -12707300000.0 -12731400000.0 -12769000000.0 -12746500000.0 -12549900000.0 -12702000000.0 -12552600000.0 -12598900000.0 -12596700000.0 -12758100000.0 -12570400000.0 -12704800000.0 -12696100000.0 -12617100000.0 -12728100000.0 -12666000000.0 -12861600000.0 -12664000000.0 -12609300000.0 -12648800000.0 -12690900000.0 -12681600000.0 -12680000000.0 -12732100000.0 -12665100000.0 -12551200000.0 -12550000000.0 -13234000000.0 -12730500000.0 -12582100000.0 -12632600000.0 -12638200000.0 -12632000000.0 -12631500000.0 -12612400000.0 -12614800000.0 -12613800000.0 -12561800000.0 -12703800000.0 -12722400000.0 -12699600000.0 -12627500000.0 -12633700000.0 -12634200000.0 -12617900000.0 -12597300000.0 -12611000000.0 -12550500000.0 -12549700000.0 -12555500000.0 -12550400000.0 -12565900000.0 -12556500000.0 -12555500000.0 -12567900000.0 -12555000000.0 -12550500000.0 -12575600000.0 -12564500000.0 -12729500000.0 -12551600000.0 -12556800000.0 -12714600000.0 -13076300000.0 -12945300000.0 -13056300000.0 -13365200000.0 -12746700000.0 -12584900000.0 -12804600000.0 -12747000000.0 -14301500000.0 -13302200000.0 -13757100000.0 -13739300000.0 -13875800000.0 -13120800000.0 -13863900000.0 -12601600000.0 -12960100000.0 -12903800000.0 -15014000000.0 -16831800000.0 -12731000000.0 -12696000000.0 -14577600000.0 -12888600000.0 -14151400000.0 -12630500000.0 -12914900000.0 -12549700000.0 -14022100000.0 -12933300000.0 -12685500000.0 -12879700000.0 -13349900000.0 -12807200000.0 -12820500000.0 -12768400000.0 -12759500000.0 -12650600000.0 -12766600000.0 -12622500000.0 -12720600000.0 -12552100000.0 -12582000000.0 -12647400000.0 -12567900000.0 -12576400000.0 -12798000000.0 -12611900000.0 -12623200000.0 -12549700000.0 -12694600000.0 -12811000000.0 -12549700000.0 -12646100000.0 -12557600000.0 -12552700000.0 -12550500000.0 -12604800000.0 -12573100000.0 -12803100000.0 -12821200000.0 -12871100000.0 -12605900000.0 -12753500000.0 -13087300000.0 -12718400000.0 -12672900000.0 -12581800000.0 -12549900000.0 -12549700000.0 -12569500000.0 -12562900000.0 -12557600000.0 -12566800000.0 -12563800000.0 -12558600000.0 -12565200000.0 -12604700000.0 -12595000000.0 -12563900000.0 -12570300000.0 -12573000000.0 -12579300000.0 -12597700000.0 -12611900000.0 -12578500000.0 -12576900000.0 -12585100000.0 -12591900000.0 -12609200000.0 -12597000000.0 -12605100000.0 -12606800000.0 -12586700000.0 -12620700000.0 -12649400000.0 -12689200000.0 -12914900000.0 -12818600000.0 -12823200000.0 -12994100000.0 -12600300000.0 -12743000000.0 -12564700000.0 -13372900000.0 -13121000000.0 -12812300000.0 -12601500000.0 -12689400000.0 -13796400000.0 -12935800000.0 -12653500000.0 -12696400000.0 -14305600000.0 -12549700000.0 -13517300000.0 -13119400000.0 -12551500000.0 -15226100000.0 -12700700000.0 -15641100000.0 -12595100000.0 -12559000000.0 -14449500000.0 -12591000000.0 -14278900000.0 -13283300000.0 -13389900000.0 -13959800000.0 -13465500000.0 -13412700000.0 -13533500000.0 -13436800000.0 -12890100000.0 -12795700000.0 -12808200000.0 -12818400000.0 -12992400000.0 -12991900000.0 -12789600000.0 -12724900000.0 -12769200000.0 -12726100000.0 -12668100000.0 -12648200000.0 -12636000000.0 -12790600000.0 -12619800000.0 -12612600000.0 -12671100000.0 -12693900000.0 -12945300000.0 -12622700000.0 -12607200000.0 -12798300000.0 -12733300000.0 -12687300000.0 -12691600000.0 -12684300000.0 -12588900000.0 -12635600000.0 -12552300000.0 -12605900000.0 -12915600000.0 -12618200000.0 -12655900000.0 -12569100000.0 -12553500000.0 -12563200000.0 -12549700000.0 -12549700000.0 -12550500000.0 -12559800000.0 -12554800000.0 -12550700000.0 -12549700000.0 -12562500000.0 -12569800000.0 -12550300000.0 -12549700000.0 -12549700000.0 -12550100000.0 -12549700000.0 -12566700000.0 -12599400000.0 -12596500000.0 -12592700000.0 -12590700000.0 -12582300000.0 -12590000000.0 -12577700000.0 -12600400000.0 -12631000000.0 -12680100000.0 -12728700000.0 -12882700000.0 -12603100000.0 -12668100000.0 -12639400000.0 -12933400000.0 -12759000000.0 -12719000000.0 -12833100000.0 -13172600000.0 -12554500000.0 -13268100000.0 -12964600000.0 -13040100000.0 -13269300000.0 -13454600000.0 -12570400000.0 -12730900000.0 -14480200000.0 -13739300000.0 -12887000000.0 -13220900000.0 -15277200000.0 -12714800000.0 -12919400000.0 -12555200000.0 -12594500000.0 -15587200000.0 -14094100000.0 -14353000000.0 -12786900000.0 -13432600000.0 -13072800000.0 -13116400000.0 -12796200000.0 -12568100000.0 -12549700000.0 -12804200000.0 -12839600000.0 -12933400000.0 -12951400000.0 -12980300000.0 -12785000000.0 -13060900000.0 -12848900000.0 -12574000000.0 -12624900000.0 -12563100000.0 -12585600000.0 -12549700000.0 -12554400000.0 -12549700000.0 -12691200000.0 -12587400000.0 -12600500000.0 -12599700000.0 -12617100000.0 -12806700000.0 -12608900000.0 -12609100000.0 -12617700000.0 -12581500000.0 -12610700000.0 -12675000000.0 -12550100000.0 -12562800000.0 -12616700000.0 -12552700000.0 -12766100000.0 -12716500000.0 -12656300000.0 -12641400000.0 -12555300000.0 -12552600000.0 -12557400000.0 -12549700000.0 -12549900000.0 -12550800000.0 -12556900000.0 -12552900000.0 -12549700000.0 -12549700000.0 -12549700000.0 -12559800000.0 -12549900000.0 -12549700000.0 -12549700000.0 -12551800000.0 -12550300000.0 -12565500000.0 -12555000000.0 -12554900000.0 -12550300000.0 -12556700000.0 -12565500000.0 -12563700000.0 -12584500000.0 -12597800000.0 -12596400000.0 -12588500000.0 -12658400000.0 -12699600000.0 -12602300000.0 -12714100000.0 -12757200000.0 -12816800000.0 -12850000000.0 -12890300000.0 -12887500000.0 -12994200000.0 -13216100000.0 -13467600000.0 -12553000000.0 -13346600000.0 -13712200000.0 -14054200000.0 -14357800000.0 -14587500000.0 -15676600000.0 -14488600000.0 -14126100000.0 -15628500000.0 -16466100000.0 -12577800000.0 -14389000000.0 -15849100000.0 -14128000000.0 -14733200000.0 -13527200000.0 -12855700000.0 -13208800000.0 -14451900000.0 -13591400000.0 -13228600000.0 -12786300000.0 -12610400000.0 -12631800000.0 -12604800000.0 -12737600000.0 -12565400000.0 -12594100000.0 -12579300000.0 -12609000000.0 -12736100000.0 -12781500000.0 -12619400000.0 -12704300000.0 -12605900000.0 -12600000000.0 -12585500000.0 -12654500000.0 -12550100000.0 -12558400000.0 -12551800000.0 -12556700000.0 -12697100000.0 -12558800000.0 -12553500000.0 -12607900000.0 -12549700000.0 -12562100000.0 -12564800000.0 -12716200000.0 -12684300000.0 -12746000000.0 -12779400000.0 -12580500000.0 -12606300000.0 -12554600000.0 -12551100000.0 -12549700000.0 -12552000000.0 -12549700000.0 -12549700000.0 -12549900000.0 -12552100000.0 -12550600000.0 -12549700000.0 -12549700000.0 -12549700000.0 -12553400000.0 -12549700000.0 -12549700000.0 -12549700000.0 -12549800000.0 -12550800000.0 -12560200000.0 -12556900000.0 -12557200000.0 -12556300000.0 -12551400000.0 -12552400000.0 -12553700000.0 -12564600000.0 -12554700000.0 -12559700000.0 -12562000000.0 -12581900000.0 -12570000000.0 -12561400000.0 -12595600000.0 -12575700000.0 -12601100000.0 -12640000000.0 -12656300000.0 -12660400000.0 -12652700000.0 -13752100000.0 -13186200000.0 -13425100000.0 -13805800000.0 -12580100000.0 -12945800000.0 -13901900000.0 -12904500000.0 -15021700000.0 -13052000000.0 -13435800000.0 -15033200000.0 -13339500000.0 -14278500000.0 -13682500000.0 -12693100000.0 -13060000000.0 -12931200000.0 -14562700000.0 -13420000000.0 -12592800000.0 -12768400000.0 -12673000000.0 -12757300000.0 -12739300000.0 -12735800000.0 -12567200000.0 -12554600000.0 -12552700000.0 -12555700000.0 -12568300000.0 -12570100000.0 -12562800000.0 -12554900000.0 -12637600000.0 -12614800000.0 -12549700000.0 -12635800000.0 -12566300000.0 -12561800000.0 -12576100000.0 -12561900000.0 -12575700000.0 -12572900000.0 -12580300000.0 -12594000000.0 -12605500000.0 -12594500000.0 -12554800000.0 -12567900000.0 -12574400000.0 -12560500000.0 -12556300000.0 -12575400000.0 -12558300000.0 -12677800000.0 -12645500000.0 -12640300000.0 -12595400000.0 -12559000000.0 -12585400000.0 -12859100000.0 -12835200000.0 -12771300000.0 -13820400000.0 -13008300000.0 -13156200000.0 -13913400000.0 -13533300000.0 -13932300000.0 -13178700000.0 -13471900000.0 -14306100000.0 -12552300000.0 -13379700000.0 -14681800000.0 -13309900000.0 -13060600000.0 -13068000000.0 -14115300000.0 -12570400000.0 -12579200000.0 -12549900000.0 -12556300000.0 -12554400000.0 -12808900000.0 -12817600000.0 -12665300000.0 -13538900000.0 -12773000000.0 -12603300000.0 -13911000000.0 -13430600000.0 -13489600000.0 -12551400000.0 -12879100000.0 -15167700000.0 -13377800000.0 -14393700000.0 -13915600000.0 -12924000000.0 -13121300000.0 -12974600000.0 -12998000000.0 -14015700000.0 -12681000000.0 -12863800000.0 -13001000000.0 -13218300000.0 -13029700000.0 -12870400000.0 -13887400000.0 -14895900000.0 -13578000000.0 -13851000000.0 -13239300000.0 -12718900000.0 -16428700000.0 -14030500000.0 -14612300000.0 -13337000000.0 -12920600000.0 -12549700000.0 -14372100000.0 -12602600000.0 -12637200000.0 -12856100000.0 -12764000000.0 -13050400000.0 -13009200000.0 -13609700000.0 -12557100000.0 -13477600000.0 -12701600000.0 -12654000000.0 -14586000000.0 -15999900000.0 -12549700000.0 -13257900000.0 -13893100000.0 -12549700000.0 -13113700000.0 -13018100000.0 -13021800000.0 -13956200000.0 -12601400000.0 -12611300000.0 -12549700000.0 -12549700000.0 -13073200000.0 -13041400000.0 -13984000000.0 -13711200000.0 -12787300000.0 -13443300000.0 -12666400000.0 -12683000000.0 -15765600000.0 -13070000000.0 -12980700000.0 -12717400000.0 -13886100000.0 -12794300000.0 -12886000000.0 -13465100000.0 -12683100000.0 -12605600000.0 -12608800000.0 -12549700000.0 -12549700000.0 -12549700000.0 -12628300000.0 -12914500000.0 -12920300000.0 -13003600000.0 -13226000000.0 -12827600000.0 -13626000000.0 -13177800000.0 -13173400000.0 -15828100000.0 -12731400000.0 -12912600000.0 -13581900000.0 -12794100000.0 -13912000000.0 -13501200000.0 -13045900000.0 -12753000000.0 -12595900000.0 -12549700000.0 -12549700000.0 -12549700000.0 -12549700000.0 -12549700000.0 -12549700000.0 -12549700000.0 -12549700000.0 -12549700000.0 -12549700000.0 -12549700000.0 -12549700000.0 -12549700000.0 -12549700000.0 -12549700000.0 -12549700000.0 -12549700000.0 -12549700000.0 -12549700000.0 -12549700000.0 -12549700000.0 -12549700000.0 -12549700000.0 -12549700000.0 -12549700000.0 -12549700000.0 -12549700000.0 -12607300000.0 -12574400000.0 -12865600000.0 -12742100000.0 -12740900000.0 -13048800000.0 -13227700000.0 -13331400000.0 -12879100000.0 -13388400000.0 -16048200000.0 -12971600000.0 -12845700000.0 -12616100000.0 -12671300000.0 -13893900000.0 -13885800000.0 -12912100000.0 -12850600000.0 -12651300000.0 -12560100000.0 -12549700000.0 -12549700000.0 -12549700000.0 -12549700000.0 -12549700000.0 -12549700000.0 -12549700000.0 -12549700000.0 -12549700000.0 -12549700000.0 -12549700000.0 -12549700000.0 -12549700000.0 -12549700000.0 -12549700000.0 -12549700000.0 -12549700000.0 -12549700000.0 -12549700000.0 -12549700000.0 -12549700000.0 -12549700000.0 -12549700000.0 -12549700000.0 -12549700000.0 -12549700000.0 -12549700000.0 -12549900000.0 -12549700000.0 -12692100000.0 -12792500000.0 -12564000000.0 -12720300000.0 -13197100000.0 -13076800000.0 -14036900000.0 -13790700000.0 -13472100000.0 -13070800000.0 -13366300000.0 -14685600000.0 -12859200000.0 -13048100000.0 -12595900000.0 -13614800000.0 -13092600000.0 -12577100000.0 -12558000000.0 -12552800000.0 -13120700000.0 -12627100000.0 -12574500000.0 -12549700000.0 -12549700000.0 -12549700000.0 -12549700000.0 -12549700000.0 -12549700000.0 -12549700000.0 -12549700000.0 -12549700000.0 -12549700000.0 -12549700000.0 -12549700000.0 -12549700000.0 -12549700000.0 -12549700000.0 -12549700000.0 -12549700000.0 -12549700000.0 -12549700000.0 -12549700000.0 -12549700000.0 -12549700000.0 -12549700000.0 -12549700000.0 -12549700000.0 -12549700000.0 -12549700000.0 -12549700000.0 -12549700000.0 -12549700000.0 -12549700000.0 -12549700000.0 -12549700000.0 -12549700000.0 -12549700000.0 -12549700000.0 -12549700000.0 -12555300000.0 -12578200000.0 -12592200000.0 -12615100000.0 -12641400000.0 -12904300000.0 -12729200000.0 -12786100000.0 -13252500000.0 -13319700000.0 -13000000000.0 -12698800000.0 -12889800000.0 -13122900000.0 -14878500000.0 -13211900000.0 -13564300000.0 -13312700000.0 -12643600000.0 -12649800000.0 -13159200000.0 -12566600000.0 -12621000000.0 -12669500000.0 -12584500000.0 -12561200000.0 -12550900000.0 -12550200000.0 -12549700000.0 -12549700000.0 -12549700000.0 -12549700000.0 -12549700000.0 -12549700000.0 -12549700000.0 -12549700000.0 -12549700000.0 -12549700000.0 -12549700000.0 -12549700000.0 -12549700000.0 -12549700000.0 -12549700000.0 -12549700000.0 -12549700000.0 -12549700000.0 -12549700000.0 -12549700000.0 -12549700000.0 -12549700000.0 -12549700000.0 -12549700000.0 -12549700000.0 -12549700000.0 -12549700000.0 -12549700000.0 -12549700000.0 -12549700000.0 -12549700000.0 -12549700000.0 -12549700000.0 -12549700000.0 -12549700000.0 -12549700000.0 -12549700000.0 -12549700000.0 -12549700000.0 -12549700000.0 -12549700000.0 -12549700000.0 -12549700000.0 -12549700000.0 -12549700000.0 -12550000000.0 -12560200000.0 -12712900000.0 -12711700000.0 -12886500000.0 -12986600000.0 -12965600000.0 -12910700000.0 -13234200000.0 -13042300000.0 -13240700000.0 -13934000000.0 -13702300000.0 -14189700000.0 -14028700000.0 -13284500000.0 -13573700000.0 -12615700000.0 -12992400000.0 -13045500000.0 -13042400000.0 -12734100000.0 -12552300000.0 -12619900000.0 -12555400000.0 -12557800000.0 -12552000000.0 -12549700000.0 -12549700000.0 -12549700000.0 -12549700000.0 -12549700000.0 -12549700000.0 -12549700000.0 -12549700000.0 -12549700000.0 -12549700000.0 -12549700000.0 -12549700000.0 -12549700000.0 -12549700000.0 -12549700000.0 -12549700000.0 -12549700000.0 -12549700000.0 -12549700000.0 -12549700000.0 -12549700000.0 -12549700000.0 -12549700000.0 -12549700000.0 -12549700000.0 -12549700000.0 -12549700000.0 -12549700000.0 -12549700000.0 -12549700000.0 -12549700000.0 -12549700000.0 -12549700000.0 -12549700000.0 -12549700000.0 -12549700000.0 -12549700000.0 -12549700000.0 -12549700000.0 -12550800000.0 -12549700000.0 -12561600000.0 -12647300000.0 -12604300000.0 -12673500000.0 -12608600000.0 -13106700000.0 -12552800000.0 -12957500000.0 -12856800000.0 -12847100000.0 -13437400000.0 -12956300000.0 -14047700000.0 -12549700000.0 -12566600000.0 -13591500000.0 -14324600000.0 -13621100000.0 -12915600000.0 -12716800000.0 -12569100000.0 -12551000000.0 -12550300000.0 -12549800000.0 -12549700000.0 -12549700000.0 -12549700000.0 -12549700000.0 -12549700000.0 -12549700000.0 -12549700000.0 -12549700000.0 -12549700000.0 -12549700000.0 -12549700000.0 -12549700000.0 -12549700000.0 -12549700000.0 -12549700000.0 -12549700000.0 -12549700000.0 -12549700000.0 -12549700000.0 -12549700000.0 -12549700000.0 -12549700000.0 -12549700000.0 -12549700000.0 -12549700000.0 -12549700000.0 -12549700000.0 -12549700000.0 -12549700000.0 -12549700000.0 -12549700000.0 -12549700000.0 -12549700000.0 -12549700000.0 -12549700000.0 -12549700000.0 -12549700000.0 -12549700000.0 -12549700000.0 -12549700000.0 -12549700000.0 -12549700000.0 -12549700000.0 -12549700000.0 -12549700000.0 -12549700000.0 -12549700000.0 -12549700000.0 -12549700000.0 -12549700000.0 -12551100000.0 -12549700000.0 -12568200000.0 -12581000000.0 -12625600000.0 -12727400000.0 -12638400000.0 -12564000000.0 -13437000000.0 -13270100000.0 -13026600000.0 -13395000000.0 -13464900000.0 -12863700000.0 -12815200000.0 -13790300000.0 -13559900000.0 -13340000000.0 -12587100000.0 -13690300000.0 -12914800000.0 -13040600000.0 -12674900000.0 -12558400000.0 -12569500000.0 -12565700000.0 -12549700000.0 -12549700000.0 -12549900000.0 -12549700000.0 -12549700000.0 -12549700000.0 -12549700000.0 -12549700000.0 -12549700000.0 -12549700000.0 -12549700000.0 -12549700000.0 -12549700000.0 -12549700000.0 -12549700000.0 -12549700000.0 -12549700000.0 -12549700000.0 -12549700000.0 -12549700000.0 -12549700000.0 -12549700000.0 -12549700000.0 -12549700000.0 -12549700000.0 -12549700000.0 -12549700000.0 -12549700000.0 -12549700000.0 -12549700000.0 -12549700000.0 -12549700000.0 -12549700000.0 -12549700000.0 -12549700000.0 -12549700000.0 -12549700000.0 -12549700000.0 -12549700000.0 -12549700000.0 -12549700000.0 -12549700000.0 -12549700000.0 -12852800000.0 -13176800000.0 -13181400000.0 -12550800000.0 -12584900000.0 -12719900000.0 -12635300000.0 -12863100000.0 -12822500000.0 -12569800000.0 -13118000000.0 -12646700000.0 -12633800000.0 -12627900000.0 -13144800000.0 -13098700000.0 -13510700000.0 -12549700000.0 -12980300000.0 -12691800000.0 -12610100000.0 -12590400000.0 -12553500000.0 -12549700000.0 -12549700000.0 -12549700000.0 -12549700000.0 -12549700000.0 -12549700000.0 -12549700000.0 -12549700000.0 -12549700000.0 -12549700000.0 -12549700000.0 -12549700000.0 -12549700000.0 -12549700000.0 -12549700000.0 -12549700000.0 -12549700000.0 -12549700000.0 -12549700000.0 -12549700000.0 -12549700000.0 -12549700000.0 -12549700000.0 -12549700000.0 -12549700000.0 -12549700000.0 -12549700000.0 -12549700000.0 -12549700000.0 -12549700000.0 -12549700000.0 -12549700000.0 -12549700000.0 -12549700000.0 -12549700000.0 -12549700000.0 -12549700000.0 -12549700000.0 -12549700000.0 -12549700000.0 -12549700000.0 -12549700000.0 -12580100000.0 -12565700000.0 -12976700000.0 -12606800000.0 -12638700000.0 -12695600000.0 -12565100000.0 -12783500000.0 -12935900000.0 -12745200000.0 -12683100000.0 -12671600000.0 -12655200000.0 -12549700000.0 -13743200000.0 -13730800000.0 -12549700000.0 -12577700000.0 -12912800000.0 -12594900000.0 -12549700000.0 -12549700000.0 -12549700000.0 -12549700000.0 -12549700000.0 -12549700000.0 -12549700000.0 -12549700000.0 -12549700000.0 -12549700000.0 -12549700000.0 -12549700000.0 -12549700000.0 -12549700000.0 -12549700000.0 -12549700000.0 -12549700000.0 -12549700000.0 -12549700000.0 -12549700000.0 -12549700000.0 -12549700000.0 -12549700000.0 -12549700000.0 -12549700000.0 -12549700000.0 -12549700000.0 -12549700000.0 -12549700000.0 -12549700000.0 -12549700000.0 -12549700000.0 -12549700000.0 -12549700000.0 -12549700000.0 -12549700000.0 -12549700000.0 -12549700000.0 -12549700000.0 -12549700000.0 -12549700000.0 -12549700000.0 -12800200000.0 -12596100000.0 -12873900000.0 -12611000000.0 -12621400000.0 -12600600000.0 -12599300000.0 -12633000000.0 -12551100000.0 -12783300000.0 -12739100000.0 -13048900000.0 -12648400000.0 -13455500000.0 -12680200000.0 -13613500000.0 -12902900000.0 -12960800000.0 -12596800000.0 -12549700000.0 -12549700000.0 -12549700000.0 -12549700000.0 -12549700000.0 -12549700000.0 -12549700000.0 -12549700000.0 -12549700000.0 -12549700000.0 -12549700000.0 -12549700000.0 -12549700000.0 -12549700000.0 -12549700000.0 -12549700000.0 -12549700000.0 -12549700000.0 -12549700000.0 -12549700000.0 -12549700000.0 -12549700000.0 -12549700000.0 -12549700000.0 -12549700000.0 -12549700000.0 -12549700000.0 -12549700000.0 -12549700000.0 -12549700000.0 -12549700000.0 -12549700000.0 -12549700000.0 -12549700000.0 -12549700000.0 -12549700000.0 -12549700000.0 -12549700000.0 -12549700000.0 -12549700000.0 -12549700000.0 -12549700000.0 -12549700000.0 -12549700000.0 -12549700000.0 -12556400000.0 -12668600000.0 -12772600000.0 -12615700000.0 -12613400000.0 -12650300000.0 -12686800000.0 -12709000000.0 -13214000000.0 -12858800000.0 -13244000000.0 -13820500000.0 -12736400000.0 -13036300000.0 -12984500000.0 -12729300000.0 -12846600000.0 -12616400000.0 -12579200000.0 -12549700000.0 -12549700000.0 -12549700000.0 -12549700000.0 -12549700000.0 -12549700000.0 -12549700000.0 -12549700000.0 -12549700000.0 -12549700000.0 -12549700000.0 -12549700000.0 -12549700000.0 -12549700000.0 -12549700000.0 -12549700000.0 -12549700000.0 -12549700000.0 -12549700000.0 -12549700000.0 -12549700000.0 -12549700000.0 -12549700000.0 -12549700000.0 -12549700000.0 -12549700000.0 -12549700000.0 -12549700000.0 -12549700000.0 -12549700000.0 -12549700000.0 -12549700000.0 -12550500000.0 -12669000000.0 -12551500000.0 -12745800000.0 -12552500000.0 -12616000000.0 -12898300000.0 -12782200000.0 -12654300000.0 -13072000000.0 -12619200000.0 -13125200000.0 -12553100000.0 -13201800000.0 -12980600000.0 -12638700000.0 -12738400000.0 -12760700000.0 -12552000000.0 -12559400000.0 -12564600000.0 -12549700000.0 -12549700000.0 -12549700000.0 -12549700000.0 -12549700000.0 -12549700000.0 -12549700000.0 -12549700000.0 -12549700000.0 -12549700000.0 -12549700000.0 -12549700000.0 -12549700000.0 -12549700000.0 -12549700000.0 -12549700000.0 -12549700000.0 -12549700000.0 -12549700000.0 -12549700000.0 -12549700000.0 -12549700000.0 -12549700000.0 -12563800000.0 -12669300000.0 -12555900000.0 -12736000000.0 -12563400000.0 -12615000000.0 -12659700000.0 -12738100000.0 -12719500000.0 -12554100000.0 -12903600000.0 -12575400000.0 -12674500000.0 -13256000000.0 -12643400000.0 -12855200000.0 -12729700000.0 -12644800000.0 -12692700000.0 -12655500000.0 -12549700000.0 -12549700000.0 -12549700000.0 -12549700000.0 -12549700000.0 -12549700000.0 -12549700000.0 -12549700000.0 -12549700000.0 -12549700000.0 -12549700000.0 -12549700000.0 -12549700000.0 -12549700000.0 -12549700000.0 -12549700000.0 -12549700000.0 -12549700000.0 -12549700000.0 -12549700000.0 -12549700000.0 -12549700000.0 -12549700000.0 -12549700000.0 -12549700000.0 -12549700000.0 -12549700000.0 -12760700000.0 -12789900000.0 -12604400000.0 -12814500000.0 -12842200000.0 -12889100000.0 -13060900000.0 -12921900000.0 -13014200000.0 -13118800000.0 -13151500000.0 -13127700000.0 -12549700000.0 -13361500000.0 -12584500000.0 -12792100000.0 -12799100000.0 -12555500000.0 -12551400000.0 -12633900000.0 -12579400000.0 -12609500000.0 -12549700000.0 -12549700000.0 -12549700000.0 -12549700000.0 -12549700000.0 -12549700000.0 -12549700000.0 -12549700000.0 -12549700000.0 -12549700000.0 -12549700000.0 -12549700000.0 -12549700000.0 -12549700000.0 -12549700000.0 -12567500000.0 -12670000000.0 -12589700000.0 -12620300000.0 -12592600000.0 -12626500000.0 -12749500000.0 -12755800000.0 -12970700000.0 -12823700000.0 -12566300000.0 -12560600000.0 -13146300000.0 -12731500000.0 -12549700000.0 -12549900000.0 -12608000000.0 -12628700000.0 -12568300000.0 -12549700000.0 -12549700000.0 -12549700000.0 -12549700000.0 -12549700000.0 -12549700000.0 -12549700000.0 -12549700000.0 -12549700000.0 -12549700000.0 -12549700000.0 -12549700000.0 -12549700000.0 -12549700000.0 -12549700000.0 -12549700000.0 -12549700000.0 -12549700000.0 -12557900000.0 -12623200000.0 -12629500000.0 -12625800000.0 -12615200000.0 -12552800000.0 -12607000000.0 -12560000000.0 -12619500000.0 -12712100000.0 -12595100000.0 -12640400000.0 -12602400000.0 -12659800000.0 -12584900000.0 -12666000000.0 -12579500000.0 -12986600000.0 -12549700000.0 -12743600000.0 -12739100000.0 -12549700000.0 -12574400000.0 -12561300000.0 -12549700000.0 -12549700000.0 -12549700000.0 -12549700000.0 -12549700000.0 -12549700000.0 -12549700000.0 -12549700000.0 -12549700000.0 -12549700000.0 -12549700000.0 -12549700000.0 -12549700000.0 -12551000000.0 -12554300000.0 -12573900000.0 -12595500000.0 -12554100000.0 -12549700000.0 -12567300000.0 -12625100000.0 -12561700000.0 -12549700000.0 -12636200000.0 -12551600000.0 -12601600000.0 -12669500000.0 -12638800000.0 -12737500000.0 -12549700000.0 -12775300000.0 -12549700000.0 -12560300000.0 -12549700000.0 -12549700000.0 -12549700000.0 -12549700000.0 -12549700000.0 -12549700000.0 -12549700000.0 -12549700000.0 -12549700000.0 -12551500000.0 -12550400000.0 -12568400000.0 -12549700000.0 -12555600000.0 -12552800000.0 -12552600000.0 -12596000000.0 -12560100000.0 -12553200000.0 -12642700000.0 -12596600000.0 -12576200000.0 -12605500000.0 -12549800000.0 -12578300000.0 -12557900000.0 -12551700000.0 -12694700000.0 -12645400000.0 -12576100000.0 -12549700000.0 -12549700000.0 -12549700000.0 -12549700000.0 -12549700000.0 -12549700000.0 -12553000000.0 -12562200000.0 -12556100000.0 -12557300000.0 -12551300000.0 -12576700000.0 -12550000000.0 -12630800000.0 -12591600000.0 -12549700000.0 -12556900000.0 -12553400000.0 -12549700000.0 -12561300000.0 -12552800000.0 -12555100000.0 -12553500000.0 -12551100000.0 -12565500000.0 -12552900000.0 -12549700000.0 -12549700000.0 -12549700000.0 -12549700000.0 -12549700000.0 -12549700000.0 -12549700000.0 -12549700000.0 -12549700000.0 -12549700000.0 -12549700000.0 -12549700000.0 -12549700000.0 -12549700000.0 -12551100000.0 -12551900000.0 -12557100000.0 -12560200000.0 -12578100000.0 -12576400000.0 -12593000000.0 -12550400000.0 -12553200000.0 -12552800000.0 -12550400000.0 -12550100000.0 -12549900000.0 -12549800000.0 -12549700000.0 -12549700000.0 -12549700000.0 -12549700000.0 -12549700000.0 -12549700000.0 -12549700000.0 -12549700000.0 -12549700000.0 -12549700000.0 -12549700000.0 -12549700000.0 -12549700000.0 -12549700000.0 -12549700000.0 -12549700000.0 -2.67487e+12 -4.12813e+12 -3.68375e+12 -4.86627e+12 -4.05263e+12 -4.1142e+12 -3.93262e+12 -3.78449e+12 -3.54249e+12 -3.19712e+12 -5.79583e+12 -2.99985e+12 -3.52013e+12 -5.09841e+12 -4.79105e+12 -6.32074e+12 -4.4161e+12 -3.20806e+12 -3.9354e+12 -3.03262e+12 -4.31165e+12 -5.20159e+12 -5.42642e+12 -4.97105e+12 -4.94292e+12 -3.76373e+12 -4.00767e+12 -3.70039e+12 -4.49153e+12 -4.16116e+12 -5.5647e+12 -4.99579e+12 -4.46972e+12 -3.44908e+12 -2.20275e+12 -4.25287e+12 -4.21541e+12 -3.77383e+12 -6.50308e+12 -3.77001e+12 -4.86858e+12 -4.74873e+12 -3.74678e+12 -3.80138e+12 -3.45434e+12 -4.19171e+12 -4.31899e+12 -3.3015e+12 -3.94689e+12 -5.09262e+12 -4.32167e+12 -2.23116e+12 -3.4152e+12 -2.19594e+12 -3.24994e+12 -12618400000.0 -12282000000.0 -4.76165e+12 -4.17794e+12 -7.07786e+12 -4.45914e+12 -3.21397e+12 -4.77417e+12 -4.51095e+12 -4.22309e+12 -3.96655e+12 -5.89629e+12 -6.5737e+12 -5.27514e+12 -3.71633e+12 -5.28379e+12 -7.33046e+12 -4.53013e+12 -4.99401e+12 -5.70162e+12 -4.60255e+12 -4.42255e+12 -6.6203e+12 -5.95981e+12 -2.56176e+12 -4.07365e+12 -3.769e+12 -3.67271e+12 -4.65059e+12 -4.00685e+12 -3.88904e+12 -5.21806e+12 -4.60836e+12 -3.90014e+12 -4.38098e+12 -4.55923e+12 -2.69654e+12 -5.21948e+12 -4.12762e+12 -5.72769e+12 -6.49109e+12 -6.1124e+12 -5.86e+12 -5.26413e+12 -5.04675e+12 -6.71178e+12 -4.2937e+12 -4.94769e+12 -6.37765e+12 -4.28429e+12 -4.90932e+12 -2.85274e+12 -2.60668e+12 -6.63252e+12 -5.45295e+12 -8.63142e+12 -6.16307e+12 -6.1235e+12 -7.74884e+12 -1.11558e+13 -5.49117e+12 -7.27375e+12 -4.08158e+12 -5.7299e+12 -4.7467e+12 -7.2207e+12 -7.05877e+12 -1.88366e+12 -5.20637e+12 -6.89682e+12 -4.28577e+12 -4.76496e+12 -6.10245e+12 -2.51701e+12 -5.85467e+12 -5.49058e+12 -6.84709e+12 -7.17479e+12 -1.12035e+13 -5.36489e+12 -6.22885e+12 -6.35381e+12 -5.46617e+12 -9.10212e+12 -7.70505e+12 -8.7674e+12 -5.63286e+12 -5.79157e+12 -8.92806e+12 -9.29649e+12 -8.05243e+12 -5.48743e+12 -5.23754e+12 -7.47326e+12 -6.32674e+12 -7.09997e+12 -7.7038e+12 -6.60151e+12 -6.99264e+12 -4.71533e+12 -8.26841e+12 -7.55673e+12 -1.0842e+13 -2.86563e+12 -4.13337e+12 -2.84112e+12 -5.19597e+12 -7.69848e+12 -6.10997e+12 -6.41526e+12 -7.88334e+12 -5.51053e+12 -6.98349e+12 -6.68455e+12 -3.1612e+12 -4.34094e+12 -4.23849e+12 -4.85802e+12 -4.62061e+12 -5.97972e+12 -5.06851e+12 -6.5432e+12 -9.40497e+12 -2.65691e+12 -1.05447e+13 -5.08246e+12 -4.09817e+12 -6.1352e+12 -3.84024e+12 -7.1665e+12 -7.18916e+12 -3.9495e+12 -4.8926e+12 -4.28082e+12 -5.0455e+12 -6.59057e+12 -4.47295e+12 -8.82562e+12 -7.90102e+12 -5.48224e+12 -1.00451e+13 -3.36891e+12 -4.94357e+12 -4.02427e+12 -2.33272e+12 -7.05011e+12 -5.17195e+12 -7.46736e+12 -4.24738e+12 -4.21326e+12 -6.22062e+12 -1.05638e+13 -6.49098e+12 -1.02998e+13 -7.20785e+12 -5.21364e+12 -8.95374e+12 -7.76665e+12 -5.30812e+12 -6.54549e+12 -7.64211e+12 -7.35704e+12 -4.62489e+12 -6.73683e+12 -8.83546e+12 -1.03452e+13 -5.09902e+12 -7.61202e+12 -7.7719e+12 -4.59773e+12 -5.61229e+12 -4.91541e+12 -8.30816e+12 -6.46979e+12 -6.84269e+12 -8.38385e+12 -6.82128e+12 -6.27831e+12 -6.24525e+12 -7.10322e+12 -5.50596e+12 -1.50618e+12 -2.94581e+12 -5.62087e+12 -5.00173e+12 -4.29883e+12 -5.57534e+12 -6.44939e+12 -8.50424e+12 -1.01737e+13 -6.89893e+12 -5.62661e+12 -4.90834e+12 -6.35564e+12 -7.20992e+12 -3.81343e+12 -6.38872e+12 -8.25577e+12 -7.00816e+12 -4.8303e+12 -6.03872e+12 -7.74167e+12 -5.99324e+12 -6.1102e+12 -9.62694e+12 -5.67444e+12 -6.93906e+12 -7.52865e+12 -8.57399e+12 -7.84678e+12 -4.1251e+12 -5.49531e+12 -4.72062e+12 -6.54441e+12 -7.30394e+12 -6.98723e+12 -5.10236e+12 -7.83089e+12 -6.08959e+12 -5.43617e+12 -5.12899e+12 -7.45943e+12 -9.11825e+12 -4.73945e+12 -6.40943e+12 -1.7534e+12 -3.56562e+12 -4.6464e+12 -6.73538e+12 -6.89131e+12 -4.23596e+12 -5.95045e+12 -2.26771e+12 -5.60954e+12 -7.28314e+12 -5.67941e+12 -5.96738e+12 -4.96896e+12 -5.73957e+12 -6.98859e+12 -6.62605e+12 -6.71351e+12 -6.91299e+12 -5.01511e+12 -8.66784e+12 -7.64084e+12 -6.17223e+12 -5.75757e+12 -5.40827e+12 -8.40714e+12 -6.53484e+12 -4.90221e+12 -7.48331e+12 -6.41645e+12 -6.43664e+12 -8.51354e+12 -5.91539e+12 -9.91431e+12 -5.09066e+12 -5.99176e+12 -4.67141e+12 -9.53231e+12 -4.08392e+12 -5.50371e+12 -5.43307e+12 -6.23154e+12 -7.20723e+12 -3.87367e+12 -5.37808e+12 -7.95473e+12 -4.58798e+12 -6.46907e+12 -3.94684e+12 -3.56024e+12 -4.83497e+12 -5.09115e+12 -6.9366e+12 -2.48105e+12 -5.09184e+12 -4.40242e+12 -4.08831e+12 -3.07569e+12 -2.32764e+12 -4.36047e+12 -4.59546e+12 -5.91437e+12 -6.23902e+12 -1.09647e+13 -8.09908e+12 -9.3145e+12 -6.68307e+12 -6.10615e+12 -2.92192e+12 -6.62325e+12 -5.7215e+12 -2.63422e+12 -4.40361e+12 -3.78974e+12 -5.84474e+12 -4.21251e+12 -3.80689e+12 -7.45907e+12 -5.60966e+12 -5.38966e+12 -4.02849e+12 -5.73317e+12 -1.03127e+13 -6.60341e+12 -6.07942e+12 -3.85189e+12 -9.32318e+12 -9.6191e+12 -7.58652e+12 -3.73969e+12 -7.93394e+12 -4.58876e+12 -6.09302e+12 -4.86433e+12 -6.38989e+12 -5.12511e+12 -6.14624e+12 -6.50974e+12 -6.51612e+12 -6.09702e+12 -4.47525e+12 -7.27738e+12 -8.079e+12 -4.95424e+12 -5.81152e+12 -8.32192e+12 -3.75947e+12 -3.89288e+12 -3.66726e+12 -5.66543e+12 -5.94397e+12 -4.02861e+12 -5.88032e+12 -3.94612e+12 -4.83487e+12 -4.84126e+12 -7.26684e+12 -8.91846e+12 -4.49602e+12 -4.14444e+12 -3.07892e+12 -2.15594e+12 -6.62596e+12 -4.438e+12 -8.9852e+12 -7.38249e+12 -6.23204e+12 -6.93055e+12 -1.0188e+13 -5.13032e+12 -3.79451e+12 -4.63227e+12 -5.93303e+12 -4.83395e+12 -5.00506e+12 -6.32593e+12 -4.86607e+12 -6.17611e+12 -4.9643e+12 -5.00942e+12 -4.1778e+12 -5.22768e+12 -4.15584e+12 -4.68577e+12 -4.19224e+12 -7.34544e+12 -7.39018e+12 -8.2321e+12 -7.22387e+12 -4.06742e+12 -4.85129e+12 -4.3088e+12 -3.56017e+12 -2.30724e+12 -6.07933e+12 -4.43061e+12 -4.39982e+12 -5.17914e+12 -4.0407e+12 -8.0682e+12 -9.19121e+12 -6.79045e+12 -5.89723e+12 -4.19922e+12 -5.33669e+12 -5.37898e+12 -7.39566e+12 -3.3241e+12 -5.6783e+12 -3.88545e+12 -7.82543e+12 -4.63037e+12 -6.05868e+12 -6.07148e+12 -7.39536e+12 -6.11912e+12 -6.72972e+12 -5.74621e+12 -5.05028e+12 -3.72591e+12 -5.12564e+12 -4.43065e+12 -3.24092e+12 -4.45045e+12 -5.67943e+12 -5.06001e+12 -7.54035e+12 -8.4566e+12 -5.19915e+12 -4.30952e+12 -5.76993e+12 -4.29057e+12 -5.84512e+12 -5.6653e+12 -7.22834e+12 -4.15918e+12 -8.17881e+12 -4.28637e+12 -8.52591e+12 -3.38904e+12 -3.49596e+12 -2.99091e+12 -2.90089e+12 -2.28065e+12 -3.76252e+12 -3.7836e+12 -8.54116e+12 -2.8979e+12 -3.62309e+12 -3.00747e+12 -5.1144e+12 -5.42669e+12 -5.52543e+12 -4.67164e+12 -2.55217e+12 -4.99423e+12 -7.53731e+12 -6.78808e+12 -7.67566e+12 -6.32567e+12 -6.80433e+12 -3.58136e+12 -4.03514e+12 -5.73372e+12 -6.2704e+12 -6.01545e+12 -7.58387e+12 -4.38585e+12 -5.89984e+12 -5.50555e+12 -5.76339e+12 -3.28502e+12 -3.57949e+12 -4.28744e+12 -5.49355e+12 -5.3612e+12 -3.53201e+12 -4.40294e+12 -4.451e+12 -7.34128e+12 -6.40115e+12 -3.34412e+12 -4.39336e+12 -3.08895e+12 -7.28923e+12 -4.29747e+12 -5.7432e+12 -3.79408e+12 -4.2409e+12 -4.95837e+12 -3.00013e+12 -4.45005e+12 -1.01238e+13 -4.4041e+12 -6.69798e+12 -8.00599e+12 -4.1838e+12 -4.52663e+12 -655606000000.0 -5.99543e+12 -4.15391e+12 -9.75675e+12 -4.22501e+12 -5.02686e+12 -5.34228e+12 -4.95773e+12 -4.2099e+12 -3.80688e+12 -4.6219e+12 -2.96553e+12 -4.9069e+12 -4.22965e+12 -7.03388e+12 -6.14998e+12 -4.70965e+12 -2.74887e+12 -6.79215e+12 -6.67788e+12 -4.11876e+12 -8.12622e+12 -6.06478e+12 -5.16764e+12 -7.52574e+12 -7.46215e+12 -4.16573e+12 -7.14911e+12 -2.78463e+12 -6.00641e+12 -6.75806e+12 -7.37206e+12 -3.37662e+12 -3.70055e+12 -6.70206e+12 -5.12238e+12 -5.70883e+12 -7.48356e+12 -6.24403e+12 -6.79361e+12 -8.53373e+12 -3.08508e+12 -4.81736e+12 -3.45357e+12 -4.59382e+12 -5.37183e+12 -3.6637e+12 -2.29283e+12 -2.22311e+12 -2.05666e+12 -4.67498e+12 -6.95265e+12 -4.31135e+12 -4.30201e+12 -3.52511e+12 -3.55505e+12 -3.54432e+12 -3.94756e+12 -3.74496e+12 -3.38498e+12 -6.47671e+12 -4.3454e+12 -3.89402e+12 -3.83798e+12 -5.10594e+12 -6.31061e+12 -5.34371e+12 -3.03704e+12 -3.94141e+12 -3.64272e+12 -4.39475e+12 -3.67983e+12 -5.2815e+12 -4.81792e+12 -5.25821e+12 -3.14711e+12 -3.43006e+12 -6.2659e+12 -5.00228e+12 -4.22871e+12 -5.12932e+12 -3.35302e+12 -1.97306e+12 -3.64558e+12 -5.65143e+12 -4.57864e+12 -5.90435e+12 -7.26151e+12 -2.59276e+12 -2.90951e+12 -4.45407e+12 -3.44495e+12 -4.40367e+12 -5.87057e+12 -2.20981e+12 -6.06453e+12 -4.5123e+12 -4.95671e+12 -6.16125e+12 -5.26791e+12 -4.43455e+12 -3.30974e+12 -5.2276e+12 -3.79313e+12 -2.79894e+12 -6.46742e+12 -7.39148e+12 -4.70744e+12 -6.37608e+12 -3.04569e+12 -6.98075e+12 -4.96567e+12 -1.98779e+12 -5.73606e+12 -2.37663e+12 -6.31586e+12 -6.19291e+12 -4.39404e+12 -5.78542e+12 -3.94229e+12 -4.68429e+12 -6.14742e+12 -5.47247e+12 -5.85923e+12 -6.04025e+12 -5.84692e+12 -5.72752e+12 -6.20078e+12 -5.21251e+12 -2.52644e+12 -6.3574e+12 -1.69663e+12 -5.32595e+12 -4.77551e+12 -3.60299e+12 -1.46365e+12 -4.83834e+12 -5.29241e+12 -4.2798e+12 -5.68237e+12 -3.70825e+12 -4.81777e+12 -8.57245e+12 -3.34314e+12 -5.46121e+12 -3.18182e+12 -3.21247e+12 -5.48348e+12 -4.15028e+12 -5.7257e+12 -3.87584e+12 -4.69046e+12 -4.04105e+12 -3.49921e+12 -5.85187e+12 -5.18469e+12 -1.40473e+12 -6.20347e+12 -2.99549e+12 -5.59307e+12 -3.58923e+12 -4.93638e+12 -4.09244e+12 -3.89207e+12 -2.8615e+12 -4.30089e+12 -5.46818e+12 -4.12906e+12 -2.91476e+12 -6.1529e+12 -1.80198e+12 -4.50234e+12 -5.37194e+12 -5.77068e+12 -6.69358e+12 -3.50226e+12 -4.67262e+12 -3.86695e+12 -2.59753e+12 -3.62884e+12 -3.75534e+12 -4.20866e+12 -6.68862e+12 -6.9088e+12 -3.91356e+12 -8.33529e+12 -2.75028e+12 -6.01251e+12 -2.80878e+12 -3.67343e+12 -3.4179e+12 -3.6737e+12 -2.49604e+12 -3.62367e+12 -6.02857e+12 -3.91486e+12 -4.86541e+12 -5.81939e+12 -5.79473e+12 -3.69036e+12 -6.50477e+12 -3.10552e+12 -2.30861e+12 -5.95925e+12 -4.60428e+12 -5.27098e+12 -4.30615e+12 -2.78805e+12 -1.98429e+12 -6.72421e+12 -2.77667e+12 -4.12811e+12 -4.00281e+12 -6.67553e+12 -4.02629e+12 -5.66396e+12 -2.97134e+12 -4.39415e+12 -4.36753e+12 -4.1608e+12 -4.93604e+12 -2.83553e+12 -5.62556e+12 -4.61434e+12 -4.17228e+12 -5.27884e+12 -2.84369e+12 -3.20053e+12 -2.69843e+12 -3.82989e+12 -4.04138e+12 -4.61981e+12 -2.41948e+12 -3.85243e+12 -3.05032e+12 -4.61508e+12 -5.34746e+12 -2.67808e+12 -5.01483e+12 -4.35077e+12 -3.50785e+12 -2.75548e+12 -4.3063e+12 -3.07304e+12 -3.53621e+12 -3.75057e+12 -3.54991e+12 -5.6221e+12 -3.30651e+12 -2.92316e+12 -4.18406e+12 -3.48597e+12 -3.06483e+12 -2.83847e+12 -3.01657e+12 -2.22706e+12 -3.8971e+12 -2.48674e+12 -4.24142e+12 -3.77678e+12 -4.64721e+12 -2.75429e+12 -3.43144e+12 -6.61006e+12 -4.51749e+12 -2.6293e+12 -4.24377e+12 -2.20884e+12 -3.60884e+12 -3.81246e+12 -3.57171e+12 -3.0493e+12 -3.53601e+12 -1.95799e+12 -2.81844e+12 -3.25079e+12 -5.13872e+12 -5.18179e+12 -4.17445e+12 -2.29712e+12 -4.15198e+12 -3.23537e+12 -1.87788e+12 -4.23425e+12 -4.85304e+12 -3.4636e+12 -1.69416e+12 -3.94687e+12 -2.81393e+12 -4.23862e+12 -5.47143e+12 -2.85199e+12 -4.47966e+12 -2.14466e+12 -5.40712e+12 -2.6953e+12 -6.07794e+12 -6.91753e+12 -5.08731e+12 -5.85586e+12 -2.6928e+12 -2.189e+12 -3.54342e+12 -2.84034e+12 -2.2907e+12 -2.72351e+12 -4.5531e+12 -2.67537e+12 -2.88753e+12 -3.22661e+12 -1.09245e+12 -3.16233e+12 -772216000000.0 -3.87927e+12 -1.4624e+12 -4.50438e+12 -2.89053e+12 -4.31285e+12 -3.01339e+12 -3.07406e+12 -3.96884e+12 -2.26413e+12 -2.28332e+12 -3.39255e+12 -4.57802e+12 -5.7125e+12 -1.65968e+12 -3.20823e+12 -4.2825e+12 -3.00947e+12 -4.13878e+12 -4.8534e+12 -3.9801e+12 -5.04045e+12 -2.76505e+12 -3.39415e+12 -7.03523e+12 -2.6313e+12 -2.18816e+12 -2.08276e+12 -2.01606e+12 -2.23225e+12 -2.8651e+12 -4.64766e+12 -1.99274e+12 -3.06591e+12 -2.69647e+12 -3.83927e+12 -2.05101e+12 -4.62199e+12 -2.54786e+12 -2.15048e+12 -1.62974e+12 -4.02883e+12 -2.77935e+12 -3.10661e+12 -2.47368e+12 -3.23638e+12 -4.37666e+12 -3.44126e+12 -1.84553e+12 -2.95746e+12 -3.71942e+12 -2.40395e+12 -2.72784e+12 -3.21892e+12 -3.61126e+12 -2.82295e+12 -2.7409e+12 -2.86164e+12 -1.94246e+12 -3.84145e+12 -5.15575e+12 -2.02048e+12 -2.80721e+12 -4.82289e+12 -3.4911e+12 -2.63948e+12 -3.37674e+12 -3.06976e+12 -1.4573e+12 -2.85915e+12 -1.499e+12 -2.98604e+12 -2.82499e+12 -3.4431e+12 -1.21367e+12 -3.17428e+12 -4.36923e+12 -2.90181e+12 -3.29882e+12 -2.95329e+12 -4.15431e+12 -2.82139e+12 -2.66607e+12 -2.79883e+12 -1.62627e+12 -1.67034e+12 -3.25357e+12 -5.81156e+12 -1.74531e+12 -3.7536e+12 -3.59004e+12 -2.01549e+12 -2.8234e+12 -3.37077e+12 -3.61107e+12 -5.27317e+12 -3.14132e+12 -1.5924e+12 -2.17013e+12 -2.97677e+12 -2.58423e+12 -2.52036e+12 -3.07777e+12 -2.53216e+12 -1.99717e+12 -4.26628e+12 -3.24132e+12 -2.18712e+12 -5.11928e+12 -2.8662e+12 -3.63132e+12 -4.0987e+12 -4.91801e+12 -1.77998e+12 -2.81297e+12 -3.44111e+12 -1.35211e+12 -3.02631e+12 -3.0026e+12 -2.84153e+12 -3.94129e+12 -5.03196e+12 -3.04917e+12 -2.99404e+12 -1.87287e+12 -4.96726e+12 -3.43234e+12 -1.91617e+12 -2.56204e+12 -2.6693e+12 -3.43511e+12 -4.52833e+12 -3.62229e+12 -3.14344e+12 -3.03699e+12 -2.08844e+12 -2.6623e+12 -2.30482e+12 -2.10129e+12 -2.35625e+12 -206584000000.0 -2.45918e+12 -2.4803e+12 -1.69392e+12 -3.56613e+12 -2.60292e+12 -2.24202e+12 -1.93611e+12 -2.14065e+12 -1.42998e+12 -1.6271e+12 -1.04477e+12 -2.93291e+12 -2.82968e+12 -2.16552e+12 -4.33518e+12 -3.14682e+12 -2.84611e+12 -3.52597e+12 -1.79886e+12 -1.42547e+12 -3.00467e+12 -4.71666e+12 -2.39247e+12 -4.15831e+12 -3.17604e+12 -1.58136e+12 -2.51308e+12 -3.93075e+12 -4.16657e+12 -4.41334e+12 -5.63329e+12 -1.97513e+12 -2.93093e+12 -1.71796e+12 -2.61635e+12 -1.62775e+12 -2.62878e+12 -2.68409e+12 -1.91062e+12 -1.85605e+12 -1.32165e+12 -1.88888e+12 -1.59071e+12 -3.71406e+12 -1.13302e+12 -2.30275e+12 -3.58756e+12 -2.17042e+12 -1.25486e+12 -1.94503e+12 -920902000000.0 -1.12389e+12 -3.94466e+12 -2.78841e+12 -2.97964e+12 -2.07579e+12 -2.01772e+12 -3.52068e+12 -2.08709e+12 -1.68747e+12 -3.16179e+12 -1.56888e+12 -1.55689e+12 -2.52449e+12 -3.06968e+12 -3.64025e+12 -2.30863e+12 -1.9963e+12 -2.02195e+12 -2.24396e+12 -1.7462e+12 -1.51659e+12 -3.15145e+12 -4.14559e+12 -5.02307e+12 -2.99144e+12 -4.36814e+12 -3.05765e+12 -3.38213e+12 -1.46415e+12 -3.99818e+12 -1.16364e+12 -1.55128e+12 -2.42459e+12 -2.19889e+12 -2.01522e+12 -2.50431e+12 -1.82539e+12 -3.1293e+12 -2.13749e+12 -1.55508e+12 -2.77033e+12 -2.75543e+12 -2.53571e+12 -1.13106e+12 -2.67132e+12 -2.85503e+12 -1.06761e+12 -2.67727e+12 -1.15015e+12 -1.39839e+12 -1.95472e+12 -1.34826e+12 -853721000000.0 -1.82337e+12 -2.14863e+12 -1.48128e+12 -1.37436e+12 -1.28289e+12 -2.2863e+12 -1.66819e+12 -1.83308e+12 -1.36927e+12 -2.08004e+12 -2.14996e+12 -2.42677e+12 -2.02726e+12 -1.72811e+12 -1.79446e+12 -2.68833e+12 -1.09501e+12 -2.43221e+12 -2.50205e+12 -2.34582e+12 -3.44713e+12 -1.4233e+12 -2.21098e+12 -2.22496e+12 -1.52763e+12 -2.75511e+12 -1.47691e+12 -2.4635e+12 -1.02401e+12 -1.6356e+12 -2.01548e+12 -3.28562e+12 -2.9969e+12 -2.64414e+12 -2.71388e+12 -1.50623e+12 -1.62478e+12 -2.79072e+12 -1.30134e+12 -2.77497e+12 -2.06945e+12 -1.27387e+12 -1.87249e+12 -2.19277e+12 -652193000000.0 -1.49349e+12 -2.39873e+12 -1.84102e+12 -2.49748e+12 -1.59838e+12 -3.14882e+12 -1.11861e+12 -1.71261e+12 -2.43281e+12 -909171000000.0 -1.8359e+12 -1.4544e+12 -3.76971e+12 -2.64474e+12 -1.97781e+12 -2.54733e+12 -925398000000.0 -2.6705e+12 -879896000000.0 -2.17431e+12 -2.8496e+12 -2.14851e+12 -1.43377e+12 -2.01846e+12 -1.44357e+12 -1.49728e+12 -1.23955e+12 -2.59353e+12 -2.25307e+12 -2.2448e+12 -2.13117e+12 -3.02577e+12 -2.85182e+12 -1.51286e+12 -1.57717e+12 -1.6318e+12 -1.79508e+12 -1.89891e+12 -2.98086e+12 -1.69154e+12 -1.92507e+12 -1.09589e+12 -2.14485e+12 -331353000000.0 -2.2214e+12 -463472000000.0 -1.2984e+12 -2.15067e+12 -2.12047e+12 -888572000000.0 -1.03926e+12 -1.55989e+12 -945976000000.0 -1.3382e+12 -1.45986e+12 -1.14104e+12 -970674000000.0 -2.26031e+12 -1.60769e+12 -1.84379e+12 -979493000000.0 -1.60749e+12 -1.30603e+12 -2.41086e+12 -906283000000.0 -1.47312e+12 -1.19029e+12 -1.31084e+12 -1.91934e+12 -562106000000.0 -1.12579e+12 -1.22435e+12 -1.17653e+12 -2.19464e+12 -1.09501e+12 -412081000000.0 -1.05462e+12 -1.32491e+12 -401199000000.0 -575965000000.0 -1.71911e+12 -1.15791e+12 -1.62556e+12 -2.06141e+12 -1.90768e+12 -449891000000.0 -969687000000.0 -2.33771e+12 -1.1743e+12 -932776000000.0 -914184000000.0 -518646000000.0 -613045000000.0 -1.50136e+12 -1.06161e+12 -2.28668e+12 -1.92367e+12 -2.38709e+12 -1.07675e+12 -449381000000.0 -1.51004e+12 -759838000000.0 -1.44573e+12 -1.74187e+12 -1.56196e+12 -1.06618e+12 -1.63883e+12 -2.10968e+12 -1.12294e+12 -1.09222e+12 -648412000000.0 -1.23748e+12 -1.01158e+12 -1.54475e+12 -563214000000.0 -1.10506e+12 -1.91841e+12 -963434000000.0 -1.46137e+12 -1.26256e+12 -1.36144e+12 -2.41501e+12 -2.1539e+12 -1.1937e+12 -1.67251e+12 -1.19377e+12 -1.64802e+12 -1.7854e+12 -3.16802e+12 -1.25457e+12 -2.30965e+12 -1.37695e+12 -1.84113e+12 -522013000000.0 -570663000000.0 -883017000000.0 -969596000000.0 -877696000000.0 -195822000000.0 -82600300000.0 -1.15854e+12 -349571000000.0 -799939000000.0 -523057000000.0 -705935000000.0 -1.19086e+12 -959201000000.0 -293370000000.0 -672887000000.0 -504860000000.0 -691762000000.0 -247450000000.0 -482742000000.0 -161181000000.0 -359368000000.0 -1.06895e+12 -72205500000.0 -589593000000.0 -230195000000.0 -1.10945e+12 -968799000000.0 -949969000000.0 -806020000000.0 -247998000000.0 -622775000000.0 -1.09024e+12 -182939000000.0 -195623000000.0 -856210000000.0 -157310000000.0 -664947000000.0 -1.29357e+12 -537884000000.0 -979772000000.0 -844010000000.0 -610023000000.0 -449584000000.0 -1.0751e+12 -579221000000.0 -186446000000.0 -299044000000.0 -336720000000.0 -185922000000.0 -490695000000.0 -1.49428e+12 -1.15235e+12 -247127000000.0 -479091000000.0 -223399000000.0 -625158000000.0 -437353000000.0 -608934000000.0 -153715000000.0 -835126000000.0 -949209000000.0 -772851000000.0 -336410000000.0 -628028000000.0 -489301000000.0 -813380000000.0 -165031000000.0 -465271000000.0 -86253100000.0 -800298000000.0 -182377000000.0 -392003000000.0 -394546000000.0 -367951000000.0 -234906000000.0 -164814000000.0 -258650000000.0 -693571000000.0 -462231000000.0 -1.28142e+12 -281700000000.0 -1.35833e+12 -889894000000.0 -217724000000.0 -505700000000.0 -270198000000.0 -1.09226e+12 -153137000000.0 -258211000000.0 -360329000000.0 -605388000000.0 -186243000000.0 -401158000000.0 -627524000000.0 -649023000000.0 -1.06143e+12 -608208000000.0 -649124000000.0 -441182000000.0 -256983000000.0 -260298000000.0 -196754000000.0 -262294000000.0 -360765000000.0 -258650000000.0 -447843000000.0 -422278000000.0 -218314000000.0 -397609000000.0 -305586000000.0 -98586500000.0 -214119000000.0 -246355000000.0 -292707000000.0 -114656000000.0 -194934000000.0 -140900000000.0 -178911000000.0 