# vtk DataFile Version 2.0
Time step 15
ASCII
DATASET UNSTRUCTURED_GRID
POINTS 5000 float
2397.91 199599.0 0
8492.36 198980.0 0
12438.2 198808.0 0
16749.2 198141.0 0
22243.6 199752.0 0
27679.1 196525.0 0
33174.2 199205.0 0
38163.1 199784.0 0
42682.4 199912.0 0
47481.3 199841.0 0
52137.1 199918.0 0
57008.0 198766.0 0
62763.5 199833.0 0
67994.7 199967.0 0
72699.6 199112.0 0
77500.0 199846.0 0
82500.0 199835.0 0
87408.9 199139.0 0
92500.0 199873.0 0
97200.3 199895.0 0
101300.0 199811.0 0
105956.0 199221.0 0
111931.0 199694.0 0
117845.0 199866.0 0
123325.0 199943.0 0
128340.0 200062.0 0
133422.0 199313.0 0
138119.0 199995.0 0
142500.0 199917.0 0
147500.0 199850.0 0
152501.0 199820.0 0
157586.0 199457.0 0
162556.0 199613.0 0
167015.0 199170.0 0
171833.0 198045.0 0
177737.0 198081.0 0
182942.0 197269.0 0
187399.0 199117.0 0
192500.0 200268.0 0
196089.0 199441.0 0
201752.0 198797.0 0
207652.0 199555.0 0
212989.0 198911.0 0
218130.0 199977.0 0
222481.0 199989.0 0
225805.0 199257.0 0
230432.0 199114.0 0
235810.0 200095.0 0
241170.0 198800.0 0
252675.0 198779.0 0
259045.0 199269.0 0
263771.0 200340.0 0
268744.0 199273.0 0
273939.0 199566.0 0
278880.0 198198.0 0
286327.0 199837.0 0
291718.0 200298.0 0
297320.0 198167.0 0
303658.0 198980.0 0
312124.0 199372.0 0
317925.0 200008.0 0
323242.0 199913.0 0
327579.0 200163.0 0
332204.0 199763.0 0
337221.0 199473.0 0
345898.0 199031.0 0
355279.0 199963.0 0
361821.0 198575.0 0
372010.0 196625.0 0
367952.0 199939.0 0
377026.0 198602.0 0
382607.0 199458.0 0
388126.0 198736.0 0
394013.0 198059.0 0
399185.0 199752.0 0
403639.0 197016.0 0
408578.0 198220.0 0
412479.0 199858.0 0
417500.0 199879.0 0
422728.0 198026.0 0
427273.0 199705.0 0
432490.0 197534.0 0
437537.0 199857.0 0
442104.0 198814.0 0
446266.0 198380.0 0
450677.0 199162.0 0
455220.0 199128.0 0
460245.0 199000.0 0
465799.0 199340.0 0
471634.0 198601.0 0
477069.0 197410.0 0
481323.0 200255.0 0
485847.0 197311.0 0
491674.0 198859.0 0
497601.0 197351.0 0
2281.4 204661.0 0
6043.4 202317.0 0
11072.5 203321.0 0
17313.8 204045.0 0
22984.5 205302.0 0
28497.4 202880.0 0
34949.5 204476.0 0
40321.5 204801.0 0
44444.4 205139.0 0
48255.1 203842.0 0
52500.0 204878.0 0
57987.0 204209.0 0
62843.3 204932.0 0
67505.2 204604.0 0
72131.8 204233.0 0
77500.0 205004.0 0
82116.1 204650.0 0
87904.7 203898.0 0
92500.0 205013.0 0
97187.9 204669.0 0
102467.0 204547.0 0
108248.0 203815.0 0
112500.0 204949.0 0
117500.0 205031.0 0
122500.0 204954.0 0
127726.0 204501.0 0
132493.0 204847.0 0
137520.0 204862.0 0
142772.0 204341.0 0
146946.0 204690.0 0
151957.0 204568.0 0
156882.0 203510.0 0
161317.0 204334.0 0
166530.0 203843.0 0
172960.0 203617.0 0
178363.0 203495.0 0
183520.0 202338.0 0
188592.0 203567.0 0
193560.0 204416.0 0
198242.0 203794.0 0
203921.0 204418.0 0
213693.0 203461.0 0
209357.0 204641.0 0
217611.0 205044.0 0
222044.0 204839.0 0
226816.0 203490.0 0
232221.0 204523.0 0
237702.0 205340.0 0
243300.0 205200.0 0
246500.0 200806.0 0
248448.0 204885.0 0
252664.0 205349.0 0
257250.0 203905.0 0
262325.0 204518.0 0
267098.0 204127.0 0
271641.0 203453.0 0
277030.0 203857.0 0
282030.0 201528.0 0
282827.0 205215.0 0
287500.0 204927.0 0
292891.0 204795.0 0
298237.0 203679.0 0
303101.0 204648.0 0
307740.0 201541.0 0
307457.0 204834.0 0
312501.0 205122.0 0
317499.0 204886.0 0
322447.0 204384.0 0
327500.0 204908.0 0
332500.0 204980.0 0
341017.0 200685.0 0
337703.0 204333.0 0
343299.0 203715.0 0
350697.0 200931.0 0
347732.0 204151.0 0
352665.0 204828.0 0
361460.0 203888.0 0
357778.0 204381.0 0
365135.0 203627.0 0
372928.0 203424.0 0
378829.0 203146.0 0
382016.0 204278.0 0
388363.0 203824.0 0
393542.0 204198.0 0
402978.0 203214.0 0
398125.0 204626.0 0
408366.0 202500.0 0
412845.0 203802.0 0
417504.0 204387.0 0
422129.0 202664.0 0
428271.0 204660.0 0
433397.0 202774.0 0
437500.0 204921.0 0
443206.0 203102.0 0
447589.0 202388.0 0
451928.0 203648.0 0
457157.0 203868.0 0
462425.0 205299.0 0
466602.0 203909.0 0
470199.0 205077.0 0
475190.0 203891.0 0
480807.0 205529.0 0
486601.0 203521.0 0
496838.0 202860.0 0
2238.62 210517.0 0
6748.57 207360.0 0
11848.0 209186.0 0
16326.2 209254.0 0
20504.7 209277.0 0
27020.7 209712.0 0
32602.4 209557.0 0
38236.7 209310.0 0
42944.8 209671.0 0
47568.6 208563.0 0
51787.0 210310.0 0
56539.9 209827.0 0
62100.2 209825.0 0
67680.3 209449.0 0
73695.4 209780.0 0
78214.1 210201.0 0
81957.6 209376.0 0
86963.3 209414.0 0
92531.5 209764.0 0
97547.4 209189.0 0
102630.0 210309.0 0
107925.0 208594.0 0
112498.0 209861.0 0
116736.0 209641.0 0
120857.0 209484.0 0
125871.0 208872.0 0
131165.0 210568.0 0
136452.0 210512.0 0
141005.0 208468.0 0
146319.0 209580.0 0
156256.0 208069.0 0
161712.0 210025.0 0
170008.0 208416.0 0
176304.0 209260.0 0
182191.0 207481.0 0
188057.0 209730.0 0
194268.0 209440.0 0
199980.0 208893.0 0
208107.0 209534.0 0
204287.0 209899.0 0
213297.0 208271.0 0
217709.0 209981.0 0
222569.0 209114.0 0
226878.0 208494.0 0
232454.0 209988.0 0
237442.0 209766.0 0
241804.0 210417.0 0
246863.0 208967.0 0
251808.0 210246.0 0
257716.0 208657.0 0
262699.0 209300.0 0
267463.0 208586.0 0
273020.0 208708.0 0
279892.0 207877.0 0
283576.0 210149.0 0
287237.0 210229.0 0
291043.0 209122.0 0
296759.0 208734.0 0
302254.0 209889.0 0
307716.0 209264.0 0
313219.0 210398.0 0
318203.0 209407.0 0
322516.0 208389.0 0
326816.0 210275.0 0
336505.0 208998.0 0
331860.0 210026.0 0
341403.0 207919.0 0
346829.0 208538.0 0
351885.0 209673.0 0
356023.0 208242.0 0
361250.0 208588.0 0
366511.0 207715.0 0
371106.0 209566.0 0
377674.0 209077.0 0
384367.0 207614.0 0
392423.0 209023.0 0
388349.0 210805.0 0
397215.0 208977.0 0
402853.0 209453.0 0
409233.0 208142.0 0
414387.0 210721.0 0
419097.0 209087.0 0
424087.0 207494.0 0
427663.0 210513.0 0
432229.0 208399.0 0
437315.0 209176.0 0
442320.0 208333.0 0
448234.0 207461.0 0
454128.0 209061.0 0
458950.0 210072.0 0
463113.0 209847.0 0
467507.0 210000.0 0
472368.0 208405.0 0
477767.0 209391.0 0
482613.0 210230.0 0
492086.0 205771.0 0
491511.0 209832.0 0
496595.0 209447.0 0
2182.12 214931.0 0
8047.06 213201.0 0
13468.2 213805.0 0
17747.9 213099.0 0
22409.8 213653.0 0
26960.1 215656.0 0
32039.7 213842.0 0
37557.1 214512.0 0
43172.0 214734.0 0
49063.0 213347.0 0
53807.2 214999.0 0
59213.2 214502.0 0
63609.0 214154.0 0
68062.9 215124.0 0
72601.8 214655.0 0
77067.5 214140.0 0
82135.4 214397.0 0
87332.7 214588.0 0
92268.9 215088.0 0
97735.0 214540.0 0
102768.0 215798.0 0
107692.0 214091.0 0
113101.0 214193.0 0
118130.0 214121.0 0
123410.0 213470.0 0
127500.0 215028.0 0
132685.0 215400.0 0
137734.0 214430.0 0
142523.0 214587.0 0
151845.0 211186.0 0
147998.0 214193.0 0
156819.0 213495.0 0
153395.0 215851.0 0
160407.0 214835.0 0
166533.0 211853.0 0
164428.0 215553.0 0
170842.0 214445.0 0
177034.0 215828.0 0
182232.0 212959.0 0
186626.0 215362.0 0
191646.0 214863.0 0
197218.0 214175.0 0
203048.0 214041.0 0
208744.0 215880.0 0
214360.0 213940.0 0
218730.0 215195.0 0
222069.0 213377.0 0
227552.0 214038.0 0
234285.0 214391.0 0
237819.0 213099.0 0
241803.0 215017.0 0
246271.0 214156.0 0
251531.0 215507.0 0
255887.0 213386.0 0
260351.0 213056.0 0
266376.0 213280.0 0
271773.0 214983.0 0
278361.0 213375.0 0
284358.0 214891.0 0
288764.0 213390.0 0
292988.0 215106.0 0
298946.0 215040.0 0
303985.0 215248.0 0
307500.0 215072.0 0
312166.0 214890.0 0
316225.0 214135.0 0
321048.0 213676.0 0
325839.0 215204.0 0
329891.0 213848.0 0
334368.0 215810.0 0
339785.0 213315.0 0
346083.0 214793.0 0
352839.0 215247.0 0
357351.0 212196.0 0
361678.0 214581.0 0
366573.0 212406.0 0
371936.0 215185.0 0
382813.0 213126.0 0
387361.0 214985.0 0
393038.0 215654.0 0
399506.0 214619.0 0
408062.0 213511.0 0
404311.0 214619.0 0
412364.0 215203.0 0
416956.0 214500.0 0
421357.0 215785.0 0
425630.0 214135.0 0
431035.0 214588.0 0
437141.0 213373.0 0
441845.0 213925.0 0
446557.0 212483.0 0
450873.0 213047.0 0
455463.0 214810.0 0
461258.0 214550.0 0
467031.0 214334.0 0
472638.0 213361.0 0
478878.0 214888.0 0
487502.0 211305.0 0
484737.0 215367.0 0
492127.0 213695.0 0
1495.24 219657.0 0
7125.68 219501.0 0
11874.0 217532.0 0
17132.3 218272.0 0
23020.4 219037.0 0
30203.0 218384.0 0
34855.8 219164.0 0
39742.4 218567.0 0
43637.3 220446.0 0
48516.8 218564.0 0
53097.0 220960.0 0
57195.3 218890.0 0
63068.8 218930.0 0
68322.5 220299.0 0
73363.6 218719.0 0
78264.0 219297.0 0
83555.4 219338.0 0
88364.9 219411.0 0
92500.0 219936.0 0
97249.5 219955.0 0
101208.0 219993.0 0
105600.0 219609.0 0
111308.0 218782.0 0
116642.0 219383.0 0
122098.0 218663.0 0
126924.0 219141.0 0
131220.0 219783.0 0
136577.0 218981.0 0
142211.0 220280.0 0
147009.0 218471.0 0
151791.0 220422.0 0
157928.0 219394.0 0
167057.0 218416.0 0
163674.0 220039.0 0
171004.0 220450.0 0
182926.0 219861.0 0
193686.0 218950.0 0
189196.0 219777.0 0
198245.0 220065.0 0
203172.0 219141.0 0
212121.0 220121.0 0
216334.0 218551.0 0
221192.0 218841.0 0
226327.0 220660.0 0
231992.0 218918.0 0
237942.0 217834.0 0
242854.0 219649.0 0
248046.0 219248.0 0
252908.0 219536.0 0
257738.0 218568.0 0
262648.0 216633.0 0
267617.0 219209.0 0
272712.0 220864.0 0
278484.0 220029.0 0
283577.0 219478.0 0
288840.0 218710.0 0
293491.0 219704.0 0
302639.0 219553.0 0
307147.0 219912.0 0
311973.0 219627.0 0
317009.0 218557.0 0
322337.0 219254.0 0
330990.0 219368.0 0
327195.0 220068.0 0
341474.0 218792.0 0
337090.0 219736.0 0
346757.0 220714.0 0
351675.0 220919.0 0
357887.0 218756.0 0
367122.0 217312.0 0
362974.0 219551.0 0
370216.0 220725.0 0
374588.0 220771.0 0
377881.0 216517.0 0
383268.0 219154.0 0
388179.0 219167.0 0
397919.0 220565.0 0
403065.0 218604.0 0
408168.0 218360.0 0
414643.0 218826.0 0
417908.0 220023.0 0
422453.0 220651.0 0
427472.0 218610.0 0
431201.0 220017.0 0
436072.0 218338.0 0
441944.0 219585.0 0
448282.0 218019.0 0
453998.0 219946.0 0
459412.0 220131.0 0
464945.0 219402.0 0
473840.0 218591.0 0
469605.0 220271.0 0
481996.0 219850.0 0
489145.0 216096.0 0
486781.0 219713.0 0
492182.0 220268.0 0
496758.0 216088.0 0
2746.08 223700.0 0
7839.1 225987.0 0
12641.1 222037.0 0
18077.0 224036.0 0
23728.4 224789.0 0
28630.3 222429.0 0
33595.5 224716.0 0
39090.7 223402.0 0
43686.9 224654.0 0
48633.2 224533.0 0
54131.8 225661.0 0
59685.8 223909.0 0
64839.2 224998.0 0
68266.5 224549.0 0
72206.6 222607.0 0
76337.8 224215.0 0
81961.4 224771.0 0
87904.8 224485.0 0
92652.1 224896.0 0
96918.8 224527.0 0
101502.0 224641.0 0
106445.0 224944.0 0
111048.0 223630.0 0
115388.0 224098.0 0
120872.0 224681.0 0
127443.0 224404.0 0
133300.0 224237.0 0
138723.0 224724.0 0
143739.0 224888.0 0
148384.0 224509.0 0
152801.0 224987.0 0
157001.0 225095.0 0
161426.0 223869.0 0
166775.0 223767.0 0
176731.0 222117.0 0
186863.0 224766.0 0
192393.0 224291.0 0
197829.0 225772.0 0
202612.0 223700.0 0
207330.0 221257.0 0
206600.0 225862.0 0
210633.0 224662.0 0
216374.0 224437.0 0
222675.0 224526.0 0
236053.0 222833.0 0
240973.0 225260.0 0
246453.0 225800.0 0
250942.0 223698.0 0
256797.0 224776.0 0
262860.0 222210.0 0
268282.0 224610.0 0
272902.0 225756.0 0
277861.0 226037.0 0
282092.0 223409.0 0
287112.0 224793.0 0
293044.0 224112.0 0
297509.0 221082.0 0
301884.0 223476.0 0
306188.0 225385.0 0
311444.0 225333.0 0
316889.0 223680.0 0
322357.0 225170.0 0
328016.0 224686.0 0
333902.0 223623.0 0
342284.0 224755.0 0
348056.0 225474.0 0
355635.0 223065.0 0
352366.0 225198.0 0
360562.0 224318.0 0
366557.0 224406.0 0
372562.0 225696.0 0
378586.0 224122.0 0
383462.0 223290.0 0
387281.0 223649.0 0
392182.0 221902.0 0
400403.0 224820.0 0
405317.0 223844.0 0
411952.0 222958.0 0
417749.0 224843.0 0
422937.0 225515.0 0
427244.0 222861.0 0
432201.0 224587.0 0
437052.0 223662.0 0
441830.0 225188.0 0
447092.0 224186.0 0
452630.0 225138.0 0
458095.0 225495.0 0
462539.0 225060.0 0
466537.0 224076.0 0
471799.0 224824.0 0
477645.0 221626.0 0
482262.0 225203.0 0
487740.0 224561.0 0
492486.0 226067.0 0
497460.0 221822.0 0
3047.45 229496.0 0
13598.8 227877.0 0
23860.7 230487.0 0
28757.4 227769.0 0
33699.1 230415.0 0
38511.0 228588.0 0
43234.2 228910.0 0
49644.0 229419.0 0
53670.6 230409.0 0
58556.9 229781.0 0
63405.8 228952.0 0
66998.9 229394.0 0
71712.5 227942.0 0
77988.1 229499.0 0
83411.9 230837.0 0
88036.1 229517.0 0
93061.9 229516.0 0
97990.1 229001.0 0
105801.0 229379.0 0
102085.0 230608.0 0
110783.0 228970.0 0
116659.0 228873.0 0
126513.0 229607.0 0
122677.0 230199.0 0
131237.0 228951.0 0
135261.0 230770.0 0
139783.0 230268.0 0
145134.0 229470.0 0
150876.0 229543.0 0
156903.0 230453.0 0
162049.0 228527.0 0
167189.0 228863.0 0
172248.0 226228.0 0
177058.0 226443.0 0
176192.0 230174.0 0
181343.0 226490.0 0
185798.0 230054.0 0
191580.0 230173.0 0
202629.0 229147.0 0
207597.0 229879.0 0
212127.0 229045.0 0
217206.0 230823.0 0
223339.0 230494.0 0
228326.0 226203.0 0
233994.0 227354.0 0
238447.0 231001.0 0
243829.0 230332.0 0
248936.0 229950.0 0
252336.0 228019.0 0
255549.0 230871.0 0
262547.0 229400.0 0
268734.0 229579.0 0
273491.0 230298.0 0
282801.0 228798.0 0
287965.0 230816.0 0
293201.0 229445.0 0
297890.0 226406.0 0
302618.0 229313.0 0
308398.0 230283.0 0
313173.0 229902.0 0
317433.0 229399.0 0
325928.0 228850.0 0
322171.0 230738.0 0
330069.0 229810.0 0
335130.0 230369.0 0
337614.0 226958.0 0
340396.0 230764.0 0
351141.0 229657.0 0
356070.0 227660.0 0
360869.0 230193.0 0
366484.0 230148.0 0
371180.0 230631.0 0
383542.0 227736.0 0
390816.0 226556.0 0
387813.0 230953.0 0
392747.0 230922.0 0
396058.0 226382.0 0
403849.0 229869.0 0
409459.0 228543.0 0
414425.0 228865.0 0
417721.0 228976.0 0
420908.0 229312.0 0
427638.0 229334.0 0
433311.0 228941.0 0
437894.0 228630.0 0
442665.0 230072.0 0
448503.0 230066.0 0
453978.0 230005.0 0
458514.0 230463.0 0
462961.0 230193.0 0
467771.0 229057.0 0
472965.0 230541.0 0
476950.0 226347.0 0
479933.0 230285.0 0
484260.0 230115.0 0
488501.0 229695.0 0
492597.0 230223.0 0
497463.0 226902.0 0
2142.5 235348.0 0
8744.04 231887.0 0
13676.4 235483.0 0
18360.1 231618.0 0
22329.5 234966.0 0
27478.1 235334.0 0
32320.9 234667.0 0
37259.7 235204.0 0
46370.6 233242.0 0
51394.3 235641.0 0
57380.3 235907.0 0
63618.2 234122.0 0
68656.0 232695.0 0
73529.5 235749.0 0
79792.4 234991.0 0
85097.3 235742.0 0
90113.7 234011.0 0
95010.6 235895.0 0
98556.9 233180.0 0
105615.0 233884.0 0
111315.0 235310.0 0
118238.0 234436.0 0
123843.0 234725.0 0
128403.0 233022.0 0
133281.0 235099.0 0
137799.0 234195.0 0
141895.0 235079.0 0
147413.0 234784.0 0
152984.0 234763.0 0
157256.0 236332.0 0
161808.0 234095.0 0
167164.0 233833.0 0
171466.0 231546.0 0
170776.0 235572.0 0
176903.0 235164.0 0
180981.0 232094.0 0
186910.0 235075.0 0
191557.0 235476.0 0
197326.0 231302.0 0
201676.0 234641.0 0
207205.0 234852.0 0
213042.0 234616.0 0
219815.0 235924.0 0
228969.0 232189.0 0
224924.0 235808.0 0
228665.0 236284.0 0
233400.0 231818.0 0
232683.0 235579.0 0
236998.0 236246.0 0
242066.0 234551.0 0
246525.0 234325.0 0
251476.0 233873.0 0
257756.0 236144.0 0
262730.0 235470.0 0
268239.0 235194.0 0
274054.0 235255.0 0
278392.0 231426.0 0
284575.0 234895.0 0
289651.0 235768.0 0
293274.0 233933.0 0
297716.0 231658.0 0
302356.0 235108.0 0
307427.0 235574.0 0
312017.0 234058.0 0
316755.0 233993.0 0
321313.0 235865.0 0
326411.0 234330.0 0
331719.0 234801.0 0
337292.0 236006.0 0
345998.0 231562.0 0
342892.0 236111.0 0
346856.0 236134.0 0
351223.0 234833.0 0
356419.0 233172.0 0
361737.0 236293.0 0
367027.0 235016.0 0
371708.0 235110.0 0
377259.0 231330.0 0
382241.0 235239.0 0
386919.0 235675.0 0
391468.0 235433.0 0
395536.0 236216.0 0
398343.0 231908.0 0
405867.0 235672.0 0
411606.0 234048.0 0
417003.0 232711.0 0
422654.0 234280.0 0
428242.0 235418.0 0
432976.0 233582.0 0
438695.0 234274.0 0
444666.0 234969.0 0
455624.0 234408.0 0
461318.0 235343.0 0
468710.0 234279.0 0
473161.0 236107.0 0
477810.0 234816.0 0
482454.0 234942.0 0
486617.0 233882.0 0
490667.0 234272.0 0
497774.0 231658.0 0
495018.0 235639.0 0
2235.27 239920.0 0
7220.51 237951.0 0
18593.0 236556.0 0
18037.9 241003.0 0
23267.0 239814.0 0
29032.7 241327.0 0
32582.8 238140.0 0
35981.8 240987.0 0
42424.1 236517.0 0
41023.1 240750.0 0
46978.2 239714.0 0
52812.1 240344.0 0
62177.7 239515.0 0
67942.6 239573.0 0
78095.6 239595.0 0
82814.9 240477.0 0
88763.3 240266.0 0
93952.8 240745.0 0
101270.0 236516.0 0
97836.4 239241.0 0
101252.0 240800.0 0
105727.0 239373.0 0
110249.0 240726.0 0
115526.0 240301.0 0
121632.0 239544.0 0
128132.0 239068.0 0
137503.0 238167.0 0
133713.0 239932.0 0
142032.0 240346.0 0
148125.0 241360.0 0
153554.0 239579.0 0
157999.0 240509.0 0
163118.0 239932.0 0
173369.0 238813.0 0
168453.0 239101.0 0
177766.0 239608.0 0
182348.0 236907.0 0
186466.0 240340.0 0
191582.0 239987.0 0
196371.0 236753.0 0
201133.0 240229.0 0
207153.0 240937.0 0
212111.0 239539.0 0
216831.0 240712.0 0
226055.0 240342.0 0
231005.0 239651.0 0
235863.0 240878.0 0
241274.0 239464.0 0
246718.0 239259.0 0
252415.0 239384.0 0
257588.0 241363.0 0
263753.0 240961.0 0
269646.0 240844.0 0
274620.0 240226.0 0
279356.0 236947.0 0
283970.0 239346.0 0
288552.0 240786.0 0
292612.0 239197.0 0
296620.0 236600.0 0
298671.0 241376.0 0
303601.0 240089.0 0
307744.0 239951.0 0
312250.0 239289.0 0
317520.0 238965.0 0
323370.0 240837.0 0
328015.0 238986.0 0
332726.0 239907.0 0
337377.0 241319.0 0
341990.0 240037.0 0
345557.0 239864.0 0
349586.0 239028.0 0
355393.0 239396.0 0
366557.0 239736.0 0
373489.0 240252.0 0
378394.0 237940.0 0
383175.0 240890.0 0
388100.0 240072.0 0
392605.0 239801.0 0
397134.0 240063.0 0
400535.0 237005.0 0
408092.0 240415.0 0
403389.0 241130.0 0
412545.0 239284.0 0
417212.0 237834.0 0
421047.0 239907.0 0
425383.0 239465.0 0
431956.0 239224.0 0
437662.0 240507.0 0
443643.0 240544.0 0
450475.0 236720.0 0
454474.0 239660.0 0
458758.0 240620.0 0
463908.0 240438.0 0
465797.0 236930.0 0
469258.0 239705.0 0
474329.0 240646.0 0
479047.0 239710.0 0
483680.0 241316.0 0
486673.0 238084.0 0
491469.0 240154.0 0
497411.0 240262.0 0
2123.13 244284.0 0
6948.77 243797.0 0
12431.6 241540.0 0
16006.2 244967.0 0
20032.5 245274.0 0
24879.1 245061.0 0
32184.1 245683.0 0
43296.4 245199.0 0
48667.7 245702.0 0
53553.1 244855.0 0
57589.3 242065.0 0
62541.9 244760.0 0
67216.8 244849.0 0
73632.5 242454.0 0
79048.8 245133.0 0
84479.1 245102.0 0
88546.1 245300.0 0
92508.1 244788.0 0
97469.9 243632.0 0
102457.0 245219.0 0
107197.0 244122.0 0
111843.0 244888.0 0
117997.0 245809.0 0
123257.0 244773.0 0
127775.0 244455.0 0
132828.0 245002.0 0
138532.0 244276.0 0
143149.0 245161.0 0
151874.0 245151.0 0
156562.0 245336.0 0
161569.0 244868.0 0
166882.0 243972.0 0
173241.0 245030.0 0
181602.0 241474.0 0
178600.0 245177.0 0
183571.0 246106.0 0
189470.0 245183.0 0
195900.0 242507.0 0
193917.0 246326.0 0
199741.0 245215.0 0
203873.0 245798.0 0
208384.0 246069.0 0
212775.0 244156.0 0
219038.0 245477.0 0
221597.0 241568.0 0
223358.0 245014.0 0
227639.0 245040.0 0
232480.0 244435.0 0
237848.0 245275.0 0
242395.0 245820.0 0
246798.0 244094.0 0
251980.0 245639.0 0
257453.0 245660.0 0
267711.0 245024.0 0
271782.0 244620.0 0
279888.0 242292.0 0
276118.0 245055.0 0
284236.0 243757.0 0
288524.0 246023.0 0
293546.0 243740.0 0
298759.0 246136.0 0
302573.0 244923.0 0
306699.0 243839.0 0
311713.0 244970.0 0
316863.0 243810.0 0
321363.0 245704.0 0
324915.0 244714.0 0
328735.0 243692.0 0
334203.0 245520.0 0
339649.0 245171.0 0
344230.0 244078.0 0
350188.0 244680.0 0
356792.0 246251.0 0
360722.0 241477.0 0
363323.0 246128.0 0
369454.0 244528.0 0
374964.0 245576.0 0
378321.0 242435.0 0
379772.0 246403.0 0
384049.0 246380.0 0
388159.0 244563.0 0
393223.0 244864.0 0
397985.0 244226.0 0
402036.0 245459.0 0
406624.0 245035.0 0
412757.0 245176.0 0
418465.0 243281.0 0
423592.0 244580.0 0
428758.0 243229.0 0
433882.0 245744.0 0
445488.0 245248.0 0
450705.0 243149.0 0
456127.0 244776.0 0
463192.0 244479.0 0
460045.0 245178.0 0
467444.0 244978.0 0
472530.0 244955.0 0
477852.0 245040.0 0
482738.0 245566.0 0
487571.0 244561.0 0
492465.0 245355.0 0
497812.0 245022.0 0
3065.99 249391.0 0
8509.61 248308.0 0
12536.6 246947.0 0
12199.0 251495.0 0
16380.2 249136.0 0
21264.1 250179.0 0
27416.1 250430.0 0
32658.9 249599.0 0
37658.5 246600.0 0
42206.0 250333.0 0
47933.4 251204.0 0
53255.7 249828.0 0
57419.8 246973.0 0
58923.2 250848.0 0
62506.7 249182.0 0
71124.2 247226.0 0
66936.9 249286.0 0
71404.0 251402.0 0
76205.7 250289.0 0
82309.3 248719.0 0
86350.9 249032.0 0
91217.9 249835.0 0
96577.3 248746.0 0
101332.0 249879.0 0
106455.0 249288.0 0
112404.0 250397.0 0
118087.0 251226.0 0
123239.0 250022.0 0
128395.0 248955.0 0
133249.0 250483.0 0
138710.0 250006.0 0
143917.0 249200.0 0
146842.0 251579.0 0
147987.0 247334.0 0
152613.0 249612.0 0
157939.0 249839.0 0
162824.0 249004.0 0
168102.0 249421.0 0
172585.0 250727.0 0
177262.0 250444.0 0
182441.0 251055.0 0
187104.0 250071.0 0
192280.0 250349.0 0
197944.0 249936.0 0
202918.0 249783.0 0
207325.0 250766.0 0
212065.0 249103.0 0
217210.0 250551.0 0
222464.0 249251.0 0
227450.0 250576.0 0
232477.0 249141.0 0
237122.0 249575.0 0
241410.0 250274.0 0
246146.0 249102.0 0
250389.0 250667.0 0
254567.0 250141.0 0
258855.0 250799.0 0
262275.0 247171.0 0
267422.0 250351.0 0
272489.0 248517.0 0
277163.0 250349.0 0
283098.0 249135.0 0
288107.0 250570.0 0
292653.0 249330.0 0
297264.0 250064.0 0
301983.0 249973.0 0
306814.0 248568.0 0
316053.0 248701.0 0
311361.0 250417.0 0
320416.0 250115.0 0
326152.0 249500.0 0
332587.0 251560.0 0
338283.0 250542.0 0
343349.0 249010.0 0
348098.0 250108.0 0
353208.0 250677.0 0
363212.0 251610.0 0
372387.0 249693.0 0
367645.0 250145.0 0
377390.0 251041.0 0
382130.0 249511.0 0
387246.0 249148.0 0
391712.0 249514.0 0
396308.0 248858.0 0
401347.0 250335.0 0
406498.0 249896.0 0
411889.0 251529.0 0
417761.0 249103.0 0
428000.0 249473.0 0
435896.0 250985.0 0
440191.0 246658.0 0
440095.0 251589.0 0
448664.0 247765.0 0
444905.0 250382.0 0
448959.0 250906.0 0
453265.0 249550.0 0
458537.0 248593.0 0
463235.0 248667.0 0
468270.0 250030.0 0
473582.0 250131.0 0
478484.0 249944.0 0
482001.0 250249.0 0
485492.0 249087.0 0
490381.0 249259.0 0
495374.0 249299.0 0
2830.08 255284.0 0
7506.78 252737.0 0
9603.19 256618.0 0
12451.3 255138.0 0
17087.4 254680.0 0
23503.3 255619.0 0
28429.1 255523.0 0
32838.1 253711.0 0
37685.2 251967.0 0
44143.0 255661.0 0
51647.6 254315.0 0
56199.6 254380.0 0
61466.4 254839.0 0
67328.3 254789.0 0
73076.1 255801.0 0
80903.9 252993.0 0
86743.2 254642.0 0
92895.4 255845.0 0
98389.9 254100.0 0
103692.0 254072.0 0
108542.0 254674.0 0
113679.0 255775.0 0
118732.0 256519.0 0
123590.0 255052.0 0
128453.0 254129.0 0
133106.0 255002.0 0
137615.0 255382.0 0
143101.0 253325.0 0
146707.0 255625.0 0
150636.0 253562.0 0
155608.0 253644.0 0
161150.0 253888.0 0
167135.0 255494.0 0
172931.0 255014.0 0
178062.0 255954.0 0
183583.0 255839.0 0
189257.0 254814.0 0
194197.0 254874.0 0
203775.0 253980.0 0
199080.0 255574.0 0
208268.0 255811.0 0
213115.0 254360.0 0
217833.0 255854.0 0
222500.0 254988.0 0
227501.0 255154.0 0
231597.0 253320.0 0
235584.0 253694.0 0
241051.0 254663.0 0
246264.0 254968.0 0
252705.0 255416.0 0
257745.0 254513.0 0
262640.0 253746.0 0
268562.0 255075.0 0
272413.0 253167.0 0
276582.0 255394.0 0
282688.0 254929.0 0
287812.0 254973.0 0
293323.0 254797.0 0
297998.0 253916.0 0
302122.0 255997.0 0
306719.0 253441.0 0
311416.0 255638.0 0
317197.0 254419.0 0
322912.0 254688.0 0
326733.0 254443.0 0
331448.0 255966.0 0
335592.0 256483.0 0
340745.0 255266.0 0
345182.0 253427.0 0
349876.0 254721.0 0
358611.0 251745.0 0
361536.0 256314.0 0
367138.0 255474.0 0
372552.0 254606.0 0
382856.0 254190.0 0
388996.0 254086.0 0
397191.0 253942.0 0
393376.0 256263.0 0
402318.0 255959.0 0
407489.0 254597.0 0
416958.0 254793.0 0
422235.0 252051.0 0
421543.0 256622.0 0
426077.0 255573.0 0
432090.0 254799.0 0
437871.0 255914.0 0
443220.0 255412.0 0
447845.0 254541.0 0
452700.0 255421.0 0
457782.0 253450.0 0
463153.0 253836.0 0
468231.0 255134.0 0
473112.0 255222.0 0
478129.0 254778.0 0
482764.0 255097.0 0
487730.0 254037.0 0
493274.0 254021.0 0
497801.0 253602.0 0
2497.21 260622.0 0
7232.99 260068.0 0
12062.1 260394.0 0
17524.0 260953.0 0
23327.2 261667.0 0
28728.3 260027.0 0
32631.2 258346.0 0
37928.8 257623.0 0
43244.2 261087.0 0
48932.5 257348.0 0
47678.0 261160.0 0
52844.9 260038.0 0
58162.0 259166.0 0
64114.6 260453.0 0
71415.9 259388.0 0
69212.7 261343.0 0
75162.3 261215.0 0
77982.7 256794.0 0
81049.2 260922.0 0
87048.6 261290.0 0
96739.3 259916.0 0
92010.7 260421.0 0
101913.0 258414.0 0
107424.0 260760.0 0
113361.0 260769.0 0
118420.0 261777.0 0
123404.0 260115.0 0
128616.0 259291.0 0
133594.0 259533.0 0
141669.0 257892.0 0
137997.0 261137.0 0
145500.0 260483.0 0
150756.0 259271.0 0
156839.0 258864.0 0
162681.0 259961.0 0
170973.0 259870.0 0
175323.0 261588.0 0
183122.0 259793.0 0
179583.0 260652.0 0
187196.0 259870.0 0
192573.0 259463.0 0
197923.0 261212.0 0
202905.0 259025.0 0
206844.0 261275.0 0
211009.0 259877.0 0
215669.0 260194.0 0
221162.0 260285.0 0
227109.0 260481.0 0
231662.0 257512.0 0
237664.0 259450.0 0
243916.0 260204.0 0
248964.0 259926.0 0
254212.0 261531.0 0
257368.0 257852.0 0
260306.0 259891.0 0
265508.0 258912.0 0
272391.0 259489.0 0
279488.0 260121.0 0
285562.0 259117.0 0
290202.0 258869.0 0
297304.0 259149.0 0
302247.0 261149.0 0
306805.0 258898.0 0
312359.0 261695.0 0
318342.0 260246.0 0
323497.0 259631.0 0
328136.0 257956.0 0
332372.0 260473.0 0
341020.0 259838.0 0
337121.0 261031.0 0
345773.0 258669.0 0
351035.0 260834.0 0
355443.0 256883.0 0
359259.0 261103.0 0
364359.0 260796.0 0
368944.0 260134.0 0
373331.0 259470.0 0
377206.0 261856.0 0
377574.0 256773.0 0
381324.0 260036.0 0
386948.0 260231.0 0
393329.0 261115.0 0
398496.0 259526.0 0
402855.0 260895.0 0
407717.0 259977.0 0
411946.0 256833.0 0
415825.0 260640.0 0
424590.0 259613.0 0
428958.0 260124.0 0
434118.0 259806.0 0
438715.0 261100.0 0
442763.0 259759.0 0
447693.0 259803.0 0
453014.0 260443.0 0
458297.0 259261.0 0
463585.0 258656.0 0
468162.0 260459.0 0
473581.0 259638.0 0
478168.0 259933.0 0
482827.0 259294.0 0
487511.0 259612.0 0
492506.0 258969.0 0
497560.0 258245.0 0
2475.17 265613.0 0
7679.62 265074.0 0
12006.9 264584.0 0
15775.1 266015.0 0
20838.9 266713.0 0
26802.1 265964.0 0
34033.3 263680.0 0
39373.8 262596.0 0
40005.9 266842.0 0
44656.5 265557.0 0
48707.7 264874.0 0
53008.3 265210.0 0
59450.6 264262.0 0
63874.1 265591.0 0
67585.1 264804.0 0
71670.7 264767.0 0
78350.2 264690.0 0
82502.8 265903.0 0
87166.3 266880.0 0
92024.7 265060.0 0
97024.7 265028.0 0
102153.0 264297.0 0
106970.0 266651.0 0
111109.0 265077.0 0
115809.0 266414.0 0
121088.0 266405.0 0
126572.0 264819.0 0
132451.0 264506.0 0
137141.0 265606.0 0
142289.0 264740.0 0
147727.0 264246.0 0
152616.0 264938.0 0
157507.0 263947.0 0
162021.0 265526.0 0
167212.0 263979.0 0
172470.0 265027.0 0
178163.0 265915.0 0
183441.0 263709.0 0
190365.0 264469.0 0
195353.0 265902.0 0
203313.0 264384.0 0
199721.0 266523.0 0
208056.0 265319.0 0
212451.0 264445.0 0
217649.0 264912.0 0
223410.0 265071.0 0
227820.0 265452.0 0
232871.0 264778.0 0
238151.0 265449.0 0
242357.0 264410.0 0
246683.0 264263.0 0
251499.0 265979.0 0
257660.0 265845.0 0
262660.0 264098.0 0
268083.0 264185.0 0
273500.0 266139.0 0
279500.0 266305.0 0
283978.0 263341.0 0
289043.0 263963.0 0
293557.0 262242.0 0
293781.0 266461.0 0
298753.0 264932.0 0
302744.0 264737.0 0
307514.0 264497.0 0
316367.0 265089.0 0
321271.0 265271.0 0
327580.0 263822.0 0
333546.0 265463.0 0
340760.0 263966.0 0
337857.0 266876.0 0
346461.0 265230.0 0
352468.0 265691.0 0
358058.0 266690.0 0
362696.0 264664.0 0
367617.0 265376.0 0
373245.0 264580.0 0
377764.0 266586.0 0
383135.0 265471.0 0
388882.0 266098.0 0
397585.0 263945.0 0
393913.0 266390.0 0
401982.0 265515.0 0
407538.0 265780.0 0
417756.0 264768.0 0
413338.0 265851.0 0
421136.0 261888.0 0
420765.0 266037.0 0
426084.0 265499.0 0
432064.0 264588.0 0
436726.0 264945.0 0
442731.0 264775.0 0
448775.0 266889.0 0
453388.0 264608.0 0
458474.0 265824.0 0
463553.0 263194.0 0
467776.0 265775.0 0
471799.0 263338.0 0
476411.0 264940.0 0
481057.0 263255.0 0
485604.0 264244.0 0
490669.0 265205.0 0
495983.0 263513.0 0
3191.66 270742.0 0
8241.66 270176.0 0
12746.7 269812.0 0
17389.9 270780.0 0
21990.7 271306.0 0
26202.0 270742.0 0
30897.9 269285.0 0
35871.6 269424.0 0
43601.5 269546.0 0
47724.2 268910.0 0
51773.9 269271.0 0
56794.6 269464.0 0
62541.3 269593.0 0
67132.7 270000.0 0
72481.1 269956.0 0
77956.3 268774.0 0
82568.1 270328.0 0
86331.3 270948.0 0
90176.0 270202.0 0
95238.4 270047.0 0
101141.0 269963.0 0
106576.0 271671.0 0
111810.0 269931.0 0
118306.0 271092.0 0
123253.0 270837.0 0
127610.0 269941.0 0
132199.0 269822.0 0
137219.0 270204.0 0
141687.0 271506.0 0
146428.0 269231.0 0
151542.0 271670.0 0
156136.0 268888.0 0
161848.0 271826.0 0
169298.0 270353.0 0
175989.0 271699.0 0
181625.0 270767.0 0
186097.0 268103.0 0
190945.0 269766.0 0
195705.0 270575.0 0
200466.0 271784.0 0
204873.0 268922.0 0
208489.0 270984.0 0
211785.0 269069.0 0
216660.0 270265.0 0
221853.0 269531.0 0
226855.0 269950.0 0
232059.0 269035.0 0
236179.0 270283.0 0
241581.0 268908.0 0
246904.0 269371.0 0
251561.0 270230.0 0
256264.0 270978.0 0
261540.0 269423.0 0
266333.0 268630.0 0
270533.0 270992.0 0
276607.0 271042.0 0
284957.0 268452.0 0
290105.0 268827.0 0
293695.0 271054.0 0
297273.0 269382.0 0
302561.0 267891.0 0
307400.0 268429.0 0
310220.0 270861.0 0
312839.0 267508.0 0
316927.0 269370.0 0
326182.0 269202.0 0
321544.0 271246.0 0
331778.0 270435.0 0
336629.0 270833.0 0
341729.0 269828.0 0
346567.0 271049.0 0
350378.0 269621.0 0
354439.0 270767.0 0
363439.0 269984.0 0
368544.0 270598.0 0
372673.0 269271.0 0
377006.0 271734.0 0
381294.0 269980.0 0
385782.0 270574.0 0
391590.0 271123.0 0
397826.0 270014.0 0
403455.0 270474.0 0
408205.0 270893.0 0
412662.0 270947.0 0
417340.0 269479.0 0
422301.0 269791.0 0
433132.0 270521.0 0
438882.0 269002.0 0
443922.0 270357.0 0
453697.0 269558.0 0
457850.0 271671.0 0
462990.0 270288.0 0
468060.0 270567.0 0
472208.0 268438.0 0
476477.0 269970.0 0
481536.0 268528.0 0
487345.0 269152.0 0
492219.0 271609.0 0
497272.0 269153.0 0
2743.01 276170.0 0
8048.55 275199.0 0
14949.1 275039.0 0
19939.2 275592.0 0
25358.8 275592.0 0
32694.5 276053.0 0
39948.2 272538.0 0
47187.3 274186.0 0
52657.0 273461.0 0
57753.3 275698.0 0
63748.8 274943.0 0
69573.0 275316.0 0
74689.1 275819.0 0
78847.5 273517.0 0
82760.3 275145.0 0
87407.3 275390.0 0
93069.2 275458.0 0
98821.0 275309.0 0
103882.0 275834.0 0
107209.0 275683.0 0
111623.0 275797.0 0
120348.0 275829.0 0
124139.0 275155.0 0
128426.0 274558.0 0
132892.0 274152.0 0
136878.0 274896.0 0
141100.0 275692.0 0
146511.0 275195.0 0
151896.0 277057.0 0
156633.0 275272.0 0
166707.0 276614.0 0
172250.0 275342.0 0
179227.0 275326.0 0
184114.0 275985.0 0
189271.0 274276.0 0
193633.0 275126.0 0
197481.0 274894.0 0
202905.0 275622.0 0
206422.0 273414.0 0
212393.0 274817.0 0
216945.0 274787.0 0
221104.0 274360.0 0
225873.0 274988.0 0
231102.0 273396.0 0
235736.0 275202.0 0
240641.0 274142.0 0
248458.0 274166.0 0
252706.0 273872.0 0
260077.0 274038.0 0
256160.0 275972.0 0
265432.0 273864.0 0
272863.0 274431.0 0
275602.0 275003.0 0
281972.0 273957.0 0
288362.0 273616.0 0
293506.0 275730.0 0
298773.0 273778.0 0
304648.0 272527.0 0
309236.0 274523.0 0
313950.0 272478.0 0
317741.0 274348.0 0
323299.0 276451.0 0
327734.0 273729.0 0
332500.0 275053.0 0
336860.0 275441.0 0
342166.0 275399.0 0
351670.0 274318.0 0
347172.0 275415.0 0
357621.0 274353.0 0
363231.0 276331.0 0
368507.0 274860.0 0
373400.0 276082.0 0
382600.0 273982.0 0
379130.0 276130.0 0
387095.0 276173.0 0
395877.0 274727.0 0
400734.0 275168.0 0
405922.0 274822.0 0
411215.0 276115.0 0
416956.0 275332.0 0
422175.0 274685.0 0
427065.0 272196.0 0
431409.0 276226.0 0
437977.0 274419.0 0
443848.0 276218.0 0
448486.0 272735.0 0
453561.0 274786.0 0
449054.0 277085.0 0
458357.0 275859.0 0
462258.0 275287.0 0
467290.0 275578.0 0
472251.0 273594.0 0
478256.0 274705.0 0
483452.0 273642.0 0
487736.0 273816.0 0
492407.0 276598.0 0
497046.0 274746.0 0
2121.72 280994.0 0
6656.9 280133.0 0
11771.6 277678.0 0
10900.7 281335.0 0
16456.3 280245.0 0
22173.5 280394.0 0
26841.5 280164.0 0
38000.4 281526.0 0
42489.9 277496.0 0
44004.0 282006.0 0
47182.2 279316.0 0
52162.2 278866.0 0
57343.0 281791.0 0
62690.4 280321.0 0
67623.1 280647.0 0
72722.5 280360.0 0
77862.0 279777.0 0
83349.6 279858.0 0
88715.9 280353.0 0
93476.7 280317.0 0
97420.6 279943.0 0
102456.0 281046.0 0
107419.0 278931.0 0
111816.0 282157.0 0
116380.0 278512.0 0
120447.0 281660.0 0
125891.0 279490.0 0
131775.0 278877.0 0
137407.0 279774.0 0
143338.0 280600.0 0
148487.0 280142.0 0
152925.0 281575.0 0
157350.0 280264.0 0
160746.0 277381.0 0
163292.0 279779.0 0
168095.0 282028.0 0
170860.0 278776.0 0
175906.0 279343.0 0
181654.0 281188.0 0
189112.0 279521.0 0
194240.0 279939.0 0
199445.0 279237.0 0
203612.0 281159.0 0
207374.0 278239.0 0
210857.0 281886.0 0
216166.0 280286.0 0
221733.0 278630.0 0
226467.0 280278.0 0
232415.0 279413.0 0
238400.0 279201.0 0
244834.0 278463.0 0
251456.0 278929.0 0
256914.0 280497.0 0
261818.0 278651.0 0
270063.0 277824.0 0
266244.0 281933.0 0
274180.0 280559.0 0
277971.0 278022.0 0
283351.0 280303.0 0
288900.0 278948.0 0
293154.0 281257.0 0
297156.0 278640.0 0
302942.0 278982.0 0
308748.0 279828.0 0
312928.0 277209.0 0
318336.0 279632.0 0
324041.0 281891.0 0
328783.0 278935.0 0
334039.0 280717.0 0
339552.0 280063.0 0
344889.0 279866.0 0
349941.0 279401.0 0
354395.0 277964.0 0
358630.0 281047.0 0
363885.0 281919.0 0
368153.0 279565.0 0
372332.0 280703.0 0
376980.0 280653.0 0
382488.0 279632.0 0
387497.0 280665.0 0
392332.0 277310.0 0
392140.0 281418.0 0
396159.0 280123.0 0
401240.0 280633.0 0
406704.0 279976.0 0
411227.0 280985.0 0
415504.0 280376.0 0
421167.0 280267.0 0
426376.0 277749.0 0
428484.0 281291.0 0
430916.0 280672.0 0
435864.0 280442.0 0
442079.0 282160.0 0
446689.0 280566.0 0
451311.0 281782.0 0
456108.0 279533.0 0
461513.0 280336.0 0
466950.0 280981.0 0
472915.0 278793.0 0
478072.0 280173.0 0
482513.0 278101.0 0
487847.0 278943.0 0
493641.0 280484.0 0
498093.0 279403.0 0
2820.93 285784.0 0
8176.77 285068.0 0
12933.5 284435.0 0
16372.2 285075.0 0
20424.4 284971.0 0
25316.8 286165.0 0
31206.6 283854.0 0
37241.9 286876.0 0
41752.7 285867.0 0
47401.2 285987.0 0
53052.1 285285.0 0
58679.2 287081.0 0
63556.3 285474.0 0
68259.0 285044.0 0
72445.4 285208.0 0
77179.8 284884.0 0
82028.8 284967.0 0
86314.8 283979.0 0
91298.3 284883.0 0
96811.7 284344.0 0
101402.0 286938.0 0
107506.0 287120.0 0
116486.0 284875.0 0
113031.0 286980.0 0
121267.0 286398.0 0
126002.0 285637.0 0
132151.0 285261.0 0
137849.0 285414.0 0
147561.0 284696.0 0
142867.0 285968.0 0
152665.0 286215.0 0
157597.0 285253.0 0
162761.0 284279.0 0
167360.0 287065.0 0
172608.0 284516.0 0
177954.0 284592.0 0
182382.0 286268.0 0
186447.0 283910.0 0
192184.0 284482.0 0
196739.0 285053.0 0
201237.0 284670.0 0
206891.0 284588.0 0
212749.0 285029.0 0
217668.0 286189.0 0
221824.0 283291.0 0
226855.0 285359.0 0
231604.0 285050.0 0
236472.0 284225.0 0
241269.0 283607.0 0
240077.0 286966.0 0
245829.0 283817.0 0
250493.0 284810.0 0
255237.0 284637.0 0
260802.0 284820.0 0
271152.0 284228.0 0
278061.0 283910.0 0
283190.0 287072.0 0
288358.0 284235.0 0
293376.0 286155.0 0
298315.0 283850.0 0
303374.0 284533.0 0
308103.0 284829.0 0
314260.0 284908.0 0
319175.0 284509.0 0
328932.0 284568.0 0
333113.0 284923.0 0
336742.0 284838.0 0
342546.0 285227.0 0
347853.0 284501.0 0
353173.0 284074.0 0
357723.0 286711.0 0
362463.0 286717.0 0
367750.0 285234.0 0
373522.0 285390.0 0
382609.0 284884.0 0
378296.0 285196.0 0
387500.0 285201.0 0
390886.0 285001.0 0
394256.0 284604.0 0
398036.0 284564.0 0
405863.0 286002.0 0
412287.0 285610.0 0
417917.0 285148.0 0
423042.0 285517.0 0
427910.0 285193.0 0
432824.0 285593.0 0
437709.0 286084.0 0
441805.0 286827.0 0
447149.0 284868.0 0
452076.0 286955.0 0
456283.0 284482.0 0
461201.0 285985.0 0
466189.0 285564.0 0
470963.0 283759.0 0
476147.0 285186.0 0
482644.0 284102.0 0
488889.0 284505.0 0
492856.0 287303.0 0
497015.0 284177.0 0
2369.77 290230.0 0
7488.63 289917.0 0
11913.6 288396.0 0
17733.9 289326.0 0
22204.2 289923.0 0
25731.8 290693.0 0
29651.4 292462.0 0
33501.3 289444.0 0
36840.0 291847.0 0
41275.5 291096.0 0
46287.9 291230.0 0
51599.8 290632.0 0
56830.2 291327.0 0
62244.6 290919.0 0
67525.3 289771.0 0
72516.1 289818.0 0
81277.1 290091.0 0
76630.5 290896.0 0
87022.5 288997.0 0
92323.4 290147.0 0
97269.9 290174.0 0
102434.0 292089.0 0
106771.0 292263.0 0
111803.0 290948.0 0
117621.0 290424.0 0
123415.0 290176.0 0
128784.0 290689.0 0
134060.0 290306.0 0
137961.0 290032.0 0
142169.0 289965.0 0
147567.0 290494.0 0
152937.0 291144.0 0
158957.0 289653.0 0
162905.0 289688.0 0
167194.0 291695.0 0
172080.0 288908.0 0
177812.0 290125.0 0
183322.0 290944.0 0
188305.0 288886.0 0
193961.0 289740.0 0
199116.0 289455.0 0
204221.0 289843.0 0
209563.0 289679.0 0
214073.0 288487.0 0
217533.0 290565.0 0
222169.0 288780.0 0
226325.0 289256.0 0
230549.0 290560.0 0
235772.0 288960.0 0
243668.0 287954.0 0
240008.0 291055.0 0
250411.0 290197.0 0
256513.0 290106.0 0
262600.0 290455.0 0
266696.0 287437.0 0
272496.0 289865.0 0
278293.0 289715.0 0
289902.0 289721.0 0
294825.0 290598.0 0
299273.0 289209.0 0
303546.0 288528.0 0
307719.0 289981.0 0
312924.0 291089.0 0
317809.0 289329.0 0
322776.0 287606.0 0
324391.0 292208.0 0
327812.0 289576.0 0
333015.0 289204.0 0
338843.0 290441.0 0
346943.0 288050.0 0
344166.0 290512.0 0
351190.0 290189.0 0
358173.0 291086.0 0
362911.0 291621.0 0
367601.0 290595.0 0
372844.0 291017.0 0
377591.0 289874.0 0
383032.0 290044.0 0
387670.0 289712.0 0
390597.0 290548.0 0
394681.0 289226.0 0
400658.0 288963.0 0
404238.0 292258.0 0
409746.0 291449.0 0
416385.0 290953.0 0
422837.0 291168.0 0
428624.0 289985.0 0
433396.0 290408.0 0
438583.0 291340.0 0
448822.0 289748.0 0
444222.0 290645.0 0
452119.0 290944.0 0
457245.0 290799.0 0
462848.0 290427.0 0
466814.0 291687.0 0
470811.0 288947.0 0
476423.0 291560.0 0
482906.0 290834.0 0
488680.0 289958.0 0
492901.0 291020.0 0
497144.0 290028.0 0
2842.62 294073.0 0
7660.86 294378.0 0
13272.2 292805.0 0
17497.6 294217.0 0
22045.0 294209.0 0
25986.7 294625.0 0
33845.0 295385.0 0
38554.1 295316.0 0
43311.0 296160.0 0
47500.0 295015.0 0
51953.6 296276.0 0
58862.2 295882.0 0
64448.1 296129.0 0
68961.1 294868.0 0
73820.1 294307.0 0
77214.8 294741.0 0
80672.8 295190.0 0
86302.5 295298.0 0
92819.2 295155.0 0
98250.2 295436.0 0
103087.0 296054.0 0
108987.0 295469.0 0
113146.0 295081.0 0
122444.0 294969.0 0
117545.0 296133.0 0
126565.0 295581.0 0
131870.0 295038.0 0
136851.0 294582.0 0
140238.0 296849.0 0
144054.0 295248.0 0
150508.0 295033.0 0
157113.0 294880.0 0
163029.0 294074.0 0
167715.0 296345.0 0
173113.0 294531.0 0
183098.0 295582.0 0
178894.0 296194.0 0
186736.0 294260.0 0
191887.0 294615.0 0
196834.0 293785.0 0
201818.0 294878.0 0
207340.0 294754.0 0
213721.0 292761.0 0
216959.0 295693.0 0
220544.0 293628.0 0
225436.0 293120.0 0
229432.0 295607.0 0
235856.0 294437.0 0
240284.0 296054.0 0
245201.0 294003.0 0
252597.0 295170.0 0
257311.0 295544.0 0
262277.0 295214.0 0
267366.0 292958.0 0
272574.0 295966.0 0
277759.0 294721.0 0
282882.0 292620.0 0
289698.0 294490.0 0
285952.0 296166.0 0
293343.0 294181.0 0
297799.0 295065.0 0
303694.0 293661.0 0
309232.0 295511.0 0
315204.0 296542.0 0
320096.0 293703.0 0
323613.0 297095.0 0
328698.0 295147.0 0
334593.0 294479.0 0
338189.0 296672.0 0
342793.0 295699.0 0
348317.0 294975.0 0
354582.0 294911.0 0
358841.0 295071.0 0
362327.0 295684.0 0
366754.0 295644.0 0
372018.0 296412.0 0
376898.0 293696.0 0
380654.0 294332.0 0
386666.0 294846.0 0
391399.0 293932.0 0
396456.0 294927.0 0
400523.0 293338.0 0
407502.0 296913.0 0
413226.0 296749.0 0
418129.0 296029.0 0
422134.0 296320.0 0
426909.0 294764.0 0
431451.0 294696.0 0
436310.0 296690.0 0
442120.0 295984.0 0
447567.0 294889.0 0
452820.0 295131.0 0
457512.0 296803.0 0
461623.0 294648.0 0
465880.0 295747.0 0
470858.0 294726.0 0
476646.0 297482.0 0
480543.0 295252.0 0
485122.0 295883.0 0
491131.0 295804.0 0
497366.0 295518.0 0
2103.39 298236.0 0
6790.99 299865.0 0
12524.2 298169.0 0
18522.8 299249.0 0
24346.4 298973.0 0
30113.6 299358.0 0
35415.8 300785.0 0
39847.3 299381.0 0
43482.3 301464.0 0
47442.6 299172.0 0
51729.2 301115.0 0
56690.0 300925.0 0
61946.6 300944.0 0
66617.2 300610.0 0
71672.8 299210.0 0
77172.1 298362.0 0
82274.2 300166.0 0
88455.7 301605.0 0
93309.5 299262.0 0
97500.0 300048.0 0
102242.0 299848.0 0
107100.0 299629.0 0
112326.0 299353.0 0
117490.0 300747.0 0
122472.0 299077.0 0
132621.0 299839.0 0
127694.0 300542.0 0
137663.0 299523.0 0
142139.0 299921.0 0
147680.0 299747.0 0
153088.0 299077.0 0
157514.0 300764.0 0
161603.0 298928.0 0
165708.0 300575.0 0
171331.0 300430.0 0
176329.0 300441.0 0
180419.0 300843.0 0
185070.0 299348.0 0
190287.0 298895.0 0
195442.0 299397.0 0
201358.0 300332.0 0
206627.0 300693.0 0
212384.0 298566.0 0
218154.0 300133.0 0
222907.0 298092.0 0
227500.0 300784.0 0
232579.0 299250.0 0
238119.0 299979.0 0
243741.0 300305.0 0
248600.0 298982.0 0
251777.0 302219.0 0
255131.0 299286.0 0
259912.0 299499.0 0
266639.0 299990.0 0
272615.0 300874.0 0
276469.0 299479.0 0
281542.0 298398.0 0
287000.0 300750.0 0
292773.0 298996.0 0
298704.0 300920.0 0
303478.0 298955.0 0
307680.0 300170.0 0
312592.0 301820.0 0
319048.0 300755.0 0
323726.0 301358.0 0
328134.0 300787.0 0
332604.0 299107.0 0
337151.0 300443.0 0
341674.0 300923.0 0
346950.0 300421.0 0
352952.0 300183.0 0
358282.0 298908.0 0
363831.0 300090.0 0
368646.0 299733.0 0
377276.0 297977.0 0
372500.0 300309.0 0
383141.0 299307.0 0
392811.0 298668.0 0
388498.0 300530.0 0
396730.0 300407.0 0
401667.0 298404.0 0
408666.0 301502.0 0
412980.0 301713.0 0
417500.0 299947.0 0
423627.0 300238.0 0
429104.0 298973.0 0
432842.0 300207.0 0
439559.0 300394.0 0
445084.0 299996.0 0
449564.0 299665.0 0
453922.0 300010.0 0
457995.0 301372.0 0
461736.0 299258.0 0
466253.0 300457.0 0
472026.0 300752.0 0
477068.0 302158.0 0
481386.0 299873.0 0
487083.0 301045.0 0
492807.0 301700.0 0
497597.0 300550.0 0
3506.17 305317.0 0
8912.72 305141.0 0
12818.9 303588.0 0
18048.2 305460.0 0
23736.4 304339.0 0
29008.9 305148.0 0
33720.8 304947.0 0
38523.9 305268.0 0
43678.7 306212.0 0
47737.1 303933.0 0
52024.3 305668.0 0
56991.3 306330.0 0
61809.1 305653.0 0
66411.0 305204.0 0
71644.9 305095.0 0
78221.6 305572.0 0
84130.9 304899.0 0
87695.0 306680.0 0
94101.0 303487.0 0
99298.7 304748.0 0
103857.0 306163.0 0
108332.0 304592.0 0
113649.0 304200.0 0
122426.0 303469.0 0
118203.0 305220.0 0
126940.0 305490.0 0
131382.0 304623.0 0
135461.0 303303.0 0
140029.0 304219.0 0
145258.0 304890.0 0
151744.0 305188.0 0
157526.0 305886.0 0
162302.0 304349.0 0
167917.0 304872.0 0
173536.0 306068.0 0
178719.0 304800.0 0
183564.0 304893.0 0
188920.0 303020.0 0
193481.0 305657.0 0
198229.0 304091.0 0
202302.0 305638.0 0
207083.0 305859.0 0
212453.0 304950.0 0
217389.0 304599.0 0
222006.0 303425.0 0
226342.0 305524.0 0
231275.0 304654.0 0
236066.0 305144.0 0
240747.0 304984.0 0
247361.0 304255.0 0
251793.0 306227.0 0
256845.0 304471.0 0
262177.0 304699.0 0
266568.0 307300.0 0
272549.0 305620.0 0
277760.0 304062.0 0
282657.0 303877.0 0
287482.0 306207.0 0
294156.0 305624.0 0
299617.0 305753.0 0
304096.0 303977.0 0
308904.0 305293.0 0
315320.0 306634.0 0
320329.0 305763.0 0
326033.0 306091.0 0
333093.0 305267.0 0
339078.0 305805.0 0
343374.0 304940.0 0
347306.0 305224.0 0
351750.0 305714.0 0
357516.0 304254.0 0
362979.0 305122.0 0
368173.0 304563.0 0
373356.0 304030.0 0
378027.0 303083.0 0
382773.0 305454.0 0
392133.0 303623.0 0
387974.0 306202.0 0
397078.0 304776.0 0
402893.0 305077.0 0
407579.0 305044.0 0
411397.0 306039.0 0
416303.0 304894.0 0
421527.0 304683.0 0
427083.0 304028.0 0
431814.0 306332.0 0
436294.0 303909.0 0
442646.0 305271.0 0
449581.0 305292.0 0
454963.0 304689.0 0
459056.0 305691.0 0
462522.0 303449.0 0
466488.0 305323.0 0
470838.0 305923.0 0
475098.0 305706.0 0
479841.0 306184.0 0
485489.0 306709.0 0
491403.0 305911.0 0
496518.0 306023.0 0
3164.64 311979.0 0
7868.25 309207.0 0
13206.2 309496.0 0
18016.6 311440.0 0
22913.6 309980.0 0
28302.9 310292.0 0
33682.2 309856.0 0
38741.3 310206.0 0
42465.2 310044.0 0
47500.0 309824.0 0
52539.4 310069.0 0
57787.1 311647.0 0
62773.0 310122.0 0
67039.0 310022.0 0
72935.3 311145.0 0
78321.2 311371.0 0
82589.4 309968.0 0
87058.4 310593.0 0
92062.1 308801.0 0
97668.3 310028.0 0
102291.0 309831.0 0
107402.0 310420.0 0
113339.0 309616.0 0
121260.0 308725.0 0
117550.0 310962.0 0
125816.0 311371.0 0
129877.0 308907.0 0
135597.0 309090.0 0
141850.0 309094.0 0
147670.0 311214.0 0
152863.0 310541.0 0
157004.0 310359.0 0
162606.0 310460.0 0
168654.0 310391.0 0
173721.0 311418.0 0
178574.0 309882.0 0
183171.0 311519.0 0
188077.0 308898.0 0
193461.0 310410.0 0
197961.0 309116.0 0
202796.0 309832.0 0
206613.0 310248.0 0
210486.0 309518.0 0
215965.0 309102.0 0
222108.0 309477.0 0
227959.0 309976.0 0
232933.0 309090.0 0
237634.0 309653.0 0
243187.0 309509.0 0
248569.0 309749.0 0
254343.0 309913.0 0
259191.0 309438.0 0
262952.0 310847.0 0
270776.0 309869.0 0
276863.0 308631.0 0
282643.0 310014.0 0
287901.0 311423.0 0
292225.0 311153.0 0
298187.0 310057.0 0
305899.0 309574.0 0
310079.0 311053.0 0
311337.0 308274.0 0
313958.0 311639.0 0
318416.0 309906.0 0
322500.0 310109.0 0
328885.0 310721.0 0
333225.0 311659.0 0
336971.0 309635.0 0
341074.0 309583.0 0
346132.0 309752.0 0
357124.0 309574.0 0
352104.0 311823.0 0
361932.0 310038.0 0
372161.0 308649.0 0
367456.0 311380.0 0
377859.0 309096.0 0
383973.0 311493.0 0
389038.0 311031.0 0
392973.0 308843.0 0
398548.0 310215.0 0
404601.0 310243.0 0
408301.0 310274.0 0
411597.0 310332.0 0
415645.0 309688.0 0
420771.0 310170.0 0
427257.0 310577.0 0
432708.0 310395.0 0
437828.0 310454.0 0
443870.0 311520.0 0
448911.0 311404.0 0
453729.0 309515.0 0
458602.0 309780.0 0
462389.0 307918.0 0
466470.0 310204.0 0
471682.0 310583.0 0
476766.0 310269.0 0
482177.0 311037.0 0
489743.0 310039.0 0
493004.0 312047.0 0
497151.0 312014.0 0
2175.03 317226.0 0
6288.96 316178.0 0
11599.0 315610.0 0
17536.7 315904.0 0
22464.7 315651.0 0
27691.0 315352.0 0
32847.2 315236.0 0
37851.9 314740.0 0
42860.5 314845.0 0
47500.0 314907.0 0
52500.0 314826.0 0
57476.2 316109.0 0
62274.0 315179.0 0
67614.2 314408.0 0
72220.4 316866.0 0
77010.6 315262.0 0
81636.9 314873.0 0
86247.6 314715.0 0
91742.6 315213.0 0
97810.6 315416.0 0
102675.0 314403.0 0
106907.0 316566.0 0
111197.0 314487.0 0
115542.0 315277.0 0
120821.0 314604.0 0
126032.0 316203.0 0
131578.0 314889.0 0
137607.0 315278.0 0
143053.0 315665.0 0
152401.0 314474.0 0
148596.0 317014.0 0
156840.0 315040.0 0
161320.0 316226.0 0
165947.0 314943.0 0
170895.0 315348.0 0
176380.0 315966.0 0
181230.0 315064.0 0
186295.0 316987.0 0
190885.0 313775.0 0
196051.0 314765.0 0
202300.0 313505.0 0
207185.0 315249.0 0
212844.0 313677.0 0
217509.0 313475.0 0
221470.0 314976.0 0
226243.0 314829.0 0
231997.0 314134.0 0
236981.0 316359.0 0
240947.0 313795.0 0
246430.0 315750.0 0
252579.0 315192.0 0
257713.0 313407.0 0
257092.0 317897.0 0
262329.0 315960.0 0
267325.0 313032.0 0
272635.0 313969.0 0
277758.0 313341.0 0
276008.0 317494.0 0
283340.0 317026.0 0
289790.0 315966.0 0
295934.0 315211.0 0
301980.0 314232.0 0
308372.0 315052.0 0
313625.0 316770.0 0
318377.0 314474.0 0
325771.0 314432.0 0
322106.0 317094.0 0
330981.0 316216.0 0
336299.0 315329.0 0
342212.0 314978.0 0
347979.0 315920.0 0
352467.0 317478.0 0
357680.0 315379.0 0
363335.0 314968.0 0
372105.0 314767.0 0
367581.0 317461.0 0
377572.0 315059.0 0
382646.0 317787.0 0
388177.0 315903.0 0
393835.0 314523.0 0
403554.0 316042.0 0
409208.0 316812.0 0
413398.0 314522.0 0
418001.0 315155.0 0
422317.0 315215.0 0
427436.0 317326.0 0
432985.0 314652.0 0
437052.0 315380.0 0
442552.0 317002.0 0
447415.0 314787.0 0
451706.0 315366.0 0
455869.0 313789.0 0
461838.0 315076.0 0
468610.0 315790.0 0
474675.0 315673.0 0
480001.0 315106.0 0
486624.0 315265.0 0
493179.0 316422.0 0
498364.0 316335.0 0
2646.07 321507.0 0
6704.61 320057.0 0
11883.4 322397.0 0
17237.7 320401.0 0
21689.7 320526.0 0
26626.0 320554.0 0
32270.8 320691.0 0
37800.8 319810.0 0
42911.0 319961.0 0
48373.5 319780.0 0
53049.3 320009.0 0
57491.5 320394.0 0
62500.0 319994.0 0
67351.0 320017.0 0
72974.1 321202.0 0
77096.1 320190.0 0
80951.3 320177.0 0
86603.5 319887.0 0
92663.9 321807.0 0
98143.5 320460.0 0
102895.0 319416.0 0
107107.0 321917.0 0
112147.0 319795.0 0
117792.0 319663.0 0
127512.0 319925.0 0
123045.0 321324.0 0
131662.0 321683.0 0
135071.0 318776.0 0
139822.0 321362.0 0
146674.0 322227.0 0
153491.0 320318.0 0
159482.0 320759.0 0
165989.0 320157.0 0
171486.0 320585.0 0
177308.0 322192.0 0
183233.0 322220.0 0
191971.0 318505.0 0
188872.0 322610.0 0
196056.0 322323.0 0
201395.0 318486.0 0
206578.0 321919.0 0
212045.0 319442.0 0
217778.0 318184.0 0
222974.0 319654.0 0
228680.0 319854.0 0
233694.0 319132.0 0
237049.0 320619.0 0
241247.0 319122.0 0
246328.0 322177.0 0
251861.0 320638.0 0
258263.0 322876.0 0
263300.0 321548.0 0
268761.0 318996.0 0
274202.0 321684.0 0
278932.0 320424.0 0
288425.0 320727.0 0
293476.0 320863.0 0
299949.0 320341.0 0
304987.0 318556.0 0
304777.0 322638.0 0
308598.0 320789.0 0
313192.0 321706.0 0
316616.0 319712.0 0
320490.0 321217.0 0
326605.0 320856.0 0
333848.0 321159.0 0
338660.0 319726.0 0
342794.0 320459.0 0
347410.0 320892.0 0
352854.0 322302.0 0
357812.0 321163.0 0
362643.0 319796.0 0
367029.0 321813.0 0
371827.0 320188.0 0
377400.0 320958.0 0
382625.0 322142.0 0
386620.0 321411.0 0
391985.0 320698.0 0
397817.0 318352.0 0
396554.0 322471.0 0
401654.0 322765.0 0
406996.0 320988.0 0
411819.0 320508.0 0
417031.0 319700.0 0
422592.0 320929.0 0
432167.0 321228.0 0
437964.0 320602.0 0
442931.0 322557.0 0
448184.0 319832.0 0
452076.0 322985.0 0
455988.0 319687.0 0
461576.0 321634.0 0
466239.0 320302.0 0
471920.0 321996.0 0
477550.0 320501.0 0
481993.0 319079.0 0
481353.0 322923.0 0
486491.0 322550.0 0
491855.0 321525.0 0
497016.0 321121.0 0
162837.0 323795.0 0
201309.0 323917.0 0
204598.0 326425.0 0
210938.0 325095.0 0
216566.0 323911.0 0
222606.0 325393.0 0
228089.0 325266.0 0
234187.0 323924.0 0
236742.0 327302.0 0
240473.0 324893.0 0
244595.0 328118.0 0
248937.0 326836.0 0
253420.0 325459.0 0
261193.0 325840.0 0
270426.0 324543.0 0
265582.0 326496.0 0
278375.0 325889.0 0
284333.0 323404.0 0
283227.0 328011.0 0
289684.0 325259.0 0
296824.0 325648.0 0
302074.0 326163.0 0
427264.0 323102.0 0
199948.0 328926.0 0
204877.0 330545.0 0
209910.0 330151.0 0
215961.0 330015.0 0
221360.0 330789.0 0
226862.0 330725.0 0
231723.0 328444.0 0
235538.0 330470.0 0
240469.0 330948.0 0
246029.0 333197.0 0
252296.0 330375.0 0
257798.0 328415.0 0
262048.0 329072.0 0
262755.0 333139.0 0
271176.0 329655.0 0
276140.0 331230.0 0
280649.0 331080.0 0
284294.0 332316.0 0
287038.0 329502.0 0
292994.0 330202.0 0
299248.0 331010.0 0
200915.0 335215.0 0
207169.0 335075.0 0
212704.0 334425.0 0
218408.0 335703.0 0
223551.0 334717.0 0
227531.0 336771.0 0
231958.0 333735.0 0
236835.0 334161.0 0
236299.0 338207.0 0
241118.0 336661.0 0
250814.0 334776.0 0
256697.0 334780.0 0
261554.0 337987.0 0
267847.0 333852.0 0
273165.0 335993.0 0
278654.0 335091.0 0
283160.0 336133.0 0
288510.0 334804.0 0
293983.0 335745.0 0
298037.0 335695.0 0
202666.0 341549.0 0
208609.0 340590.0 0
213859.0 339515.0 0
218951.0 341069.0 0
223980.0 340737.0 0
228459.0 341372.0 0
231869.0 339103.0 0
240725.0 340737.0 0
246431.0 339074.0 0
252239.0 339554.0 0
257270.0 340703.0 0
261761.0 343299.0 0
266570.0 339087.0 0
271827.0 340782.0 0
276633.0 340044.0 0
279391.0 342767.0 0
280774.0 339022.0 0
285583.0 339958.0 0
291276.0 339677.0 0
297190.0 340343.0 0
341742.0 342614.0 0
10310.7 344950.0 0
206548.0 346106.0 0
210694.0 344539.0 0
215535.0 345016.0 0
221126.0 345337.0 0
226803.0 346326.0 0
231484.0 343707.0 0
237093.0 343656.0 0
243198.0 343592.0 0
248831.0 344445.0 0
254615.0 344714.0 0
258720.0 348177.0 0
268258.0 345549.0 0
274454.0 344153.0 0
278595.0 346850.0 0
283398.0 344941.0 0
288978.0 344379.0 0
293744.0 343851.0 0
297387.0 346660.0 0
309756.0 346480.0 0
48261.5 352374.0 0
174681.0 351399.0 0
202246.0 348736.0 0
201931.0 353520.0 0
206605.0 351412.0 0
211784.0 349528.0 0
217351.0 350515.0 0
222593.0 350162.0 0
228274.0 350900.0 0
232469.0 348760.0 0
237380.0 349027.0 0
242224.0 349085.0 0
247965.0 350333.0 0
253545.0 349939.0 0
258799.0 353361.0 0
262751.0 350803.0 0
267379.0 351822.0 0
272827.0 350563.0 0
278902.0 352564.0 0
282398.0 349102.0 0
286570.0 350993.0 0
292381.0 349207.0 0
297213.0 353107.0 0
362467.0 352623.0 0
368610.0 352406.0 0
389098.0 351470.0 0
404603.0 349736.0 0
421499.0 351007.0 0
443009.0 350655.0 0
455114.0 351036.0 0
472319.0 351780.0 0
492537.0 352756.0 0
497243.0 350604.0 0
6878.9 354760.0 0
56374.4 356288.0 0
63868.7 356297.0 0
68827.6 357317.0 0
79658.9 358051.0 0
85031.3 358749.0 0
96187.4 356564.0 0
100416.0 356011.0 0
107589.0 357748.0 0
115161.0 358050.0 0
121008.0 357943.0 0
126005.0 355732.0 0
154054.0 358353.0 0
158565.0 357747.0 0
167796.0 354622.0 0
177286.0 355452.0 0
191569.0 356604.0 0
196244.0 357533.0 0
201507.0 357888.0 0
205688.0 356341.0 0
210884.0 355203.0 0
215959.0 355362.0 0
220494.0 354634.0 0
225697.0 354348.0 0
231593.0 354864.0 0
237700.0 353946.0 0
242438.0 357038.0 0
248144.0 356346.0 0
253876.0 355282.0 0
258953.0 357770.0 0
263524.0 355949.0 0
269133.0 356929.0 0
274183.0 355766.0 0
283734.0 356149.0 0
288212.0 355590.0 0
292139.0 354480.0 0
296988.0 358092.0 0
309917.0 357985.0 0
317421.0 354700.0 0
322450.0 356090.0 0
357807.0 354207.0 0
374583.0 355047.0 0
391310.0 358149.0 0
437044.0 354297.0 0
461586.0 354897.0 0
471850.0 358756.0 0
476569.0 355023.0 0
481239.0 356116.0 0
14254.8 359313.0 0
17655.2 362630.0 0
22442.4 360629.0 0
30433.9 360533.0 0
36537.1 361066.0 0
48339.7 363278.0 0
53010.0 363275.0 0
75161.9 359352.0 0
93067.9 362669.0 0
111005.0 359593.0 0
124502.0 363074.0 0
131855.0 360054.0 0
137504.0 359067.0 0
142262.0 361320.0 0
150902.0 362643.0 0
173220.0 360477.0 0
178730.0 358830.0 0
178039.0 362331.0 0
204668.0 361002.0 0
208554.0 359312.0 0
213596.0 360061.0 0
209848.0 363661.0 0
218136.0 359122.0 0
222592.0 358841.0 0
220549.0 362992.0 0
227694.0 359594.0 0
233219.0 360581.0 0
238325.0 360022.0 0
241873.0 361868.0 0
245460.0 360829.0 0
251053.0 361217.0 0
255553.0 359809.0 0
257871.0 363692.0 0
261680.0 360219.0 0
267167.0 361932.0 0
272972.0 360021.0 0
277685.0 359577.0 0
281989.0 360113.0 0
284271.0 362374.0 0
287285.0 359769.0 0
292474.0 359469.0 0
296454.0 362384.0 0
322451.0 360802.0 0
326630.0 361561.0 0
330913.0 361835.0 0
339605.0 361179.0 0
345114.0 363372.0 0
388273.0 362827.0 0
396056.0 359587.0 0
417081.0 360692.0 0
423600.0 358959.0 0
426604.0 362529.0 0
431907.0 363230.0 0
439714.0 361519.0 0
444222.0 363776.0 0
449230.0 360669.0 0
458451.0 363535.0 0
462790.0 361346.0 0
466760.0 360159.0 0
479717.0 361399.0 0
484429.0 361479.0 0
497839.0 360055.0 0
7550.33 365085.0 0
14588.8 366137.0 0
30588.6 366735.0 0
40985.6 365471.0 0
45936.2 366946.0 0
88228.5 364741.0 0
92904.2 367674.0 0
96475.6 369112.0 0
97914.2 364789.0 0
102135.0 367081.0 0
113050.0 366955.0 0
119171.0 364934.0 0
126332.0 367314.0 0
146000.0 364771.0 0
155278.0 366008.0 0
169988.0 365728.0 0
177871.0 366522.0 0
189140.0 366984.0 0
195022.0 367785.0 0
200153.0 365959.0 0
205021.0 366119.0 0
215539.0 365655.0 0
222622.0 367204.0 0
226467.0 364622.0 0
231221.0 365478.0 0
236605.0 365027.0 0
241601.0 365626.0 0
247374.0 366270.0 0
253407.0 365700.0 0
262758.0 364419.0 0
267181.0 367323.0 0
271620.0 364439.0 0
280421.0 364268.0 0
275929.0 366200.0 0
287586.0 364687.0 0
292223.0 364363.0 0
295868.0 367359.0 0
299971.0 365017.0 0
304330.0 365456.0 0
305419.0 369282.0 0
308927.0 365283.0 0
313788.0 367516.0 0
318100.0 364876.0 0
335045.0 364495.0 0
342090.0 366809.0 0
348027.0 366926.0 0
377839.0 368131.0 0
383532.0 366268.0 0
390638.0 366532.0 0
393956.0 364473.0 0
399212.0 366661.0 0
403557.0 368462.0 0
406966.0 364131.0 0
412803.0 365992.0 0
422374.0 364418.0 0
436080.0 365068.0 0
473891.0 368174.0 0
478928.0 366641.0 0
489239.0 364404.0 0
492522.0 368402.0 0
497251.0 368415.0 0
2630.5 368798.0 0
834.262 375581.0 0
4034.89 375067.0 0
9563.2 372099.0 0
7616.76 375610.0 0
9957.64 376710.0 0
12654.6 375417.0 0
18911.2 368464.0 0
16372.7 375318.0 0
24824.1 375201.0 0
20784.5 375167.0 0
27254.9 370787.0 0
34929.4 375199.0 0
31432.1 375067.0 0
37311.7 369066.0 0
35235.2 377890.0 0
38409.3 375519.0 0
41499.7 375462.0 0
45371.4 374464.0 0
49875.0 375069.0 0
52924.5 375547.0 0
56586.4 370046.0 0
61385.3 372764.0 0
65418.1 375382.0 0
69600.7 375406.0 0
74868.6 375048.0 0
72552.9 377055.0 0
79943.6 375025.0 0
85762.6 369952.0 0
90908.2 370068.0 0
87942.9 375728.0 0
91327.1 375342.0 0
95514.9 375729.0 0
99139.0 375100.0 0
100559.0 371461.0 0
105704.0 369987.0 0
101425.0 375842.0 0
104014.0 375474.0 0
106838.0 375379.0 0
110912.0 375485.0 0
115864.0 375681.0 0
120275.0 375065.0 0
123815.0 375464.0 0
126568.0 375628.0 0
127574.0 372060.0 0
132459.0 370466.0 0
136969.0 368872.0 0
136957.0 375637.0 0
141331.0 374575.0 0
146326.0 375154.0 0
150365.0 375597.0 0
154111.0 375215.0 0
157046.0 376019.0 0
163127.0 375117.0 0
159522.0 375174.0 0
167460.0 370276.0 0
171186.0 375055.0 0
175316.0 375075.0 0
181741.0 375043.0 0
178734.0 375652.0 0
183325.0 368354.0 0
185937.0 375272.0 0
190519.0 375551.0 0
195363.0 375454.0 0
199031.0 375972.0 0
204530.0 371558.0 0
209285.0 369059.0 0
213534.0 372162.0 0
218880.0 370687.0 0
223213.0 371090.0 0
227019.0 369445.0 0
232187.0 370710.0 0
237541.0 370422.0 0
242678.0 370241.0 0
247383.0 372652.0 0
252273.0 370641.0 0
257600.0 369116.0 0
262639.0 369083.0 0
265910.0 372836.0 0
272358.0 370194.0 0
278357.0 370150.0 0
283943.0 369024.0 0
281398.0 373603.0 0
290499.0 369860.0 0
295786.0 373518.0 0
301628.0 375030.0 0
305544.0 375550.0 0
308751.0 375023.0 0
309759.0 369490.0 0
312307.0 375146.0 0
320670.0 375390.0 0
316181.0 375247.0 0
324854.0 375492.0 0
329235.0 375229.0 0
334446.0 375115.0 0
340016.0 372093.0 0
341604.0 376392.0 0
344105.0 375221.0 0
352205.0 375174.0 0
347927.0 375250.0 0
356396.0 375224.0 0
360595.0 369793.0 0
365576.0 366764.0 0
365236.0 375040.0 0
368941.0 369678.0 0
373711.0 371744.0 0
380862.0 374226.0 0
386894.0 374447.0 0
384591.0 371320.0 0
390205.0 375392.0 0
395939.0 369397.0 0
393572.0 375461.0 0
399639.0 370978.0 0
403033.0 373194.0 0
406546.0 375647.0 0
410290.0 375046.0 0
415043.0 370400.0 0
418405.0 375188.0 0
423207.0 375126.0 0
426523.0 376001.0 0
431773.0 368753.0 0
434555.0 375558.0 0
438586.0 375270.0 0
442518.0 375374.0 0
446283.0 375371.0 0
453728.0 375221.0 0
449973.0 375246.0 0
457529.0 375401.0 0
461006.0 375250.0 0
463651.0 371443.0 0
468028.0 375010.0 0
472161.0 375101.0 0
474641.0 375700.0 0
478250.0 375579.0 0
483284.0 370202.0 0
482315.0 375584.0 0
488195.0 371712.0 0
491111.0 375482.0 0
494896.0 375198.0 0
498727.0 375339.0 0
1707.82 378286.0 0
4597.2 381583.0 0
5866.72 378638.0 0
9716.26 380878.0 0
14022.6 378947.0 0
18731.5 378561.0 0
23100.5 377572.0 0
21880.0 380300.0 0
25186.0 379840.0 0
27894.6 377057.0 0
28867.2 381128.0 0
32248.6 379165.0 0
37590.9 379415.0 0
40515.7 378610.0 0
43424.6 377901.0 0
45583.6 380060.0 0
42413.3 381564.0 0
47831.5 377626.0 0
51572.3 378231.0 0
55795.6 375672.0 0
54630.3 379225.0 0
58741.7 376361.0 0
57698.0 378868.0 0
59961.6 380624.0 0
61573.5 377256.0 0
65204.5 378490.0 0
62874.7 380917.0 0
68964.0 378954.0 0
66879.0 381971.0 0
76531.2 378217.0 0
72878.1 380613.0 0
81634.1 379291.0 0
77724.3 380990.0 0
84662.3 375790.0 0
86986.2 380497.0 0
91480.1 378966.0 0
99066.9 379047.0 0
104068.0 379216.0 0
107555.0 378312.0 0
109635.0 380251.0 0
112925.0 378711.0 0
116433.0 379998.0 0
119805.0 378126.0 0
123066.0 378114.0 0
121854.0 380157.0 0
119679.0 381513.0 0
126697.0 378875.0 0
129610.0 376156.0 0
132549.0 379508.0 0
130013.0 380176.0 0
133226.0 376180.0 0
134336.0 379256.0 0
136434.0 379817.0 0
139115.0 378491.0 0
143714.0 378601.0 0
147436.0 378162.0 0
146472.0 381969.0 0
150345.0 379201.0 0
153922.0 377893.0 0
157425.0 378827.0 0
154449.0 380798.0 0
160735.0 377565.0 0
164011.0 378278.0 0
160814.0 380844.0 0
166860.0 375628.0 0
166985.0 379750.0 0
164189.0 381712.0 0
169502.0 377590.0 0
171358.0 381459.0 0
173537.0 378049.0 0
176931.0 378714.0 0
175766.0 381746.0 0
180411.0 377978.0 0
179550.0 381049.0 0
183111.0 379924.0 0
183210.0 377095.0 0
186458.0 378571.0 0
189970.0 380759.0 0
193993.0 378793.0 0
196821.0 379471.0 0
199647.0 379568.0 0
208849.0 374286.0 0
204465.0 377105.0 0
212366.0 376959.0 0
217228.0 377263.0 0
221914.0 374953.0 0
226696.0 374355.0 0
231321.0 376023.0 0
237233.0 376355.0 0
242892.0 375261.0 0
247616.0 377080.0 0
251266.0 375725.0 0
255868.0 374394.0 0
261722.0 374819.0 0
269812.0 376708.0 0
265248.0 377696.0 0
276073.0 375923.0 0
282041.0 378507.0 0
286305.0 374603.0 0
291316.0 377140.0 0
295796.0 379074.0 0
303764.0 377984.0 0
300469.0 378460.0 0
304408.0 380709.0 0
306665.0 378227.0 0
310427.0 378248.0 0
314427.0 378435.0 0
319054.0 379032.0 0
316202.0 381058.0 0
322403.0 378472.0 0
325834.0 379052.0 0
323323.0 381480.0 0
328103.0 377856.0 0
331134.0 378356.0 0
328968.0 380357.0 0
333843.0 379338.0 0
341029.0 379049.0 0
337976.0 377638.0 0
345393.0 377659.0 0
343604.0 379709.0 0
346744.0 380835.0 0
348778.0 378282.0 0
352719.0 378543.0 0
356516.0 378273.0 0
355688.0 382724.0 0
360080.0 376203.0 0
362914.0 377154.0 0
366752.0 378457.0 0
369742.0 375603.0 0
370011.0 380286.0 0
373127.0 377312.0 0
376732.0 376455.0 0
372996.0 381196.0 0
376198.0 381131.0 0
379735.0 378827.0 0
383900.0 377897.0 0
388379.0 378368.0 0
390516.0 380956.0 0
391802.0 377998.0 0
397439.0 375447.0 0
394857.0 379431.0 0
401024.0 376646.0 0
398894.0 380290.0 0
402851.0 380187.0 0
403781.0 377335.0 0
407145.0 379097.0 0
410722.0 378202.0 0
414053.0 375941.0 0
412834.0 380464.0 0
415991.0 379066.0 0
421896.0 377841.0 0
419357.0 379307.0 0
425315.0 379051.0 0
422837.0 381208.0 0
428378.0 379104.0 0
429999.0 375278.0 0
431764.0 378263.0 0
435427.0 379967.0 0
438778.0 378256.0 0
442424.0 378721.0 0
439807.0 381997.0 0
446505.0 378508.0 0
450144.0 378314.0 0
453495.0 378261.0 0
449722.0 382029.0 0
453664.0 381733.0 0
457023.0 378782.0 0
460928.0 378704.0 0
464104.0 376401.0 0
464204.0 380353.0 0
467178.0 378806.0 0
471252.0 377572.0 0
474569.0 378426.0 0
471059.0 380617.0 0
478602.0 379611.0 0
482337.0 378763.0 0
485628.0 376251.0 0
488464.0 375857.0 0
488603.0 378800.0 0
491656.0 378429.0 0
494558.0 378897.0 0
498132.0 378247.0 0
1532.77 381579.0 0
2217.92 385510.0 0
6798.23 384335.0 0
13365.6 382934.0 0
10949.6 386039.0 0
16689.7 381663.0 0
19666.0 382649.0 0
16347.1 385762.0 0
23021.6 383113.0 0
20975.5 386347.0 0
25075.3 386030.0 0
26046.0 382675.0 0
28867.0 384966.0 0
32163.5 382981.0 0
35092.2 381328.0 0
35238.6 384571.0 0
38726.8 382825.0 0
42701.0 384849.0 0
46034.4 383511.0 0
49768.3 381555.0 0
49378.1 386267.0 0
53169.9 383414.0 0
56832.0 382176.0 0
59512.3 384106.0 0
56454.8 385795.0 0
62912.7 384307.0 0
66383.4 385279.0 0
70328.0 384051.0 0
75711.2 383790.0 0
79976.3 384401.0 0
77657.1 386897.0 0
82964.5 382908.0 0
84452.8 384906.0 0
82295.8 387173.0 0
91116.7 383752.0 0
87950.9 385162.0 0
94749.5 381292.0 0
94382.8 386063.0 0
98600.7 383918.0 0
102217.0 382601.0 0
106452.0 382814.0 0
103531.0 386239.0 0
109616.0 383516.0 0
113157.0 383048.0 0
121464.0 384130.0 0
117381.0 384401.0 0
124102.0 381813.0 0
127693.0 383261.0 0
131024.0 383230.0 0
134009.0 382058.0 0
137342.0 383454.0 0
133867.0 386017.0 0
140909.0 381972.0 0
140117.0 385771.0 0
143871.0 385282.0 0
151460.0 383224.0 0
148465.0 385579.0 0
157269.0 383740.0 0
153499.0 386838.0 0
161637.0 384954.0 0
165167.0 384529.0 0
167061.0 382648.0 0
169032.0 384960.0 0
174089.0 385327.0 0
178156.0 384603.0 0
182467.0 384025.0 0
185563.0 381649.0 0
187079.0 384299.0 0
191570.0 385539.0 0
194693.0 382876.0 0
198719.0 383640.0 0
208888.0 379903.0 0
204449.0 382662.0 0
213682.0 381548.0 0
218594.0 383547.0 0
222581.0 380072.0 0
228028.0 380327.0 0
233414.0 380938.0 0
238709.0 382734.0 0
244369.0 380629.0 0
249722.0 380428.0 0
254137.0 381244.0 0
259222.0 379167.0 0
263903.0 381552.0 0
268002.0 381169.0 0
272592.0 381053.0 0
277737.0 382248.0 0
282766.0 383842.0 0
287122.0 380646.0 0
291969.0 382368.0 0
300886.0 382723.0 0
296073.0 383578.0 0
304903.0 384797.0 0
308061.0 382036.0 0
309200.0 386142.0 0
312527.0 382438.0 0
313182.0 386114.0 0
316440.0 384160.0 0
320104.0 382962.0 0
318908.0 385924.0 0
323328.0 385033.0 0
326991.0 383380.0 0
331644.0 382431.0 0
330650.0 386220.0 0
335767.0 382139.0 0
333994.0 385350.0 0
340385.0 383006.0 0
336797.0 385824.0 0
344873.0 382899.0 0
344144.0 386170.0 0
350314.0 382018.0 0
347485.0 384238.0 0
351607.0 386352.0 0
359822.0 380361.0 0
359666.0 385776.0 0
362122.0 383142.0 0
363755.0 380508.0 0
366771.0 382027.0 0
365433.0 385796.0 0
370330.0 384566.0 0
373569.0 383912.0 0
376274.0 385370.0 0
379905.0 381886.0 0
379896.0 385317.0 0
382980.0 381849.0 0
386762.0 381632.0 0
384534.0 385408.0 0
389357.0 384273.0 0
393181.0 382963.0 0
396646.0 384185.0 0
401278.0 384295.0 0
405507.0 382741.0 0
409691.0 381975.0 0
412659.0 384309.0 0
408852.0 385660.0 0
415653.0 382502.0 0
416041.0 386213.0 0
419184.0 383076.0 0
423279.0 384519.0 0
426627.0 382759.0 0
430702.0 381750.0 0
429821.0 385764.0 0
436878.0 382805.0 0
434185.0 383892.0 0
438016.0 386091.0 0
442567.0 384917.0 0
444957.0 382199.0 0
447615.0 384902.0 0
445666.0 386521.0 0
451733.0 385013.0 0
449617.0 386833.0 0
457669.0 382200.0 0
455256.0 385764.0 0
461157.0 382062.0 0
464223.0 384311.0 0
460006.0 385539.0 0
467633.0 382274.0 0
468050.0 386333.0 0
470915.0 383899.0 0
474923.0 382356.0 0
478947.0 384483.0 0
475737.0 386072.0 0
481424.0 382025.0 0
483449.0 384736.0 0
485657.0 381018.0 0
487897.0 385490.0 0
490689.0 382168.0 0
494580.0 382112.0 0
498439.0 381421.0 0
497783.0 385445.0 0
1726.69 388922.0 0
4456.04 390853.0 0
6263.77 388347.0 0
10063.8 389809.0 0
14351.0 389652.0 0
18979.1 390009.0 0
23523.6 389625.0 0
27628.0 388746.0 0
30320.5 391149.0 0
32007.8 387385.0 0
33834.4 390536.0 0
39654.3 386485.0 0
36415.0 387954.0 0
40169.0 389740.0 0
45290.0 387060.0 0
42306.3 387847.0 0
43791.6 390242.0 0
47444.0 389859.0 0
53131.1 387105.0 0
51342.7 390261.0 0
55815.8 389807.0 0
60007.1 388186.0 0
64415.6 387488.0 0
68236.8 388235.0 0
73525.7 387660.0 0
71051.2 390949.0 0
80151.9 388144.0 0
77725.2 389885.0 0
81961.1 391260.0 0
85580.9 388443.0 0
90331.1 388531.0 0
94631.9 390456.0 0
98747.5 387900.0 0
102303.0 390185.0 0
105869.0 389852.0 0
108936.0 387116.0 0
112021.0 390776.0 0
113687.0 387068.0 0
116949.0 387527.0 0
115451.0 389982.0 0
120425.0 387333.0 0
118713.0 390370.0 0
124997.0 386635.0 0
123114.0 390538.0 0
129772.0 386630.0 0
128047.0 390438.0 0
137263.0 387452.0 0
133133.0 390353.0 0
137754.0 391229.0 0
141524.0 389094.0 0
146276.0 388326.0 0
144475.0 391531.0 0
150211.0 388704.0 0
158265.0 388780.0 0
153702.0 390967.0 0
163010.0 388158.0 0
166278.0 387402.0 0
166271.0 390853.0 0
171375.0 386888.0 0
169485.0 388966.0 0
173257.0 389164.0 0
176978.0 388626.0 0
180654.0 387834.0 0
183629.0 389856.0 0
184418.0 386611.0 0
187987.0 387945.0 0
192172.0 390087.0 0
195643.0 387342.0 0
195972.0 390817.0 0
198869.0 390146.0 0
199282.0 387468.0 0
202834.0 387465.0 0
209468.0 385328.0 0
214724.0 387111.0 0
223563.0 385130.0 0
220253.0 387498.0 0
229443.0 385326.0 0
226904.0 388560.0 0
234319.0 386089.0 0
238590.0 387736.0 0
242809.0 386269.0 0
247933.0 385282.0 0
252223.0 384595.0 0
251880.0 389071.0 0
256121.0 385942.0 0
260968.0 384907.0 0
265549.0 385452.0 0
270026.0 385159.0 0
274812.0 387102.0 0
281497.0 388544.0 0
287596.0 386454.0 0
292934.0 387181.0 0
300630.0 391040.0 0
297023.0 387108.0 0
301540.0 387284.0 0
305739.0 387949.0 0
304346.0 390756.0 0
308402.0 389858.0 0
312178.0 389682.0 0
316649.0 388432.0 0
319664.0 391164.0 0
321236.0 387335.0 0
326094.0 387728.0 0
323125.0 389972.0 0
329997.0 390345.0 0
335065.0 389772.0 0
339989.0 387938.0 0
340024.0 391527.0 0
343751.0 390059.0 0
347725.0 387577.0 0
352298.0 390330.0 0
355939.0 388417.0 0
361768.0 389235.0 0
366293.0 390811.0 0
369707.0 388327.0 0
373607.0 387979.0 0
377662.0 388741.0 0
380989.0 388502.0 0
384971.0 390661.0 0
388746.0 387884.0 0
390558.0 391194.0 0
393073.0 387128.0 0
394655.0 390876.0 0
398300.0 388361.0 0
401914.0 387775.0 0
404909.0 387093.0 0
412005.0 388310.0 0
407999.0 390011.0 0
415529.0 389947.0 0
420489.0 387646.0 0
419323.0 391514.0 0
425673.0 387287.0 0
424001.0 391457.0 0
429016.0 390064.0 0
433474.0 388315.0 0
437902.0 391106.0 0
442413.0 388858.0 0
447385.0 389926.0 0
452542.0 388973.0 0
458288.0 389498.0 0
463507.0 388918.0 0
468328.0 390319.0 0
472457.0 387171.0 0
472269.0 390790.0 0
477124.0 389772.0 0
481036.0 387595.0 0
484796.0 388558.0 0
489342.0 389922.0 0
492955.0 386824.0 0
497785.0 389904.0 0
1525.17 392055.0 0
1590.5 395439.0 0
4621.25 394036.0 0
7775.71 392756.0 0
9748.73 395992.0 0
12173.3 393260.0 0
16509.7 393540.0 0
21822.0 393977.0 0
26455.7 392337.0 0
29288.5 394747.0 0
25999.7 395985.0 0
33229.7 393636.0 0
37097.4 391637.0 0
36649.9 395497.0 0
41376.3 393651.0 0
49113.1 392343.0 0
46179.2 393699.0 0
50729.0 394412.0 0
54017.5 393383.0 0
58652.6 393298.0 0
56035.4 395609.0 0
63605.3 391800.0 0
62160.7 396686.0 0
68070.9 392153.0 0
71010.5 394564.0 0
66761.6 395903.0 0
74483.1 392244.0 0
78018.3 393104.0 0
86772.1 392235.0 0
84156.8 395112.0 0
87296.0 396736.0 0
90897.5 393604.0 0
95432.4 395642.0 0
98914.1 392324.0 0
100562.0 395578.0 0
104140.0 393844.0 0
108460.0 392394.0 0
112101.0 395040.0 0
115635.0 393262.0 0
120124.0 394153.0 0
125694.0 394868.0 0
130885.0 393827.0 0
132938.0 396112.0 0
134821.0 394085.0 0
141270.0 393337.0 0
138173.0 394766.0 0
144922.0 395110.0 0
149282.0 392465.0 0
157333.0 393088.0 0
153581.0 394951.0 0
162130.0 391914.0 0
159869.0 395111.0 0
162916.0 395323.0 0
166660.0 394172.0 0
171065.0 392770.0 0
175457.0 391993.0 0
175540.0 396559.0 0
179340.0 392098.0 0
183653.0 393649.0 0
180142.0 395606.0 0
187806.0 391846.0 0
187856.0 395960.0 0
191051.0 393835.0 0
198427.0 393516.0 0
194381.0 393724.0 0
203538.0 393300.0 0
207705.0 390460.0 0
212367.0 391400.0 0
218030.0 391383.0 0
223150.0 390274.0 0
226963.0 393804.0 0
231027.0 390136.0 0
235879.0 391059.0 0
240712.0 391328.0 0
245996.0 390782.0 0
251915.0 393652.0 0
256737.0 390976.0 0
260129.0 394127.0 0
262159.0 389836.0 0
267649.0 390032.0 0
272702.0 392068.0 0
277913.0 391625.0 0
285018.0 391298.0 0
290313.0 391792.0 0
295834.0 391407.0 0
302062.0 394538.0 0
307092.0 393289.0 0
310604.0 392407.0 0
315245.0 393226.0 0
311185.0 395952.0 0
319732.0 395235.0 0
322597.0 393162.0 0
326258.0 392450.0 0
323370.0 395729.0 0
330893.0 394363.0 0
327031.0 396491.0 0
334625.0 393913.0 0
338026.0 393913.0 0
343164.0 394425.0 0
348377.0 391886.0 0
354794.0 393093.0 0
351750.0 394976.0 0
358645.0 391386.0 0
362342.0 393661.0 0
358226.0 395752.0 0
371305.0 391849.0 0
367688.0 395769.0 0
375588.0 391506.0 0
373326.0 395434.0 0
379913.0 391591.0 0
377897.0 395279.0 0
382928.0 394892.0 0
388148.0 395017.0 0
393698.0 395198.0 0
397963.0 392491.0 0
399526.0 395827.0 0
402875.0 391543.0 0
407838.0 393788.0 0
404186.0 395257.0 0
411700.0 392038.0 0
411588.0 395811.0 0
415487.0 393861.0 0
420119.0 394990.0 0
428440.0 393595.0 0
424618.0 395668.0 0
432976.0 392188.0 0
432055.0 395549.0 0
436236.0 394810.0 0
443136.0 392716.0 0
440223.0 394470.0 0
446876.0 393906.0 0
450903.0 392710.0 0
454786.0 391805.0 0
458530.0 393932.0 0
454296.0 395300.0 0
461850.0 392587.0 0
462349.0 396029.0 0
465362.0 393423.0 0
474451.0 393314.0 0
470119.0 394493.0 0
478728.0 394373.0 0
481674.0 391456.0 0
483768.0 395511.0 0
485898.0 391891.0 0
489148.0 394327.0 0
493568.0 391783.0 0
493363.0 396166.0 0
497961.0 393895.0 0
1337.52 398203.0 0
2145.25 401489.0 0
5757.74 398011.0 0
13780.1 397217.0 0
10367.2 399906.0 0
18292.0 397922.0 0
23447.0 399105.0 0
28145.3 398648.0 0
32058.5 397581.0 0
40466.7 397737.0 0
36072.8 400091.0 0
40010.3 400454.0 0
44394.7 397284.0 0
42964.9 400625.0 0
48610.9 397175.0 0
46499.1 399870.0 0
50557.8 401155.0 0
53362.7 397745.0 0
58023.9 397938.0 0
56086.6 401726.0 0
61089.0 401093.0 0
65441.4 399783.0 0
70076.6 398445.0 0
75005.7 396988.0 0
80355.0 396303.0 0
78469.3 400442.0 0
83617.5 399723.0 0
91146.3 398483.0 0
87545.8 400548.0 0
95038.2 400801.0 0
98915.1 398376.0 0
103281.0 398448.0 0
107697.0 396475.0 0
107503.0 400829.0 0
111742.0 398999.0 0
116587.0 397606.0 0
114813.0 401148.0 0
121819.0 398361.0 0
126852.0 400276.0 0
123041.0 401404.0 0
129606.0 397010.0 0
131892.0 399061.0 0
130413.0 401514.0 0
136342.0 398094.0 0
140989.0 396952.0 0
144981.0 399150.0 0
149309.0 397017.0 0
149144.0 401301.0 0
157411.0 396980.0 0
153816.0 399675.0 0
160886.0 398110.0 0
158545.0 400896.0 0
162981.0 401382.0 0
165391.0 398061.0 0
168208.0 401175.0 0
170103.0 397187.0 0
172343.0 400315.0 0
183296.0 397097.0 0
180153.0 399924.0 0
185759.0 399739.0 0
192149.0 396731.0 0
189953.0 399164.0 0
193556.0 400748.0 0
195710.0 396906.0 0
198486.0 400341.0 0
199165.0 396645.0 0
204141.0 399144.0 0
208583.0 395629.0 0
214578.0 396435.0 0
220109.0 396006.0 0
224033.0 397602.0 0
232037.0 395160.0 0
237365.0 396044.0 0
242942.0 394967.0 0
241578.0 399117.0 0
247907.0 396655.0 0
255763.0 396071.0 0
264822.0 394830.0 0
269432.0 395239.0 0
275518.0 396760.0 0
281902.0 396295.0 0
288131.0 396985.0 0
293860.0 396664.0 0
301285.0 398998.0 0
305011.0 400795.0 0
306111.0 397070.0 0
310021.0 400501.0 0
316243.0 398721.0 0
324064.0 398081.0 0
321399.0 398572.0 0
330232.0 398869.0 0
334534.0 397902.0 0
339616.0 397068.0 0
337910.0 400618.0 0
343595.0 400171.0 0
347898.0 397188.0 0
349365.0 401330.0 0
353994.0 398934.0 0
359021.0 399752.0 0
362811.0 398199.0 0
366782.0 401158.0 0
371102.0 398524.0 0
371400.0 401705.0 0
375747.0 399655.0 0
381020.0 398646.0 0
385414.0 397938.0 0
384687.0 401352.0 0
389931.0 399818.0 0
395711.0 399367.0 0
402887.0 398307.0 0
399825.0 399808.0 0
407269.0 398187.0 0
411796.0 399948.0 0
416207.0 398195.0 0
421445.0 398765.0 0
425316.0 399659.0 0
428707.0 397789.0 0
432781.0 399675.0 0
434489.0 396893.0 0
436124.0 398139.0 0
437522.0 401299.0 0
439372.0 397496.0 0
441772.0 400056.0 0
444040.0 397026.0 0
446436.0 401615.0 0
449659.0 397427.0 0
451963.0 401783.0 0
458258.0 397605.0 0
454390.0 398898.0 0
461592.0 399215.0 0
466279.0 397137.0 0
464505.0 400417.0 0
468226.0 400857.0 0
470503.0 398007.0 0
472843.0 401236.0 0
474843.0 397095.0 0
479674.0 398091.0 0
477014.0 400293.0 0
483532.0 399752.0 0
488295.0 398973.0 0
493275.0 401017.0 0
497824.0 397671.0 0
2119.06 405491.0 0
6625.64 403324.0 0
9504.99 406501.0 0
14924.1 401879.0 0
10934.6 403769.0 0
13159.6 406427.0 0
19715.1 401904.0 0
18018.1 406450.0 0
23197.0 403856.0 0
26725.7 401817.0 0
27660.8 405759.0 0
31219.9 402344.0 0
35480.8 404352.0 0
39579.9 403681.0 0
42690.5 403717.0 0
42424.7 406589.0 0
45852.3 403591.0 0
49292.3 405542.0 0
52982.5 404479.0 0
56041.1 406298.0 0
59881.0 404945.0 0
64957.4 404427.0 0
68827.0 401963.0 0
69726.4 405536.0 0
73372.8 401775.0 0
73959.9 406136.0 0
77211.3 403913.0 0
81407.2 403422.0 0
85725.4 403749.0 0
83597.6 406559.0 0
90630.4 403968.0 0
96053.3 405679.0 0
99611.6 401948.0 0
101281.0 406360.0 0
103734.0 402576.0 0
106877.0 406096.0 0
110994.0 403273.0 0
115273.0 405234.0 0
119288.0 402038.0 0
120293.0 406353.0 0
124135.0 404406.0 0
129502.0 404748.0 0
134482.0 402853.0 0
137557.0 406682.0 0
140151.0 401962.0 0
145202.0 402964.0 0
152469.0 404006.0 0
148370.0 405236.0 0
156082.0 403978.0 0
160344.0 405155.0 0
165692.0 404776.0 0
171388.0 404850.0 0
175601.0 401958.0 0
175490.0 406181.0 0
179196.0 404710.0 0
188778.0 402477.0 0
183924.0 403598.0 0
191998.0 405082.0 0
197444.0 405183.0 0
208958.0 400799.0 0
205211.0 403749.0 0
213517.0 402221.0 0
218553.0 400305.0 0
223073.0 402043.0 0
228435.0 399832.0 0
233503.0 399501.0 0
232005.0 404370.0 0
237546.0 401526.0 0
241443.0 404607.0 0
245385.0 401698.0 0
249722.0 401452.0 0
254572.0 401473.0 0
260847.0 399852.0 0
267558.0 399959.0 0
273037.0 401796.0 0
278518.0 401625.0 0
282787.0 401252.0 0
286384.0 401473.0 0
291103.0 401250.0 0
296483.0 401474.0 0
301957.0 403843.0 0
306270.0 403382.0 0
309043.0 404639.0 0
313773.0 401815.0 0
312595.0 404505.0 0
320570.0 402215.0 0
316229.0 403458.0 0
318867.0 405897.0 0
326124.0 401771.0 0
329103.0 406898.0 0
332337.0 402834.0 0
340195.0 402717.0 0
336853.0 404450.0 0
341963.0 405159.0 0
346204.0 403903.0 0
344901.0 406458.0 0
349593.0 404760.0 0
352989.0 403782.0 0
362116.0 402758.0 0
357366.0 403430.0 0
365212.0 405662.0 0
369210.0 404376.0 0
374715.0 405176.0 0
379765.0 402538.0 0
383178.0 404792.0 0
387868.0 405132.0 0
393946.0 403974.0 0
398523.0 402335.0 0
399105.0 405600.0 0
403069.0 402430.0 0
407763.0 401874.0 0
406573.0 405285.0 0
411097.0 404244.0 0
415235.0 402842.0 0
419148.0 401833.0 0
418960.0 405863.0 0
423585.0 403347.0 0
426785.0 406364.0 0
428619.0 402334.0 0
433417.0 403582.0 0
430108.0 405899.0 0
437385.0 405659.0 0
441967.0 403885.0 0
449452.0 404932.0 0
453813.0 405680.0 0
457572.0 402327.0 0
457840.0 406683.0 0
462043.0 402608.0 0
461493.0 406098.0 0
465583.0 404539.0 0
469960.0 403904.0 0
473248.0 405534.0 0
476205.0 403337.0 0
480557.0 402496.0 0
482798.0 405687.0 0
485351.0 402847.0 0
488974.0 403105.0 0
492297.0 405691.0 0
498024.0 401755.0 0
497567.0 405678.0 0
1623.78 409142.0 0
6077.83 408300.0 0
10676.1 409448.0 0
14485.0 410083.0 0
19864.0 410580.0 0
23351.5 408287.0 0
27658.0 410724.0 0
32813.6 407975.0 0
38232.7 407702.0 0
41611.8 410544.0 0
45909.0 408315.0 0
51791.5 410164.0 0
58530.0 409756.0 0
62790.5 407970.0 0
63168.1 411631.0 0
67076.3 409100.0 0
71017.5 408813.0 0
74566.5 409890.0 0
78930.1 407765.0 0
83522.1 410866.0 0
87415.4 407799.0 0
92136.1 409311.0 0
98144.7 410519.0 0
103859.0 410754.0 0
111014.0 407199.0 0
109092.0 410503.0 0
113473.0 409781.0 0
117253.0 408870.0 0
120046.0 409980.0 0
126680.0 407799.0 0
123165.0 409122.0 0
130411.0 409512.0 0
133303.0 406951.0 0
134800.0 411409.0 0
139755.0 410656.0 0
143180.0 407037.0 0
151907.0 407427.0 0
148044.0 409530.0 0
152476.0 411307.0 0
155962.0 407980.0 0
160278.0 410076.0 0
163792.0 407891.0 0
168219.0 408790.0 0
164722.0 410977.0 0
173507.0 410817.0 0
177946.0 408485.0 0
182341.0 408387.0 0
187274.0 406666.0 0
186352.0 411055.0 0
190661.0 409607.0 0
194196.0 408435.0 0
196432.0 409824.0 0
199173.0 409210.0 0
202326.0 405796.0 0
209135.0 405410.0 0
213463.0 407059.0 0
217852.0 405096.0 0
218636.0 409698.0 0
222375.0 406754.0 0
227125.0 405315.0 0
236556.0 406588.0 0
241780.0 409659.0 0
246347.0 406815.0 0
251298.0 405475.0 0
256593.0 407342.0 0
263160.0 406445.0 0
268402.0 405095.0 0
272565.0 406933.0 0
277335.0 406667.0 0
282443.0 405729.0 0
286735.0 405031.0 0
289502.0 407689.0 0
293750.0 405495.0 0
298029.0 405643.0 0
296873.0 408924.0 0
301550.0 408212.0 0
305945.0 406881.0 0
305128.0 410730.0 0
310303.0 407606.0 0
308378.0 410386.0 0
314885.0 408019.0 0
311802.0 411393.0 0
319280.0 409990.0 0
323508.0 406883.0 0
322688.0 411423.0 0
326309.0 411054.0 0
334103.0 407906.0 0
338988.0 408426.0 0
343528.0 409004.0 0
347834.0 408075.0 0
351743.0 407006.0 0
351782.0 411310.0 0
355347.0 407610.0 0
356870.0 411502.0 0
360538.0 407639.0 0
364489.0 409995.0 0
369339.0 408563.0 0
373886.0 409744.0 0
377403.0 409603.0 0
379958.0 406804.0 0
380654.0 410148.0 0
383798.0 408265.0 0
387027.0 409857.0 0
391733.0 409197.0 0
396276.0 408028.0 0
395924.0 411039.0 0
402792.0 407183.0 0
399724.0 410204.0 0
405820.0 408352.0 0
409592.0 409036.0 0
414802.0 407684.0 0
422877.0 408046.0 0
419002.0 411443.0 0
426128.0 409848.0 0
433358.0 408020.0 0
429264.0 409362.0 0
437318.0 410498.0 0
441013.0 407972.0 0
442866.0 411602.0 0
445799.0 407402.0 0
450627.0 408997.0 0
455438.0 409820.0 0
459860.0 409899.0 0
469020.0 407353.0 0
464561.0 409286.0 0
468679.0 411297.0 0
473364.0 409897.0 0
478178.0 407230.0 0
482652.0 409607.0 0
486902.0 406793.0 0
486293.0 411269.0 0
490375.0 410447.0 0
495202.0 409621.0 0
498798.0 409263.0 0
3098.16 413335.0 0
8066.5 412178.0 0
8391.97 416505.0 0
11854.2 413318.0 0
17227.9 414618.0 0
23023.2 413189.0 0
27161.2 415587.0 0
32502.6 413674.0 0
37191.3 411733.0 0
39631.2 413138.0 0
37169.6 416564.0 0
42293.8 415205.0 0
45832.7 412269.0 0
48519.3 414426.0 0
52178.1 416597.0 0
56025.9 413676.0 0
60154.5 414105.0 0
66564.4 413599.0 0
70732.1 412471.0 0
74379.0 412785.0 0
74192.6 416155.0 0
78333.9 412867.0 0
82657.3 415358.0 0
87978.1 412196.0 0
92012.3 414946.0 0
94766.6 412118.0 0
96554.2 414634.0 0
100924.0 415735.0 0
106729.0 414801.0 0
117111.0 412363.0 0
112526.0 414259.0 0
122130.0 413781.0 0
117723.0 416398.0 0
126790.0 412008.0 0
130415.0 413400.0 0
133397.0 416933.0 0
138961.0 415461.0 0
144273.0 412911.0 0
147615.0 416290.0 0
148926.0 413250.0 0
152262.0 416317.0 0
156613.0 412885.0 0
162496.0 414845.0 0
168266.0 413993.0 0
172316.0 415736.0 0
176477.0 415482.0 0
178956.0 411880.0 0
182961.0 412572.0 0
181179.0 415817.0 0
185559.0 415314.0 0
189884.0 413883.0 0
194004.0 411869.0 0
198033.0 412819.0 0
194263.0 416401.0 0
198889.0 416416.0 0
203693.0 410012.0 0
205671.0 414700.0 0
209431.0 410852.0 0
214670.0 411312.0 0
216814.0 414648.0 0
222530.0 411000.0 0
226689.0 410174.0 0
232036.0 410272.0 0
237712.0 410864.0 0
247172.0 411788.0 0
251675.0 410004.0 0
251808.0 414546.0 0
257632.0 412161.0 0
261127.0 411345.0 0
268231.0 410228.0 0
273204.0 411393.0 0
279623.0 410935.0 0
284446.0 410570.0 0
288520.0 411856.0 0
292828.0 411014.0 0
296472.0 413670.0 0
301744.0 413282.0 0
307767.0 415219.0 0
316024.0 412459.0 0
313007.0 414940.0 0
319884.0 414105.0 0
316807.0 416572.0 0
323813.0 414836.0 0
331288.0 412036.0 0
327375.0 414667.0 0
336447.0 412010.0 0
334515.0 415777.0 0
341311.0 412342.0 0
339012.0 415639.0 0
346400.0 412299.0 0
343848.0 416162.0 0
349465.0 416277.0 0
354476.0 415281.0 0
360461.0 411869.0 0
358945.0 414992.0 0
367404.0 413108.0 0
363163.0 413892.0 0
371976.0 412684.0 0
370405.0 416354.0 0
375548.0 412084.0 0
375408.0 415854.0 0
378894.0 412810.0 0
380023.0 416462.0 0
383624.0 412889.0 0
388856.0 413182.0 0
393354.0 413793.0 0
397538.0 413906.0 0
395479.0 416591.0 0
401369.0 414092.0 0
404457.0 411523.0 0
408517.0 413336.0 0
413526.0 412576.0 0
416857.0 416183.0 0
422280.0 416091.0 0
423638.0 412075.0 0
427464.0 413385.0 0
432272.0 412238.0 0
431067.0 415977.0 0
436193.0 415813.0 0
439618.0 413274.0 0
440961.0 415479.0 0
447569.0 412150.0 0
444582.0 415884.0 0
452599.0 413315.0 0
449332.0 416808.0 0
457661.0 414276.0 0
462013.0 412577.0 0
461893.0 416479.0 0
465402.0 413592.0 0
469242.0 414873.0 0
473421.0 414393.0 0
478297.0 412787.0 0
483670.0 414224.0 0
488613.0 414946.0 0
493805.0 414065.0 0
498188.0 412628.0 0
497648.0 416534.0 0
3126.86 419235.0 0
8596.54 421944.0 0
12873.3 418819.0 0
18147.3 420494.0 0
22493.6 417763.0 0
26570.4 420003.0 0
31710.9 419101.0 0
41308.5 420220.0 0
46710.5 418386.0 0
53388.7 420989.0 0
57637.9 418120.0 0
60705.0 421595.0 0
63386.2 417581.0 0
66027.4 421052.0 0
69327.3 417720.0 0
74961.9 420873.0 0
78590.3 417542.0 0
79110.1 420800.0 0
82773.6 419822.0 0
87139.9 416937.0 0
86962.1 421734.0 0
91501.5 419659.0 0
96322.4 418539.0 0
104352.0 419005.0 0
109781.0 419553.0 0
114692.0 418393.0 0
121820.0 418993.0 0
117759.0 420204.0 0
127313.0 417125.0 0
130374.0 421029.0 0
134861.0 421944.0 0
139412.0 420183.0 0
143745.0 418031.0 0
148417.0 420449.0 0
157983.0 417681.0 0
154201.0 420224.0 0
163219.0 420488.0 0
165825.0 417322.0 0
169174.0 419389.0 0
174182.0 419474.0 0
179001.0 419447.0 0
188768.0 418493.0 0
183973.0 419458.0 0
192864.0 421904.0 0
197999.0 419924.0 0
202299.0 416741.0 0
212500.0 415600.0 0
215882.0 418840.0 0
221062.0 415292.0 0
226532.0 415328.0 0
231474.0 415367.0 0
230705.0 420026.0 0
236763.0 415773.0 0
243015.0 415037.0 0
247836.0 415826.0 0
256330.0 416029.0 0
261065.0 415634.0 0
266028.0 415462.0 0
271008.0 415067.0 0
273791.0 419624.0 0
276352.0 415059.0 0
282303.0 415121.0 0
283442.0 419565.0 0
286800.0 415347.0 0
287256.0 419539.0 0
291457.0 415813.0 0
296373.0 418553.0 0
302639.0 418003.0 0
307470.0 421212.0 0
312422.0 419007.0 0
321110.0 417977.0 0
317375.0 421220.0 0
325956.0 418995.0 0
330219.0 417099.0 0
332924.0 420332.0 0
336976.0 418865.0 0
340949.0 419613.0 0
346173.0 420423.0 0
351220.0 420828.0 0
356752.0 419825.0 0
361881.0 417826.0 0
361072.0 421114.0 0
366021.0 417236.0 0
368880.0 419972.0 0
372962.0 420068.0 0
377589.0 419959.0 0
381809.0 420474.0 0
383369.0 417418.0 0
386642.0 416576.0 0
386414.0 421076.0 0
390972.0 417832.0 0
390989.0 422701.0 0
395188.0 420287.0 0
399491.0 417926.0 0
403059.0 421024.0 0
405171.0 416741.0 0
410985.0 417354.0 0
412109.0 421752.0 0
414956.0 419775.0 0
419105.0 420955.0 0
427076.0 417697.0 0
424237.0 421105.0 0
430140.0 418703.0 0
432990.0 419621.0 0
436791.0 420576.0 0
440958.0 419292.0 0
445700.0 420387.0 0
454353.0 417933.0 0
458376.0 419164.0 0
455532.0 421630.0 0
462625.0 421019.0 0
466290.0 418113.0 0
471628.0 419350.0 0
476090.0 417338.0 0
480201.0 417580.0 0
481716.0 421375.0 0
485386.0 418787.0 0
489093.0 418624.0 0
492302.0 417790.0 0
495084.0 419978.0 0
498466.0 420099.0 0
3684.87 425058.0 0
8934.27 426859.0 0
13813.7 424329.0 0
18918.7 424624.0 0
23021.7 422808.0 0
21627.0 426577.0 0
28069.7 423825.0 0
32262.0 423894.0 0
35396.9 426155.0 0
36502.5 421828.0 0
40156.8 425857.0 0
45091.2 423684.0 0
49614.0 422267.0 0
53839.7 425522.0 0
56934.9 422364.0 0
58728.8 425413.0 0
64011.0 425061.0 0
70149.2 423384.0 0
74746.1 425270.0 0
78288.8 423852.0 0
82939.3 424426.0 0
90564.2 423431.0 0
87424.5 426802.0 0
95411.4 423055.0 0
92527.6 426683.0 0
100477.0 421719.0 0
98759.2 425937.0 0
105639.0 423316.0 0
102702.0 426315.0 0
110661.0 424996.0 0
114560.0 422212.0 0
116144.0 426752.0 0
119904.0 423204.0 0
125462.0 423230.0 0
130727.0 425744.0 0
135443.0 426000.0 0
139380.0 424727.0 0
143711.0 422694.0 0
147459.0 425216.0 0
152420.0 423648.0 0
157933.0 423029.0 0
167204.0 423021.0 0
164026.0 425475.0 0
172494.0 423828.0 0
176609.0 422853.0 0
181266.0 423907.0 0
187249.0 423591.0 0
197854.0 424436.0 0
202359.0 420311.0 0
203479.0 424924.0 0
208142.0 420278.0 0
213427.0 421687.0 0
217369.0 424803.0 0
220231.0 420263.0 0
221982.0 425094.0 0
225379.0 420799.0 0
235545.0 421184.0 0
240137.0 420462.0 0
242790.0 424986.0 0
245937.0 420762.0 0
252905.0 420984.0 0
259299.0 420463.0 0
264217.0 420757.0 0
269379.0 420042.0 0
265970.0 424730.0 0
278600.0 420151.0 0
276841.0 424543.0 0
282009.0 425177.0 0
287502.0 424463.0 0
291462.0 421272.0 0
296357.0 424191.0 0
302064.0 422750.0 0
305619.0 425546.0 0
312409.0 424278.0 0
317415.0 426087.0 0
322562.0 422502.0 0
325715.0 425111.0 0
328920.0 423029.0 0
333171.0 424128.0 0
337251.0 422841.0 0
342306.0 424521.0 0
348282.0 425516.0 0
353994.0 424960.0 0
360164.0 425498.0 0
365053.0 421996.0 0
370164.0 424272.0 0
375302.0 423734.0 0
379372.0 423521.0 0
383036.0 424482.0 0
387491.0 426166.0 0
392258.0 426549.0 0
394735.0 424107.0 0
398908.0 423217.0 0
400499.0 426261.0 0
407746.0 421993.0 0
403757.0 425322.0 0
408361.0 425281.0 0
411847.0 425714.0 0
415178.0 423007.0 0
417224.0 426668.0 0
421507.0 424776.0 0
426056.0 426078.0 0
429311.0 422045.0 0
430586.0 426040.0 0
434076.0 423973.0 0
439062.0 423576.0 0
442757.0 423074.0 0
446379.0 424881.0 0
450999.0 422032.0 0
449997.0 426937.0 0
454774.0 426039.0 0
458989.0 423529.0 0
463319.0 425226.0 0
467145.0 422871.0 0
471630.0 424108.0 0
474360.0 425985.0 0
476781.0 422178.0 0
481319.0 425358.0 0
485203.0 423276.0 0
490656.0 423303.0 0
497249.0 423977.0 0
1679.27 429135.0 0
5638.97 429837.0 0
9168.93 431242.0 0
12874.1 429650.0 0
17808.0 428812.0 0
25497.0 427152.0 0
22414.6 430074.0 0
26251.7 431346.0 0
30709.5 428573.0 0
36587.5 430605.0 0
44923.1 428296.0 0
41773.0 430557.0 0
49016.2 426601.0 0
47701.3 430596.0 0
51831.3 430052.0 0
56539.6 429420.0 0
60767.1 428727.0 0
64414.5 430821.0 0
68014.9 428128.0 0
72180.2 428053.0 0
75653.0 430055.0 0
79393.4 427608.0 0
83415.9 428713.0 0
90761.8 430337.0 0
96020.2 428992.0 0
100391.0 429959.0 0
107053.0 427071.0 0
105186.0 430437.0 0
110779.0 430136.0 0
121469.0 426953.0 0
121134.0 430948.0 0
125603.0 428714.0 0
129909.0 431416.0 0
133965.0 429162.0 0
138050.0 428932.0 0
143210.0 427457.0 0
143975.0 430742.0 0
147435.0 430176.0 0
151104.0 427686.0 0
152223.0 431630.0 0
155693.0 427903.0 0
160213.0 426900.0 0
159868.0 430877.0 0
164535.0 430121.0 0
168890.0 427071.0 0
168446.0 431581.0 0
172821.0 430725.0 0
176396.0 427017.0 0
180659.0 428571.0 0
184406.0 427416.0 0
193300.0 427312.0 0
188640.0 428994.0 0
194314.0 431238.0 0
197892.0 429346.0 0
202596.0 429778.0 0
209040.0 427290.0 0
213613.0 425145.0 0
214516.0 429509.0 0
218906.0 430151.0 0
222500.0 430219.0 0
227098.0 425706.0 0
232562.0 425419.0 0
238310.0 425301.0 0
242334.0 429755.0 0
247906.0 426390.0 0
251846.0 425850.0 0
252500.0 430222.0 0
255852.0 426421.0 0
260892.0 425553.0 0
271791.0 425800.0 0
276611.0 429203.0 0
286403.0 429494.0 0
291639.0 426881.0 0
296489.0 430298.0 0
301845.0 427648.0 0
302134.0 431900.0 0
305856.0 429419.0 0
308743.0 426599.0 0
309856.0 429984.0 0
313722.0 428800.0 0
318480.0 431597.0 0
322217.0 427265.0 0
324273.0 432583.0 0
331030.0 427797.0 0
326508.0 428839.0 0
335903.0 426912.0 0
334813.0 431497.0 0
340008.0 429584.0 0
344575.0 428571.0 0
347796.0 430884.0 0
351652.0 428904.0 0
356365.0 429964.0 0
361890.0 431293.0 0
365819.0 427492.0 0
366519.0 431892.0 0
370265.0 429021.0 0
373578.0 427247.0 0
374436.0 431315.0 0
378095.0 427521.0 0
379567.0 431376.0 0
382941.0 428860.0 0
387032.0 431174.0 0
390548.0 429366.0 0
396817.0 427951.0 0
401795.0 429180.0 0
407370.0 429169.0 0
413164.0 430613.0 0
418248.0 432032.0 0
421885.0 428972.0 0
427615.0 430633.0 0
432526.0 429900.0 0
437116.0 427610.0 0
436602.0 431385.0 0
442202.0 427442.0 0
439707.0 431285.0 0
446488.0 430151.0 0
451603.0 431266.0 0
456365.0 430677.0 0
459770.0 427838.0 0
463713.0 429159.0 0
468702.0 428131.0 0
473894.0 429648.0 0
477507.0 427270.0 0
477511.0 430725.0 0
481148.0 429861.0 0
485884.0 427910.0 0
494120.0 427622.0 0
490421.0 429578.0 0
494264.0 431658.0 0
497977.0 428719.0 0
2515.15 433311.0 0
7319.07 435362.0 0
12221.0 434347.0 0
20067.9 432241.0 0
16926.0 433700.0 0
22878.4 434116.0 0
29193.4 432368.0 0
27729.5 436198.0 0
32328.1 433681.0 0
36066.6 435536.0 0
40256.7 434628.0 0
45052.3 433760.0 0
49482.4 433749.0 0
50664.8 437020.0 0
54585.9 434373.0 0
59885.0 432872.0 0
64030.6 435713.0 0
70049.5 433638.0 0
75826.8 434593.0 0
80417.6 432431.0 0
79246.9 436548.0 0
86289.7 432425.0 0
83053.7 436176.0 0
91822.2 435198.0 0
96958.4 433374.0 0
102165.0 435254.0 0
107952.0 434721.0 0
116182.0 432202.0 0
112290.0 434728.0 0
120273.0 435682.0 0
125164.0 433775.0 0
135560.0 434195.0 0
140865.0 432031.0 0
144804.0 434108.0 0
149174.0 434888.0 0
156090.0 432273.0 0
153993.0 436333.0 0
158764.0 435180.0 0
162568.0 433873.0 0
166102.0 434157.0 0
170594.0 434997.0 0
178019.0 432618.0 0
174229.0 435368.0 0
181438.0 436685.0 0
183928.0 432306.0 0
188519.0 433496.0 0
191613.0 432119.0 0
197306.0 434608.0 0
202500.0 435096.0 0
206511.0 432952.0 0
212998.0 434942.0 0
217519.0 435052.0 0
222500.0 434920.0 0
226767.0 431378.0 0
232249.0 430512.0 0
232905.0 435172.0 0
237201.0 430488.0 0
242670.0 434305.0 0
247044.0 431204.0 0
251751.0 434565.0 0
256023.0 431150.0 0
256058.0 435383.0 0
260847.0 430785.0 0
266519.0 430474.0 0
271941.0 431667.0 0
281296.0 431553.0 0
285436.0 435308.0 0
291079.0 432087.0 0
301899.0 435845.0 0
306975.0 434537.0 0
312735.0 433388.0 0
321540.0 436158.0 0
329552.0 433395.0 0
334565.0 435839.0 0
338752.0 434379.0 0
343559.0 433345.0 0
347829.0 435685.0 0
352188.0 433275.0 0
357579.0 435574.0 0
362800.0 435945.0 0
370249.0 432810.0 0
367469.0 436062.0 0
377628.0 434884.0 0
383095.0 433830.0 0
388099.0 436139.0 0
393450.0 432993.0 0
397904.0 436571.0 0
398833.0 432260.0 0
403606.0 434081.0 0
409509.0 434646.0 0
414647.0 435647.0 0
419254.0 436565.0 0
423590.0 434031.0 0
429895.0 435089.0 0
435054.0 434470.0 0
442826.0 433928.0 0
447954.0 435279.0 0
454754.0 435112.0 0
460709.0 432882.0 0
466148.0 433025.0 0
471153.0 433248.0 0
475815.0 433783.0 0
484564.0 432394.0 0
480487.0 434257.0 0
484647.0 436938.0 0
488760.0 433845.0 0
493101.0 435344.0 0
498034.0 432618.0 0
497513.0 436658.0 0
2733.36 438434.0 0
1026.64 441976.0 0
7092.49 439947.0 0
15178.3 437864.0 0
10884.7 438757.0 0
19808.4 437595.0 0
23692.9 437742.0 0
23041.9 441570.0 0
28566.3 441957.0 0
32722.5 438379.0 0
38534.4 439686.0 0
42979.7 437612.0 0
46999.3 438101.0 0
54068.0 440073.0 0
59229.5 437725.0 0
63419.6 440651.0 0
67329.7 438595.0 0
71284.6 439410.0 0
76155.6 439310.0 0
81058.4 439817.0 0
86997.5 437924.0 0
91160.6 440895.0 0
96787.2 439035.0 0
101759.0 440354.0 0
106106.0 439432.0 0
111031.0 438877.0 0
115543.0 437276.0 0
114765.0 441287.0 0
119266.0 440623.0 0
124118.0 438875.0 0
129754.0 437744.0 0
135605.0 440702.0 0
141003.0 437302.0 0
139959.0 441020.0 0
146095.0 438390.0 0
143526.0 442340.0 0
150129.0 438974.0 0
153709.0 441697.0 0
157940.0 439234.0 0
162228.0 437945.0 0
167302.0 438470.0 0
172776.0 439595.0 0
177273.0 437561.0 0
182673.0 441371.0 0
186248.0 437451.0 0
191871.0 436683.0 0
189369.0 440852.0 0
193673.0 441666.0 0
197893.0 439784.0 0
202520.0 439863.0 0
208598.0 437430.0 0
212257.0 440312.0 0
217524.0 439820.0 0
222398.0 439937.0 0
228088.0 436650.0 0
231476.0 439909.0 0
237841.0 435384.0 0
236430.0 440084.0 0
241646.0 438939.0 0
247553.0 435570.0 0
253422.0 439985.0 0
258636.0 440226.0 0
260481.0 435825.0 0
265261.0 435743.0 0
262606.0 439684.0 0
270420.0 436869.0 0
276486.0 435565.0 0
281220.0 437577.0 0
290626.0 437683.0 0
296618.0 436876.0 0
302554.0 440242.0 0
307330.0 439926.0 0
311417.0 438009.0 0
316325.0 437285.0 0
315936.0 442030.0 0
320215.0 440438.0 0
326130.0 438064.0 0
331290.0 438641.0 0
338219.0 439518.0 0
343622.0 437944.0 0
347886.0 440496.0 0
352402.0 438173.0 0
356420.0 440796.0 0
360639.0 439780.0 0
364721.0 439455.0 0
368974.0 440978.0 0
372766.0 436935.0 0
377105.0 438883.0 0
380943.0 437691.0 0
380043.0 442149.0 0
384693.0 440173.0 0
393140.0 439088.0 0
397978.0 441691.0 0
401822.0 438969.0 0
406637.0 439047.0 0
411466.0 439477.0 0
416655.0 440470.0 0
421871.0 440235.0 0
426204.0 438455.0 0
430133.0 440281.0 0
433633.0 438191.0 0
438856.0 437610.0 0
443991.0 438932.0 0
448855.0 440499.0 0
451796.0 437480.0 0
458530.0 437660.0 0
454524.0 441638.0 0
463481.0 437490.0 0
468595.0 437370.0 0
466035.0 441219.0 0
473440.0 437579.0 0
477865.0 437599.0 0
476180.0 441762.0 0
481154.0 440665.0 0
485645.0 441381.0 0
489832.0 438938.0 0
494167.0 438879.0 0
497828.0 441042.0 0
4310.01 443718.0 0
1270.81 446344.0 0
9319.64 443534.0 0
14105.0 442516.0 0
18610.0 441753.0 0
23807.0 446476.0 0
34063.1 443189.0 0
38692.1 444910.0 0
43725.6 442103.0 0
49177.2 442602.0 0
46200.2 446505.0 0
54523.4 445107.0 0
58778.1 442945.0 0
63030.1 445824.0 0
68057.7 443399.0 0
73516.7 443740.0 0
78659.0 444026.0 0
85272.3 443456.0 0
90277.6 445457.0 0
94756.6 444397.0 0
99375.9 443712.0 0
104286.0 444293.0 0
108981.0 442942.0 0
116912.0 444205.0 0
112889.0 445168.0 0
120777.0 445150.0 0
126762.0 444365.0 0
132363.0 444401.0 0
136138.0 446657.0 0
139461.0 443959.0 0
144501.0 446351.0 0
148659.0 443850.0 0
159023.0 444464.0 0
163958.0 442111.0 0
164475.0 446953.0 0
168611.0 443586.0 0
177717.0 441770.0 0
174022.0 445706.0 0
178583.0 445217.0 0
182090.0 446627.0 0
187030.0 444758.0 0
197695.0 444184.0 0
202854.0 444809.0 0
206850.0 441482.0 0
212909.0 445490.0 0
217756.0 444906.0 0
221871.0 444900.0 0
226480.0 441120.0 0
225686.0 445376.0 0
230676.0 445375.0 0
236499.0 445303.0 0
242350.0 444921.0 0
247259.0 440709.0 0
252263.0 445140.0 0
256740.0 444780.0 0
261619.0 444917.0 0
266878.0 440880.0 0
273672.0 440789.0 0
272434.0 445346.0 0
278114.0 440921.0 0
283046.0 440600.0 0
283389.0 444946.0 0
286963.0 440956.0 0
291902.0 442292.0 0
296925.0 443352.0 0
302347.0 444857.0 0
306555.0 444042.0 0
311312.0 442949.0 0
319501.0 445482.0 0
324080.0 442590.0 0
328581.0 442801.0 0
333738.0 443209.0 0
338308.0 444851.0 0
343112.0 443216.0 0
347912.0 445355.0 0
352279.0 443254.0 0
357226.0 446000.0 0
363513.0 444444.0 0
369507.0 446889.0 0
374346.0 442846.0 0
384091.0 445075.0 0
389123.0 443265.0 0
394005.0 443952.0 0
399188.0 446819.0 0
403305.0 443433.0 0
405051.0 446819.0 0
408000.0 443482.0 0
412787.0 444431.0 0
417869.0 445196.0 0
422364.0 445178.0 0
426274.0 442804.0 0
430066.0 444606.0 0
434665.0 442809.0 0
440559.0 443138.0 0
446005.0 444907.0 0
457090.0 446867.0 0
461065.0 442810.0 0
466424.0 446104.0 0
470796.0 442153.0 0
479687.0 445590.0 0
484188.0 444957.0 0
489198.0 443994.0 0
493647.0 442603.0 0
497684.0 445367.0 0
2418.21 449664.0 0
7146.01 448167.0 0
5401.52 452115.0 0
12298.1 447430.0 0
18062.9 446898.0 0
21921.4 450899.0 0
28552.5 447217.0 0
33302.1 448321.0 0
37879.9 449308.0 0
42041.9 447954.0 0
50843.0 447751.0 0
58143.2 448334.0 0
63325.8 451175.0 0
66853.1 448133.0 0
71089.4 447998.0 0
68528.6 451759.0 0
75907.5 448098.0 0
72940.9 452315.0 0
81625.9 449126.0 0
85726.7 451867.0 0
87345.6 448594.0 0
92942.5 449176.0 0
98107.4 448363.0 0
103357.0 449815.0 0
108507.0 447772.0 0
112712.0 449814.0 0
117211.0 448675.0 0
122806.0 449387.0 0
127222.0 450302.0 0
131485.0 448723.0 0
140947.0 447693.0 0
137935.0 451391.0 0
147024.0 447746.0 0
144497.0 451438.0 0
149368.0 450307.0 0
153378.0 447313.0 0
158355.0 450529.0 0
163421.0 451697.0 0
169166.0 448483.0 0
173046.0 451530.0 0
178162.0 449648.0 0
182570.0 451510.0 0
186194.0 449272.0 0
192675.0 447298.0 0
198101.0 448246.0 0
207883.0 445966.0 0
248002.0 446258.0 0
266884.0 446686.0 0
277877.0 446244.0 0
288766.0 446117.0 0
293575.0 447268.0 0
297517.0 448552.0 0
301547.0 448698.0 0
305710.0 448472.0 0
309776.0 447197.0 0
314311.0 447516.0 0
320082.0 450467.0 0
325138.0 447763.0 0
330709.0 447313.0 0
335414.0 448019.0 0
332612.0 451793.0 0
341645.0 449459.0 0
351813.0 448532.0 0
347150.0 449413.0 0
356211.0 451681.0 0
361474.0 450209.0 0
369108.0 451834.0 0
373459.0 451257.0 0
378779.0 448048.0 0
384572.0 449841.0 0
389321.0 448601.0 0
394198.0 448282.0 0
398304.0 452062.0 0
403267.0 449884.0 0
408683.0 448268.0 0
415258.0 449011.0 0
420075.0 449261.0 0
426732.0 447899.0 0
432524.0 448641.0 0
437346.0 447247.0 0
437495.0 452078.0 0
441931.0 448757.0 0
446684.0 449921.0 0
451482.0 447496.0 0
458152.0 451259.0 0
461613.0 448378.0 0
466965.0 451238.0 0
473938.0 447328.0 0
477314.0 452298.0 0
481811.0 450138.0 0
487008.0 448969.0 0
493017.0 447956.0 0
497935.0 449798.0 0
10552.3 453065.0 0
17051.6 453224.0 0
26845.0 452121.0 0
32239.5 453571.0 0
37595.4 454069.0 0
41565.1 452077.0 0
46818.5 452187.0 0
53732.6 451922.0 0
58584.5 453676.0 0
77457.4 452939.0 0
89409.4 452459.0 0
94030.3 454154.0 0
99350.0 453688.0 0
104124.0 454409.0 0
108237.0 453001.0 0
115136.0 453269.0 0
119841.0 452508.0 0
124673.0 453375.0 0
132456.0 454275.0 0
153313.0 453003.0 0
160541.0 455458.0 0
167751.0 452735.0 0
189416.0 452403.0 0
196172.0 452798.0 0
303010.0 452988.0 0
310007.0 452757.0 0
315937.0 452341.0 0
319937.0 455408.0 0
323506.0 452591.0 0
327814.0 452885.0 0
337329.0 454247.0 0
342920.0 455236.0 0
346877.0 453302.0 0
351478.0 453862.0 0
359784.0 454979.0 0
365419.0 453554.0 0
370872.0 454907.0 0
377466.0 453379.0 0
381523.0 452502.0 0
388022.0 453566.0 0
393242.0 453163.0 0
406732.0 452885.0 0
411761.0 452739.0 0
417413.0 453922.0 0
423914.0 452472.0 0
429002.0 452556.0 0
443839.0 453661.0 0
449010.0 453498.0 0
453718.0 452896.0 0
462495.0 453369.0 0
471731.0 453161.0 0
486471.0 454014.0 0
490691.0 452796.0 0
495077.0 452591.0 0
POINT_DATA 5000
SCALARS Radius float 1
LOOKUP_TABLE default
4796.58 3979.26 3471.03 5253.55 5820.48 5782.6 4862.21 5113.21 3929.19 4107.03 4478.15 5379.87 5925.6 4501.51 4792.73 4736.58 4931.38 3485.26 4329.05 4151.94 4049.23 5337.48 6124.89 5708.81 5252.48 4780.03 5495.39 3996.0 3856.1 4665.12 3383.4 4133.88 4834.9 3850.77 6044.04 5415.48 5120.0 3863.18 2356.98 4998.37 6182.6 5492.18 5258.36 5061.3 3642.12 3163.97 5812.43 5122.66 5906.14 7513.1 5254.28 4436.4 5733.48 4672.91 5580.89 5645.7 5176.86 6810.52 5840.26 6110.27 5561.06 5073.35 3615.22 5670.04 4380.59 6716.79 5759.91 7613.27 5529.52 4951.03 5255.32 6037.08 5096.78 6756.95 4129.43 6324.23 3843.58 3320.52 4194.5 4270.53 5344.25 5191.63 4593.7 4150.99 4216.92 4742.68 4344.58 5634.83 5495.84 6268.1 4861.06 5374.51 5320.28 6739.08 4797.52 4569.12 4298.67 5960.66 6608.73 5011.84 7034.11 6261.42 4502.5 3771.48 4043.57 4271.69 5681.38 4138.42 3708.04 5513.6 3240.09 4556.36 6082.81 3191.99 4685.34 5601.05 4929.8 3586.91 3103.0 3554.9 4015.92 5542.21 4487.31 3936.02 4044.71 5980.74 4094.62 4927.02 5546.39 5325.36 5484.83 5085.53 5351.6 4730.36 4715.55 5867.73 3951.75 5013.56 4499.64 4375.68 5542.27 5054.98 6030.06 5170.02 5484.19 3557.27 4927.31 4688.68 4402.52 4517.56 4182.53 5903.42 3588.44 3955.56 3761.32 4118.05 4366.19 5553.16 3672.51 2938.66 4940.78 4231.61 4008.92 3942.53 3379.84 3589.27 4827.82 3997.1 3607.45 3260.67 5123.52 3038.33 4392.68 4333.2 7199.21 4523.7 2240.39 5091.39 5293.9 6142.94 3912.37 4727.24 4602.25 4790.08 5082.47 4763.45 5445.87 3815.26 4704.72 4177.94 4571.7 5896.46 5022.8 3784.5 3780.23 6481.79 5224.12 7042.12 6326.39 4471.58 5873.69 4962.09 3999.48 4359.62 6946.21 2586.12 5433.8 4011.77 5499.11 3633.87 5922.5 5198.77 5987.17 6013.14 2765.2 4901.41 5110.37 5664.98 4382.74 5927.43 4651.28 4384.42 3693.63 4516.43 5481.78 5637.59 4937.14 5043.05 5816.2 5109.54 6483.19 5945.65 6759.9 5538.89 7021.47 5416.38 6059.59 4955.55 2720.68 5701.86 3563.63 4238.81 4468.59 5885.03 2837.58 5325.02 5200.76 5017.13 4862.64 5185.34 4432.58 6684.56 3968.64 4688.67 2635.86 5292.64 6166.5 5065.13 5936.02 5305.17 4861.08 4003.05 5390.22 4805.87 4712.33 5227.21 5697.78 4667.36 4091.31 6372.62 4295.38 5615.42 7565.34 5923.5 4612.68 4281.49 4973.83 6342.25 6691.39 4840.84 5135.69 5344.0 4020.32 6045.46 4245.72 5908.1 6048.7 6133.92 3719.84 4178.4 3095.48 4166.08 4123.6 4850.14 4819.73 3382.7 6817.32 4319.79 6098.14 4472.17 4203.26 5188.81 4730.41 6057.22 5062.71 6125.34 4527.08 5347.48 4850.01 3970.25 5147.67 3979.82 5011.31 5138.31 5264.06 4659.59 6327.9 4048.37 6355.42 4362.19 5690.56 4948.92 3115.91 4493.48 3307.12 5924.89 5693.81 4002.16 4174.52 4138.16 3486.22 3829.13 4684.5 6230.49 6458.82 5418.62 4601.27 5493.32 5740.68 5926.61 6051.14 5836.15 3261.21 4345.55 6704.06 3653.41 3871.88 3856.01 5246.2 4390.66 5279.39 3673.74 5205.43 6116.18 7447.37 4924.6 4385.06 4733.32 7184.19 2899.43 2924.37 3867.67 4290.3 5399.73 4660.72 3888.21 5891.05 6038.78 6902.81 6644.76 4254.17 5629.19 5090.24 5740.84 5530.87 4310.18 7134.64 5978.9 4187.56 3629.62 4997.27 4301.06 4877.67 4290.14 6562.18 4156.38 5316.75 4541.21 4164.68 5669.65 5934.22 5624.49 5762.59 7092.87 5163.55 4666.81 3954.91 2965.01 6643.85 3637.61 6222.42 5654.31 3745.84 5690.26 4156.2 4497.59 5965.78 4374.35 4810.12 5643.58 5215.05 4292.06 5577.04 5006.58 4602.86 3688.8 4548.16 3369.23 5449.18 5492.26 5244.78 5762.84 3937.74 4749.8 6084.86 5478.92 4778.34 5551.36 6894.71 3091.3 4414.54 5789.98 7054.71 3641.64 5489.43 5747.75 4277.89 4796.33 4195.44 5539.32 5360.19 6496.85 5600.93 4874.39 5541.59 4124.71 5728.85 4827.23 4911.47 5803.39 5863.59 4381.97 6257.19 3255.82 2812.98 4065.69 5603.15 4695.45 6052.7 3921.18 3798.62 5308.1 3666.57 4907.89 4937.02 5655.21 4786.6 4645.41 4433.59 4320.28 6445.94 5542.14 4218.06 6308.71 4716.19 5514.76 3456.98 3498.2 5105.16 3066.13 4302.5 6006.16 6009.88 7055.53 5013.67 5826.04 5339.78 4970.88 4143.78 4636.5 3703.1 4940.42 5923.4 6471.55 5499.39 5644.82 5501.93 5463.38 5945.21 4938.74 5696.88 5607.14 3923.03 5975.63 5252.34 6396.74 4138.46 2775.04 3821.72 4986.77 6318.18 5586.81 3948.17 4621.75 4551.24 5358.59 4220.88 4515.71 6519.71 6640.13 5082.6 5810.84 4230.54 5094.44 3748.24 4655.49 4467.94 4850.81 6138.47 5527.54 5573.7 5697.4 4727.62 5054.25 4270.95 4055.8 7325.81 5280.17 4794.96 6186.19 4839.34 5083.08 6834.49 6337.56 5525.39 3998.5 5938.34 4024.3 6394.38 5555.28 5242.73 4737.14 4686.65 5834.74 5556.96 5788.23 5581.75 6392.01 6730.19 4907.06 4073.93 3735.44 6043.3 5952.75 6332.36 6122.55 2739.94 4931.53 5480.13 3323.28 6695.82 6405.76 5794.24 4678.38 5448.61 5050.65 4827.33 5206.48 5513.57 5729.23 5226.0 3365.82 4538.95 5965.15 4763.66 6090.91 4946.42 5019.93 5085.71 6116.33 6343.14 5462.21 5750.71 5470.77 4831.47 4643.85 4004.04 4289.17 5564.02 4274.61 2965.79 6898.19 6035.6 5137.34 4481.53 5330.45 4581.13 3610.4 4219.07 6387.01 5367.52 3092.35 4322.15 5210.03 3629.96 5478.47 5351.39 6142.37 6061.47 4933.21 5375.47 6038.14 2540.31 5120.49 6029.66 5262.61 6302.8 6038.2 4005.44 5206.78 5555.88 6732.43 6425.26 5143.58 6362.12 4484.76 4840.01 2980.99 5611.2 7933.0 4455.12 5173.87 5380.13 5711.87 5118.27 5169.36 5932.23 5791.61 3369.13 4479.66 3043.85 5367.2 5461.13 4726.76 3599.45 5839.13 5489.34 5163.9 5708.14 5537.72 3920.42 6155.31 4223.33 4553.56 5329.64 5911.67 5709.62 5835.78 4127.74 2476.04 3942.07 7443.72 3937.08 5260.34 4709.35 6586.45 4373.3 4750.78 4163.5 5724.64 5078.86 4780.2 5100.1 3561.29 4963.34 3295.83 5081.78 4260.92 6263.44 5960.56 5774.97 4020.95 6313.06 3474.39 6470.3 6062.05 5082.74 6915.83 6072.45 4410.55 7099.43 5526.14 5198.29 5423.0 5077.33 3856.59 5413.79 6338.89 6202.55 5025.39 4714.54 5893.5 3320.11 5030.91 6022.17 5119.37 3982.23 6163.38 4566.18 4723.12 3459.9 4964.09 5201.36 5024.9 4306.53 5409.61 5094.81 5972.06 5713.22 5861.71 5028.96 4359.04 3183.98 3866.16 3794.63 4524.28 3778.1 5152.36 4511.82 5826.64 4220.65 6820.42 4816.2 4894.16 4896.52 4751.02 3372.79 4941.22 5282.64 4715.72 4669.66 4808.52 5046.33 5607.24 5053.92 6352.26 5495.68 3847.38 3818.59 4863.72 5002.48 6623.85 4262.82 5102.36 8332.24 4342.9 5069.84 4051.44 4241.89 6049.55 5941.72 5991.09 5133.97 6600.94 4788.58 5371.02 6155.1 5876.71 5029.78 6515.84 4888.6 4739.14 4918.77 4371.99 4219.78 3885.86 4459.28 5235.29 4479.94 6250.23 4118.84 4863.27 5862.86 6049.79 3493.7 5374.98 4200.03 4719.7 6939.12 4735.33 5092.37 6444.77 4287.63 5315.4 6449.45 3975.31 4746.52 3689.45 3824.16 5572.95 3868.18 6723.16 5584.06 7111.16 4547.19 3817.13 5507.24 6851.54 4583.31 4503.89 5806.08 4853.39 4997.27 4093.08 4809.42 5543.27 4717.05 5659.17 6135.57 5998.38 4312.67 5423.8 4989.15 5017.78 5015.69 6175.81 4727.24 6677.09 4305.57 6959.81 4829.35 5201.67 6321.41 4089.76 5526.55 3192.41 5184.56 5215.15 4987.87 3315.57 5804.71 4764.96 5727.3 4242.52 5356.51 4277.88 3057.03 4087.15 4143.08 7500.97 5228.18 5787.31 5065.11 5868.82 4050.9 4978.31 4099.77 5054.74 4537.32 4981.9 4656.78 5126.91 3600.43 5131.24 5196.67 6496.67 5474.8 6262.72 3664.11 5117.47 4925.63 2990.77 5882.65 4434.19 5187.7 4623.61 4188.3 6261.75 5177.64 4255.31 5453.3 6413.02 3492.19 4584.5 5122.63 4703.08 5274.19 5516.95 4406.4 5411.85 4844.57 4027.46 6314.07 5776.37 4516.28 3627.82 4044.45 5125.78 5344.43 4373.47 5045.38 5350.88 5372.61 3686.21 6480.17 5023.15 4377.07 3813.22 5570.3 4336.42 5243.29 7589.94 4449.22 3130.65 5628.24 5856.11 5287.2 3327.49 4109.88 4234.94 4562.29 5013.13 5080.66 4270.24 3417.33 4926.42 4164.13 4642.34 4520.1 4947.52 5874.89 4293.03 4389.21 3791.79 4424.7 4925.44 4754.05 4951.47 6084.93 4307.28 3697.96 4739.42 5538.93 5020.12 4745.45 2631.9 5281.28 6255.18 4668.71 4758.21 7228.46 6362.14 3948.23 6719.88 5978.82 5266.5 3927.99 4523.88 4066.38 4948.98 5227.52 4414.48 4092.24 5163.02 7144.24 4906.82 5687.83 5004.23 6442.69 4648.04 6607.87 4721.32 3293.56 3163.78 5274.14 4903.82 5746.28 4082.47 5511.6 4338.08 4378.3 6134.99 4094.73 4407.9 4718.54 4440.57 5548.29 6766.43 2315.64 6345.13 5226.56 5599.49 5313.22 4413.85 3905.51 3999.94 4470.98 4864.22 3901.8 5759.46 3921.08 4190.31 5678.96 5262.19 4244.9 6070.58 6034.41 5452.83 5130.91 5402.24 4519.22 6445.22 3844.9 3695.36 5101.59 3963.86 3848.93 4306.11 5935.47 3402.32 5903.66 4528.49 5004.67 5365.89 5992.26 3960.8 5070.39 4980.85 5714.58 5110.45 5208.32 5248.77 4083.97 4607.02 5153.74 3895.51 4528.09 4165.81 5813.4 6291.51 4128.98 5882.89 6246.22 4188.32 5246.61 4100.38 5344.77 4723.48 4899.11 5097.87 4278.07 7267.18 6256.02 5320.92 5269.18 4406.1 5034.59 4263.33 4454.63 5080.18 5912.61 3279.1 4403.98 4560.84 4729.43 5776.57 4562.74 5683.26 5598.74 7493.3 4814.55 6320.71 3527.05 3464.83 5698.77 2477.07 6413.11 4305.16 5092.28 4965.89 5659.95 4152.85 2908.7 4453.64 4517.73 5469.47 5660.16 4989.56 3838.47 2588.37 6736.03 6235.57 3623.87 5916.16 4390.41 6113.95 4097.57 5017.5 5563.79 6171.13 5511.88 5083.41 7055.42 5486.68 6048.86 4285.32 5490.43 5022.28 5197.52 4959.34 4948.5 4527.02 4531.14 4564.34 3838.56 4871.44 5076.35 6020.48 6375.99 5200.05 5234.29 5313.66 5419.37 4466.03 4511.54 5409.33 5196.0 4923.9 4973.78 3329.99 3947.47 3296.27 4713.25 4204.84 6243.0 6673.96 3556.85 5441.96 3435.9 5174.89 4288.3 5370.52 4652.29 5774.81 3746.31 5498.32 5027.98 5346.27 6475.1 4969.21 2691.29 2845.98 5289.52 5314.85 4305.43 5450.44 4942.77 5742.65 5592.32 5381.16 6193.35 6086.96 5233.78 3701.27 5653.9 5046.21 5894.61 5139.5 3979.54 5304.13 5944.09 5833.06 4923.41 4497.31 5384.76 5529.42 5257.12 5243.43 4537.14 5551.9 3757.34 6415.61 4687.64 4419.71 5037.06 4541.8 5175.29 5842.56 5887.15 5412.31 3087.09 6934.37 4890.5 4050.08 3981.07 5452.42 5328.22 6853.85 2395.5 3497.9 5941.61 4512.11 5782.48 6248.6 5683.61 3836.45 5100.25 6894.26 4986.51 5339.38 5178.99 5383.07 4591.87 5013.42 4790.78 4247.15 6552.22 5651.07 6248.81 5273.35 4091.8 2651.49 4645.58 5512.23 5275.32 5985.29 4898.94 4178.15 4613.31 4733.04 6119.09 5788.66 5091.68 7531.29 5069.25 5048.89 5935.03 3161.47 3991.03 6390.78 7435.25 6826.57 4788.87 4495.87 6022.72 4643.31 5527.33 6917.52 5402.21 4989.09 4880.14 4982.31 3848.54 4307.48 5941.4 5331.02 6510.17 4871.96 4863.23 4402.67 4470.61 4631.83 5565.13 4384.88 6887.27 6008.49 4806.34 4287.53 5612.21 4929.14 5945.08 3306.14 5490.58 4863.79 4702.06 3830.46 6031.67 4689.15 6138.12 4428.78 5409.66 4345.67 4765.72 4642.66 4752.14 5329.59 4888.12 4950.97 5512.16 3197.63 4863.96 5191.08 5203.08 7480.41 3423.15 5163.77 4488.85 3731.84 4901.07 5186.3 3436.15 4151.76 4020.4 3493.47 4596.75 4933.65 5443.58 4558.46 5805.86 4049.02 4470.4 5311.03 5255.12 6169.11 5615.35 4027.09 6422.84 4502.18 5379.09 4602.85 4962.77 5872.05 4853.02 6259.23 5181.4 5670.2 4711.62 4247.23 4114.24 4268.65 4694.83 5509.42 4354.08 4256.43 5936.36 4520.62 3903.75 4755.47 4485.99 5127.16 5475.8 5314.69 6050.81 5543.46 4249.46 5965.81 3702.37 4750.17 5660.85 2330.66 4177.19 3587.05 6229.37 6718.19 5282.91 4425.84 3797.33 7256.35 4800.69 6566.1 3555.86 6386.78 4996.99 4896.39 6081.14 5480.83 4220.46 4607.85 5128.57 6000.7 3169.67 5604.21 4968.03 3361.92 6710.88 5395.14 3967.48 6213.04 6622.11 3685.13 6790.73 4655.16 5251.4 3867.19 5857.79 4039.91 5276.7 5036.58 6119.63 5411.02 4752.9 4287.16 5199.44 4062.5 4435.51 5374.07 4588.7 3766.55 4579.69 3554.48 6496.52 5005.85 4216.17 6484.17 4721.02 4254.37 3374.08 4031.78 6098.1 5708.99 5687.85 5346.68 5296.29 4611.53 4285.66 4896.11 5172.53 4135.62 5801.99 5534.94 5210.48 7644.38 7552.94 6101.92 5323.3 5088.44 4998.21 4662.56 5166.79 5349.31 2976.22 4649.22 5394.55 5094.52 4946.74 2682.24 5928.32 5229.48 5475.7 4016.18 5526.75 5435.74 4244.99 5327.45 5560.26 6185.89 3997.96 4439.35 3460.94 3990.25 3691.0 3758.07 4752.51 4236.14 4407.87 5733.62 5282.51 4460.92 5945.89 4042.28 4105.55 4340.76 6065.22 4221.28 4456.39 5514.84 3633.79 5421.53 5937.08 6070.3 5233.29 4312.56 4612.06 5204.04 4750.58 6667.68 5235.11 5211.38 4590.55 4741.26 5920.32 4255.85 5097.69 3988.3 6543.13 5149.72 5776.96 5464.25 5486.48 5301.47 4617.55 5424.88 5415.85 8659.64 5683.95 6027.62 5010.2 6123.03 5966.61 5711.11 4575.94 4938.72 3546.71 5768.57 5564.23 5950.04 4231.83 2435.33 6401.43 5020.71 2681.29 5094.48 3872.61 4238.4 4318.48 6132.95 5266.22 4860.33 6004.68 4051.34 3627.55 6239.84 4635.6 4256.67 3457.48 3931.07 3405.98 5417.15 3688.16 4681.72 4945.39 5996.33 3950.63 5415.19 4612.62 3619.07 4275.57 4467.04 6385.23 2983.99 2614.4 6363.92 6205.93 4923.24 5830.72 6184.4 3828.81 4373.45 4082.57 5255.18 5169.9 3004.16 4767.78 5235.17 4421.12 4779.5 5254.49 6649.96 4303.19 5784.3 3914.2 4256.57 6088.68 4135.08 5620.74 4778.82 6124.08 5467.84 5053.95 5926.11 5253.37 5767.9 6515.8 5089.62 5869.4 3685.65 3701.16 4186.6 5895.77 4732.09 6136.49 4356.25 4216.95 4209.49 5742.74 4244.21 4947.24 3645.12 3875.05 6200.54 5148.58 4199.45 6599.66 5469.13 4055.54 4233.8 5765.42 6098.95 4997.83 4893.49 5325.44 5021.88 5956.65 4498.25 4188.87 3735.24 6574.95 4074.48 6333.29 4558.47 5731.57 5997.88 5839.71 5576.92 6408.83 3930.79 4004.35 5226.97 3685.13 3312.06 5180.76 3361.26 6799.4 5278.36 5865.39 4427.28 6079.11 3082.32 6430.39 3658.37 7440.72 3949.6 5703.6 6326.18 5661.62 6631.19 6648.68 4713.74 5626.61 5817.25 5407.78 4084.49 5061.98 6632.99 4537.6 5147.36 4419.61 7177.44 4563.46 5309.98 6553.94 5726.66 5460.65 5652.0 5463.41 5225.33 4929.75 4435.36 6045.22 4614.3 5134.39 3532.3 5769.98 5442.32 2221.99 4643.56 3580.58 4863.01 5356.79 5657.36 3619.79 5029.47 6306.21 5266.01 2978.76 2040.66 7016.27 5884.9 3876.21 5689.26 4916.22 6022.7 4940.84 5750.07 4809.67 4757.74 6045.67 3946.28 3821.94 5439.9 5367.73 3540.11 3456.47 4652.01 5421.64 7234.66 4207.54 4886.12 6419.12 4976.12 4817.16 5453.98 3991.42 4388.63 5102.75 4597.29 4200.09 5931.77 5151.21 5398.64 6817.57 4477.04 3614.96 3886.68 5703.74 5662.55 5737.92 5365.24 4360.23 5293.51 4763.96 5754.18 5008.63 3418.99 4480.95 4993.35 4409.63 5521.25 3661.9 5370.85 5949.46 3178.54 4765.02 5376.71 4448.13 5070.29 4807.28 4867.08 2261.36 4266.03 5280.69 4220.03 6923.84 5449.46 6179.96 5703.07 6113.54 4662.43 6260.79 3963.76 5528.53 6799.88 3062.43 5426.78 2967.38 4159.35 6477.91 4237.98 6439.37 4081.97 5401.99 5580.92 5973.33 5067.46 3583.21 2511.46 4011.37 2775.69 4785.25 6519.43 5876.64 5424.46 4857.84 4908.49 4962.21 4858.44 3468.42 4673.35 4771.13 4992.42 5297.19 4351.38 4833.46 5933.7 7248.4 5280.12 4444.97 5984.81 3498.16 4409.27 4640.06 5471.74 3548.39 3673.28 4928.27 4858.51 3375.28 5625.65 4301.61 6107.89 4446.84 5660.55 5148.08 4834.87 5760.22 3672.21 5938.17 4795.43 5097.95 5108.06 3573.73 4693.52 6853.04 4745.43 5831.96 4747.55 3056.7 3755.95 6234.32 4586.19 4446.06 3450.93 4270.74 5132.68 6595.03 4558.15 6218.95 5222.16 5107.23 5136.08 5558.68 3776.94 4010.57 5629.39 2684.03 6157.04 4768.61 5075.55 4522.21 5506.19 6719.94 4950.67 5227.59 6166.29 5453.6 5294.77 4709.05 4630.82 4043.66 4813.08 5860.67 4540.86 5990.52 3764.1 4835.83 5604.35 6316.56 3091.67 4332.87 6420.81 4715.58 4450.7 5151.52 5369.08 4347.74 5291.9 4009.62 2081.58 6505.78 5461.55 4270.15 6865.76 6449.64 6464.8 4684.44 4749.59 5799.69 3809.69 5571.72 3208.96 7051.9 4184.23 4144.57 5550.75 6834.41 6226.14 5466.33 3000.29 5721.05 4247.69 4514.39 4588.99 4321.21 4344.34 3583.49 5052.84 4366.74 5297.16 3184.64 5206.33 5530.49 5653.03 3718.69 4514.79 2216.82 4509.89 6752.75 5269.38 5607.3 2928.82 4222.4 4000.43 3420.08 4568.41 4912.04 4539.07 5464.68 2685.81 5591.76 4585.31 6625.18 5323.91 5097.45 6293.89 2761.07 5737.75 4983.39 5366.52 4690.55 5533.72 5533.42 4802.32 3678.08 4599.38 5246.47 4187.31 6191.29 3240.51 7422.36 5161.01 4298.15 4628.4 5832.37 6051.83 4642.93 5409.63 4263.16 3973.12 3077.84 6024.75 6109.49 5567.93 5987.42 5332.65 4442.22 6451.33 5413.31 3012.99 6400.08 4743.59 5208.14 3317.83 3763.05 5092.24 5549.49 3101.75 4518.04 4766.06 4874.18 5435.19 3298.2 4953.1 5818.95 4093.99 3940.49 4406.05 4680.94 5828.35 5876.72 5236.43 5285.07 4680.14 4608.41 4187.94 5980.59 5021.77 3796.15 4801.8 7216.98 5271.02 4209.31 5718.28 6242.79 5950.45 5713.03 5849.65 5134.67 4165.21 4215.0 4936.96 4481.76 5452.78 5065.26 4304.41 6192.0 4940.28 5885.28 6579.31 3004.34 3022.6 4811.76 4914.45 4698.87 4661.03 3624.7 4691.91 5262.35 4475.83 4510.8 5889.35 5010.04 4394.56 4570.98 4275.07 5825.38 4185.61 4047.87 5742.47 3778.02 6552.21 5417.8 5146.37 7132.12 4836.16 5518.57 5151.11 5463.48 5730.33 5545.46 4527.99 4543.1 4376.7 5190.61 8325.01 3764.06 4440.81 5941.9 5434.47 6642.76 5829.22 4497.78 4243.79 5811.18 5433.65 4008.15 4887.76 4669.06 4811.32 4286.49 6184.88 5829.32 4396.25 5551.95 3918.87 5423.42 2275.45 6605.86 5012.5 4383.56 3562.79 7093.13 4516.53 4122.92 3604.14 4452.54 5089.1 2711.19 4028.32 4099.92 4884.59 3858.06 4511.7 4083.79 5263.27 6300.92 4173.54 5599.29 6038.68 5046.12 4807.4 7013.17 3805.67 4601.74 6506.86 5088.57 5580.34 3852.6 5775.31 4706.5 4603.5 4647.67 5375.12 4356.36 4892.44 5578.94 7610.49 4286.17 3684.56 5323.55 5375.1 4172.6 5313.12 5351.56 5160.59 3984.88 4732.09 4320.42 4255.34 5064.79 5480.3 7509.24 4146.81 5896.26 5388.78 6101.13 4573.72 5099.21 4917.99 5636.4 4367.78 4350.12 5227.02 5670.0 4232.16 5300.96 4344.51 5680.94 3781.77 5581.55 5193.01 3474.5 6550.44 3860.83 6348.03 5732.27 4523.39 5278.56 5146.37 6917.62 4013.38 5631.14 4343.78 5263.3 4909.65 6523.86 7693.4 4326.48 4437.07 3449.37 5491.9 6405.0 4659.16 5789.55 4633.05 4901.2 5711.62 4990.79 4798.17 5166.79 6479.39 2895.63 4997.91 5079.22 5381.54 5810.77 4714.83 5474.15 7519.2 6355.68 4478.6 3953.55 4304.63 4469.54 4314.56 3928.53 5606.51 5740.65 3834.47 6349.67 6329.53 4590.01 6101.86 4227.41 5993.0 4803.57 5966.42 4110.59 3332.49 5354.66 4214.44 5378.23 4787.97 3746.36 6789.23 3989.7 4777.03 4246.61 6028.09 5452.36 3804.5 6486.37 5498.42 5318.53 3344.57 5220.76 4281.98 7165.9 5344.83 7046.11 3427.63 4863.97 6342.48 5756.75 4587.67 5599.7 4163.74 6969.28 3665.95 5698.96 4095.75 3603.51 4298.45 5222.51 6609.84 5135.96 3834.43 5658.37 4707.06 6074.94 5491.37 4250.88 3783.54 3475.67 4792.39 7038.89 3863.67 4814.12 5067.56 6137.8 2735.53 3352.35 5116.6 3747.03 2783.85 4356.49 4526.81 3994.07 4219.94 5907.46 4264.91 6740.71 5399.29 4909.31 5971.22 6522.59 6602.43 3568.28 5425.98 5996.66 4405.42 2995.67 3598.08 4599.81 5698.23 7300.58 3608.06 6633.61 5217.95 4867.7 5484.36 4277.24 4063.9 5291.05 5161.1 4619.2 5166.41 5067.56 2596.96 5701.75 4350.15 4139.3 6541.45 4750.49 5078.31 5391.48 4923.43 5131.15 4847.14 3950.27 5116.66 3566.79 5374.67 4981.43 4741.28 4215.2 5069.89 4157.29 6813.72 5327.75 4609.02 4896.65 4638.18 4196.37 6448.66 4453.97 6945.98 5138.2 5783.48 4449.98 4701.5 4504.35 4771.65 4840.44 5093.82 5951.81 3924.14 6918.35 4296.69 6238.32 3319.67 6471.42 5283.8 4076.59 4428.14 5164.1 6464.15 4479.11 4972.17 6685.4 5699.53 4222.77 4850.06 6332.01 5268.38 5527.23 4805.33 4234.18 7085.01 5980.95 6193.08 6069.3 5887.01 5168.35 5388.39 5335.47 3728.18 5633.61 5048.19 6799.23 4888.27 4592.15 6487.56 4854.11 5533.19 4998.22 5417.21 6104.26 5583.61 6063.64 7382.3 4022.56 5522.21 3772.3 4855.01 6208.9 4923.57 3340.09 6061.63 2279.05 4829.35 4075.28 8137.11 5484.32 6650.77 4067.96 7104.73 6162.3 3272.75 4264.54 3516.27 7043.44 4263.78 4643.9 5228.75 6047.14 5009.83 5210.38 5717.8 3629.44 5003.78 3299.24 6246.56 4061.6 2603.64 5107.0 6212.15 6502.97 4783.07 4946.23 4852.58 6083.28 5211.6 3556.79 5806.31 5456.71 3503.41 7317.04 6412.67 7001.83 5012.97 5589.37 5439.49 6639.64 5212.43 4834.3 5454.12 6348.54 6804.79 5642.35 6372.13 5369.5 5404.01 6016.19 4124.49 3230.13 5714.25 6176.67 5325.96 5412.24 5016.02 7044.29 4920.21 4049.16 3936.95 6153.94 6836.82 3862.77 3858.17 4631.99 4740.98 3185.39 5128.77 7122.87 5797.36 4243.26 4153.84 5119.86 5089.26 5084.17 4901.44 3776.8 5096.43 6156.21 2460.79 4653.83 6171.71 4986.71 3628.89 6589.82 4668.88 5027.43 5522.75 5867.64 6059.93 5602.53 5073.02 6545.43 3472.91 6760.92 4989.2 4711.04 7144.05 4506.18 4824.12 2970.9 6542.5 4383.47 5971.21 4036.91 4066.57 4206.98 5156.76 6357.47 6101.57 4891.38 5535.91 2949.12 5955.86 4532.89 4533.37 4848.46 2779.99 4581.37 5887.38 6942.34 5851.61 3658.05 5478.11 5526.31 5030.15 4438.58 6318.23 4058.87 5174.75 5932.07 4984.46 5948.71 4793.65 3856.53 5460.89 6040.74 5260.85 5742.09 2884.65 5393.65 5807.46 4648.21 4393.16 3311.29 4549.69 6423.81 6192.77 6413.15 6103.11 5048.55 6459.51 4024.31 4955.16 5844.72 3992.97 4147.31 5989.05 4054.22 7228.94 4441.22 4961.99 6551.93 4595.12 3110.13 6484.43 4625.67 3485.54 6735.97 5305.59 5416.45 4330.58 5754.6 3288.01 4904.51 2202.77 5751.15 5950.88 4149.55 6201.86 5853.89 3380.69 4140.4 3639.44 4386.8 5446.4 4725.01 5966.75 4729.42 3104.96 5244.78 3636.15 6114.89 5135.63 6384.7 4355.83 6870.97 5351.86 6056.87 5474.01 5307.35 7554.58 5166.89 4731.21 5491.63 5725.37 3868.62 5138.33 3477.1 4811.22 5216.26 4844.83 4749.96 5377.37 5652.87 5483.7 5018.69 3152.86 5952.38 3896.27 5807.52 5963.36 5230.02 5087.14 4342.18 5169.48 6016.08 6776.22 3124.7 6064.71 6102.98 6060.17 4385.81 6592.93 5096.24 5769.14 3381.82 4831.93 4023.93 5494.28 4834.39 5493.89 5261.19 4918.76 4208.41 5826.78 6214.73 4553.68 3758.22 4268.19 4532.7 5561.74 6100.73 4788.08 4593.7 4349.13 6379.14 3687.65 5478.95 3851.85 4019.34 4658.24 5869.67 4311.48 4899.73 5457.66 6394.19 5973.89 5366.22 6193.73 5518.11 3742.11 5712.35 5701.52 4743.9 5321.17 3719.11 4467.13 3877.8 6418.11 5934.82 4501.78 5415.45 6350.71 5039.12 7107.63 5868.89 5545.59 4099.26 5206.47 3831.52 4263.65 6106.43 6761.81 5467.63 4127.53 5210.75 2856.55 5361.87 3205.68 4473.29 4908.75 6556.26 3971.08 4482.9 6818.91 3634.5 3503.65 4869.48 3623.19 4906.11 5510.96 4387.39 4564.1 4745.16 5825.55 5509.51 4848.14 3199.4 4316.5 5254.24 4192.21 4914.03 3597.43 5144.56 4158.91 5311.55 3360.86 3034.16 4869.25 5545.21 4333.87 4922.49 3572.94 5001.58 6456.58 5244.98 5366.11 4824.81 7307.21 5135.5 3619.72 4565.93 5615.84 4464.73 5788.97 6440.38 3274.85 5007.21 4580.06 4835.97 4057.17 7066.96 4587.7 5644.81 5666.95 4642.2 5175.89 3894.64 3703.49 5232.85 4374.74 5975.23 6816.66 4745.79 6204.65 6550.4 5513.8 4887.52 5350.88 6571.31 4392.65 5429.3 6653.07 4697.91 4584.81 5071.98 5719.79 4371.08 7261.51 4968.14 5086.29 5527.13 5139.18 5551.43 4278.57 5049.99 4201.03 5001.87 4458.64 4312.15 3644.78 3657.69 4078.93 6015.02 4820.17 3814.65 3886.72 5798.38 6436.74 3419.87 4384.28 3908.98 5113.6 5944.3 6328.42 5640.72 4504.52 4954.81 5610.53 6419.64 3926.11 5464.83 5262.47 2781.96 5414.58 4991.35 3512.94 4431.23 4467.0 5196.92 4994.65 4258.98 5601.55 4807.35 3903.91 5334.36 4568.64 4728.55 4929.6 3919.62 5750.35 4489.99 3683.86 6555.44 5293.75 5658.14 5730.61 5473.72 4508.18 7124.45 6358.93 2205.51 5064.67 4383.68 6618.21 2617.39 5144.44 4757.2 4062.56 3717.47 4504.86 6200.63 5969.37 5034.69 4198.94 3217.67 5079.64 5470.04 4211.82 5212.37 6003.78 5684.25 5438.92 5058.51 4244.49 5110.11 3766.69 4891.67 5188.53 4882.66 4027.63 4521.75 6631.28 5569.2 6746.66 5410.33 5420.67 5603.68 4944.51 5610.95 5532.72 3220.8 5179.17 5579.39 5270.51 5148.1 5490.75 5224.64 5949.73 4312.48 5783.94 6370.33 5081.08 6318.25 4202.77 6864.06 6008.81 5510.9 4583.52 4505.28 4883.63 3492.83 5244.22 6280.13 5832.29 5585.14 7039.98 6006.89 4128.1 4159.81 5792.98 4960.64 4983.3 7778.01 4034.05 5053.15 5127.82 5690.96 5805.1 4456.11 3862.91 4125.9 4456.26 4234.88 4027.33 4810.98 5026.76 5091.22 3563.14 6282.38 5347.9 4646.51 5851.63 5727.79 5212.92 5188.82 5043.14 4928.85 4717.73 5072.5 3904.07 5556.0 5748.9 3742.31 3663.0 6304.49 5755.15 5134.72 4608.34 4420.6 5695.79 3622.8 4770.51 4184.47 5577.41 6511.37 5917.34 5740.98 3787.08 4346.07 4462.87 6545.99 4218.16 5630.9 4554.68 4140.92 4368.28 4692.32 4512.07 4945.0 4474.83 4548.45 5236.24 4658.11 3127.83 4585.04 4551.26 5114.07 4212.15 4385.49 5678.58 4263.18 6570.35 7142.95 4242.63 4559.74 7407.91 5836.26 6666.67 6063.44 4051.18 4826.52 4583.94 5046.31 4928.35 3844.54 1937.5 4337.32 5849.53 4509.46 3538.53 4651.99 6163.54 996.652 4420.11 4680.69 6500.49 2628.22 6127.39 5965.58 3352.34 4901.29 4972.18 4050.03 4124.76 5329.76 5036.98 4775.04 4607.18 4120.07 7200.89 4813.33 4952.52 4147.49 3429.57 4802.98 4833.55 3840.21 4081.34 7224.99 4954.76 3908.56 4642.74 4526.34 5635.32 4316.45 5409.08 5042.75 4598.92 5241.22 6647.08 4979.52 3422.29 4407.79 5214.63 3495.68 5352.24 3990.96 7362.42 5793.12 5836.14 5473.05 4373.2 3743.76 5153.18 4763.4 3425.69 6711.21 4971.29 5510.45 4236.86 3684.15 4730.14 4941.02 2606.51 4438.76 3994.39 3864.92 2955.36 6119.99 3965.3 4618.73 4009.24 4446.58 5372.82 4402.17 7541.76 5401.4 4775.49 4681.29 5910.86 5499.59 5124.17 6239.68 3220.29 5749.6 3845.9 7320.78 4834.44 4439.71 4064.58 5782.43 5667.51 4708.31 6331.74 4198.9 3873.92 5431.29 4833.67 5023.41 4659.88 5325.91 4092.07 4213.05 4546.44 5157.38 4224.3 5657.55 4184.21 6203.03 4700.07 5235.87 5473.89 5273.37 4732.37 4985.3 5810.17 5265.21 4966.07 5713.36 4749.18 3669.32 5553.94 4546.96 4316.0 4704.92 5424.55 4392.75 4921.1 3814.16 4271.07 4191.01 4475.38 5287.25 4920.88 5995.4 5890.25 4216.44 5700.79 3999.5 4012.92 6710.14 4013.86 5759.79 4598.54 4177.47 5218.42 4933.49 2918.64 4770.63 6139.64 3990.94 4896.43 5984.8 5477.8 5463.06 4639.8 3986.41 4462.35 5260.52 3185.09 6102.49 5114.23 5495.0 3469.18 3269.54 4489.29 2945.34 5064.23 4301.93 6015.22 5268.15 6061.85 4454.74 5512.44 5819.0 2904.46 6449.06 4685.4 5120.92 5241.75 4731.53 3763.9 4788.7 4577.73 5721.14 5863.0 4288.45 5084.5 5640.12 4918.64 6638.25 6206.98 5078.59 3899.7 2403.72 5134.33 5419.57 5162.67 5760.98 3646.95 4705.68 5469.35 5384.86 6334.53 4827.61 5661.6 5285.75 5385.03 5481.64 5673.75 5360.67 5968.54 6263.3 4501.05 4537.03 6548.29 4114.2 4326.06 5034.46 5757.29 5016.46 5469.17 5061.75 6273.6 3769.24 5136.87 5902.67 5638.7 5454.11 5024.32 4708.17 5393.76 2741.2 3779.45 5806.61 4983.1 5784.37 6010.59 3142.09 7123.04 3682.35 3668.93 5182.13 5906.57 3756.96 6110.48 4932.29 6245.52 3954.77 4990.23 3784.94 6793.1 6016.87 3125.13 5077.29 4506.66 5515.73 4141.21 4174.44 6715.73 5209.55 4564.41 5426.4 5763.05 5951.86 4252.18 5076.84 5357.39 3791.41 5247.01 5853.12 4208.37 4841.7 5702.4 5685.74 952.938 5069.9 6740.35 4678.7 6089.45 3450.07 3673.6 3306.84 4550.92 4657.24 6215.87 4400.14 5866.42 5191.26 4762.1 5544.27 3987.69 6502.99 5308.33 3484.81 4287.25 4666.12 6219.34 6023.07 5674.63 5340.05 4589.06 6506.63 4140.04 3495.3 5322.11 4697.49 5735.08 4726.2 5034.05 4816.51 4711.15 5345.73 3825.48 4841.23 5188.22 3810.68 4756.8 2804.54 4196.62 4357.11 4176.32 5005.6 5486.89 6069.78 4241.68 5532.75 6949.65 3587.93 3372.95 4095.83 5695.25 5676.61 5846.95 5716.42 5701.63 4603.04 4620.95 6347.72 5368.93 4924.07 3200.6 3460.93 4629.02 5124.86 6240.42 4927.73 5146.0 5914.5 4608.62 6006.16 5710.33 5407.96 4987.28 5344.44 4071.75 6562.03 4626.72 4815.47 4759.99 4410.82 2646.13 4368.12 4365.58 5214.4 4636.53 5399.43 3629.49 5766.05 5695.44 5117.64 3422.21 3916.42 3835.81 3242.31 6099.28 5372.25 4169.15 3234.26 4778.37 3494.16 5134.17 4074.16 4904.35 5592.54 3247.97 5390.33 5124.34 4904.37 4358.81 4651.64 5729.92 4179.87 6224.13 4761.84 4493.79 3661.67 5684.05 3667.93 4932.56 4279.44 4899.19 5813.79 5058.34 4644.88 5790.42 4028.22 5293.13 7350.26 5591.77 3768.46 5167.53 5003.3 4168.52 5800.81 5106.46 6562.92 4068.31 5166.05 3671.06 3612.44 7035.54 4850.5 5233.76 5866.91 4683.28 6405.69 2820.07 5129.68 4825.73 5679.74 5288.33 6296.54 4871.77 5797.21 5811.26 5062.77 6019.35 6075.99 6028.63 5927.2 5146.1 6485.77 6060.06 5960.5 5393.43 4117.9 6896.55 4685.65 5377.01 5330.26 6470.23 5939.22 4668.8 4215.05 4271.93 5125.17 4604.1 4859.01 5524.45 7133.44 4426.02 4750.81 3953.26 4474.39 4658.59 5459.92 6478.35 2809.19 5453.77 4104.04 4916.7 5589.53 2638.82 7208.19 5593.79 4549.51 5196.08 5025.42 4975.85 4517.29 5323.95 4495.75 4849.5 6171.01 6229.83 5796.26 4468.26 5578.18 4870.94 5271.88 4488.39 6121.56 7168.2 4602.57 3419.07 3565.32 3622.48 4096.86 5001.51 6432.8 5131.77 5115.42 5549.71 3186.07 4369.86 4967.51 6443.99 3889.98 7212.97 5193.58 5490.64 3720.7 5034.34 5698.53 3769.2 5036.14 4507.46 5265.63 4898.29 4431.06 5730.2 4830.13 5620.88 5370.9 4529.77 4325.13 6172.27 3783.79 5078.73 4248.14 5278.54 5729.0 5192.92 5275.57 4786.66 5891.25 5370.1 5537.34 5192.49 3487.31 6643.4 5726.42 4674.9 3918.94 5575.11 3392.26 5487.63 5461.72 3852.82 4507.36 6224.85 7145.73 5403.97 4556.19 4795.08 5648.78 5368.66 5501.73 6875.73 4697.24 5226.42 4983.43 6081.3 5117.52 6311.89 6734.39 4217.36 5942.45 6549.8 4851.18 4150.76 4165.36 5005.72 5368.52 5155.28 5205.38 5388.73 4884.93 4764.83 4600.71 5262.79 3957.38 4494.15 5035.71 4419.79 5407.69 4710.88 3869.39 4057.4 5152.78 4753.76 5534.23 4781.9 4638.09 6815.96 4441.91 5339.6 5828.25 5917.08 4725.11 3626.86 5418.12 6371.96 5076.11 5322.07 5990.75 5600.21 4282.11 5467.51 4625.53 6589.13 2347.41 4096.47 4542.16 5114.67 3543.37 5628.97 5353.66 5030.33 5527.27 5104.39 5234.2 4965.24 6379.38 6257.79 5327.05 5438.55 5353.23 4434.65 5977.66 4523.81 5106.33 5293.37 5791.25 5198.94 5933.54 4028.35 5559.79 5879.24 2980.31 3763.85 4571.74 3148.79 5740.78 4796.12 5997.91 5385.86 4742.82 4082.4 6791.86 4209.0 4820.68 4930.72 5482.76 5728.58 5173.82 3745.02 4211.36 6297.99 5378.24 3604.31 3856.73 5817.74 4450.49 5887.71 3468.45 5764.52 5684.88 6523.78 4645.86 4045.67 4941.52 5900.0 4262.74 4581.1 6241.77 5317.19 5279.19 4016.6 5821.49 7050.08 5580.44 5998.13 6022.78 4087.32 5884.99 6647.85 7025.09 2549.95 4433.12 4361.24 6599.28 5138.93 5099.9 6945.69 6406.8 5118.86 7086.69 4304.64 6170.9 5833.78 4436.48 4823.06 5758.98 5615.35 3967.76 5288.64 6213.24 5987.88 4228.53 3579.59 6123.46 5057.59 6142.88 5111.26 4574.54 4949.55 5490.54 1969.87 3132.34 5203.54 4841.28 4047.95 5507.38 6142.94 6889.5 5001.69 5300.17 4416.87 4052.43 4896.67 3980.46 5383.9 3934.11 5158.44 6025.77 4466.22 3886.56 4496.51 6153.71 6561.94 5483.37 5092.93 5934.05 2803.01 5770.07 4714.66 4444.0 5101.6 6771.18 4984.17 4656.01 5327.39 5781.62 4037.86 5602.62 2030.03 4138.59 5714.51 4938.33 4484.78 4621.33 5157.73 5847.91 4612.13 4934.66 5846.6 4984.01 4109.44 4903.84 4290.49 4557.1 6688.53 5927.1 5209.5 6175.27 5065.74 5876.51 4873.23 6731.89 5464.05 4733.41 5410.6 5453.2 6348.93 5136.51 6824.53 4332.64 4422.23 5232.16 3989.26 6031.22 5485.84 6424.77 4887.73 4335.79 5453.69 4538.89 5918.95 5689.56 6556.86 4390.64 3770.22 5150.84 4608.01 5087.97 6005.95 4308.49 4519.03 4930.17 5110.27 4745.44 4085.96 5762.82 7360.12 6223.98 5462.6 5617.29 3035.06 4262.19 4597.88 5095.52 5517.65 4009.68 3303.49 2569.12 4622.73 5161.74 4161.32 5256.75 7336.37 6530.78 5932.28 2960.5 5560.23 4975.32 4298.7 3043.77 3902.48 4183.4 4733.79 6030.39 4905.53 3799.01 7392.65 5254.49 3757.23 6828.8 6883.86 3350.99 4979.5 6161.94 4065.28 4745.37 5939.29 4461.14 5285.6 5418.98 5575.11 4034.41 5615.06 5061.74 4052.49 5326.03 6189.67 4948.96 5256.82 6581.56 4013.86 4061.87 4645.93 5165.31 3798.09 4585.37 4288.5 5715.51 3721.69 4511.05 3456.3 6074.39 5259.21 5317.83 4256.08 5881.93 4399.52 4554.24 3939.96 6182.19 5910.66 7415.84 4981.81 5141.03 4970.55 8123.59 5765.14 4541.22 4767.54 4946.08 3539.68 4696.03 6217.33 6177.68 4605.39 6270.59 6045.26 6500.45 4103.76 4907.55 4094.63 4286.61 2932.52 5264.83 4603.66 4969.68 3901.53 6636.43 5431.14 6815.51 4457.05 5313.86 5178.07 5189.91 5777.26 3618.64 5703.84 4171.02 7012.36 3530.82 5797.32 5432.04 4886.99 5159.67 3921.27 3161.1 3702.45 3402.44 4848.98 4491.96 5184.98 4199.44 4467.51 5339.82 5460.57 5065.78 5703.34 4612.68 6668.98 6649.52 4232.33 4939.56 4747.68 5770.92 3093.38 4845.91 4878.93 2002.78 4461.67 5129.4 5114.51 4746.15 4655.37 3720.38 5585.25 4758.84 5023.61 6351.89 3976.0 4672.86 5059.37 5783.38 4139.39 5237.55 3909.94 6264.03 5088.64 4526.87 6589.8 4151.74 6920.92 3729.16 3783.36 5319.1 3038.91 4181.93 3922.28 6570.43 3820.19 3445.92 4586.82 5236.69 3133.28 6026.04 6200.05 5859.17 6353.81 3518.14 5522.34 4150.44 5771.98 4420.35 5899.78 5717.45 5117.83 5268.27 4813.81 5448.64 5244.95 4634.25 5901.8 6417.61 5395.12 5783.69 3830.7 6210.0 5350.9 3483.61 6738.9 4460.89 5992.06 4157.1 8052.53 4867.12 6044.01 6520.19 4637.3 1458.87 5973.57 5734.07 4840.44 3997.68 6033.28 4819.83 4801.16 5071.38 5121.08 2927.84 5616.66 5688.77 5368.28 4698.7 6229.64 2848.44 4220.43 6263.87 5743.8 5084.76 6666.34 6605.11 4645.91 4757.87 3557.46 6379.33 5971.95 6298.8 3979.46 3689.24 6321.97 5151.19 6509.54 6119.0 3792.06 5128.59 5028.06 4002.99 4993.49 4293.3 5587.3 3572.73 4864.38 6583.37 3688.83 5537.61 4721.98 6084.88 4397.06 3543.98 4053.12 4479.5 6261.67 3435.13 4431.46 4521.42 4610.55 3207.84 3977.98 6043.34 4128.93 4959.72 4712.17 3808.04 4723.71 4405.61 6275.25 6892.33 4731.37 4505.3 4452.36 4491.26 4511.34 6463.71 4068.41 4742.35 5009.21 5394.79 4574.03 5645.54 5290.37 5850.38 5264.08 3562.8 4227.66 5192.82 4691.01 4174.22 5245.95 3573.84 5821.42 4067.89 4515.02 6294.09 4571.57 5131.07 4121.07 2970.24 4197.87 5524.28 5105.54 5731.43 5462.1 6032.45 3414.67 5444.36 5044.68 4026.03 6908.32 2649.69 3467.11 5000.74 4817.75 5772.57 6153.26 5637.53 3882.37 5523.81 4095.4 4718.61 5188.57 6351.48 5357.33 5252.37 5432.4 4262.52 5037.58 7430.48 5640.67 5545.68 6080.69 4970.12 4967.93 6369.66 5922.62 6241.48 5125.45 5957.82 4188.16 6286.27 3717.22 6327.54 5507.07 4802.36 2943.17 5327.71 5466.13 4880.78 5257.38 5075.23 4975.56 7282.36 3826.01 5581.01 3928.99 6834.92 4125.75 5749.53 5130.57 5652.73 5402.45 6412.84 3985.93 6071.59 2589.19 6079.55 5485.61 4937.36 5310.33 5308.4 6581.13 4569.32 3228.27 5252.82 4142.1 5056.26 5878.55 4014.44 5445.91 6604.72 6002.77 3794.47 4967.02 4614.49 5400.69 4462.5 2807.46 5573.31 5004.68 4179.8 4023.88 3488.34 5348.11 5428.24 5631.32 6322.0 5793.14 4609.65 6345.2 5704.61 4832.21 5410.73 4379.91 4942.63 6139.74 4975.57 7066.26 4730.97 3057.3 4594.89 3677.85 5214.71 4677.84 4811.11 3463.53 4924.52 5379.52 6126.03 4866.8 5314.67 6044.69 5563.47 5658.05 6593.1 4066.36 4000.51 6033.93 5011.37 5516.37 2827.92 4441.44 4232.44 5336.61 5563.09 4848.15 4439.09 3282.57 4798.13 5648.59 6697.45 3873.79 5717.67 4432.32 5515.59 3224.81 4499.54 3775.38 4046.22 6457.89 4844.2 6572.17 3751.73 5555.89 3374.62 4766.47 4871.1 3917.09 5678.08 6009.93 5872.45 4414.09 5191.29 3784.68 4947.64 6305.9 6649.21 3470.69 4654.92 5286.55 4322.56 5522.18 5509.09 5223.1 5625.02 3873.72 5212.05 4592.49 5479.86 4829.77 6474.5 4444.92 6959.88 5971.9 3746.62 5247.73 5090.48 5034.02 5582.28 5945.25 3856.4 5181.31 4696.06 4137.16 6189.29 5984.55 5803.3 3956.24 5580.95 7558.99 3393.59 4032.06 5043.14 5246.81 5333.04 4521.99 4812.59 3463.34 6842.54 7115.67 5675.45 3361.11 6038.56 5329.84 5599.16 3879.83 6565.95 4577.98 5658.35 5886.81 6126.5 4034.88 6007.1 5067.92 5488.96 3188.21 5128.03 3720.92 5087.3 6637.38 6188.33 6111.23 6916.18 6150.31 5873.62 4996.91 3920.44 4450.51 6033.72 3768.62 3851.47 4966.74 2329.93 5651.46 4959.94 1635.31 5639.4 3162.27 6185.73 4083.24 6520.96 5092.44 3771.91 5432.2 4612.4 3312.3 4746.19 6381.58 4616.81 5715.25 5212.2 4611.21 5108.42 4630.5 3354.94 6296.36 5237.27 4451.76 7885.41 5782.25 4104.97 4575.72 4081.77 5114.61 6118.13 4926.62 4420.3 4202.12 6332.64 6492.44 4083.1 4613.32 5270.1 3482.73 5130.56 4957.99 4063.26 5345.05 4997.89 4542.62 5093.28 4859.95 4132.08 4699.77 4850.49 4981.55 3625.98 5144.23 6188.62 4702.32 4414.06 4763.04 5944.52 4413.56 4532.67 4876.37 2513.38 5316.05 4769.62 4908.32 5260.13 4649.5 5019.84 4810.74 5985.75 3900.93 5784.38 5475.83 4149.17 4329.8 5672.46 5728.27 3074.49 5202.33 4313.38 6598.99 3549.92 5250.56 3633.58 2468.16 5089.1 5888.95 5394.78 5169.09 5122.38 2853.68 2459.88 5262.85 4998.37 6559.82 5342.9 5733.12 5043.34 6436.29 5108.84 4487.51 4582.12 3511.5 4295.25 4520.14 7394.47 5357.14 4729.45 5919.27 4850.95 4793.06 5374.09 6271.22 3421.81 5378.75 3920.64 6186.24 5822.7 5786.06 3780.07 4137.41 3868.69 5466.49 5447.74 4038.17 5007.41 4907.48 3692.99 6213.74 4369.87 6938.87 5412.07 5512.57 4806.99 4813.55 5856.43 5217.62 3465.03 6178.19 3839.0 5349.85 5799.86 5172.1 4362.94 4469.82 6545.78 4870.14 4404.87 2932.2 5105.72 5767.65 4750.76 5003.49 3964.03 4907.03 5497.27 5617.91 4948.21 2181.29 4987.01 4706.31 2694.25 6265.48 4735.99 4203.68 4739.56 5145.39 3996.93 3352.46 6351.95 5195.09 5200.1 7679.2 4881.51 6131.52 2626.41 6009.88 4311.92 6729.99 5093.41 6842.35 5464.34 6153.07 3621.63 5801.89 5908.57 7296.47 5050.2 4821.41 4924.53 3995.08 5616.11 4499.52 3874.12 4028.13 4457.73 6476.35 3113.64 4304.75 6260.58 4067.24 3053.19 6571.26 2832.83 5827.3 6036.99 3010.1 3825.98 6294.14 4339.97 5087.03 5203.75 3906.41 4691.15 4512.6 4210.24 4260.38 5470.67 5901.71 5225.11 5252.22 6060.19 4962.35 4246.24 6805.02 5354.48 4900.26 6261.13 4167.55 4720.34 5244.47 4731.16 5510.89 6470.87 4495.33 4159.89 5282.67 5178.55 5146.69 6203.24 6818.23 5081.65 4488.41 6679.12 5652.19 5806.74 3878.8 6578.62 6284.12 4796.04 5229.56 6011.4 4672.34 6052.22 5376.41 5003.63 4695.7 4082.01 4944.08 5576.16 5269.39 4305.35 4216.33 5210.22 5832.72 2451.27 3903.9 4721.2 4444.95 5161.02 3124.49 5242.38 6081.35 5003.81 6262.18 3818.37 4701.03 6225.05 5434.04 5125.53 3997.52 4444.54 5779.9 4909.74 5310.33 5299.03 6664.54 3922.98 5161.73 5259.48 4777.96 4008.67 5254.93 4803.4 6833.5 6608.94 5742.39 2613.78 4780.16 5417.07 3834.01 5738.37 4433.23 4813.24 5759.19 5847.27 4490.2 5734.84 5480.86 6139.9 3982.31 4950.07 4720.22 4474.96 4084.87 4790.63 5259.29 3584.05 4589.22 4818.53 4667.84 5097.85 5584.64 4123.08 6224.64 4221.03 4636.45 4932.27 3799.55 5638.51 6793.49 3563.33 5536.0 6786.37 5402.81 4600.81 4919.13 5640.63 4124.33 5168.97 5783.88 5002.38 6705.93 4865.11 5449.09 5502.14 4605.61 4465.56 4131.08 5386.95 5747.9 3864.19 4287.93 5332.11 5315.71 6158.93 5373.78 4823.14 5438.5 4621.32 5699.4 5237.76 4698.94 4286.84 3948.21 5669.15 5296.05 5263.86 3330.85 5056.32 6988.4 5533.52 5410.33 4060.17 4747.24 4380.86 5302.53 4909.13 4287.61 5648.02 3308.75 4439.17 5677.42 2701.42 4929.35 5606.22 3943.77 5151.68 5459.52 4609.98 5566.5 5663.36 4752.31 4276.59 5579.04 5405.6 5994.21 5403.81 5082.25 6964.78 4374.05 5036.84 4565.36 5813.68 4025.08 3618.53 5040.9 4770.21 8013.28 3846.55 5283.65 3796.73 3082.16 5656.84 6789.66 4739.41 5416.41 5312.2 4706.59 6760.64 2515.5 5177.88 5551.79 4582.24 5367.05 4758.76 5647.11 4088.72 3945.62 4916.75 3743.85 6236.46 5342.17 6379.3 6189.04 3795.63 5189.4 4576.71 5082.66 4550.77 4894.15 4337.93 3550.88 5201.3 4345.51 4048.73 6223.33 4333.23 4328.76 5561.63 5940.5 4358.06 5093.51 5647.93 4280.92 6201.49 4696.92 5154.74 6437.99 6898.8 6632.04 6540.57 4893.72 6004.72 4072.4 5699.51 5345.65 2489.44 4489.18 5863.36 4632.75 4752.94 4994.98 3950.53 6423.96 6058.13 5894.69 4987.01 6635.51 6094.34 6051.35 5543.67 3999.81 4867.13 4604.34 4863.27 4502.12 5442.79 3255.93 5051.39 6673.92 4633.59 4884.94 5362.15 4455.61 4738.72 5240.97 5569.85 5523.96 3929.35 4884.93 4223.53 4759.38 4733.37 6960.97 3037.72 4287.15 5282.51 5504.65 5669.41 5732.11 3919.47 5596.68 4868.66 4004.39 5159.9 4644.68 4987.48 2892.36 5943.61 4248.58 5981.54 5911.29 4542.25 4694.27 5233.88 4849.21 4785.55 3793.83 6981.47 3916.15 4449.73 5015.67 6538.04 6157.59 5848.41 4090.28 4246.83 3860.8 5145.13 3747.96 5611.29 4521.88 6568.45 5004.22 4601.54 4963.88 7263.57 5705.96 3832.09 5267.65 5739.69 3509.34 5360.88 7360.62 4977.64 4985.45 4983.56 5205.53 4714.52 5499.37 4883.13 4836.76 5551.09 5755.98 4501.1 5392.85 5581.47 4384.91 6550.61 4277.54 4713.56 4531.46 6779.82 5448.68 4739.5 6210.48 6377.45 4182.05 6853.07 6327.61 5733.59 5575.8 5268.93 3695.72 6874.6 5106.9 5306.31 4535.94 4523.9 5126.08 5604.0 3760.4 4951.02 4602.7 3783.35 4037.16 6395.63 5479.17 5020.37 4414.23 5245.4 6189.81 5438.6 7370.52 4726.5 5467.05 3724.23 5103.3 5888.94 4727.98 4122.2 5175.88 4516.26 4790.16 3647.26 3731.58 3166.37 5369.42 5207.08 4587.19 5543.05 6028.89 5333.16 4888.17 5077.2 4274.05 5275.27 5529.09 5925.82 4072.95 4491.62 3865.5 
SCALARS Velocity float 1
LOOKUP_TABLE default
1.19312 1.19323 1.19291 1.19486 1.19178 1.19381 1.19349 1.19308 1.19176 1.19299 1.19178 1.19239 1.19178 1.19178 1.19244 1.19178 1.19178 1.1923 1.19178 1.19177 1.19172 1.19299 1.1926 1.19176 1.19178 1.19172 1.19182 1.19175 1.19178 1.19178 1.19178 1.19228 1.1923 1.19335 1.1926 1.19247 1.19284 1.19254 1.19178 1.19236 1.19207 1.19177 1.19296 1.19178 1.19174 1.19398 1.19316 1.19218 1.19221 1.19182 1.19276 1.19174 1.19299 1.19287 1.19182 1.1918 1.19208 1.19212 1.19363 1.19185 1.19177 1.19293 1.19173 1.19178 1.19183 1.19252 1.19388 1.19267 1.19411 1.19433 1.19452 1.19351 1.19218 1.19266 1.19419 1.19452 1.19409 1.19334 1.19178 1.19469 1.19197 1.19333 1.19178 1.19321 1.1919 1.19279 1.1944 1.19609 1.19312 1.19337 1.19382 1.19255 1.1918 1.19237 1.1923 1.19503 1.19417 1.19271 1.1949 1.19359 1.19393 1.19333 1.19405 1.19313 1.19332 1.19178 1.19253 1.19174 1.19178 1.19255 1.19178 1.19178 1.19234 1.19178 1.19338 1.19178 1.19312 1.19178 1.19178 1.19178 1.19197 1.19177 1.19178 1.19188 1.19193 1.19192 1.19252 1.19268 1.19344 1.19281 1.1926 1.19296 1.19292 1.19198 1.19301 1.19209 1.19297 1.19271 1.19156 1.19328 1.19391 1.1922 1.19186 1.19372 1.19243 1.19273 1.19233 1.19271 1.19178 1.19353 1.19433 1.19446 1.19172 1.19174 1.19178 1.19243 1.19225 1.19354 1.19307 1.19309 1.19178 1.19178 1.19307 1.19178 1.19178 1.19192 1.19285 1.1922 1.19126 1.19412 1.19163 1.19266 1.19379 1.19486 1.19377 1.19413 1.19385 1.19219 1.19217 1.19439 1.19175 1.19404 1.19346 1.19128 1.1948 1.19271 1.19373 1.19178 1.19367 1.19186 1.19325 1.19511 1.19162 1.19312 1.19223 1.19318 1.19248 1.19319 1.1923 1.19178 1.19374 1.19425 1.19489 1.19407 1.19378 1.19419 1.19368 1.19132 1.19334 1.19236 1.19248 1.19334 1.1918 1.19299 1.19175 1.19179 1.1924 1.19178 1.19338 1.19178 1.19304 1.19226 1.19229 1.19178 1.19217 1.19218 1.19158 1.19219 1.19187 1.19244 1.1927 1.19381 1.1932 1.19339 1.19303 1.19177 1.1925 1.19179 1.1932 1.19292 1.19178 1.1933 1.19384 1.1922 1.19186 1.19168 1.19344 1.19267 1.19274 1.19177 1.19375 1.19499 1.19249 1.19184 1.19248 1.19352 1.19281 1.19379 1.19308 1.194 1.19462 1.19306 1.19291 1.19291 1.19462 1.19214 1.19415 1.19205 1.19315 1.19257 1.1951 1.19375 1.19393 1.19377 1.19233 1.1939 1.19197 1.19421 1.19389 1.19509 1.19187 1.19551 1.1942 1.19385 1.19621 1.19341 1.19193 1.19395 1.19155 1.19223 1.19382 1.1926 1.1944 1.19272 1.19316 1.19308 1.1935 1.19178 1.19376 1.19419 1.19482 1.19427 1.1942 1.19405 1.19347 1.19125 1.19296 1.19178 1.19234 1.19324 1.19149 1.19306 1.19264 1.19175 1.1924 1.1915 1.19333 1.19433 1.19297 1.19242 1.19246 1.19178 1.19178 1.19238 1.19178 1.19231 1.19222 1.19221 1.19386 1.19279 1.1925 1.19339 1.19315 1.19379 1.1932 1.19334 1.19281 1.19308 1.19231 1.19308 1.19163 1.19282 1.18984 1.19353 1.19348 1.1935 1.19233 1.19149 1.19364 1.1929 1.19341 1.19284 1.1942 1.19523 1.19224 1.192 1.19287 1.19284 1.19313 1.19178 1.19178 1.19178 1.19518 1.19567 1.19281 1.19462 1.19321 1.19239 1.19419 1.19199 1.19297 1.19237 1.19502 1.1934 1.19347 1.19354 1.18994 1.19357 1.19495 1.19178 1.19581 1.19401 1.19462 1.19425 1.19387 1.19628 1.19368 1.19336 1.19708 1.19254 1.19524 1.1942 1.19234 1.19423 1.1915 1.19269 1.19331 1.19337 1.19345 1.19419 1.19444 1.19422 1.19402 1.19348 1.19297 1.19528 1.19247 1.18943 1.19201 1.19316 1.19149 1.1934 1.19318 1.1918 1.1927 1.19178 1.19335 1.19163 1.19316 1.19297 1.19261 1.19192 1.19621 1.19256 1.19188 1.1923 1.19226 1.19303 1.1921 1.19273 1.19326 1.19361 1.19175 1.19344 1.19264 1.19215 1.19305 1.19105 1.19249 1.18966 1.1922 1.19503 1.19222 1.19028 1.19444 1.19302 1.19337 1.1931 1.19316 1.19499 1.19222 1.19198 1.19281 1.19275 1.19178 1.19172 1.19152 1.19446 1.19483 1.19512 1.1928 1.19157 1.19469 1.19189 1.19298 1.19178 1.19495 1.19247 1.19358 1.19409 1.19305 1.19326 1.19342 1.19469 1.19208 1.19491 1.19437 1.19159 1.19483 1.19455 1.19387 1.19525 1.19361 1.19474 1.19114 1.19343 1.19191 1.19364 1.19447 1.19451 1.19271 1.19314 1.19325 1.19339 1.19374 1.19178 1.19429 1.19403 1.19396 1.19399 1.19329 1.19266 1.19513 1.19244 1.18948 1.19235 1.19152 1.19534 1.19349 1.19468 1.19292 1.19293 1.19336 1.19326 1.19222 1.19305 1.19293 1.19261 1.19184 1.19609 1.19249 1.19249 1.19222 1.19327 1.19185 1.19215 1.19232 1.1923 1.19302 1.1923 1.19311 1.19207 1.19207 1.19125 1.19109 1.19191 1.1915 1.19181 1.19292 1.19279 1.19213 1.19364 1.19336 1.19301 1.19481 1.19471 1.19182 1.19199 1.19266 1.19196 1.19293 1.19171 1.191 1.19033 1.19432 1.19464 1.19311 1.19642 1.19068 1.19068 1.1941 1.19309 1.19332 1.19283 1.19379 1.19426 1.19314 1.19395 1.19008 1.19188 1.19241 1.19526 1.19546 1.1946 1.19446 1.19327 1.1948 1.19327 1.19487 1.1913 1.19351 1.19178 1.19144 1.19328 1.19052 1.19426 1.19307 1.18997 1.19326 1.19354 1.19382 1.19386 1.19388 1.19288 1.19258 1.19499 1.19199 1.18967 1.19256 1.19202 1.19127 1.19355 1.19211 1.19131 1.19285 1.1935 1.19358 1.19287 1.19049 1.19207 1.19239 1.1923 1.19434 1.19366 1.19363 1.19208 1.19162 1.19248 1.19217 1.19199 1.19226 1.19315 1.19308 1.19343 1.19337 1.1925 1.19328 1.1909 1.19111 1.19209 1.19141 1.19172 1.1921 1.19188 1.19163 1.19409 1.19417 1.19479 1.19289 1.19431 1.1948 1.19443 1.19242 1.19369 1.19192 1.191 1.19055 1.19018 1.19178 1.19244 1.20175 1.19426 1.19104 1.19162 1.19189 1.19099 1.19164 1.19416 1.19324 1.19269 1.19379 1.19314 1.19104 1.19561 1.1932 1.19399 1.1918 1.19402 1.19733 1.19531 1.19317 1.19191 1.19271 1.19425 1.19267 1.19481 1.1915 1.19339 1.19013 1.19165 1.19149 1.19048 1.19237 1.19177 1.19403 1.19004 1.19302 1.19178 1.19233 1.19013 1.19396 1.19382 1.18876 1.1934 1.19082 1.1929 1.19302 1.19232 1.19204 1.19207 1.19131 1.19263 1.19063 1.19354 1.19529 1.19374 1.19253 1.19229 1.19195 1.19413 1.19205 1.19247 1.19114 1.19328 1.1918 1.19325 1.19048 1.19177 1.19216 1.19264 1.19222 1.19328 1.19344 1.19213 1.19326 1.19217 1.19375 1.19135 1.19439 1.19258 1.1917 1.19142 1.19174 1.19173 1.19077 1.19177 1.19244 1.19475 1.19266 1.19287 1.19404 1.19471 1.19413 1.19174 1.19452 1.19429 1.19656 1.1898 1.19415 1.19178 1.19121 1.19233 1.19371 1.19538 1.1931 1.18767 1.19486 1.19178 1.19546 1.19161 1.19125 1.19299 1.19252 1.19353 1.19225 1.19124 1.19567 1.19337 1.1953 1.19454 1.1951 1.19317 1.19565 1.19159 1.19193 1.19246 1.19417 1.19349 1.19213 1.19436 1.19056 1.1952 1.1933 1.19161 1.19569 1.19192 1.19272 1.19256 1.19151 1.19162 1.19365 1.19315 1.19367 1.19243 1.19336 1.19082 1.19273 1.19327 1.19282 1.19178 1.19213 1.19169 1.19318 1.19144 1.18994 1.19514 1.19248 1.19398 1.19236 1.19231 1.1911 1.19089 1.19326 1.19297 1.19352 1.1924 1.19321 1.19182 1.19308 1.19046 1.19172 1.19179 1.19179 1.19344 1.19293 1.19197 1.19324 1.19236 1.19353 1.19224 1.19395 1.19274 1.19164 1.19249 1.19138 1.19257 1.19462 1.19245 1.19178 1.19332 1.19406 1.19353 1.19148 1.19405 1.19432 1.19413 1.19064 1.19367 1.19519 1.19489 1.19135 1.18853 1.19283 1.19485 1.19266 1.18759 1.19168 1.19705 1.19139 1.1923 1.19247 1.19292 1.19226 1.19178 1.19554 1.19333 1.19508 1.19419 1.19342 1.19171 1.19224 1.1953 1.19905 1.19195 1.19178 1.19384 1.19307 1.19309 1.1923 1.1924 1.19358 1.18542 1.18888 1.19081 1.19414 1.18897 1.19558 1.19513 1.19287 1.1913 1.19105 1.18984 1.18899 1.1924 1.19337 1.19167 1.19434 1.19245 1.19135 1.1921 1.19267 1.19297 1.19122 1.19441 1.19304 1.18979 1.19178 1.19387 1.19198 1.19205 1.19099 1.191 1.19315 1.19286 1.19235 1.19349 1.19272 1.19215 1.19014 1.19193 1.19155 1.19147 1.19249 1.19176 1.19132 1.19184 1.19266 1.19243 1.19178 1.19201 1.19208 1.19283 1.19338 1.19421 1.19178 1.19178 1.19601 1.18839 1.19398 1.19443 1.19248 1.19178 1.19371 1.19421 1.19135 1.19317 1.19386 1.1945 1.19415 1.19366 1.19227 1.19658 1.19134 1.18946 1.19088 1.1916 1.19435 1.19175 1.18472 1.19714 1.19101 1.19411 1.19279 1.19184 1.19226 1.19306 1.19219 1.19215 1.1853 1.19513 1.19274 1.19415 1.19154 1.19276 1.19198 1.19962 1.19102 1.18824 1.19297 1.19231 1.1928 1.19254 1.19342 1.19122 1.18942 1.19179 1.19422 1.18907 1.18869 1.19549 1.19282 1.19107 1.1912 1.18964 1.18954 1.1908 1.19246 1.19407 1.19563 1.19142 1.19341 1.19201 1.19178 1.19187 1.191 1.19266 1.19138 1.19302 1.19107 1.19238 1.19402 1.19215 1.18972 1.19348 1.1918 1.19191 1.19089 1.19029 1.19302 1.19272 1.19213 1.19335 1.1926 1.1921 1.19171 1.19321 1.19144 1.19207 1.19141 1.19273 1.19034 1.19085 1.19209 1.19259 1.19181 1.19205 1.19188 1.19288 1.19344 1.19266 1.1912 1.19599 1.18768 1.19312 1.19403 1.19243 1.19345 1.19409 1.19263 1.1934 1.19454 1.19337 1.19343 1.19438 1.19364 1.19318 1.18927 1.19655 1.18901 1.18828 1.19039 1.19187 1.19066 1.19068 1.19624 1.18938 1.19089 1.19146 1.1919 1.19453 1.19163 1.18866 1.19303 1.18923 1.1963 1.19023 1.19254 1.19128 1.19094 1.19377 1.19104 1.19232 1.19178 1.19162 1.19159 1.19173 1.19287 1.19133 1.19317 1.18902 1.19137 1.19334 1.18433 1.19234 1.19609 1.19422 1.19092 1.19122 1.19212 1.18966 1.19103 1.19269 1.19433 1.19581 1.19127 1.19178 1.19169 1.18999 1.19166 1.19313 1.19292 1.19478 1.19156 1.19114 1.19237 1.19415 1.19138 1.19066 1.18971 1.19285 1.19256 1.19196 1.19315 1.19275 1.19178 1.194 1.19426 1.19222 1.1911 1.19266 1.19026 1.19183 1.19215 1.19285 1.19108 1.19119 1.19208 1.1924 1.1934 1.19178 1.1912 1.19796 1.19105 1.19298 1.1943 1.19277 1.19178 1.195 1.19365 1.19452 1.19297 1.19381 1.19403 1.19316 1.19269 1.19433 1.19637 1.18824 1.191 1.19207 1.19195 1.1903 1.19229 1.19206 1.19746 1.18968 1.19177 1.19099 1.19174 1.19176 1.1897 1.19118 1.19089 1.19183 1.18972 1.19228 1.19052 1.19172 1.19116 1.19278 1.19118 1.18962 1.19207 1.18931 1.19292 1.19145 1.19292 1.18891 1.18958 1.19285 1.1945 1.19465 1.1949 1.1952 1.19073 1.19206 1.1925 1.19098 1.19212 1.19418 1.19281 1.19088 1.19157 1.19154 1.19125 1.19319 1.19058 1.19231 1.19519 1.18869 1.19533 1.19232 1.19011 1.19078 1.19218 1.19071 1.19363 1.19098 1.19048 1.18958 1.19266 1.19254 1.19201 1.19236 1.19002 1.19102 1.19387 1.19384 1.19198 1.19213 1.19183 1.1919 1.19105 1.19069 1.19187 1.191 1.19296 1.18754 1.19023 1.19451 1.19488 1.18919 1.19797 1.19388 1.19653 1.19361 1.19214 1.19178 1.19178 1.19495 1.19357 1.19169 1.19663 1.1918 1.19396 1.19507 1.19495 1.18835 1.19124 1.19194 1.19255 1.19391 1.19161 1.19036 1.19357 1.19435 1.18682 1.18941 1.1906 1.19154 1.1916 1.1914 1.19148 1.1907 1.1911 1.1918 1.19158 1.18951 1.19137 1.19115 1.19201 1.19305 1.19143 1.19288 1.18959 1.19099 1.18914 1.19275 1.19169 1.19279 1.18879 1.18978 1.19254 1.19449 1.19434 1.19474 1.19488 1.19051 1.19188 1.19178 1.19178 1.19178 1.18728 1.18968 1.1911 1.19117 1.19178 1.19142 1.19306 1.19076 1.19228 1.18917 1.19104 1.19331 1.18956 1.19068 1.19066 1.192 1.19306 1.19178 1.19156 1.18914 1.18927 1.19267 1.19209 1.19028 1.18918 1.19204 1.19474 1.19412 1.19171 1.19318 1.19287 1.19136 1.19201 1.19128 1.19022 1.19318 1.1903 1.19024 1.19353 1.19571 1.1925 1.18896 1.19191 1.19289 1.19746 1.19485 1.1913 1.19347 1.1954 1.19675 1.19408 1.1915 1.19541 1.19136 1.19099 1.19084 1.19551 1.20056 1.19628 1.18825 1.19143 1.19221 1.19434 1.19141 1.18998 1.19383 1.19644 1.18995 1.19069 1.19012 1.19107 1.19126 1.19182 1.1903 1.19152 1.19154 1.18996 1.19145 1.18995 1.19387 1.19014 1.19038 1.19316 1.189 1.19065 1.19039 1.18647 1.1923 1.1918 1.19249 1.18879 1.18984 1.19169 1.19362 1.19309 1.18848 1.19446 1.19044 1.19197 1.19216 1.1922 1.19155 1.18697 1.18873 1.18998 1.19197 1.19159 1.1932 1.19177 1.19176 1.19077 1.19111 1.19238 1.18953 1.19077 1.19114 1.19177 1.19286 1.19166 1.19097 1.18942 1.18951 1.19278 1.1921 1.19023 1.19161 1.1912 1.19004 1.19416 1.19166 1.1927 1.19181 1.19341 1.19178 1.19081 1.19003 1.19471 1.19373 1.18506 1.19558 1.19691 1.19473 1.19074 1.19232 1.18978 1.19756 1.19467 1.19123 1.19444 1.19461 1.19799 1.19437 1.19099 1.1941 1.19111 1.19075 1.19505 1.20033 1.19625 1.18976 1.18795 1.19522 1.19203 1.19126 1.19404 1.18828 1.19147 1.19072 1.19677 1.19102 1.18969 1.1901 1.19094 1.19105 1.19192 1.19097 1.19102 1.18997 1.18981 1.19149 1.19077 1.19373 1.19035 1.18955 1.19156 1.18945 1.19079 1.18677 1.19302 1.18777 1.192 1.19154 1.19321 1.19279 1.1897 1.19383 1.19035 1.19201 1.1934 1.19204 1.18733 1.1872 1.1897 1.19163 1.19295 1.1913 1.1912 1.19201 1.19026 1.19173 1.19225 1.19138 1.19094 1.19185 1.19012 1.19203 1.19055 1.19009 1.19202 1.19242 1.19181 1.19032 1.19177 1.19092 1.18976 1.19071 1.19221 1.19265 1.19239 1.19401 1.19066 1.18827 1.19667 1.19401 1.19055 1.19176 1.19649 1.19467 1.19219 1.19131 1.18985 1.19665 1.19516 1.19153 1.19545 1.19436 1.19667 1.19358 1.19014 1.19339 1.19261 1.19071 1.19546 1.19684 1.18928 1.19754 1.19423 1.1924 1.19294 1.19178 1.18818 1.19145 1.19178 1.1909 1.19429 1.18944 1.19007 1.19059 1.18976 1.19008 1.19114 1.18888 1.1888 1.19068 1.19035 1.19256 1.18985 1.19176 1.19053 1.19147 1.18928 1.18644 1.19085 1.18665 1.18633 1.19318 1.1879 1.19178 1.19059 1.19184 1.19247 1.1897 1.19319 1.19021 1.19202 1.19212 1.19242 1.19141 1.1922 1.18714 1.1889 1.18907 1.18883 1.19163 1.19178 1.19101 1.19095 1.19124 1.18972 1.1924 1.19221 1.19145 1.19088 1.19179 1.19023 1.19178 1.19024 1.19176 1.18849 1.19284 1.19195 1.19024 1.19171 1.19137 1.18902 1.19034 1.19226 1.19438 1.19211 1.19251 1.19224 1.19365 1.19058 1.19017 1.19609 1.19178 1.19222 1.19066 1.19527 1.19555 1.19287 1.19266 1.19469 1.19502 1.19505 1.1942 1.19699 1.19495 1.1947 1.19335 1.19026 1.19422 1.1927 1.19127 1.19455 1.1958 1.19543 1.1967 1.19461 1.19192 1.19211 1.19344 1.19168 1.19126 1.19058 1.19388 1.19252 1.18935 1.1899 1.18527 1.18896 1.19076 1.19178 1.19093 1.19088 1.19061 1.18866 1.19027 1.19019 1.19313 1.18973 1.19208 1.19373 1.19195 1.19048 1.18884 1.18963 1.18867 1.18874 1.1934 1.18786 1.19178 1.19048 1.19151 1.1924 1.18917 1.19153 1.19003 1.19166 1.19192 1.19122 1.19236 1.19013 1.18714 1.18927 1.18855 1.18918 1.18754 1.19093 1.19091 1.1912 1.18965 1.19187 1.19231 1.19179 1.19104 1.19175 1.19037 1.18949 1.18932 1.18999 1.18866 1.19198 1.19179 1.19025 1.19136 1.19132 1.18886 1.19036 1.19428 1.19235 1.19178 1.19019 1.19286 1.19262 1.19485 1.18941 1.194 1.19818 1.19178 1.19486 1.19544 1.19173 1.19295 1.19722 1.19218 1.19163 1.19534 1.19449 1.19297 1.19704 1.19222 1.19704 1.1929 1.19227 1.19125 1.19465 1.19568 1.19504 1.19139 1.19196 1.19145 1.19349 1.19178 1.19146 1.19652 1.19007 1.18916 1.18887 1.19028 1.18681 1.19072 1.19173 1.19178 1.19132 1.1922 1.18988 1.19016 1.18961 1.19066 1.18878 1.19417 1.19015 1.19024 1.18876 1.19045 1.18925 1.18876 1.19297 1.18778 1.19027 1.19001 1.19143 1.19202 1.18997 1.1909 1.19024 1.19178 1.19148 1.19177 1.19193 1.19028 1.18929 1.18759 1.18664 1.18855 1.18984 1.1879 1.1904 1.19027 1.19216 1.18956 1.19242 1.19033 1.19157 1.19079 1.1911 1.19044 1.18942 1.18947 1.18968 1.19156 1.19178 1.19204 1.19178 1.19119 1.19123 1.18859 1.19089 1.19575 1.19186 1.1895 1.18997 1.19253 1.19269 1.19078 1.1924 1.19083 1.19932 1.19592 1.19444 1.1953 1.19404 1.19242 1.19703 1.19357 1.1956 1.19431 1.19794 1.19771 1.19376 1.19154 1.19692 1.19182 1.19055 1.19462 1.1954 1.1948 1.19105 1.19177 1.19016 1.19303 1.18999 1.19314 1.18858 1.19647 1.19124 1.1911 1.18899 1.18882 1.1902 1.18664 1.19178 1.19051 1.19408 1.19191 1.19232 1.19068 1.18944 1.18915 1.19206 1.18841 1.19178 1.18978 1.19041 1.19215 1.18979 1.1892 1.19222 1.19084 1.18978 1.19024 1.18981 1.19133 1.18926 1.18967 1.19071 1.19082 1.19178 1.19209 1.19168 1.19196 1.19258 1.19245 1.18667 1.18867 1.19178 1.18781 1.19065 1.19127 1.19205 1.19072 1.19178 1.19218 1.19121 1.19082 1.19118 1.19048 1.1909 1.19071 1.19178 1.18964 1.19175 1.19176 1.19188 1.18941 1.19067 1.18972 1.19122 1.19569 1.19106 1.18883 1.19429 1.19012 1.19253 1.1926 1.1912 1.19067 1.19797 1.1961 1.19266 1.19554 1.1945 1.19276 1.19704 1.19354 1.19216 1.19199 1.19709 1.19717 1.19267 1.19102 1.19663 1.19317 1.19161 1.19517 1.18997 1.19056 1.19482 1.19131 1.19429 1.19601 1.18641 1.18926 1.19174 1.18856 1.19273 1.19008 1.19144 1.19319 1.18924 1.19066 1.18705 1.19184 1.19095 1.19196 1.19187 1.19202 1.19065 1.18893 1.18924 1.1938 1.18825 1.18829 1.18957 1.19055 1.19006 1.18926 1.18924 1.18831 1.19109 1.1916 1.18906 1.18984 1.1922 1.19178 1.18934 1.19058 1.19114 1.19118 1.19225 1.1914 1.19126 1.19203 1.19149 1.18718 1.1895 1.19089 1.18779 1.19118 1.19148 1.1907 1.19181 1.19206 1.19128 1.19068 1.1909 1.19178 1.19177 1.19209 1.19178 1.18962 1.19362 1.19178 1.19176 1.1918 1.18987 1.19202 1.19188 1.19168 1.19206 1.18983 1.18961 1.19145 1.18935 1.19305 1.19243 1.19289 1.19064 1.19154 1.19493 1.19568 1.19518 1.19758 1.19508 1.19131 1.19054 1.19274 1.19208 1.19515 1.19947 1.19263 1.19032 1.18952 1.19525 1.19484 1.18987 1.18969 1.19481 1.19178 1.19522 1.18336 1.19184 1.18906 1.19101 1.18792 1.19203 1.1919 1.19138 1.19258 1.18965 1.18944 1.19032 1.19178 1.19136 1.19189 1.19079 1.18956 1.19026 1.18868 1.18923 1.19178 1.18947 1.18868 1.19178 1.19342 1.19117 1.1918 1.19177 1.18868 1.19428 1.19165 1.18896 1.19175 1.19267 1.18942 1.18927 1.19047 1.19121 1.19186 1.19186 1.19139 1.19125 1.19173 1.19147 1.19147 1.19088 1.19073 1.18759 1.19108 1.19152 1.19077 1.19181 1.19154 1.19072 1.19064 1.19149 1.19191 1.19075 1.19207 1.19219 1.19362 1.19141 1.19184 1.19102 1.19451 1.19121 1.19274 1.19204 1.18959 1.19149 1.1886 1.19048 1.18841 1.1929 1.19336 1.1941 1.1919 1.19056 1.19139 1.19399 1.19564 1.19521 1.19701 1.19542 1.19178 1.19097 1.18934 1.19214 1.19656 1.19489 1.19251 1.1903 1.20048 1.19458 1.19178 1.19132 1.1907 1.1956 1.19771 1.18868 1.18273 1.19036 1.19066 1.19206 1.19106 1.19198 1.191 1.19254 1.1896 1.1891 1.19209 1.19033 1.1913 1.19196 1.18901 1.19121 1.19032 1.18838 1.19071 1.19076 1.19029 1.18791 1.19053 1.19368 1.19146 1.19174 1.19193 1.1911 1.19265 1.1913 1.18928 1.19184 1.1905 1.18936 1.18941 1.19014 1.19119 1.19197 1.1917 1.19178 1.19178 1.19172 1.19145 1.19148 1.19101 1.19178 1.1878 1.19124 1.19169 1.19178 1.19178 1.19155 1.19178 1.19055 1.1914 1.19134 1.19061 1.1918 1.19213 1.19211 1.19193 1.1897 1.19173 1.19236 1.19173 1.19111 1.192 1.18934 1.19153 1.18874 1.19016 1.18819 1.18814 1.19294 1.19122 1.19197 1.19039 1.19144 1.19358 1.19481 1.19185 1.19696 1.19433 1.19278 1.19269 1.18921 1.19472 1.20109 1.18378 1.18884 1.20015 1.19389 1.1917 1.1929 1.19042 1.19611 1.18286 1.19046 1.18739 1.19091 1.19178 1.19005 1.19018 1.19037 1.19204 1.19191 1.19251 1.19072 1.18949 1.19196 1.19146 1.19187 1.19117 1.19178 1.19205 1.19178 1.19084 1.19183 1.19073 1.19066 1.19018 1.18759 1.19016 1.19091 1.19144 1.19154 1.19188 1.19102 1.19173 1.19129 1.18955 1.19068 1.18995 1.18956 1.19053 1.18994 1.19118 1.19122 1.19157 1.19178 1.19177 1.19173 1.19147 1.19157 1.19178 1.19178 1.19178 1.19128 1.19169 1.19178 1.19178 1.19175 1.19178 1.19059 1.19139 1.19132 1.19183 1.19179 1.19134 1.19102 1.19143 1.18971 1.19152 1.19242 1.1897 1.18948 1.19078 1.18935 1.18795 1.18995 1.19184 1.18859 1.1899 1.18706 1.19035 1.19231 1.18988 1.19092 1.19112 1.19224 1.19128 1.19821 1.19419 1.19819 1.19462 1.19031 1.19529 1.19893 1.19942 1.19182 1.19423 1.19143 1.20004 1.19678 1.19286 1.19218 1.19193 1.20182 1.19651 1.18729 1.19077 1.19019 1.18618 1.19077 1.18996 1.19189 1.19134 1.19064 1.19062 1.1897 1.19178 1.19045 1.19184 1.1919 1.19194 1.1922 1.19094 1.19186 1.19089 1.19224 1.19041 1.18738 1.19016 1.19085 1.19113 1.19178 1.19165 1.19195 1.19097 1.19142 1.18982 1.18844 1.19008 1.19043 1.18996 1.19119 1.19178 1.19156 1.19178 1.19178 1.19172 1.19147 1.19156 1.19178 1.19178 1.19178 1.19127 1.19178 1.19178 1.19178 1.19178 1.19176 1.19057 1.1914 1.19131 1.1916 1.19159 1.19182 1.19189 1.18998 1.19156 1.19089 1.19216 1.19002 1.1898 1.19184 1.1874 1.18993 1.19205 1.18885 1.18512 1.18979 1.18828 1.18865 1.19104 1.19038 1.19068 1.19186 1.1927 1.19996 1.19548 1.18786 1.19446 1.19018 1.19521 1.19951 1.19226 1.19477 1.19418 1.19224 1.19083 1.18784 1.1978 1.19426 1.19451 1.19104 1.1871 1.19838 1.18772 1.19078 1.19126 1.19188 1.19176 1.19137 1.19062 1.19058 1.18991 1.19068 1.19002 1.1909 1.19178 1.19074 1.19213 1.19086 1.19096 1.19103 1.19082 1.19153 1.19253 1.18891 1.18877 1.19049 1.19118 1.19104 1.19039 1.19143 1.19096 1.19158 1.19017 1.19154 1.18813 1.18826 1.18863 1.19023 1.19096 1.18944 1.19123 1.19017 1.19032 1.19124 1.19293 1.19989 1.19439 1.19917 1.19461 1.198 1.19315 1.19629 1.19383 1.19599 1.19391 1.19161 1.19305 1.19191 1.19024 1.19195 1.18837 1.19176 1.19275 1.19001 1.19321 1.19143 1.19354 1.18988 1.19264 1.19972 1.19178 1.19537 1.19455 1.19892 1.20453 1.20461 1.19565 1.19228 1.19077 1.18768 1.18905 1.19326 1.19109 1.19239 1.18848 1.1974 1.19034 1.1918 1.2016 1.19205 1.20286 1.19859 1.18601 1.19805 1.197 1.19323 1.19809 1.19231 1.1908 1.19907 1.18999 1.19001 1.19111 1.19235 1.18832 1.19787 1.19084 1.20499 1.1908 1.19175 1.18692 1.19763 1.19972 1.1976 1.19317 1.19825 1.19514 1.1999 1.1939 1.19444 1.18539 1.18627 1.19255 1.19178 1.19178 1.19004 1.18704 1.19908 1.20771 1.19619 1.1911 1.19888 1.19558 1.19923 1.19974 1.1952 1.19815 1.20497 1.19387 1.18629 1.18032 1.18641 1.19961 1.19178 1.19178 1.19178 1.19622 1.19878 1.18984 1.2075 1.1976 1.20462 1.19577 1.18993 1.19787 1.19824 1.20187 1.20351 1.19473 1.19146 1.1968 1.19589 1.19162 1.18151 1.19878 1.19367 1.19776 1.19178 1.19178 1.19178 1.19178 1.19178 1.19178 1.19178 1.19178 1.19178 1.19178 1.19178 1.19178 1.19178 1.19178 1.19178 1.19178 1.19178 1.19178 1.19178 1.19178 1.19178 1.19178 1.19178 1.19178 1.19178 1.19178 1.19178 1.19178 1.22385 1.19586 1.20674 1.19882 1.20492 1.21009 1.19057 1.1974 1.20805 1.20257 1.20316 1.19549 1.1898 1.19197 1.19572 1.21899 1.20035 1.19129 1.19178 1.19178 1.19178 1.19178 1.19178 1.19178 1.19178 1.19178 1.19178 1.19178 1.19178 1.19178 1.19178 1.19178 1.19178 1.19267 1.19178 1.19178 1.19178 1.19178 1.21306 1.19178 1.19178 1.19178 1.19178 1.19178 1.19178 1.19189 1.19744 1.19423 1.24118 1.21107 1.22091 1.21166 1.2079 1.21742 1.21564 1.21411 1.19625 1.19397 1.19519 1.20034 1.20224 1.20116 1.20369 1.19255 1.18419 1.19268 1.19387 1.22852 1.21 1.20009 1.18813 1.18096 1.19178 1.19178 1.19178 1.19178 1.19178 1.25781 1.19178 1.20483 1.19178 1.19178 1.19178 1.19178 1.19178 1.19178 1.19178 1.19178 1.19178 1.19178 1.19178 1.19178 1.19289 1.19178 1.1892 1.19178 1.19178 1.1995 1.19177 1.19175 1.19301 1.83769 1.19178 1.19178 1.1929 1.19178 1.19178 1.19167 1.19732 1.2213 1.15172 1.27047 1.24523 1.22983 1.20759 1.21565 1.20377 1.19182 1.19624 1.19982 1.20477 1.19669 1.19806 1.18502 1.22161 1.23191 1.19423 1.19178 1.19863 1.20128 1.19656 1.18165 1.19195 1.19174 1.19178 1.19178 1.19178 1.19178 1.60167 1.27916 1.19178 1.19178 1.19178 1.47528 1.24911 1.16855 1.18952 1.19178 1.16797 1.38029 1.19184 1.19153 1.19178 1.18948 0.560909 0.667256 2.67576 1.31217 1.06375 1.23869 1.19178 0.858391 0.530977 0.753884 1.19115 0.396571 0.394104 1.19178 0.671332 0.0816317 0.469953 4.54343 0.442669 0.491439 1.87725 3.40079 0.650746 0.527712 0.391645 0.382472 0.272182 1.18322 1.15361 0.591136 0.558632 0.19108 0.628564 1.41223 1.19061 1.09886 0.699108 0.369254 0.112461 0.258971 0.764425 1.19442 1.4371 2.88614 1.50554 1.44201 0.689057 4.48995 0.039477 0.138252 0.140874 0.375933 0.410817 0.554822 1.19067 0.0871719 0.0964502 0.516591 0.455566 1.17736 0.350073 0.271416 0.212248 0.0729511 1.25011 1.21529 1.2236 1.21029 1.20883 1.21368 1.20624 1.19236 1.19777 1.19646 1.20512 1.2038 1.19693 1.19357 1.23947 1.21016 1.21085 1.21833 1.18377 1.18 0.250075 0.281702 0.199627 1.19178 0.119982 0.270995 0.206673 0.333981 0.460481 0.65499 2.64865 0.968154 1.2203 0.686687 0.954264 0.38986 1.39792 1.93207 0.562236 1.3328 1.92376 4.27541 4.76083 1.83371 0.554329 1.76743 0.318725 2.07732 3.40885 0.555319 0.762911 1.18932 0.209011 0.181405 0.105625 1.19178 0.320649 0.331027 0.417541 0.534419 0.529178 0.550796 0.529425 1.08057 2.05451 0.600004 0.329314 0.52446 0.0968102 1.09175 0.880381 1.59569 0.503883 0.32319 0.362115 0.536379 0.365226 0.380882 1.13941 0.439618 0.458731 0.446081 0.717431 0.587686 0.56955 0.547577 0.462259 0.641525 0.50658 1.2949 0.617065 0.292873 1.07431 0.437617 0.781009 0.810572 1.34253 0.899973 1.24045 2.21208 0.667694 1.25657 0.0336835 0.398818 0.240958 0.108628 0.379208 0.398883 0.308928 0.583708 0.329614 0.393687 0.636691 0.329469 0.0906814 0.329332 0.27124 0.51385 0.592534 0.568301 0.469181 0.45971 1.04759 0.874607 1.04566 1.39208 1.36036 0.802103 0.996511 0.795401 0.274632 0.109491 0.0899043 0.281401 0.232896 0.39601 0.240873 0.34048 0.385995 0.307842 0.302609 0.360531 0.394322 0.346249 0.21384 0.338084 0.0754626 0.104168 0.182885 0.361889 0.458843 0.203226 0.269929 0.39329 0.187677 0.132463 1.20642 1.25802 1.22226 1.1901 1.20624 1.19967 1.20602 1.19326 1.19861 1.19652 1.20044 1.20517 1.22699 1.17784 1.18899 1.2125 1.22454 1.21182 1.20888 1.04613 0.22859 0.259727 0.258612 0.141761 0.160498 0.270154 0.172461 0.225677 0.171794 0.27073 0.328716 0.411793 0.579056 0.319188 1.03151 0.062932 1.40974 1.05844 1.20717 0.817058 0.497405 0.835932 0.90851 0.507769 1.40933 0.670643 1.17558 1.00517 0.966652 1.02875 0.861615 1.26723 0.912239 2.12408 0.947713 1.67077 0.728277 0.276031 0.5853 0.729055 1.53677 1.0039 1.17441 2.53561 0.458742 0.53364 0.346753 0.396152 0.48723 0.0527028 0.485567 0.234995 0.476335 0.227464 0.238587 0.471584 0.270525 0.365321 0.430328 0.229319 0.583255 0.487516 0.585754 0.194914 0.0492267 0.527842 0.902849 1.05788 0.578016 0.336964 0.567917 0.808041 0.302012 0.553201 0.680256 0.0779805 0.930725 0.732024 0.320753 0.358505 0.412033 0.604384 0.430585 0.759822 0.50467 0.451884 0.48557 0.515921 0.354273 0.625779 0.39047 0.452046 0.522592 0.403748 0.262293 0.186408 0.089235 0.348918 0.123556 0.225141 0.238056 0.47803 1.07782 0.80594 0.718911 0.524352 0.639438 0.0639783 0.448736 0.533132 0.405641 0.49232 0.74577 0.315956 0.272786 0.374058 0.482748 0.291396 0.353667 0.38236 0.120279 0.55304 0.46384 0.401264 0.43214 0.404365 0.432658 0.117554 0.481342 0.666345 0.838669 0.834324 0.648953 0.0319841 0.312002 0.140406 0.13345 0.144739 0.319613 0.375993 0.315727 0.322357 0.233948 0.213983 0.223799 0.163263 0.312475 0.270615 0.279607 0.303778 0.345548 0.172974 1.2321 1.26795 1.2201 1.17271 1.19706 1.20622 1.19198 1.18672 1.19964 1.19497 1.21905 1.21295 1.17547 1.17163 1.19103 1.21261 1.22241 1.2312 1.20322 0.234446 1.16183 0.17317 0.185748 0.302915 0.155463 0.314346 0.375463 0.411984 0.385627 0.33087 0.4356 0.635198 0.386172 1.29751 0.922854 0.425 0.606656 0.893305 0.780977 0.133515 0.816462 0.610682 0.614182 0.692601 1.33926 0.912632 0.875872 0.793669 0.877924 1.11354 0.998751 0.887495 0.569677 0.283738 0.445647 0.336228 0.552049 1.08104 0.684883 0.628326 0.350043 0.395403 0.12545 0.102959 0.394072 0.186365 0.42385 0.281523 0.207639 0.497613 0.446404 0.307624 0.321588 0.323368 0.197466 0.301297 0.687687 0.366182 0.286406 0.528756 0.269692 0.633558 0.848318 1.05774 0.494997 0.425628 0.388979 0.19124 0.414043 0.60064 0.652236 0.853625 0.733441 0.939259 0.691191 0.475818 0.389437 0.377208 0.345825 0.336947 0.32365 0.438065 0.502497 0.473168 0.323837 0.380474 0.413925 0.45565 0.354203 0.495684 0.380363 0.307273 0.358014 0.358536 0.209974 0.346587 0.386924 0.763342 0.498936 0.475535 0.487319 0.287685 0.355649 0.58414 0.467086 0.325678 0.523387 0.0782464 0.200949 0.381978 0.498508 0.425777 0.445899 0.313348 0.258769 0.441169 0.446905 0.432773 0.446008 0.520593 0.51751 0.443058 0.537522 0.30139 0.422659 0.484685 0.500002 0.494396 0.233726 0.321459 0.391103 0.422731 0.213094 0.312009 0.264319 0.362308 0.318659 0.0726935 0.288782 0.250654 0.265918 0.222524 0.339734 0.294608 0.334605 0.288322 0.266591 0.288298 0.21178 0.168004 1.18675 1.21115 1.13282 1.19178 1.15428 1.20777 1.21183 1.19406 1.18522 1.17935 1.2003 1.22177 1.1881 1.18215 1.16841 1.18249 1.17837 1.19422 1.21849 1.21929 1.19862 0.317822 1.20174 0.281999 0.310629 0.392312 0.377601 0.299893 0.349954 0.309879 0.383028 0.358028 0.372142 0.246858 0.453224 0.542783 0.469064 0.681143 1.25141 1.0517 0.349328 0.447064 0.844771 0.982695 0.907278 0.701799 0.650108 0.479817 0.516779 0.599112 0.737392 0.58941 0.523793 0.405065 0.413119 0.150665 0.34664 0.230632 0.367271 0.379851 0.279838 0.369082 0.427393 0.316353 0.297224 0.251687 0.21179 0.34373 0.0212782 0.539763 0.333442 0.529228 0.615742 0.505234 0.581267 0.464176 0.637299 0.521467 0.458223 0.332639 0.408094 0.369583 0.463086 0.431068 0.440513 0.44152 0.387038 0.431278 0.474185 0.469362 0.530023 0.459261 0.557984 0.467296 0.485426 0.437901 0.452671 0.409836 0.433519 0.404716 0.318552 0.387968 0.39995 0.488361 0.366667 0.509726 0.762715 0.235868 0.124708 0.6463 0.635015 0.489 0.399707 0.524905 0.447079 0.396876 0.490875 0.477666 0.496395 0.507069 0.471887 0.491518 0.504416 0.345411 0.469586 0.424789 0.43821 0.325753 0.359231 0.282291 0.365851 0.330153 0.339237 0.364968 0.318669 0.411625 0.335427 0.374294 0.392784 0.334285 0.40988 0.329854 0.248553 0.332288 1.10623 1.19443 1.15744 1.12945 1.19423 1.19457 1.20689 1.18693 1.18817 1.19128 1.18956 1.17987 1.19001 1.17476 1.1898 1.19247 1.19465 1.22092 1.20898 1.22414 0.408044 0.441205 0.301438 0.377723 0.388062 0.349308 0.349176 0.354613 0.322842 0.282162 0.383524 0.374102 0.401737 0.472715 0.895272 0.9254 1.09292 0.61997 0.595378 0.623236 0.861261 0.640398 0.767712 0.703684 0.731129 0.66347 0.601784 0.568232 0.528281 0.484999 0.457103 0.382818 0.3231 0.435873 0.286063 0.354287 0.33968 0.405531 0.420883 0.408056 0.344982 0.361603 0.312462 0.227693 0.384776 0.260671 0.39599 0.334468 0.174548 0.410482 0.398738 0.276242 0.419074 0.522099 0.384378 0.442337 0.40728 0.485523 0.50686 0.563976 0.531672 0.475228 0.480883 0.380315 0.390045 0.405372 0.421756 0.420643 0.438289 0.459966 0.498886 0.518206 0.518337 0.547286 0.526086 0.499288 0.528853 0.471773 0.489608 0.471924 0.425788 0.425775 0.439511 0.408175 0.400606 0.417718 0.537264 0.793318 0.474024 0.38134 0.521575 0.581761 0.46656 0.557302 0.512248 0.498932 0.539951 0.527517 0.500894 0.519783 0.514873 0.513174 0.527121 0.499577 0.509833 0.51232 0.487786 0.38968 0.429067 0.403385 0.367063 0.368422 0.382541 0.381292 0.413595 0.398913 0.370698 0.401182 0.388397 0.448628 0.405739 0.459949 0.461144 0.365033 0.431035 0.397408 0.315148 0.338168 0.295315 1.22654 1.18142 1.18469 1.12325 1.15042 1.21618 1.19211 1.1958 1.19234 1.18486 1.17578 1.18821 1.20593 1.17353 1.17344 1.17436 1.18259 0.453952 0.451623 0.436409 0.451774 0.408785 0.361476 0.349938 0.354856 0.271319 0.598301 0.659424 0.465649 0.598838 0.640158 0.669324 0.448363 0.419778 0.498741 0.547634 0.491798 0.576049 0.580892 0.59207 0.574765 0.562048 0.537515 0.53012 0.498736 0.413869 0.428536 0.406496 0.428118 0.421388 0.421151 0.384363 0.392138 0.337901 0.388752 0.390393 0.375042 0.322094 0.385805 0.40041 0.392019 0.316757 0.396651 0.415736 0.542003 0.676755 0.471414 0.378322 0.469204 0.470657 0.489211 0.48381 0.489363 0.524311 0.48794 0.517385 0.420643 0.403759 0.428058 0.428093 0.449969 0.448121 0.448559 0.432427 0.501409 0.511206 0.556411 0.541839 0.554496 0.543808 0.535515 0.543932 0.496372 0.480051 0.483826 0.475385 0.422078 0.425816 0.428151 0.467363 0.438884 0.501545 0.509462 0.600297 0.579833 0.625036 0.527808 0.484627 0.524933 0.517776 0.53172 0.531521 0.535879 0.552258 0.536984 0.552461 0.526822 0.51823 0.496645 0.478384 0.453942 0.442669 0.3218 0.411671 0.462822 0.394128 0.434342 0.480169 0.474343 0.527372 0.50947 0.476207 0.520335 0.486133 0.395326 1.22229 1.25176 1.19176 1.14416 1.16386 1.15494 1.23862 1.19178 1.17201 1.15512 1.16438 1.18444 1.16988 1.19537 1.20013 1.17148 1.17324 1.17204 1.1988 1.19178 1.09244 0.470044 0.460768 0.471206 0.425421 0.459493 0.410707 0.432905 0.444015 0.402745 0.402538 0.38913 0.288783 0.64272 0.479788 0.57938 0.597751 0.638273 0.642319 0.424887 0.596827 0.474441 0.4404 0.517701 0.543373 0.58679 0.554587 0.563511 0.569703 0.604774 0.54991 0.474739 0.553209 0.487984 0.446519 0.436273 0.455799 0.432566 0.430735 0.416074 0.399365 0.423847 0.397845 0.38266 0.386904 0.39591 0.365327 0.40601 0.461609 0.467177 0.565204 0.518861 0.490053 0.490645 0.498185 0.519699 0.515134 0.529376 0.53766 0.561526 0.582295 0.444794 0.436129 0.417481 0.471273 0.519368 0.554805 0.572205 0.569124 0.561447 0.583715 0.463798 0.492435 0.472276 0.403562 0.382248 0.491366 0.511199 0.55462 0.598962 0.584881 0.613002 0.541019 0.511316 0.522736 0.548234 0.552615 0.561691 0.566635 0.569218 0.538761 0.552269 0.521226 0.499826 0.483162 0.46922 0.448923 0.384507 0.413141 0.434303 0.494697 0.348709 0.452678 0.524581 0.533394 0.568014 0.542358 0.546713 0.534966 0.549164 0.551906 0.454347 0.419642 0.421146 1.18586 1.2245 1.17056 1.13293 1.1193 1.15475 1.17022 1.17608 1.15632 1.16375 1.18039 1.16169 1.1936 1.19343 1.17778 1.17659 1.156 1.21712 1.08268 0.992644 1.19191 1.10199 0.477947 0.477389 0.476292 0.474378 0.485254 0.469768 0.485434 0.470889 0.446084 0.487919 0.459133 0.488394 0.610731 0.577291 0.609117 0.636336 0.620643 0.602775 0.571007 0.521888 0.519533 0.478634 0.508872 0.530974 0.529205 0.5095 0.582051 0.528862 0.507943 0.639431 0.597593 0.624601 0.615182 0.595404 0.556382 0.485023 0.44127 0.487276 0.453855 0.418916 0.443343 0.408207 0.382458 0.380458 0.38652 0.39214 0.42391 0.457956 0.554634 0.541452 0.578667 0.519561 0.506602 0.536294 0.532682 0.546624 0.557354 0.57625 0.584886 0.455455 0.435447 0.461536 0.411711 0.577529 0.547519 0.57424 0.578933 0.579725 0.67213 0.572703 0.624024 0.410168 0.573492 0.376573 0.479166 0.540326 0.578604 0.552922 0.555185 0.557486 0.576993 0.573758 0.587871 0.553551 0.546269 0.530789 0.513886 0.556043 0.579275 0.571566 0.580639 0.597378 0.552764 0.519286 0.438147 0.426038 0.385904 0.424901 0.388119 0.413734 0.582567 0.533879 0.567162 0.571874 0.631743 0.586321 0.569924 0.608336 0.586776 0.576689 0.460336 0.448897 0.458544 0.460922 1.18612 1.18623 1.22619 1.15204 1.16218 1.15205 1.16828 1.16954 1.17874 1.1637 1.17801 1.17773 1.16467 1.18595 1.1864 1.18361 1.20543 1.18071 1.00979 1.19683 1.16756 0.49313 0.494111 0.483829 0.4936 0.492388 0.500692 0.515704 0.475827 0.504971 0.546225 0.539669 0.605509 0.577268 0.61774 0.608191 0.629488 0.582331 0.548878 0.586696 0.524537 0.548969 0.511411 0.532289 0.51833 0.52711 0.547688 0.576747 0.591675 0.470745 0.630366 0.535034 0.627568 0.590766 0.627427 0.622299 0.542281 0.547325 0.504206 0.450913 0.48449 0.442684 0.478842 0.424748 0.401226 0.386418 0.396895 0.365389 0.418154 0.422192 0.475386 0.510358 0.526418 0.552833 0.619802 0.558074 0.545258 0.547011 0.56639 0.582956 0.579579 0.577282 0.458553 0.50821 0.576371 0.579614 0.572144 0.590214 0.574742 0.582996 0.734834 0.397485 0.509639 0.605712 0.669659 0.612809 0.560525 0.569437 0.566849 0.562826 0.580218 0.575911 0.577528 0.555845 0.543652 0.57954 0.566828 0.563704 0.616004 0.59934 0.581676 0.488153 0.375404 0.387076 0.365836 0.471372 0.717921 0.630922 0.561329 0.520759 0.511542 0.662583 0.625574 0.582459 0.623604 0.461863 0.466762 1.20032 1.15116 1.20019 1.15819 1.16845 1.17119 1.17108 1.18378 1.15085 1.1617 1.17176 1.18737 1.18263 1.20258 1.19178 1.19877 1.17205 1.17334 1.0443 1.27071 1.19168 1.14281 0.515188 0.5079 0.501697 0.513935 0.517081 0.570648 0.479977 0.559612 0.564072 0.587003 0.611494 0.638608 0.605742 0.592044 0.606082 0.552825 0.548545 0.535023 0.557884 0.600492 0.671408 0.490211 0.532683 0.521142 0.575864 0.582371 0.568339 0.590882 0.618955 0.586825 0.579736 0.584799 0.553084 0.530618 0.537322 0.523251 0.485609 0.438294 0.378783 0.319853 0.473871 0.535795 0.567671 0.580089 0.600462 0.618916 0.547545 0.550541 0.568146 0.559231 0.587635 0.585932 0.571971 0.576898 0.493102 0.524028 0.565798 0.587978 0.587441 0.592548 0.617161 0.602046 0.593256 0.590818 0.630689 0.59176 0.840481 0.509352 0.539699 0.562835 0.574566 0.59252 0.579404 0.570481 0.591747 0.569744 0.587876 0.543024 0.559944 0.620497 0.634957 0.601132 0.613745 0.56892 0.54214 0.529002 0.571298 0.691563 0.490225 0.461545 0.309144 0.388731 0.476796 0.690243 0.652172 0.545913 0.571052 0.73308 0.615134 0.639417 0.655041 0.487932 1.18498 1.21293 1.12475 1.19175 1.2102 1.15781 1.17119 1.16714 1.18481 1.21057 1.19178 1.16785 1.17685 1.18874 1.21656 1.19322 1.21195 1.17329 1.18154 1.15735 1.19189 1.21016 1.14223 0.54311 0.566092 0.516809 0.545925 0.548103 0.457853 0.647622 0.578774 0.550586 0.611083 0.619453 0.62529 0.612064 0.581746 0.551656 0.540984 0.591532 0.590816 0.585123 0.617118 0.586585 0.549652 0.502746 0.586614 0.567345 0.563709 0.591058 0.557605 0.575747 0.558103 0.555183 0.551308 0.598737 0.505662 0.411124 0.316291 0.255749 0.479145 0.600235 0.594897 0.603981 0.603652 0.600123 0.662326 0.510638 0.54624 0.58088 0.578844 0.591917 0.57333 0.532074 0.504359 0.561707 0.555765 0.59622 0.613352 0.600598 0.628162 0.621042 0.622602 0.592744 0.691407 0.727876 0.655164 0.569435 0.533901 0.560668 0.579115 0.582292 0.595533 0.613645 0.591455 0.595625 0.581431 0.687718 0.616382 0.606071 0.595171 0.582692 0.58206 0.694268 0.788389 0.31604 0.557142 0.546652 0.36934 0.50042 0.537901 0.651017 0.616705 0.685389 0.680477 0.653933 0.592732 0.535111 0.523536 0.531069 0.650619 0.671952 0.66681 0.443544 0.730387 0.454765 0.492786 1.20476 1.14203 1.19142 1.18018 1.18686 1.19178 1.17807 1.16625 1.19178 1.19536 1.16977 1.17688 1.19178 1.17671 1.1865 1.17542 1.18403 1.18132 1.07507 1.13268 0.536415 0.5386 0.604906 0.65928 0.679604 0.550541 0.559719 0.611569 0.207203 0.626521 0.369537 0.602326 0.654569 0.656095 0.602822 0.624012 0.620858 0.622626 0.612786 0.586369 0.587509 0.567007 0.522104 0.518463 0.564026 0.585265 0.601554 0.635482 0.556368 0.611749 0.506047 0.539476 0.595026 0.602043 0.560665 0.560432 0.614635 0.500815 0.651432 0.297084 0.423251 0.754731 0.550541 0.611603 0.616823 0.634246 0.632354 0.541617 0.565384 0.562301 0.585752 0.596596 0.584449 0.590266 0.581866 0.568428 0.545201 0.583395 0.56314 0.582486 0.623853 0.624051 0.622987 0.635646 0.625344 0.632064 0.66787 0.73301 0.554576 0.535881 0.548481 0.565197 0.593362 0.597015 0.610296 0.603691 0.60019 0.595692 0.603172 0.598326 0.652385 0.611267 0.582238 0.553985 0.556198 0.604224 0.809486 0.55714 0.714374 0.468217 0.522918 0.654845 0.62162 0.634824 0.648493 0.549535 0.562675 0.648081 0.630295 0.649369 0.685445 0.732564 0.768381 0.501054 1.19178 1.14111 1.19462 1.19161 1.19178 1.17973 1.16939 1.17536 1.19115 1.19328 1.17071 1.19631 1.17703 1.17709 1.18722 1.20108 1.17773 1.26892 1.19563 1.18705 0.496807 0.678175 0.610158 0.410526 0.583529 0.652323 0.642234 0.656641 0.630828 0.618018 0.613102 0.608039 0.597535 0.600969 0.534326 0.673386 0.670645 0.592409 0.539699 0.594302 0.522151 0.569527 0.611835 0.614165 0.546679 0.583885 0.570402 0.792414 0.672123 0.605958 0.648934 0.632939 0.585324 0.563915 0.591833 0.591714 0.586785 0.577182 0.567987 0.568938 0.567662 0.561065 0.549092 0.587789 0.593012 0.590571 0.6803 0.599995 0.602888 0.649594 0.627689 0.646838 0.705927 0.766839 0.524224 0.595066 0.613394 0.602501 0.601429 0.611931 0.594447 0.609897 0.601449 0.628423 0.612881 0.591924 0.565733 0.554688 0.571362 0.586133 0.775141 0.808863 0.674963 0.599851 0.612936 0.417093 0.441612 0.556361 0.628577 0.624431 0.677445 0.584986 0.604252 0.655884 0.652784 0.712305 0.75199 0.724162 0.741353 0.539487 1.19178 1.12626 1.19178 1.19178 1.19214 1.18307 1.18107 1.19178 1.1911 1.19348 1.17332 1.19263 1.18794 1.18585 1.19636 1.20471 1.17171 1.19678 1.16437 1.10664 1.14246 0.457477 0.731011 0.602061 0.573287 0.591113 0.470367 0.687971 0.588444 0.64302 0.65189 0.636768 0.622019 0.615971 0.601081 0.609634 0.616033 0.614362 0.553978 0.610565 0.581829 0.596716 0.603723 0.549783 0.477172 0.585523 0.560159 0.626019 0.705615 0.615618 0.578359 0.575 0.808513 0.69926 0.685413 0.714025 0.669658 0.750502 0.641617 0.605717 0.617595 0.5829 0.577198 0.580832 0.569299 0.593779 0.573191 0.555504 0.568719 0.586896 0.652243 0.588572 0.605531 0.735646 0.629729 0.632963 0.630521 0.719921 0.775019 0.766069 0.525735 0.631957 0.612727 0.600003 0.601371 0.605888 0.615129 0.593698 0.62032 0.632326 0.593948 0.583626 0.586098 0.585678 0.588926 0.839002 0.652075 0.588666 0.639596 0.42301 0.822567 0.575079 0.624763 0.630122 0.615262 0.667285 0.63811 0.680288 0.641023 0.66229 0.572033 1.19178 1.16767 1.19188 1.19178 1.19187 1.18544 1.18506 1.18146 1.1911 1.19178 1.17422 1.19222 1.1923 1.19606 1.17407 1.19137 1.20169 1.1917 1.15598 1.16006 1.06822 1.13987 1.14118 0.60693 0.878863 0.666769 0.563635 0.70728 0.628359 0.60953 0.648802 0.655776 0.634865 0.624875 0.618958 0.605276 0.617631 0.604548 0.571576 0.605428 0.572313 0.522276 0.403448 0.726795 0.552021 0.642244 0.618795 0.726494 0.680906 0.748191 0.579314 0.735044 0.751882 0.707799 0.648747 0.615714 0.59193 0.572016 0.607574 0.572087 0.555748 0.567266 0.675005 0.60799 0.632098 0.588028 0.736733 0.659622 0.673849 0.617244 0.603046 0.724411 0.773737 0.711285 0.614546 0.601092 0.592521 0.599017 0.6015 0.568984 0.621331 0.59274 0.602932 0.611899 0.634229 0.587728 0.597375 0.623827 0.598361 0.715226 0.843523 0.685498 0.634538 0.607027 0.809599 0.743295 0.636715 0.61692 0.579774 0.642406 0.631688 0.634985 0.67031 0.569882 0.767987 0.738985 0.575082 1.17622 1.17524 1.17357 1.17698 1.18963 1.18649 1.13856 0.337196 0.659911 0.54635 0.722469 0.691939 0.670011 0.595895 0.658744 0.644102 0.655814 0.633341 0.633636 0.618906 0.60667 0.617655 0.609655 0.586657 0.55804 0.634916 0.555006 0.485102 0.774608 0.638035 0.577795 0.684001 0.711231 0.8081 0.651507 0.647867 0.720618 0.752282 0.800867 0.750639 0.643939 0.632463 0.585256 0.572217 0.561896 0.586228 0.556146 0.564675 0.588527 0.758923 0.70234 0.625436 0.601982 0.730812 0.778794 0.876927 0.585471 0.67997 0.616688 0.600208 0.623358 0.595514 0.600203 0.611893 0.738258 0.605714 0.746898 0.60243 0.612783 0.65645 0.887374 0.605145 0.536038 0.869876 0.85363 0.661031 0.570755 0.787132 0.588332 0.645676 0.639169 0.638427 0.609351 0.622776 0.611736 0.588092 0.566236 0.607534 0.516488 0.782617 0.483752 0.652781 0.651102 0.771438 0.731573 0.793135 0.841717 0.651917 0.586481 0.623346 0.565854 0.557107 
SCALARS Stress float 1
LOOKUP_TABLE default
-13111200000.0 -12848200000.0 -12775300000.0 -13795100000.0 -12549700000.0 -13588600000.0 -13270800000.0 -13193000000.0 -12635600000.0 -12766900000.0 -12549700000.0 -12789700000.0 -12549700000.0 -12549700000.0 -12745100000.0 -12549700000.0 -12549700000.0 -12629300000.0 -12549700000.0 -12587300000.0 -12670600000.0 -13097100000.0 -13353900000.0 -13024300000.0 -12872000000.0 -12762600000.0 -12664700000.0 -12576300000.0 -12549700000.0 -12549700000.0 -12549700000.0 -12641300000.0 -12700400000.0 -12893800000.0 -13002000000.0 -12820300000.0 -12896900000.0 -12688600000.0 -12549700000.0 -12741300000.0 -12720300000.0 -12569200000.0 -12937600000.0 -12563700000.0 -12580000000.0 -12830200000.0 -13663100000.0 -13567200000.0 -13204900000.0 -12676600000.0 -12925200000.0 -12582300000.0 -13258500000.0 -13171600000.0 -12583800000.0 -12592400000.0 -12695000000.0 -12771600000.0 -13411700000.0 -12640500000.0 -12581000000.0 -12923100000.0 -12626300000.0 -12621900000.0 -12608200000.0 -13152100000.0 -13668300000.0 -13473100000.0 -14280400000.0 -15650500000.0 -14784800000.0 -15460800000.0 -15227900000.0 -15039800000.0 -15076000000.0 -14203600000.0 -12961000000.0 -12737300000.0 -12549700000.0 -13176900000.0 -12618200000.0 -13095300000.0 -12549700000.0 -12864900000.0 -12693200000.0 -13088900000.0 -13355700000.0 -15796900000.0 -15440800000.0 -15467100000.0 -14021500000.0 -14749100000.0 -12587900000.0 -13256500000.0 -12714400000.0 -17176000000.0 -16327900000.0 -17841700000.0 -21320600000.0 -20110500000.0 -20001300000.0 -18290200000.0 -13523500000.0 -13110500000.0 -13271100000.0 -12549700000.0 -13402100000.0 -12595600000.0 -12549700000.0 -13279400000.0 -12549700000.0 -12549800000.0 -12977200000.0 -12549700000.0 -12945600000.0 -12549700000.0 -14572800000.0 -12549700000.0 -12549700000.0 -12549700000.0 -12598700000.0 -12558200000.0 -12549700000.0 -12569000000.0 -12692700000.0 -13062700000.0 -13296800000.0 -14028700000.0 -14473800000.0 -14181000000.0 -14320500000.0 -14237900000.0 -14081400000.0 -13145400000.0 -13431600000.0 -13414800000.0 -13533200000.0 -13320800000.0 -12793500000.0 -13264200000.0 -15097000000.0 -12803500000.0 -13719000000.0 -13873500000.0 -13383600000.0 -13612300000.0 -13316400000.0 -13571300000.0 -12549700000.0 -13827600000.0 -13171000000.0 -14928800000.0 -12579700000.0 -12554400000.0 -12549700000.0 -12887300000.0 -13089700000.0 -14881400000.0 -12786100000.0 -13040700000.0 -12549700000.0 -12549700000.0 -13341900000.0 -12549700000.0 -12549700000.0 -12605900000.0 -12853800000.0 -13377100000.0 -12999200000.0 -12857300000.0 -12590400000.0 -15415100000.0 -15586300000.0 -16143400000.0 -15708600000.0 -18254900000.0 -12795300000.0 -13125300000.0 -12873500000.0 -20084800000.0 -12598800000.0 -14811700000.0 -14580700000.0 -13931900000.0 -15188000000.0 -13175500000.0 -14433600000.0 -12549700000.0 -13776600000.0 -12646900000.0 -14331600000.0 -21625600000.0 -15962700000.0 -15434400000.0 -15332400000.0 -17748100000.0 -18500800000.0 -19075000000.0 -14201100000.0 -12549700000.0 -21541400000.0 -18500500000.0 -20842500000.0 -15981600000.0 -21374200000.0 -12759000000.0 -19585400000.0 -14694000000.0 -15790900000.0 -14750200000.0 -15415400000.0 -13716400000.0 -12728300000.0 -14144900000.0 -12557700000.0 -12606900000.0 -13469800000.0 -12549700000.0 -13745200000.0 -12549700000.0 -15172700000.0 -12653000000.0 -12638700000.0 -12549700000.0 -12893500000.0 -13046800000.0 -12911000000.0 -13071000000.0 -13359600000.0 -13967800000.0 -15614400000.0 -17698700000.0 -15358800000.0 -14265200000.0 -15346200000.0 -14016200000.0 -15354100000.0 -12574700000.0 -12713200000.0 -14984000000.0 -12549700000.0 -13660900000.0 -16199200000.0 -12952700000.0 -13047200000.0 -12660400000.0 -16175800000.0 -14882000000.0 -13919100000.0 -12724400000.0 -14876800000.0 -18421500000.0 -14336000000.0 -14005400000.0 -13734500000.0 -15277600000.0 -15957800000.0 -21793800000.0 -19001100000.0 -19423700000.0 -16217900000.0 -15333600000.0 -16227700000.0 -17016200000.0 -17039400000.0 -15998700000.0 -16849800000.0 -15583400000.0 -15882800000.0 -16011500000.0 -18369200000.0 -26707400000.0 -33743800000.0 -14542500000.0 -13854200000.0 -14438900000.0 -13793400000.0 -30048100000.0 -23833700000.0 -23859500000.0 -18544100000.0 -20285500000.0 -21071100000.0 -18502800000.0 -16536500000.0 -17308200000.0 -15116600000.0 -22079600000.0 -12713400000.0 -14158500000.0 -12785000000.0 -15516200000.0 -13183700000.0 -17783100000.0 -19685200000.0 -17487400000.0 -20200100000.0 -12549700000.0 -23099300000.0 -13260500000.0 -20097400000.0 -22184500000.0 -13523900000.0 -21458400000.0 -22192800000.0 -12765700000.0 -15543900000.0 -12549700000.0 -14874500000.0 -14967800000.0 -14320900000.0 -15337600000.0 -14192100000.0 -13585000000.0 -14604100000.0 -13243200000.0 -15659700000.0 -13797500000.0 -16744700000.0 -12914400000.0 -13114900000.0 -12924700000.0 -12549700000.0 -13134100000.0 -12597000000.0 -12803200000.0 -14003800000.0 -12642700000.0 -13292500000.0 -14524500000.0 -15233900000.0 -15048400000.0 -13956800000.0 -21808900000.0 -21627800000.0 -17292700000.0 -23003500000.0 -20453500000.0 -20719400000.0 -23253300000.0 -23101500000.0 -19373700000.0 -17635500000.0 -16568000000.0 -21854300000.0 -13749400000.0 -13274800000.0 -12779700000.0 -16316200000.0 -12792900000.0 -16882600000.0 -12839000000.0 -18029200000.0 -24674700000.0 -14419400000.0 -14064900000.0 -15012900000.0 -13828400000.0 -22025500000.0 -12549700000.0 -12549700000.0 -12549700000.0 -17498400000.0 -16979800000.0 -19501800000.0 -17704200000.0 -17897900000.0 -16367600000.0 -25660000000.0 -26508700000.0 -20528700000.0 -23042000000.0 -26104200000.0 -14780900000.0 -37241600000.0 -35086100000.0 -32942600000.0 -37142500000.0 -13227100000.0 -12584200000.0 -24849600000.0 -23320100000.0 -25928700000.0 -21972000000.0 -27882300000.0 -16566400000.0 -18055500000.0 -15325000000.0 -23327700000.0 -16793600000.0 -20969400000.0 -22017700000.0 -24098100000.0 -28170800000.0 -17644300000.0 -16887100000.0 -13035800000.0 -12724000000.0 -29938900000.0 -14284000000.0 -23303900000.0 -24419600000.0 -18506000000.0 -13974300000.0 -21520500000.0 -19622200000.0 -18355100000.0 -15129500000.0 -14909400000.0 -14822400000.0 -13555400000.0 -14739800000.0 -14637200000.0 -12907600000.0 -14158900000.0 -12549700000.0 -15648100000.0 -12827600000.0 -17561600000.0 -15724200000.0 -15168100000.0 -14256500000.0 -14776600000.0 -14406000000.0 -13697000000.0 -14309500000.0 -13229200000.0 -17947700000.0 -16483200000.0 -14430400000.0 -13587000000.0 -23015700000.0 -26236700000.0 -14264900000.0 -16785900000.0 -14689700000.0 -14357700000.0 -19909300000.0 -14111200000.0 -16819200000.0 -20738300000.0 -30355500000.0 -14956100000.0 -14515600000.0 -19143500000.0 -13749300000.0 -20989900000.0 -18480400000.0 -13602800000.0 -26877000000.0 -16082200000.0 -15129000000.0 -17757200000.0 -14198500000.0 -12549700000.0 -12708200000.0 -13205400000.0 -19504900000.0 -25687600000.0 -13925500000.0 -13278500000.0 -22057800000.0 -21269300000.0 -13244600000.0 -16966500000.0 -24418100000.0 -23101100000.0 -20721600000.0 -25348600000.0 -27552500000.0 -22918400000.0 -13010500000.0 -20832500000.0 -28260700000.0 -38868900000.0 -36224300000.0 -13039700000.0 -12599100000.0 -21550200000.0 -12858300000.0 -19857600000.0 -36732000000.0 -34600500000.0 -34811300000.0 -23433600000.0 -25892300000.0 -20303900000.0 -13692600000.0 -16041500000.0 -26423500000.0 -13063600000.0 -21972000000.0 -19242000000.0 -19095500000.0 -25644400000.0 -12549700000.0 -26136200000.0 -24840300000.0 -34237200000.0 -20094700000.0 -20111100000.0 -21721200000.0 -22104800000.0 -16887900000.0 -16012200000.0 -17762100000.0 -13338900000.0 -13215800000.0 -15870600000.0 -18532800000.0 -19269600000.0 -20574300000.0 -18730500000.0 -20705600000.0 -17672900000.0 -25231600000.0 -21008000000.0 -21551100000.0 -22779500000.0 -25562700000.0 -18907700000.0 -18361700000.0 -18953100000.0 -19771200000.0 -12565500000.0 -12658800000.0 -15877100000.0 -12704200000.0 -31492400000.0 -16941600000.0 -15863700000.0 -15585100000.0 -12748700000.0 -14540700000.0 -13255700000.0 -12576300000.0 -19708300000.0 -18039600000.0 -28599700000.0 -30805400000.0 -30001300000.0 -31010700000.0 -41065500000.0 -21552200000.0 -19873300000.0 -30065200000.0 -17171600000.0 -17499800000.0 -26750500000.0 -25132600000.0 -26655000000.0 -20911700000.0 -24505600000.0 -27490200000.0 -30581600000.0 -44365600000.0 -30401500000.0 -31824800000.0 -19402400000.0 -18679800000.0 -21657600000.0 -20045300000.0 -25111100000.0 -25531800000.0 -17699700000.0 -27227800000.0 -13653400000.0 -26469800000.0 -25693800000.0 -12586400000.0 -21089300000.0 -34812900000.0 -28340800000.0 -41090700000.0 -23656000000.0 -16258800000.0 -25081200000.0 -33361900000.0 -30349800000.0 -21013600000.0 -21803400000.0 -12549700000.0 -14594700000.0 -17601500000.0 -13100800000.0 -31886500000.0 -24568800000.0 -23087300000.0 -23877400000.0 -36462000000.0 -40105800000.0 -41132300000.0 -39479600000.0 -32259200000.0 -23897900000.0 -26647300000.0 -13613400000.0 -13242700000.0 -16439400000.0 -13011300000.0 -12749700000.0 -24982400000.0 -17103400000.0 -13076400000.0 -14968100000.0 -16106200000.0 -17484200000.0 -20653300000.0 -14584900000.0 -13797500000.0 -17400600000.0 -12611400000.0 -13127100000.0 -23875500000.0 -24322200000.0 -25124100000.0 -26942500000.0 -32559500000.0 -31108400000.0 -22396800000.0 -23779500000.0 -38992300000.0 -14304000000.0 -18456300000.0 -13534200000.0 -16878000000.0 -15133300000.0 -13759900000.0 -13314200000.0 -13063700000.0 -20600100000.0 -21014800000.0 -14482900000.0 -17125100000.0 -20768000000.0 -13545200000.0 -21134200000.0 -13050600000.0 -19749400000.0 -34791500000.0 -26988800000.0 -37814200000.0 -25439600000.0 -19512900000.0 -18947500000.0 -14623700000.0 -20509600000.0 -17693700000.0 -12549700000.0 -12723000000.0 -15389400000.0 -34626100000.0 -19405200000.0 -18738900000.0 -26965600000.0 -38990500000.0 -37088800000.0 -48842600000.0 -43050600000.0 -39425800000.0 -37541800000.0 -48089100000.0 -17281600000.0 -38735100000.0 -39740900000.0 -20321900000.0 -39026900000.0 -45843300000.0 -23925100000.0 -23612200000.0 -28692700000.0 -30848100000.0 -25843200000.0 -40399000000.0 -20880200000.0 -31808700000.0 -26134200000.0 -29444100000.0 -16352100000.0 -19518200000.0 -12875500000.0 -16281000000.0 -28387000000.0 -12934600000.0 -13402300000.0 -12761000000.0 -27450700000.0 -12549700000.0 -60637100000.0 -38478400000.0 -27383400000.0 -42934600000.0 -25727300000.0 -28238100000.0 -31859800000.0 -31599000000.0 -36134300000.0 -40872600000.0 -29213100000.0 -30510100000.0 -29073900000.0 -26488600000.0 -26124800000.0 -25187500000.0 -22032900000.0 -16433000000.0 -22799900000.0 -14550600000.0 -19190500000.0 -21723300000.0 -21129900000.0 -22713900000.0 -12627100000.0 -14776200000.0 -12854500000.0 -16185300000.0 -13291100000.0 -25588700000.0 -21525100000.0 -28772600000.0 -32718100000.0 -15464700000.0 -18020800000.0 -18019300000.0 -18997500000.0 -14182300000.0 -13687700000.0 -14178800000.0 -19254800000.0 -13303700000.0 -16288900000.0 -15493900000.0 -13985200000.0 -19140500000.0 -16106200000.0 -16141800000.0 -14471200000.0 -17231600000.0 -22149800000.0 -29046000000.0 -37612200000.0 -28374000000.0 -37433800000.0 -29120600000.0 -15927200000.0 -16130900000.0 -13616300000.0 -19507700000.0 -13395900000.0 -12549700000.0 -15601400000.0 -14194200000.0 -42852500000.0 -18068600000.0 -20025000000.0 -22564400000.0 -41680200000.0 -12549700000.0 -24804700000.0 -14476200000.0 -12825000000.0 -30274500000.0 -20275100000.0 -22541000000.0 -44352500000.0 -34984000000.0 -42787500000.0 -26714200000.0 -26918500000.0 -48174300000.0 -19890200000.0 -30365400000.0 -26093300000.0 -35638900000.0 -24935100000.0 -20353600000.0 -45103700000.0 -47197600000.0 -20659900000.0 -31554900000.0 -16540900000.0 -23135100000.0 -30892500000.0 -12723400000.0 -14495100000.0 -12625000000.0 -24599500000.0 -27958100000.0 -21282000000.0 -32744600000.0 -46405800000.0 -44356400000.0 -24273000000.0 -15635800000.0 -16007900000.0 -17115700000.0 -33109800000.0 -15278600000.0 -35643500000.0 -12549700000.0 -23309000000.0 -23525000000.0 -13834000000.0 -14640000000.0 -15614800000.0 -14570700000.0 -16500900000.0 -20892300000.0 -22266200000.0 -22991200000.0 -14816700000.0 -22418500000.0 -21361400000.0 -14300000000.0 -16975700000.0 -19200900000.0 -23257300000.0 -23605900000.0 -21924300000.0 -21410400000.0 -26673900000.0 -31703400000.0 -23883800000.0 -25816000000.0 -18824800000.0 -19817000000.0 -19597200000.0 -18356200000.0 -30087800000.0 -30119800000.0 -27468000000.0 -24935200000.0 -28120200000.0 -29912800000.0 -31420800000.0 -23045700000.0 -27257800000.0 -39736500000.0 -12550100000.0 -28586600000.0 -24220300000.0 -34964700000.0 -34174200000.0 -29282600000.0 -28037000000.0 -12954200000.0 -16627200000.0 -32208400000.0 -27312000000.0 -26410300000.0 -27114000000.0 -31547200000.0 -26620000000.0 -13929700000.0 -15747700000.0 -16484100000.0 -12704400000.0 -21861800000.0 -22909400000.0 -23951100000.0 -24094200000.0 -29457400000.0 -23340400000.0 -12549700000.0 -32514300000.0 -20748000000.0 -32060300000.0 -27885600000.0 -22266600000.0 -21239800000.0 -34464700000.0 -26575200000.0 -31504400000.0 -52039400000.0 -12549700000.0 -49426700000.0 -41185300000.0 -24215100000.0 -13177900000.0 -12990300000.0 -30738600000.0 -15402300000.0 -24837100000.0 -14875500000.0 -28658800000.0 -19531700000.0 -17378900000.0 -31741100000.0 -14414900000.0 -22304400000.0 -24676400000.0 -42609800000.0 -13441000000.0 -39649400000.0 -32014400000.0 -12583800000.0 -17119600000.0 -37873600000.0 -21573800000.0 -25059000000.0 -12778200000.0 -12770300000.0 -23805900000.0 -18872400000.0 -14544400000.0 -13029900000.0 -12549700000.0 -20358200000.0 -23726500000.0 -20354200000.0 -19143500000.0 -12953700000.0 -20496900000.0 -16444700000.0 -23843400000.0 -19862700000.0 -12740600000.0 -13642800000.0 -14491700000.0 -12581500000.0 -27020800000.0 -27331000000.0 -32035200000.0 -12598400000.0 -28722300000.0 -13818600000.0 -25118600000.0 -20413000000.0 -12549700000.0 -12594400000.0 -18690700000.0 -12874000000.0 -23496600000.0 -28429000000.0 -12549700000.0 -12549700000.0 -13423900000.0 -23202100000.0 -22501000000.0 -25972800000.0 -39659600000.0 -12552500000.0 -26682100000.0 -13742100000.0 -17319200000.0 -34882900000.0 -23082900000.0 -24401500000.0 -37551300000.0 -14802100000.0 -12762100000.0 -15985500000.0 -13274500000.0 -21142700000.0 -15475600000.0 -29606300000.0 -19625600000.0 -29442800000.0 -24148600000.0 -34758200000.0 -33711200000.0 -43421500000.0 -29885200000.0 -67687100000.0 -63286000000.0 -59419100000.0 -15219900000.0 -58136800000.0 -55955300000.0 -59109300000.0 -59494900000.0 -61312700000.0 -69044600000.0 -68091000000.0 -88023400000.0 -46390800000.0 -38535100000.0 -58004600000.0 -87924800000.0 -46207900000.0 -27953100000.0 -23876700000.0 -30572300000.0 -21561100000.0 -22121500000.0 -19066800000.0 -28234400000.0 -13197600000.0 -21687200000.0 -24256700000.0 -15017700000.0 -19362000000.0 -15454400000.0 -20374500000.0 -16822000000.0 -13986600000.0 -41736200000.0 -35152700000.0 -12822500000.0 -15813800000.0 -18376000000.0 -36002100000.0 -12549700000.0 -20203900000.0 -20921900000.0 -14264700000.0 -16240100000.0 -15617500000.0 -14308200000.0 -13056300000.0 -21480800000.0 -16834000000.0 -16847200000.0 -22126700000.0 -17063500000.0 -29336300000.0 -19701400000.0 -15453400000.0 -22632900000.0 -19610500000.0 -18006700000.0 -19496600000.0 -13073500000.0 -18145000000.0 -16521700000.0 -12832000000.0 -13408200000.0 -12687400000.0 -33475900000.0 -12774300000.0 -20919800000.0 -20165000000.0 -27089500000.0 -24188300000.0 -13315100000.0 -13313700000.0 -20218000000.0 -19858500000.0 -29562300000.0 -13684600000.0 -13733500000.0 -16743200000.0 -20199400000.0 -21316600000.0 -16284300000.0 -16670900000.0 -44084500000.0 -34879100000.0 -26302400000.0 -34720600000.0 -13613000000.0 -51095600000.0 -34849700000.0 -40241100000.0 -35595000000.0 -24012000000.0 -19188300000.0 -22769900000.0 -21215700000.0 -20098400000.0 -22758000000.0 -39607900000.0 -37513800000.0 -18527000000.0 -25870700000.0 -13157100000.0 -21142400000.0 -39719700000.0 -25550000000.0 -20888400000.0 -25662000000.0 -14575000000.0 -32302100000.0 -31143000000.0 -18179700000.0 -41794000000.0 -14079500000.0 -19379400000.0 -45691000000.0 -40156800000.0 -50526400000.0 -31191600000.0 -12549700000.0 -22885100000.0 -40442900000.0 -12569700000.0 -26500800000.0 -16288600000.0 -23648800000.0 -14270400000.0 -13357600000.0 -26875000000.0 -14911400000.0 -19821800000.0 -20307400000.0 -24910700000.0 -13493000000.0 -20498600000.0 -24183700000.0 -21177000000.0 -22787400000.0 -51973100000.0 -27712800000.0 -33126100000.0 -19367500000.0 -44202200000.0 -26085900000.0 -25408300000.0 -32630600000.0 -29942800000.0 -29495900000.0 -23730400000.0 -18921500000.0 -21142400000.0 -28718300000.0 -13324600000.0 -29810600000.0 -23109100000.0 -22113100000.0 -29104800000.0 -25304900000.0 -26682200000.0 -23898600000.0 -18769100000.0 -12549700000.0 -18512000000.0 -17374600000.0 -15644000000.0 -36940000000.0 -13293400000.0 -16259500000.0 -17398900000.0 -29688200000.0 -27500900000.0 -20382200000.0 -24602700000.0 -16768400000.0 -13149000000.0 -28810900000.0 -12549700000.0 -12631600000.0 -16725000000.0 -17787500000.0 -23701100000.0 -19489900000.0 -39638200000.0 -12549700000.0 -36077800000.0 -37402400000.0 -38616100000.0 -43218300000.0 -13814000000.0 -31666800000.0 -27051200000.0 -21949200000.0 -29580600000.0 -20850100000.0 -22464600000.0 -20842900000.0 -19091400000.0 -19009800000.0 -12740000000.0 -40469400000.0 -32827500000.0 -37802200000.0 -41858200000.0 -12637000000.0 -53322400000.0 -21240700000.0 -24188300000.0 -13511600000.0 -48515700000.0 -18451600000.0 -21286400000.0 -38035200000.0 -19133300000.0 -15144000000.0 -42156100000.0 -12833900000.0 -45658500000.0 -23812000000.0 -57394100000.0 -38975900000.0 -32240900000.0 -37804900000.0 -40209000000.0 -46246700000.0 -36412200000.0 -33923600000.0 -44364100000.0 -35282600000.0 -46466600000.0 -33911900000.0 -32484900000.0 -41319100000.0 -65328000000.0 -60810400000.0 -65011100000.0 -88434700000.0 -33388700000.0 -12808500000.0 -44926500000.0 -21764100000.0 -26639300000.0 -18151400000.0 -21926200000.0 -20123700000.0 -19945600000.0 -14948000000.0 -14791600000.0 -15499200000.0 -31250300000.0 -31442200000.0 -26871100000.0 -25244400000.0 -25918600000.0 -36659000000.0 -49625700000.0 -24750200000.0 -30709700000.0 -32306400000.0 -23464800000.0 -27188900000.0 -28184800000.0 -25460600000.0 -32574200000.0 -32854500000.0 -31129600000.0 -36444300000.0 -28929900000.0 -30584200000.0 -28460700000.0 -30299000000.0 -37136600000.0 -21294700000.0 -16308000000.0 -19689100000.0 -19131000000.0 -19875600000.0 -25087500000.0 -30733900000.0 -26878200000.0 -27050100000.0 -41524400000.0 -22973700000.0 -28847400000.0 -40599000000.0 -12549700000.0 -12549700000.0 -70898000000.0 -40978000000.0 -53893800000.0 -28809800000.0 -31215600000.0 -23144900000.0 -17806300000.0 -26492900000.0 -31974000000.0 -23840400000.0 -25695100000.0 -22809000000.0 -41572600000.0 -16380900000.0 -13029000000.0 -18242100000.0 -15365800000.0 -39633000000.0 -27484200000.0 -27506900000.0 -12698700000.0 -13104300000.0 -31710600000.0 -31425300000.0 -37255300000.0 -66397800000.0 -34118100000.0 -20064700000.0 -29103500000.0 -17259500000.0 -21690500000.0 -18206300000.0 -14320400000.0 -53155100000.0 -33166500000.0 -66636000000.0 -29167900000.0 -15959300000.0 -25765700000.0 -13226600000.0 -21469000000.0 -15956900000.0 -13209600000.0 -26138600000.0 -23579200000.0 -34624700000.0 -27619000000.0 -27598500000.0 -18420000000.0 -12942600000.0 -12549700000.0 -12549700000.0 -12549700000.0 -63480700000.0 -49022200000.0 -19609400000.0 -17050300000.0 -19618200000.0 -21069800000.0 -24073200000.0 -14263100000.0 -17762100000.0 -13818500000.0 -13023400000.0 -22354900000.0 -14749600000.0 -16186200000.0 -15435800000.0 -18655300000.0 -21022500000.0 -12549700000.0 -31913000000.0 -32932700000.0 -23479000000.0 -29934600000.0 -26050900000.0 -25057700000.0 -37436800000.0 -22178300000.0 -24511900000.0 -14706600000.0 -18454100000.0 -33928400000.0 -24019500000.0 -16962900000.0 -12727400000.0 -32773000000.0 -16293900000.0 -12981600000.0 -13453000000.0 -16682200000.0 -13672500000.0 -36305600000.0 -12718500000.0 -16515400000.0 -12960900000.0 -33447100000.0 -16795100000.0 -19461900000.0 -13120000000.0 -46316600000.0 -64336800000.0 -20043100000.0 -16897000000.0 -16522300000.0 -62360300000.0 -46611900000.0 -23186600000.0 -26128900000.0 -23224500000.0 -13121200000.0 -13345900000.0 -13942100000.0 -13881500000.0 -28504600000.0 -33321700000.0 -16664800000.0 -21624100000.0 -27938300000.0 -28987400000.0 -39278200000.0 -12668200000.0 -40987400000.0 -36509700000.0 -24587500000.0 -25826200000.0 -39062300000.0 -28935600000.0 -31180200000.0 -39233500000.0 -19937600000.0 -12869900000.0 -20192400000.0 -15126400000.0 -13198400000.0 -41150600000.0 -34825100000.0 -34209000000.0 -78414700000.0 -60097400000.0 -38456600000.0 -36609800000.0 -27377500000.0 -23358000000.0 -12896300000.0 -40757500000.0 -29305100000.0 -37118800000.0 -16662200000.0 -34433700000.0 -18310000000.0 -13735500000.0 -13104700000.0 -13173200000.0 -12851700000.0 -20274600000.0 -73320600000.0 -34933100000.0 -19046800000.0 -18442400000.0 -15638100000.0 -29911400000.0 -23773500000.0 -16551400000.0 -16485000000.0 -23181000000.0 -13167100000.0 -14491800000.0 -12881300000.0 -16869200000.0 -19537500000.0 -17508300000.0 -32488800000.0 -15113600000.0 -13532100000.0 -16918200000.0 -12918800000.0 -15711100000.0 -12653500000.0 -29618400000.0 -21707300000.0 -28141300000.0 -40633600000.0 -53398500000.0 -21762800000.0 -13495500000.0 -12617900000.0 -30064100000.0 -18715300000.0 -22594400000.0 -18757400000.0 -14599700000.0 -15971300000.0 -38384900000.0 -15097400000.0 -17613400000.0 -12690500000.0 -36475100000.0 -46511900000.0 -43787200000.0 -36433500000.0 -50277500000.0 -62158600000.0 -21821500000.0 -19149500000.0 -15395800000.0 -74747000000.0 -26679100000.0 -15864100000.0 -13062500000.0 -20244300000.0 -15196800000.0 -16102700000.0 -19300000000.0 -17384900000.0 -25384400000.0 -20145500000.0 -39591600000.0 -25942900000.0 -36933800000.0 -25049200000.0 -22320900000.0 -22283500000.0 -46134200000.0 -16648300000.0 -18121600000.0 -22480400000.0 -12701600000.0 -36093000000.0 -12926300000.0 -28752600000.0 -44026300000.0 -24350300000.0 -26251500000.0 -30609300000.0 -44145400000.0 -29961800000.0 -54801400000.0 -32991200000.0 -30005600000.0 -37374200000.0 -47657800000.0 -50205800000.0 -55907100000.0 -34002600000.0 -28168600000.0 -35973900000.0 -29144300000.0 -34614000000.0 -17280300000.0 -13576400000.0 -14030100000.0 -14494500000.0 -18819100000.0 -61059000000.0 -31676300000.0 -18668300000.0 -17136100000.0 -28062700000.0 -24247900000.0 -20191100000.0 -23657000000.0 -27206200000.0 -24452000000.0 -25159200000.0 -26455800000.0 -25417100000.0 -20720300000.0 -18071300000.0 -33387900000.0 -13645700000.0 -12641000000.0 -17378900000.0 -12762900000.0 -14958900000.0 -12550100000.0 -23649600000.0 -22142400000.0 -17708900000.0 -30679500000.0 -28977100000.0 -21615200000.0 -27838100000.0 -32260800000.0 -17144200000.0 -19022900000.0 -17954100000.0 -13224800000.0 -13483500000.0 -44562300000.0 -22219600000.0 -25897700000.0 -36196200000.0 -14917900000.0 -28398600000.0 -21648900000.0 -13291300000.0 -71612300000.0 -24648800000.0 -53209400000.0 -15679400000.0 -15605500000.0 -52805000000.0 -55375900000.0 -22160700000.0 -16459900000.0 -30689300000.0 -21629100000.0 -15893200000.0 -15112700000.0 -40666100000.0 -47476100000.0 -12549700000.0 -13331200000.0 -19746400000.0 -12549700000.0 -19630100000.0 -24211200000.0 -42088900000.0 -13579100000.0 -13389200000.0 -23967500000.0 -28300000000.0 -35440300000.0 -20556700000.0 -16866900000.0 -33532600000.0 -22693300000.0 -17604400000.0 -37965400000.0 -23854500000.0 -17997600000.0 -43229800000.0 -25812200000.0 -34499100000.0 -32878900000.0 -13136100000.0 -16696600000.0 -17782400000.0 -27875800000.0 -12549700000.0 -23988600000.0 -12564000000.0 -20894500000.0 -14474500000.0 -36790600000.0 -15910500000.0 -12772200000.0 -14191900000.0 -14321600000.0 -12771400000.0 -13036700000.0 -16398000000.0 -35499800000.0 -30546400000.0 -24787500000.0 -12576500000.0 -12549700000.0 -29596900000.0 -20981000000.0 -17858800000.0 -21001900000.0 -15471700000.0 -18797900000.0 -14675800000.0 -15706100000.0 -16134300000.0 -14356900000.0 -12549700000.0 -25762000000.0 -19443900000.0 -24870600000.0 -24912100000.0 -26355300000.0 -28281700000.0 -31414800000.0 -14515600000.0 -17330600000.0 -15508800000.0 -17319300000.0 -18198800000.0 -26166400000.0 -20396800000.0 -35496400000.0 -26282200000.0 -22482400000.0 -15999300000.0 -23788700000.0 -12549700000.0 -17224400000.0 -27766600000.0 -54673300000.0 -14210200000.0 -29269700000.0 -36619400000.0 -37227700000.0 -23181800000.0 -33142700000.0 -26400400000.0 -97387000000.0 -39109700000.0 -50704100000.0 -54033900000.0 -45625800000.0 -42481800000.0 -47489300000.0 -19703400000.0 -29413000000.0 -39259500000.0 -26715700000.0 -32943500000.0 -60637100000.0 -37621800000.0 -35587700000.0 -33246900000.0 -32139200000.0 -24206500000.0 -27390700000.0 -21594700000.0 -21463000000.0 -36210000000.0 -19867300000.0 -18367500000.0 -37156600000.0 -27864600000.0 -12549700000.0 -29823900000.0 -12771200000.0 -24783100000.0 -21443000000.0 -36018200000.0 -28567700000.0 -22905700000.0 -41217200000.0 -15666200000.0 -12881100000.0 -12569200000.0 -46644400000.0 -21643600000.0 -22567900000.0 -25307600000.0 -37395000000.0 -33244200000.0 -36668300000.0 -12549700000.0 -19519400000.0 -18358100000.0 -24896100000.0 -12885800000.0 -33796900000.0 -15423400000.0 -13697900000.0 -14073300000.0 -13813000000.0 -14532500000.0 -16027200000.0 -33254500000.0 -13045200000.0 -32642300000.0 -29972900000.0 -24380100000.0 -17406900000.0 -13991300000.0 -13583500000.0 -16328700000.0 -13161000000.0 -13745900000.0 -19126500000.0 -21537400000.0 -18797000000.0 -19266200000.0 -20370200000.0 -21109200000.0 -14621400000.0 -13020400000.0 -12664200000.0 -12757500000.0 -13849200000.0 -28482200000.0 -13591700000.0 -27393700000.0 -22895500000.0 -26109800000.0 -36947200000.0 -12549700000.0 -28264800000.0 -31713700000.0 -21678100000.0 -15412400000.0 -15705700000.0 -34107800000.0 -33633200000.0 -12549700000.0 -54931900000.0 -32297500000.0 -12715300000.0 -22436200000.0 -15940800000.0 -32659800000.0 -12553000000.0 -28152700000.0 -37591900000.0 -22021800000.0 -127805000000.0 -57197200000.0 -34945300000.0 -50589300000.0 -86317200000.0 -64951700000.0 -49224100000.0 -40413300000.0 -42076900000.0 -53124400000.0 -12780900000.0 -14377300000.0 -20352400000.0 -12549700000.0 -22068900000.0 -17765400000.0 -25813100000.0 -17336800000.0 -21138600000.0 -28534700000.0 -32365200000.0 -17679100000.0 -13308100000.0 -12549700000.0 -12698300000.0 -12874800000.0 -18885200000.0 -26180300000.0 -24368300000.0 -19577800000.0 -39731300000.0 -25059900000.0 -40414500000.0 -16141100000.0 -16199000000.0 -13092800000.0 -20484300000.0 -20234800000.0 -21351300000.0 -13272900000.0 -32121600000.0 -37155800000.0 -32424300000.0 -36229800000.0 -55365300000.0 -40489900000.0 -14101600000.0 -12549700000.0 -13995600000.0 -12811200000.0 -12821600000.0 -13224700000.0 -15326400000.0 -23273000000.0 -19482200000.0 -26195900000.0 -12953500000.0 -21739400000.0 -16537900000.0 -14017600000.0 -13716600000.0 -15526200000.0 -14964200000.0 -13447900000.0 -21907300000.0 -13844500000.0 -13234800000.0 -13865600000.0 -13634200000.0 -14663600000.0 -16355300000.0 -12809600000.0 -12609600000.0 -12667500000.0 -12549700000.0 -12614600000.0 -20353900000.0 -21146900000.0 -12749300000.0 -13132500000.0 -27409000000.0 -23464700000.0 -38593400000.0 -42239200000.0 -21551800000.0 -15994400000.0 -29155400000.0 -18259400000.0 -40494400000.0 -22750100000.0 -41736000000.0 -30777100000.0 -12748900000.0 -22201200000.0 -17303100000.0 -39283800000.0 -17174300000.0 -56691000000.0 -70792000000.0 -80276400000.0 -13645800000.0 -72420400000.0 -76185700000.0 -26819600000.0 -55694500000.0 -37203900000.0 -39435500000.0 -61507500000.0 -74276100000.0 -37014500000.0 -38767200000.0 -13793700000.0 -28954300000.0 -29390400000.0 -24445900000.0 -15207600000.0 -16160300000.0 -17788400000.0 -13109900000.0 -17534300000.0 -20077300000.0 -20762700000.0 -12549700000.0 -17901200000.0 -14435200000.0 -14714700000.0 -14964400000.0 -23658600000.0 -13738700000.0 -30085700000.0 -15969800000.0 -31253500000.0 -12549700000.0 -34387600000.0 -26726000000.0 -22266000000.0 -26164700000.0 -19377200000.0 -19052100000.0 -24895400000.0 -22518400000.0 -19949500000.0 -41483800000.0 -33098400000.0 -34343800000.0 -29878000000.0 -22537500000.0 -13723900000.0 -12549700000.0 -14131600000.0 -12835900000.0 -12850500000.0 -14389800000.0 -13078200000.0 -16081400000.0 -24893200000.0 -12549700000.0 -15519000000.0 -15325000000.0 -13391500000.0 -12704900000.0 -13754600000.0 -12549700000.0 -15034400000.0 -21722900000.0 -13114100000.0 -12970200000.0 -12624700000.0 -12884400000.0 -13660200000.0 -12551400000.0 -14176000000.0 -12571400000.0 -12590400000.0 -12816400000.0 -12844900000.0 -15877800000.0 -15964500000.0 -25213500000.0 -24333600000.0 -37803000000.0 -19487200000.0 -15517300000.0 -17763200000.0 -57823200000.0 -46592700000.0 -46434900000.0 -41955100000.0 -49285200000.0 -43954500000.0 -18615400000.0 -42596300000.0 -38279300000.0 -43132900000.0 -28385000000.0 -22781200000.0 -76040300000.0 -13293800000.0 -51248000000.0 -69020500000.0 -53168700000.0 -76721000000.0 -71894600000.0 -15179900000.0 -44944700000.0 -47573400000.0 -63060700000.0 -37091300000.0 -41259500000.0 -13145500000.0 -63210700000.0 -21131400000.0 -14477400000.0 -18279700000.0 -26473600000.0 -15694000000.0 -16997400000.0 -13527500000.0 -16443400000.0 -14537800000.0 -17611400000.0 -19639000000.0 -18793700000.0 -12580600000.0 -16797000000.0 -12817800000.0 -14068200000.0 -14024400000.0 -18755900000.0 -18625100000.0 -18722700000.0 -15798800000.0 -22032700000.0 -18771400000.0 -31419200000.0 -18793700000.0 -15099600000.0 -17164500000.0 -18445700000.0 -18648000000.0 -19585700000.0 -18807400000.0 -31631800000.0 -18462800000.0 -13288600000.0 -12570700000.0 -42218000000.0 -19054700000.0 -14624200000.0 -17813600000.0 -18098800000.0 -17677400000.0 -17766300000.0 -16581200000.0 -16565400000.0 -16328000000.0 -13293200000.0 -22139900000.0 -22145700000.0 -20567200000.0 -18493700000.0 -18503700000.0 -18787300000.0 -17779600000.0 -16760100000.0 -17896000000.0 -12605500000.0 -12549700000.0 -12590500000.0 -12882100000.0 -13573800000.0 -12994200000.0 -12828400000.0 -12550000000.0 -12555400000.0 -12602700000.0 -14146600000.0 -13201500000.0 -22691800000.0 -12593400000.0 -12713300000.0 -21072400000.0 -36036600000.0 -30330900000.0 -36455700000.0 -50948200000.0 -18231300000.0 -15505600000.0 -19753200000.0 -17148000000.0 -83144200000.0 -33203500000.0 -45186000000.0 -42795900000.0 -68370800000.0 -42339200000.0 -71868900000.0 -13062600000.0 -27032900000.0 -28171700000.0 -107977000000.0 -149945000000.0 -23560700000.0 -23473000000.0 -84662200000.0 -27968000000.0 -51743700000.0 -23291800000.0 -26303600000.0 -12549700000.0 -47288400000.0 -30615800000.0 -21920800000.0 -23184000000.0 -25744200000.0 -14573300000.0 -13307700000.0 -16237700000.0 -16213700000.0 -12760900000.0 -20069600000.0 -15219400000.0 -16982800000.0 -12549700000.0 -14091900000.0 -15169200000.0 -13221200000.0 -13299200000.0 -20106100000.0 -15119000000.0 -15776900000.0 -12549700000.0 -20255700000.0 -28691300000.0 -12549700000.0 -17242100000.0 -12724700000.0 -12617600000.0 -12567700000.0 -15222400000.0 -13718500000.0 -18664800000.0 -27066500000.0 -18872200000.0 -20087300000.0 -34454800000.0 -19667300000.0 -15993000000.0 -14592800000.0 -12619200000.0 -12606500000.0 -13929200000.0 -13585200000.0 -13265500000.0 -13765200000.0 -13783900000.0 -13505300000.0 -14124700000.0 -15857900000.0 -14775000000.0 -14131200000.0 -14430000000.0 -14755600000.0 -15168900000.0 -16551000000.0 -17849400000.0 -14693800000.0 -14380000000.0 -14750100000.0 -14964700000.0 -15899000000.0 -14826200000.0 -15402500000.0 -15161700000.0 -14100900000.0 -14659100000.0 -16178500000.0 -17892800000.0 -31223800000.0 -25151000000.0 -25830500000.0 -30812900000.0 -15172400000.0 -21797500000.0 -13177700000.0 -48132400000.0 -41387600000.0 -23914000000.0 -17693700000.0 -20242300000.0 -70552000000.0 -28413500000.0 -26284100000.0 -27750600000.0 -74042200000.0 -12549700000.0 -45298400000.0 -46073600000.0 -14270400000.0 -106422000000.0 -13670900000.0 -101333000000.0 -16701000000.0 -15162700000.0 -80708500000.0 -12549700000.0 -46317100000.0 -30256400000.0 -33231000000.0 -44685600000.0 -24079100000.0 -23257900000.0 -25953700000.0 -21709400000.0 -13331000000.0 -13037500000.0 -15062700000.0 -13369500000.0 -16307100000.0 -20643200000.0 -15369300000.0 -14452900000.0 -15716900000.0 -15859800000.0 -15452000000.0 -14619700000.0 -15022400000.0 -19578400000.0 -15474400000.0 -15384700000.0 -18177900000.0 -19882200000.0 -35387100000.0 -15449000000.0 -14757300000.0 -22681500000.0 -19305000000.0 -18048000000.0 -17190900000.0 -16572600000.0 -13663600000.0 -18162800000.0 -12656600000.0 -17070700000.0 -29453200000.0 -15386800000.0 -15766800000.0 -13811100000.0 -12865100000.0 -13509100000.0 -12550300000.0 -12551700000.0 -12634900000.0 -13116300000.0 -12837400000.0 -12613900000.0 -12549700000.0 -13178500000.0 -13157700000.0 -12626700000.0 -12554000000.0 -12549700000.0 -12592200000.0 -12549700000.0 -14090400000.0 -16544100000.0 -16178400000.0 -15756300000.0 -15591200000.0 -14836900000.0 -14656900000.0 -14405500000.0 -14953100000.0 -16330700000.0 -18451000000.0 -20485300000.0 -29188300000.0 -13420000000.0 -16328100000.0 -14756000000.0 -26367900000.0 -21209100000.0 -22373600000.0 -24137100000.0 -36610400000.0 -12825800000.0 -45908000000.0 -34201900000.0 -36966300000.0 -48363400000.0 -43945600000.0 -13070100000.0 -26461400000.0 -76729100000.0 -52661600000.0 -24599100000.0 -54648700000.0 -115995000000.0 -15333400000.0 -14511500000.0 -13007600000.0 -21578400000.0 -100518000000.0 -32527500000.0 -46876800000.0 -25659400000.0 -63300800000.0 -18640800000.0 -12765400000.0 -22215600000.0 -12724400000.0 -12549700000.0 -19852500000.0 -19430700000.0 -21019800000.0 -20099600000.0 -22349600000.0 -18209500000.0 -22894000000.0 -20594800000.0 -13457100000.0 -14510500000.0 -13401100000.0 -12999300000.0 -12555700000.0 -12662100000.0 -12549700000.0 -15887000000.0 -13432500000.0 -13987600000.0 -13772800000.0 -14644200000.0 -26858800000.0 -14258400000.0 -14131900000.0 -16337300000.0 -14007500000.0 -14797500000.0 -16098300000.0 -13143000000.0 -13312500000.0 -17225000000.0 -12865300000.0 -21782300000.0 -20858300000.0 -18382200000.0 -15964600000.0 -12911600000.0 -12745100000.0 -13086500000.0 -12549800000.0 -12557100000.0 -12625100000.0 -12935000000.0 -12722200000.0 -12549700000.0 -12549700000.0 -12549700000.0 -12855000000.0 -12575600000.0 -12549700000.0 -12549700000.0 -12605500000.0 -12742900000.0 -13975100000.0 -13003900000.0 -12963000000.0 -12582900000.0 -13009700000.0 -13665200000.0 -13495800000.0 -14829500000.0 -15357800000.0 -15200700000.0 -14875800000.0 -18372700000.0 -19989500000.0 -15297800000.0 -20530000000.0 -22538300000.0 -25847100000.0 -20975400000.0 -25531600000.0 -25188800000.0 -29133100000.0 -37746200000.0 -49048300000.0 -13448600000.0 -36681100000.0 -55713400000.0 -63448000000.0 -65244200000.0 -74719800000.0 -109270000000.0 -54003700000.0 -56963500000.0 -97533600000.0 -127717000000.0 -25209700000.0 -66564900000.0 -43572400000.0 -105396000000.0 -28550600000.0 -55973700000.0 -48409500000.0 -63268600000.0 -28872300000.0 -54944400000.0 -70818500000.0 -20501900000.0 -15790500000.0 -16749500000.0 -15854000000.0 -16159300000.0 -15105500000.0 -13556200000.0 -13241100000.0 -13272300000.0 -13542500000.0 -16185800000.0 -18236700000.0 -14308700000.0 -16158700000.0 -14162900000.0 -14810700000.0 -13649200000.0 -13383700000.0 -14956600000.0 -12567700000.0 -12878200000.0 -12673200000.0 -12924700000.0 -21835900000.0 -12922700000.0 -12665900000.0 -15915400000.0 -12549700000.0 -13386100000.0 -13636900000.0 -18117500000.0 -17250000000.0 -21714700000.0 -22269100000.0 -13890100000.0 -15139500000.0 -12715200000.0 -12642000000.0 -12549700000.0 -12710000000.0 -12550500000.0 -12552700000.0 -12569900000.0 -12685200000.0 -12606500000.0 -12549700000.0 -12549700000.0 -12549700000.0 -12661900000.0 -12549700000.0 -12549700000.0 -12549700000.0 -12560400000.0 -12638500000.0 -13447800000.0 -13110500000.0 -13099100000.0 -13006100000.0 -12658700000.0 -12707700000.0 -12770600000.0 -13341900000.0 -12819800000.0 -13067200000.0 -13099300000.0 -14166300000.0 -13599400000.0 -13127000000.0 -14750900000.0 -14181500000.0 -13485100000.0 -15916900000.0 -16449700000.0 -17281100000.0 -14029900000.0 -15483200000.0 -55997900000.0 -41044900000.0 -55720800000.0 -45550700000.0 -18499800000.0 -39748400000.0 -63443600000.0 -47624700000.0 -125485000000.0 -75220000000.0 -77104700000.0 -64802200000.0 -31652200000.0 -82570800000.0 -56430100000.0 -20215700000.0 -29829800000.0 -46393100000.0 -82398500000.0 -25424800000.0 -16763100000.0 -17930900000.0 -15547200000.0 -14056900000.0 -14391000000.0 -14029900000.0 -12827600000.0 -12630700000.0 -12601300000.0 -12684800000.0 -12862500000.0 -12943200000.0 -13011000000.0 -12682400000.0 -14556800000.0 -14048100000.0 -12549700000.0 -13156100000.0 -13160100000.0 -13165000000.0 -13241500000.0 -13728100000.0 -14282000000.0 -14199700000.0 -14650500000.0 -15438100000.0 -16045400000.0 -15310900000.0 -12851900000.0 -13620900000.0 -12820700000.0 -13361200000.0 -12873300000.0 -12838900000.0 -14010300000.0 -12753000000.0 -17809700000.0 -12752300000.0 -16503800000.0 -16302000000.0 -14712100000.0 -13062000000.0 -21820700000.0 -20880400000.0 -40393900000.0 -79509200000.0 -55748100000.0 -60017500000.0 -69652200000.0 -44600300000.0 -56335800000.0 -46277100000.0 -62948000000.0 -71735800000.0 -12847300000.0 -111887000000.0 -46373100000.0 -40005800000.0 -61908300000.0 -67934500000.0 -52719700000.0 -87306200000.0 -18659600000.0 -12560500000.0 -21151900000.0 -21258600000.0 -32676700000.0 -51821500000.0 -32644000000.0 -14457000000.0 -91324600000.0 -49476700000.0 -12549700000.0 -51435000000.0 -93875200000.0 -111566000000.0 -52656800000.0 -125627000000.0 -111478000000.0 -72941200000.0 -59936400000.0 -19149800000.0 -61276100000.0 -101245000000.0 -18352100000.0 -25380100000.0 -37231000000.0 -51654900000.0 -32684400000.0 -39661100000.0 -115538000000.0 -129794000000.0 -93742800000.0 -31831900000.0 -119257000000.0 -60470700000.0 -255728000000.0 -57470000000.0 -156330000000.0 -81579100000.0 -87791100000.0 -13450300000.0 -142949000000.0 -16084300000.0 -15063500000.0 -25889200000.0 -30300200000.0 -58967900000.0 -21996700000.0 -100494000000.0 -13068900000.0 -45428800000.0 -13359500000.0 -135528000000.0 -270685000000.0 -13995400000.0 -34169500000.0 -96030200000.0 -13079600000.0 -48433000000.0 -81914700000.0 -83330000000.0 -145399000000.0 -14224100000.0 -14943100000.0 -12549700000.0 -12549700000.0 -37412800000.0 -40747500000.0 -121674000000.0 -132947000000.0 -32334900000.0 -46794700000.0 -37376000000.0 -32243300000.0 -204036000000.0 -110220000000.0 -80991800000.0 -121946000000.0 -41399600000.0 -93426500000.0 -90357600000.0 -41747800000.0 -15970300000.0 -18369900000.0 -12549700000.0 -12549700000.0 -12549700000.0 -19296400000.0 -22923600000.0 -29955300000.0 -64401800000.0 -37711000000.0 -123136000000.0 -13102700000.0 -41060800000.0 -44081100000.0 -37497500000.0 -214481000000.0 -69682200000.0 -81583400000.0 -57649400000.0 -126800000000.0 -21581000000.0 -222839000000.0 -96375800000.0 -49491900000.0 -45361700000.0 -22122600000.0 -12549700000.0 -12549700000.0 -12549700000.0 -12549700000.0 -12549700000.0 -12549700000.0 -12549700000.0 -12549700000.0 -12549700000.0 -12549700000.0 -12549700000.0 -12549700000.0 -12549700000.0 -12549700000.0 -12549700000.0 -12549700000.0 -12549700000.0 -12549700000.0 -12549700000.0 -12549700000.0 -12549700000.0 -12549700000.0 -12549700000.0 -12549700000.0 -12549700000.0 -12549700000.0 -12549700000.0 -12549700000.0 -20726400000.0 -39768400000.0 -78266800000.0 -47709500000.0 -101087000000.0 -99574300000.0 -56799700000.0 -49618900000.0 -109875000000.0 -301046000000.0 -136021000000.0 -22567000000.0 -52200800000.0 -195636000000.0 -182038000000.0 -112644000000.0 -60571000000.0 -49907600000.0 -12549700000.0 -12549700000.0 -12549700000.0 -12549700000.0 -12549700000.0 -12549700000.0 -12549700000.0 -12549700000.0 -12549700000.0 -12549700000.0 -12549700000.0 -12549700000.0 -12549700000.0 -12549700000.0 -12549700000.0 -12676600000.0 -12549700000.0 -12549700000.0 -12549700000.0 -12549700000.0 -29339700000.0 -12549700000.0 -12549700000.0 -12549700000.0 -12549700000.0 -12549700000.0 -12549700000.0 -12552000000.0 -13139600000.0 -13953100000.0 -55993500000.0 -95943200000.0 -41196900000.0 -212398000000.0 -48164600000.0 -142186000000.0 -118666000000.0 -217440000000.0 -195852000000.0 -123061000000.0 -74961600000.0 -104418000000.0 -164070000000.0 -94253100000.0 -179490000000.0 -27056400000.0 -184463000000.0 -79552700000.0 -15127900000.0 -40925900000.0 -15524100000.0 -110399000000.0 -38901500000.0 -23539300000.0 -12549700000.0 -12549700000.0 -12549700000.0 -12549700000.0 -12549700000.0 -77024200000.0 -12549700000.0 -26517200000.0 -12549700000.0 -12549800000.0 -12549700000.0 -12549700000.0 -12549700000.0 -12549700000.0 -12549700000.0 -12549700000.0 -12549700000.0 -12549700000.0 -12549700000.0 -12549700000.0 -13699900000.0 -12549700000.0 -12603600000.0 -12549700000.0 -12549700000.0 -22704900000.0 -12549600000.0 -12549200000.0 -24354700000.0 -152356000000.0 -12549700000.0 -12549700000.0 -21064700000.0 -12549700000.0 -12549700000.0 -12547500000.0 -22080600000.0 -75614300000.0 -97145400000.0 -112411000000.0 -245380000000.0 -207649000000.0 -93328000000.0 -97399600000.0 -23025900000.0 -92626900000.0 -81312900000.0 -233610000000.0 -316460000000.0 -220604000000.0 -187714000000.0 -200098000000.0 -89219200000.0 -157448000000.0 -112007000000.0 -12549700000.0 -34700600000.0 -27545100000.0 -18063400000.0 -13409000000.0 -12553400000.0 -12548900000.0 -12549700000.0 -12549700000.0 -12549700000.0 -12549700000.0 -569236000000.0 -268468000000.0 -12549700000.0 -12549700000.0 -12549700000.0 -282340000000.0 -51990800000.0 -40652200000.0 -14361500000.0 -12549700000.0 -35474300000.0 -120011000000.0 -12593400000.0 -12586800000.0 -12549700000.0 -13628100000.0 -1.36061e+12 -4.05963e+12 -619276000000.0 -2.82768e+12 -4.61096e+12 -3.59589e+12 -12549700000.0 -4.50757e+12 -3.32929e+12 -4.70145e+12 -12536400000.0 -2.87517e+12 -4.60195e+12 -12549700000.0 -5.4866e+12 -4.19568e+12 -3.2779e+12 -4.11199e+12 -3.41196e+12 -2.88537e+12 -595736000000.0 -2.52052e+12 -5.04095e+12 -4.85803e+12 -4.77306e+12 -5.34515e+12 -6.93523e+12 -16441900000.0 -11758700000.0 -4.83574e+12 -3.83178e+12 -6.73916e+12 -2.11629e+12 -292768000000.0 -12525200000.0 -3.7724e+12 -2.81964e+12 -3.81256e+12 -5.73537e+12 -5.87638e+12 -3.88579e+12 -3.10307e+12 -2.72501e+12 -918778000000.0 -338140000000.0 -86216000000.0 -4.9188e+12 -5.23798e+12 -5.39172e+12 -5.11681e+12 -3.77525e+12 -3.65473e+12 -4.06842e+12 -2.61237e+12 -12526300000.0 -4.11512e+12 -4.13488e+12 -2.8512e+12 -3.84388e+12 -46838100000.0 -4.83439e+12 -7.33584e+12 -4.91096e+12 -3.38992e+12 -189582000000.0 -44721900000.0 -103896000000.0 -229303000000.0 -181408000000.0 -184447000000.0 -219290000000.0 -240315000000.0 -302860000000.0 -228229000000.0 -232698000000.0 -300767000000.0 -314069000000.0 -203245000000.0 -122118000000.0 -132448000000.0 -126066000000.0 -167287000000.0 -98626100000.0 -23434600000.0 -3.5285e+12 -3.89664e+12 -3.37266e+12 -12549600000.0 -3.02085e+12 -5.0515e+12 -5.58264e+12 -5.40189e+12 -5.0564e+12 -6.70947e+12 -1.14332e+12 -3.84735e+12 -2.57246e+12 -4.85673e+12 -3.95677e+12 -4.10039e+12 -385293000000.0 -288824000000.0 -3.51849e+12 -433967000000.0 -1.54442e+12 -4.09327e+12 -3.1812e+12 -424199000000.0 -3.07356e+12 -247308000000.0 -3.41771e+12 -628429000000.0 -2.29703e+12 -4.4181e+12 -3.94167e+12 -15042600000.0 -5.9491e+12 -4.39291e+12 -4.58615e+12 -12549700000.0 -5.67787e+12 -4.30996e+12 -4.54709e+12 -4.03163e+12 -3.82763e+12 -3.90045e+12 -4.26198e+12 -3.01092e+12 -371454000000.0 -4.54702e+12 -2.36269e+12 -3.06257e+12 -5.7401e+12 -145509000000.0 -4.33997e+12 -138230000000.0 -3.33952e+12 -4.8469e+12 -1.89532e+12 -4.2004e+12 -4.72455e+12 -7.12121e+12 -9.3213e+12 -8.37759e+12 -7.76731e+12 -4.27707e+12 -4.63712e+12 -5.01403e+12 -8.29423e+12 -5.0604e+12 -7.46311e+12 -5.08428e+12 -4.64805e+12 -4.86152e+12 -5.47441e+12 -5.07298e+12 -6.10853e+12 -5.16998e+12 -3.28042e+12 -6.12272e+12 -4.00165e+12 -2.86861e+12 -4.68449e+12 -4.83909e+12 -6.28383e+12 -4.63921e+12 -5.16825e+12 -7.34794e+12 -5.30953e+12 -8.91923e+12 -1.15251e+13 -4.97883e+12 -4.90536e+12 -1.17586e+13 -8.41906e+12 -1.04906e+13 -8.51491e+12 -4.3736e+12 -5.70159e+12 -5.88175e+12 -6.42384e+12 -5.85803e+12 -4.14516e+12 -1.62936e+12 -4.83451e+12 -7.90205e+12 -4.15166e+12 -3.39614e+12 -5.31786e+12 -5.83825e+12 -820266000000.0 -4.71139e+12 -5.81354e+12 -9.76374e+12 -3.03795e+12 -8.56905e+12 -8.2469e+12 -3.49192e+12 -6.16224e+12 -6.45194e+12 -4.55921e+12 -4.76269e+12 -6.91942e+12 -4.5851e+12 -5.79071e+12 -5.23353e+12 -5.10547e+12 -1.06717e+13 -6.13814e+12 -6.03714e+12 -4.91123e+12 -3.68659e+12 -5.82922e+12 -5.63268e+12 -3.98992e+12 -4.89828e+12 -1.1421e+13 -6.70371e+12 -4.34186e+12 -3.6555e+12 -17645600000.0 -241623000000.0 -100788000000.0 -13865500000.0 -271758000000.0 -19438800000.0 -138757000000.0 -202257000000.0 -262537000000.0 -103895000000.0 -58192600000.0 -174108000000.0 -28262500000.0 -264018000000.0 -15087100000.0 -326349000000.0 -540373000000.0 -187234000000.0 -124916000000.0 -122282000000.0 -4.20038e+12 -4.55128e+12 -5.86243e+12 -3.89095e+12 -9.9942e+12 -6.63351e+12 -7.42287e+12 -4.81682e+12 -4.26009e+12 -5.73671e+12 -5.90529e+12 -2.5737e+12 -5.33745e+12 -4.28722e+12 -4.67897e+12 -3.32974e+12 -7.88894e+12 -3.99367e+12 -5.19584e+12 -4.27822e+12 -5.33712e+12 -7.31144e+12 -5.46784e+12 -1.24705e+13 -5.00515e+12 -5.32622e+12 -5.902e+12 -5.47014e+12 -6.97068e+12 -5.49191e+12 -6.59218e+12 -2.90592e+12 -6.98123e+12 -4.17205e+12 -1.01352e+13 -5.85992e+12 -5.02143e+12 -4.5635e+12 -4.91582e+12 -7.45984e+12 -5.03804e+12 -9.03911e+12 -4.89774e+12 -3.79703e+12 -6.90761e+12 -5.59734e+12 -4.98711e+12 -5.26931e+12 -6.84522e+12 -4.67308e+12 -5.05309e+12 -5.30251e+12 -6.47442e+12 -4.95078e+12 -4.78564e+12 -5.27286e+12 -8.7096e+12 -5.93555e+12 -6.74362e+12 -7.44455e+12 -7.10008e+12 -5.4713e+12 -5.84987e+12 -7.68038e+12 -6.74936e+12 -6.02408e+12 -7.481e+12 -4.95522e+12 -3.80469e+12 -7.19067e+12 -5.19188e+12 -5.0228e+12 -5.69627e+12 -6.80026e+12 -5.15225e+12 -4.6257e+12 -2.91719e+12 -4.99572e+12 -4.42323e+12 -4.80459e+12 -4.87869e+12 -3.89873e+12 -5.75702e+12 -7.71529e+12 -5.1571e+12 -7.21774e+12 -4.62001e+12 -4.56702e+12 -9.42868e+12 -4.17771e+12 -7.29839e+12 -5.29011e+12 -4.33947e+12 -6.28912e+12 -5.81528e+12 -2.96738e+12 -5.28488e+12 -8.06266e+12 -4.16202e+12 -5.82268e+12 -8.11415e+12 -6.64315e+12 -6.77963e+12 -5.3465e+12 -4.13746e+12 -5.0366e+12 -6.05152e+12 -3.31261e+12 -8.28943e+12 -6.45559e+12 -6.66969e+12 -3.58379e+12 -3.80413e+12 -5.02223e+12 -2.4018e+12 -6.29174e+12 -5.06677e+12 -8.59117e+12 -6.34866e+12 -8.42428e+12 -5.68596e+12 -6.9443e+12 -7.02255e+12 -3.14352e+12 -8.9027e+12 -5.48192e+12 -5.94882e+12 -6.59867e+12 -5.76842e+12 -3.93337e+12 -5.4718e+12 -5.21817e+12 -7.25358e+12 -7.73038e+12 -4.81062e+12 -5.90782e+12 -7.74059e+12 -5.86911e+12 -1.01342e+13 -8.41151e+12 -6.325e+12 -3.81688e+12 -2.12761e+12 -6.03265e+12 -6.82268e+12 -6.26388e+12 -7.26387e+12 -4.15456e+12 -5.61288e+12 -6.9827e+12 -7.10622e+12 -6.33892e+12 -64666000000.0 -713932000000.0 -132375000000.0 -426712000000.0 -503315000000.0 -404603000000.0 -324974000000.0 -321385000000.0 -377071000000.0 -86299100000.0 -146610000000.0 -261225000000.0 -281651000000.0 -266199000000.0 -311132000000.0 -553191000000.0 -365775000000.0 -367411000000.0 -319023000000.0 -6.09484e+12 -376000000000.0 -6.79567e+12 -8.41347e+12 -7.23093e+12 -7.71602e+12 -6.228e+12 -5.66404e+12 -6.50245e+12 -2.64433e+12 -3.96695e+12 -7.73254e+12 -6.06156e+12 -7.5403e+12 -8.05286e+12 -3.20298e+12 -1.10099e+13 -4.41417e+12 -3.83887e+12 -6.43427e+12 -8.32583e+12 -3.83897e+12 -8.2602e+12 -5.98101e+12 -8.33602e+12 -4.3812e+12 -5.73513e+12 -4.2059e+12 -9.5267e+12 -7.45132e+12 -2.78646e+12 -5.52102e+12 -4.82472e+12 -6.39442e+12 -4.7247e+12 -4.91103e+12 -9.37456e+12 -6.42268e+12 -5.32166e+12 -7.2554e+12 -7.86706e+12 -8.01124e+12 -5.13353e+12 -5.98032e+12 -6.81039e+12 -4.2736e+12 -6.45925e+12 -7.88721e+12 -4.91421e+12 -5.75476e+12 -7.6753e+12 -7.45016e+12 -844542000000.0 -6.55266e+12 -9.94455e+12 -5.83567e+12 -8.43493e+12 -3.38179e+12 -3.73563e+12 -3.34433e+12 -4.71032e+12 -5.57152e+12 -8.32234e+12 -5.11098e+12 -7.66431e+12 -6.84817e+12 -5.6961e+12 -7.14031e+12 -4.46153e+12 -8.88993e+12 -6.42358e+12 -3.93651e+12 -4.92155e+12 -5.47416e+12 -8.30137e+12 -7.95168e+12 -7.42927e+12 -6.76561e+12 -3.91776e+12 -6.81151e+12 -2.96694e+12 -3.15697e+12 -5.65059e+12 -5.07727e+12 -7.09375e+12 -5.2262e+12 -5.68629e+12 -5.11846e+12 -4.78898e+12 -6.2154e+12 -3.7385e+12 -5.22036e+12 -5.75668e+12 -3.48462e+12 -5.19098e+12 -2.24963e+12 -4.06355e+12 -4.37571e+12 -4.50437e+12 -5.24876e+12 -6.55795e+12 -7.8846e+12 -4.85042e+12 -6.78795e+12 -9.70501e+12 -3.77555e+12 -2.9559e+12 -3.95681e+12 -6.01262e+12 -6.89653e+12 -6.878e+12 -7.02384e+12 -7.1491e+12 -5.23155e+12 -5.14966e+12 -7.84925e+12 -6.07285e+12 -5.63818e+12 -2.81512e+12 -3.18007e+12 -4.92143e+12 -5.62653e+12 -8.3652e+12 -5.51162e+12 -6.27147e+12 -7.42789e+12 -5.01829e+12 -7.0281e+12 -6.30731e+12 -6.03795e+12 -5.54901e+12 -6.21917e+12 -4.2057e+12 -9.07617e+12 -4.79711e+12 -5.38251e+12 -5.19821e+12 -4.22349e+12 -2.25391e+12 -4.60468e+12 -4.62006e+12 -5.97768e+12 -4.91986e+12 -6.04279e+12 -3.74609e+12 -7.28969e+12 -6.5801e+12 -5.60136e+12 -2.93382e+12 -2.48286e+12 -2.7269e+12 -12444100000.0 -704201000000.0 -634149000000.0 -12549700000.0 -64200800000.0 -116969000000.0 -96324900000.0 -173407000000.0 -132902000000.0 -126776000000.0 -334911000000.0 -191536000000.0 -69205100000.0 -185634000000.0 -188519000000.0 -65172900000.0 -83466200000.0 -267615000000.0 -28497800000.0 -488277000000.0 -314048000000.0 -3.41727e+12 -426030000000.0 -5.61129e+12 -3.59851e+12 -5.38664e+12 -4.31735e+12 -5.59486e+12 -7.47891e+12 -5.76723e+12 -4.732e+12 -7.23149e+12 -4.20488e+12 -6.50818e+12 -9.81551e+12 -7.22515e+12 -3.40893e+12 -6.21137e+12 -5.92627e+12 -4.52387e+12 -7.56702e+12 -6.17995e+12 -9.12603e+12 -4.4849e+12 -5.2215e+12 -3.0026e+12 -3.54587e+12 -9.68313e+12 -6.08055e+12 -6.2797e+12 -7.50854e+12 -5.4648e+12 -8.5228e+12 -3.00692e+12 -6.4291e+12 -5.28852e+12 -6.58023e+12 -5.77478e+12 -8.2064e+12 -5.32917e+12 -7.24756e+12 -6.13521e+12 -5.40517e+12 -7.89783e+12 -7.14757e+12 -7.87991e+12 -6.78623e+12 -5.38529e+12 -8.44076e+12 -7.61706e+12 -7.41292e+12 -6.37774e+12 -4.26815e+12 -8.98562e+12 -5.36616e+12 -6.30321e+12 -6.30548e+12 -8.95702e+12 -5.44845e+12 -3.34277e+12 -2.93121e+12 -4.37023e+12 -5.13528e+12 -4.79215e+12 -5.1589e+12 -6.48643e+12 -9.38142e+12 -4.407e+12 -4.59477e+12 -3.60996e+12 -4.20441e+12 -4.71908e+12 -6.1507e+12 -7.90866e+12 -2.36974e+12 -5.72822e+12 -3.53307e+12 -5.08691e+12 -6.33566e+12 -2.20843e+12 -1.02303e+13 -6.29608e+12 -5.18056e+12 -5.79114e+12 -5.41907e+12 -5.62805e+12 -4.768e+12 -5.97453e+12 -4.49623e+12 -4.70607e+12 -7.45139e+12 -7.29665e+12 -7.06031e+12 -4.51589e+12 -5.86093e+12 -4.97513e+12 -5.25201e+12 -4.37525e+12 -7.67625e+12 -9.40074e+12 -4.42172e+12 -2.65548e+12 -2.64904e+12 -2.77052e+12 -3.7803e+12 -5.02692e+12 -7.65288e+12 -5.20779e+12 -5.19744e+12 -5.84268e+12 -2.58015e+12 -4.43325e+12 -5.09044e+12 -7.82696e+12 -3.83014e+12 -7.97428e+12 -4.89574e+12 -6.01405e+12 -3.42611e+12 -5.60499e+12 -5.94585e+12 -3.35934e+12 -3.4886e+12 -4.02204e+12 -104718000000.0 -223851000000.0 -20483600000.0 -437650000000.0 -162040000000.0 -163255000000.0 -177120000000.0 -57262700000.0 -68721400000.0 -201498000000.0 -31537000000.0 -126899000000.0 -146588000000.0 -72611800000.0 -52513000000.0 -230650000000.0 -76484600000.0 -123685000000.0 -451589000000.0 -451495000000.0 -4.84236e+12 -5.40128e+12 -3.23498e+12 -8.65637e+12 -6.62161e+12 -4.62853e+12 -3.70723e+12 -6.33169e+12 -2.46398e+12 -5.97268e+12 -6.11783e+12 -4.24942e+12 -4.263e+12 -7.46594e+12 -9.89762e+12 -5.78324e+12 -5.32386e+12 -5.04119e+12 -6.78956e+12 -5.68072e+12 -6.28606e+12 -8.54539e+12 -4.5037e+12 -5.3187e+12 -5.19149e+12 -7.11681e+12 -5.42957e+12 -7.73869e+12 -7.91e+12 -4.21665e+12 -6.20296e+12 -7.5309e+12 -4.46815e+12 -4.0254e+12 -3.48646e+12 -4.57194e+12 -5.66592e+12 -4.89195e+12 -5.31029e+12 -5.77932e+12 -4.70561e+12 -4.75702e+12 -4.06655e+12 -5.64799e+12 -3.403e+12 -4.90874e+12 -5.44644e+12 -4.6839e+12 -5.89837e+12 -4.48141e+12 -3.67246e+12 -2.81509e+12 -5.40039e+12 -5.10164e+12 -5.484e+12 -4.51715e+12 -4.86377e+12 -8.0154e+12 -4.79447e+12 -5.65659e+12 -6.75132e+12 -6.26352e+12 -3.32805e+12 -2.39498e+12 -4.33229e+12 -6.86908e+12 -5.01031e+12 -5.51363e+12 -6.94994e+12 -5.37565e+12 -3.28286e+12 -5.86466e+12 -4.5271e+12 -7.98861e+12 -1.95902e+12 -3.27873e+12 -3.85036e+12 -4.8514e+12 -2.72431e+12 -4.89271e+12 -4.88454e+12 -4.83585e+12 -4.12629e+12 -4.28945e+12 -5.03735e+12 -4.78774e+12 -7.48178e+12 -7.69761e+12 -5.17375e+12 -4.64155e+12 -5.59212e+12 -4.21206e+12 -6.73728e+12 -4.44805e+12 -4.33379e+12 -5.13878e+12 -6.20141e+12 -5.06766e+12 -5.69396e+12 -3.42508e+12 -6.01847e+12 -5.09558e+12 -2.46305e+12 -3.31877e+12 -3.97137e+12 -2.70526e+12 -5.70615e+12 -4.38225e+12 -6.71449e+12 -5.63574e+12 -4.22476e+12 -3.29621e+12 -7.62549e+12 -3.44128e+12 -4.14855e+12 -4.3377e+12 -5.93604e+12 -6.10425e+12 -5.38144e+12 -2.93636e+12 -4.07075e+12 -6.73026e+12 -5.48153e+12 -2.33084e+12 -3.17347e+12 -5.16702e+12 -3.79762e+12 -4.45479e+12 -2.12771e+12 -210461000000.0 -244866000000.0 -186820000000.0 -392463000000.0 -310305000000.0 -167853000000.0 -88865700000.0 -157502000000.0 -246207000000.0 -122056000000.0 -52258300000.0 -56982600000.0 -146674000000.0 -159039000000.0 -260401000000.0 -432956000000.0 -275386000000.0 -4.63855e+12 -3.82798e+12 -6.94383e+12 -7.31494e+12 -7.66766e+12 -2.1448e+12 -3.67321e+12 -4.29241e+12 -7.71229e+12 -5.87872e+12 -5.33187e+12 -7.90325e+12 -8.26701e+12 -4.75139e+12 -7.93527e+12 -4.07618e+12 -7.18487e+12 -5.34139e+12 -3.9898e+12 -4.82915e+12 -5.46816e+12 -5.86176e+12 -3.35722e+12 -4.77269e+12 -5.5841e+12 -6.55079e+12 -4.06738e+12 -3.03128e+12 -6.18372e+12 -4.47339e+12 -6.09076e+12 -5.04504e+12 -4.58565e+12 -4.92213e+12 -5.24725e+12 -1.42856e+12 -2.45758e+12 -4.30308e+12 -4.38421e+12 -3.43044e+12 -5.20852e+12 -5.54184e+12 -8.10907e+12 -4.2535e+12 -5.43745e+12 -4.37549e+12 -3.06228e+12 -3.95727e+12 -3.15349e+12 -5.3194e+12 -3.25581e+12 -4.59362e+12 -6.00375e+12 -3.70587e+12 -3.33813e+12 -4.28667e+12 -5.80927e+12 -6.96845e+12 -4.26326e+12 -3.57789e+12 -5.68857e+12 -1.40655e+12 -5.35955e+12 -4.56257e+12 -3.24766e+12 -5.33092e+12 -6.26038e+12 -4.21169e+12 -4.2922e+12 -4.91861e+12 -5.22169e+12 -3.58813e+12 -5.69526e+12 -1.39665e+12 -2.8845e+12 -5.39538e+12 -5.32528e+12 -4.30152e+12 -4.18789e+12 -4.16899e+12 -4.76599e+12 -4.40185e+12 -3.72393e+12 -5.33033e+12 -4.20055e+12 -3.48437e+12 -4.05841e+12 -2.85082e+12 -4.05354e+12 -6.72733e+12 -5.60425e+12 -4.95534e+12 -6.78329e+12 -5.44321e+12 -4.87434e+12 -4.30677e+12 -7.50267e+12 -4.47626e+12 -3.73619e+12 -4.01681e+12 -4.23628e+12 -6.60956e+12 -3.98814e+12 -7.15203e+12 -4.14526e+12 -3.4971e+12 -4.90846e+12 -2.86944e+12 -5.31438e+12 -5.00932e+12 -6.10694e+12 -4.08189e+12 -3.74065e+12 -5.32101e+12 -3.53349e+12 -6.2109e+12 -5.60311e+12 -4.68027e+12 -19282500000.0 -155834000000.0 -12549400000.0 -171806000000.0 -70020500000.0 -273390000000.0 -273510000000.0 -12549700000.0 -304472000000.0 -197457000000.0 -221752000000.0 -256039000000.0 -281009000000.0 -361967000000.0 -322968000000.0 -276829000000.0 -197154000000.0 -106306000000.0 -271899000000.0 -12549700000.0 -466714000000.0 -3.46963e+12 -3.40114e+12 -2.5767e+12 -2.24757e+12 -4.17529e+12 -4.34132e+12 -3.20222e+12 -5.51048e+12 -7.97552e+12 -6.92544e+12 -5.08575e+12 -2.65441e+12 -5.38986e+12 -4.15514e+12 -3.52963e+12 -2.38783e+12 -3.28982e+12 -3.05383e+12 -3.61935e+12 -6.38774e+12 -3.58447e+12 -2.96537e+12 -7.91563e+12 -4.73865e+12 -2.93539e+12 -6.97611e+12 -7.30549e+12 -2.29216e+12 -3.9789e+12 -5.2001e+12 -3.48835e+12 -4.35017e+12 -6.38979e+12 -3.44987e+12 -5.56231e+12 -4.97212e+12 -4.74203e+12 -2.60351e+12 -4.9334e+12 -4.55972e+12 -3.39646e+12 -5.17833e+12 -6.56898e+12 -4.76366e+12 -4.82781e+12 -6.18124e+12 -3.37325e+12 -3.39646e+12 -3.31441e+12 -3.79031e+12 -2.97429e+12 -3.58528e+12 -3.89652e+12 -5.21736e+12 -2.48298e+12 -3.32423e+12 -2.23755e+12 -5.87841e+12 -3.9634e+12 -3.3109e+12 -2.69091e+12 -4.99678e+12 -2.76443e+12 -3.46643e+12 -3.59735e+12 -6.43898e+12 -5.6569e+12 -7.96236e+12 -3.98281e+12 -3.318e+12 -3.80125e+12 -7.75035e+12 -4.33691e+12 -3.62403e+12 -3.29928e+12 -2.38318e+12 -2.18765e+12 -3.56088e+12 -5.55784e+12 -5.3979e+12 -2.82318e+12 -5.03026e+12 -4.77332e+12 -6.18208e+12 -3.29362e+12 -3.30299e+12 -2.54125e+12 -3.76283e+12 -1.75209e+12 -5.4022e+12 -3.49562e+12 -4.12971e+12 -2.72392e+12 -5.94755e+12 -5.58797e+12 -6.83141e+12 -3.71769e+12 -4.5446e+12 -4.01151e+12 -3.39141e+12 -5.25056e+12 -2.57486e+12 -5.19225e+12 -3.43121e+12 -5.21843e+12 -2.26222e+12 -4.79172e+12 -4.77813e+12 -3.6976e+12 -4.49602e+12 -3.16131e+12 -1.84337e+12 -1.76392e+12 -171703000000.0 -139500000000.0 -119828000000.0 -152254000000.0 -77336200000.0 -53377700000.0 -107046000000.0 -140906000000.0 -81071900000.0 -149093000000.0 -165201000000.0 -128643000000.0 -173752000000.0 -123038000000.0 -283384000000.0 -195048000000.0 -214767000000.0 -323237000000.0 -380575000000.0 -296072000000.0 -12552500000.0 -169731000000.0 -3.12576e+12 -3.93511e+12 -4.53087e+12 -3.80681e+12 -2.76173e+12 -4.65175e+12 -3.55693e+12 -4.37536e+12 -6.18298e+12 -2.90991e+12 -3.2437e+12 -3.82634e+12 -5.57132e+12 -3.0133e+12 -4.51523e+12 -3.27592e+12 -5.35678e+12 -4.18746e+12 -2.54181e+12 -5.83744e+12 -2.38988e+12 -7.12214e+12 -2.96381e+12 -2.34902e+12 -5.01255e+12 -1.66896e+12 -2.63813e+12 -2.74282e+12 -6.69491e+12 -2.92657e+12 -2.28718e+12 -3.59082e+12 -3.597e+12 -2.58962e+12 -5.72334e+12 -6.33009e+12 -5.85975e+12 -5.06486e+12 -2.40105e+12 -5.42954e+12 -2.65384e+12 -4.81903e+12 -3.87571e+12 -4.90464e+12 -4.12729e+12 -3.8912e+12 -4.38756e+12 -3.41e+12 -4.84718e+12 -3.07296e+12 -3.2659e+12 -4.89821e+12 -5.83177e+12 -4.34252e+12 -4.6516e+12 -2.67805e+12 -6.60596e+12 -5.12144e+12 -1.6954e+12 -4.52817e+12 -3.45269e+12 -4.27936e+12 -2.01138e+12 -7.65158e+12 -3.1489e+12 -5.28926e+12 -6.43089e+12 -2.77947e+12 -387684000000.0 -3.853e+12 -4.23333e+12 -3.32021e+12 -3.40822e+12 -4.73352e+12 -4.26741e+12 -3.99951e+12 -4.02332e+12 -2.98218e+12 -2.10205e+12 -4.36339e+12 -4.20124e+12 -4.36174e+12 -2.73187e+12 -4.9428e+12 -2.28095e+12 -3.45756e+12 -3.66553e+12 -4.56002e+12 -4.15705e+12 -5.73459e+12 -5.78399e+12 -2.82529e+12 -3.38418e+12 -1.7943e+12 -4.25622e+12 -4.174e+12 -5.10444e+12 -2.56936e+12 -2.3942e+12 -4.20168e+12 -3.33102e+12 -5.62315e+12 -4.56096e+12 -1.96399e+12 -3.43488e+12 -3.75726e+12 -2.93474e+12 -3.38088e+12 -2.05537e+12 -4.5058e+12 -1.44594e+12 -2.29559e+12 -5.13748e+12 -1.61629e+12 -158483000000.0 -189467000000.0 -105378000000.0 -82292100000.0 -20063100000.0 -93374000000.0 -137606000000.0 -101697000000.0 -66005800000.0 -66756500000.0 -66091700000.0 -103417000000.0 -32528000000.0 -33964600000.0 -171683000000.0 -83683600000.0 -44055800000.0 -15553700000.0 -81764700000.0 -274162000000.0 -186136000000.0 -4.00447e+12 -4.73902e+12 -3.44937e+12 -3.56281e+12 -2.8256e+12 -2.38805e+12 -2.71916e+12 -5.67399e+12 -2.90554e+12 -2.89059e+12 -3.67443e+12 -4.56575e+12 -2.62635e+12 -4.75679e+12 -3.65578e+12 -3.85736e+12 -3.88286e+12 -2.29156e+12 -1.96077e+12 -4.07195e+12 -2.59955e+12 -2.62577e+12 -4.07806e+12 -2.45332e+12 -4.33939e+12 -2.32351e+12 -2.56823e+12 -4.56819e+12 -2.85462e+12 -4.07494e+12 -2.41125e+12 -1.31027e+12 -2.93553e+12 -4.14644e+12 -4.7336e+12 -4.8637e+12 -3.56227e+12 -3.11443e+12 -1.79963e+12 -3.15948e+12 -3.41904e+12 -2.05933e+12 -5.71559e+12 -1.97179e+12 -2.20455e+12 -3.13552e+12 -3.01749e+12 -4.84477e+12 -5.43751e+12 -3.27731e+12 -2.4863e+12 -4.36157e+12 -2.04652e+12 -3.79181e+12 -4.22241e+12 -4.80801e+12 -3.73949e+12 -2.99154e+12 -3.98337e+12 -1.96012e+12 -2.39058e+12 -5.1662e+12 -2.82136e+12 -3.48462e+12 -4.6587e+12 -2.51686e+12 -3.74557e+12 -4.45641e+12 -4.2636e+12 -3.96916e+12 -3.78642e+12 -4.16158e+12 -1.97547e+12 -3.93098e+12 -2.20932e+12 -4.44016e+12 -2.96339e+12 -3.00621e+12 -1.38539e+12 -3.268e+12 -2.82928e+12 -2.17822e+12 -2.982e+12 -2.37026e+12 -3.94751e+12 -7.19967e+12 -2.6348e+12 -3.99986e+12 -2.31829e+12 -4.96675e+12 -1.85725e+12 -3.46081e+12 -3.20902e+12 -4.04137e+12 -2.0897e+12 -5.50598e+12 -2.83717e+12 -2.79263e+12 -1.27831e+12 -3.25703e+12 -3.90385e+12 -2.9223e+12 -3.0275e+12 -2.94525e+12 -4.60508e+12 -1.88695e+12 -94505600000.0 -93121600000.0 -56599900000.0 -48757200000.0 -67083900000.0 -50009500000.0 -40683600000.0 -81493100000.0 -63993200000.0 -120038000000.0 -129302000000.0 -121883000000.0 -189136000000.0 -49817300000.0 -12549700000.0 -67433000000.0 -45159000000.0 -51914800000.0 -52542000000.0 -60659100000.0 -135771000000.0 -79412100000.0 -3.57258e+12 -3.93905e+12 -4.30518e+12 -2.20244e+12 -4.68302e+12 -3.22838e+12 -3.41349e+12 -3.62067e+12 -3.37158e+12 -3.04263e+12 -4.89904e+12 -2.61535e+12 -5.2772e+12 -2.74084e+12 -2.16402e+12 -2.66594e+12 -2.03286e+12 -3.78679e+12 -2.7323e+12 -2.86819e+12 -2.12954e+12 -4.27526e+12 -2.59907e+12 -4.5684e+12 -2.66828e+12 -3.86667e+12 -4.42769e+12 -4.91509e+12 -2.97368e+12 -5.12948e+12 -3.04942e+12 -2.95875e+12 -3.47746e+12 -3.42778e+12 -3.67312e+12 -1.88054e+12 -2.78011e+12 -2.94367e+12 -2.67211e+12 -4.04961e+12 -2.3595e+12 -1.74947e+12 -920142000000.0 -2.4902e+12 -4.48291e+12 -5.39926e+12 -2.04134e+12 -4.48497e+12 -3.31034e+12 -3.24294e+12 -2.32584e+12 -2.82398e+12 -1.768e+12 -2.1205e+12 -3.37802e+12 -1.38392e+12 -3.43001e+12 -1.84324e+12 -2.60291e+12 -1.50853e+12 -2.28876e+12 -3.61552e+12 -1.80519e+12 -3.90134e+12 -2.71862e+12 -4.17354e+12 -2.35936e+12 -1.98681e+12 -2.17329e+12 -2.72329e+12 -2.9559e+12 -4.25484e+12 -657030000000.0 -2.5887e+12 -2.64985e+12 -2.85188e+12 -2.04285e+12 -2.70222e+12 -3.92345e+12 -1.50741e+12 -1.15813e+12 -2.8186e+12 -1.59099e+12 -3.31521e+12 -3.30741e+12 -3.22932e+12 -2.00484e+12 -4.14646e+12 -2.70403e+12 -1.9284e+12 -2.77051e+12 -2.34128e+12 -2.18584e+12 -2.86282e+12 -3.195e+12 -2.24372e+12 -3.06589e+12 -1.35088e+12 -2.39751e+12 -3.29075e+12 -2.54121e+12 -2.85978e+12 -58170800000.0 -190886000000.0 -118102000000.0 -37317200000.0 -50937900000.0 -68064000000.0 -60223300000.0 -73638700000.0 -101144000000.0 -64988400000.0 -12549700000.0 -123987000000.0 -64527600000.0 -21335900000.0 -16327600000.0 -184196000000.0 -81204700000.0 -79107300000.0 -61798600000.0 -91850400000.0 -130063000000.0 -247410000000.0 -450835000000.0 -3.84701e+12 -2.26282e+12 -3.23815e+12 -2.7537e+12 -3.02265e+12 -942000000000.0 -1.81211e+12 -1.85414e+12 -2.73407e+12 -4.89641e+12 -2.95677e+12 -4.23853e+12 -4.4929e+12 -4.00752e+12 -3.14457e+12 -3.14774e+12 -2.04758e+12 -1.93584e+12 -3.36728e+12 -1.32617e+12 -2.23099e+12 -2.26655e+12 -748343000000.0 -2.71927e+12 -2.60039e+12 -636849000000.0 -3.34236e+12 -1.33295e+12 -2.90646e+12 -2.32416e+12 -4.91338e+12 -2.44554e+12 -2.03825e+12 -2.46242e+12 -2.20856e+12 -1.18884e+12 -2.10864e+12 -3.95634e+12 -2.48216e+12 -2.49727e+12 -2.84552e+12 -1.85882e+12 -2.16713e+12 -2.65793e+12 -1.71519e+12 -2.93589e+12 -3.32851e+12 -2.97759e+12 -4.7884e+12 -2.68569e+12 -1.73813e+12 -2.00527e+12 -1.70856e+12 -2.45748e+12 -3.64735e+12 -2.29415e+12 -2.18492e+12 -1.18384e+12 -2.29243e+12 -3.1205e+12 -1.31013e+12 -2.06026e+12 -2.98878e+12 -789769000000.0 -2.57747e+12 -2.19552e+12 -2.13672e+12 -2.51354e+12 -3.64946e+12 -2.49387e+12 -2.27091e+12 -2.7965e+12 -2.06316e+12 -2.66005e+12 -2.20141e+12 -2.0872e+12 -1.43353e+12 -1.6694e+12 -2.31982e+12 -2.19571e+12 -1.42915e+12 -1.45811e+12 -2.72924e+12 -2.86242e+12 -1.90195e+12 -1.20008e+12 -1.15641e+12 -2.05101e+12 -3.45589e+12 -2.22076e+12 -1.53429e+12 -2.98391e+12 -2.33641e+12 -1.10717e+12 -3.04931e+12 -1.65062e+12 -2.9364e+12 -1.94548e+12 -2.05538e+12 -2.47587e+12 -3.19411e+12 -2.75872e+12 -931108000000.0 -2.16716e+12 -107312000000.0 -172207000000.0 -67554200000.0 -46475700000.0 -18453000000.0 -12549700000.0 -85171000000.0 -83248600000.0 -12549700000.0 -17078400000.0 -71913100000.0 -40414400000.0 -12549700000.0 -56936300000.0 -65568200000.0 -268651000000.0 -166570000000.0 -25894200000.0 -79075500000.0 -147062000000.0 -2.22769e+12 -1.23812e+12 -2.00218e+12 -1.16637e+12 -1.70407e+12 -2.15877e+12 -4.78341e+12 -2.82225e+12 -1.30171e+12 -3.28342e+12 -2.24658e+12 -2.76202e+12 -2.28299e+12 -4.0415e+12 -1.08202e+12 -2.67051e+12 -1.77866e+12 -4.11845e+12 -2.17104e+12 -2.81973e+12 -919887000000.0 -1.23315e+12 -1.80923e+12 -1.87409e+12 -2.40326e+12 -1.88776e+12 -1.70801e+12 -2.13838e+12 -1.89762e+12 -3.35197e+12 -1.36963e+12 -4.05043e+12 -1.91595e+12 -2.51679e+12 -2.33359e+12 -2.73216e+12 -2.36946e+12 -3.02296e+12 -1.86943e+12 -3.72539e+12 -1.40649e+12 -2.09675e+12 -2.93536e+12 -3.00366e+12 -1.27595e+12 -2.35594e+12 -2.91635e+12 -1.97178e+12 -2.113e+12 -847030000000.0 -2.74443e+12 -2.54021e+12 -3.50902e+12 -2.41692e+12 -904314000000.0 -2.12592e+12 -2.13106e+12 -1.77626e+12 -1.50479e+12 -290642000000.0 -1.75186e+12 -1.45772e+12 -1.35753e+12 -2.38088e+12 -1.81222e+12 -1.71681e+12 -1.331e+12 -1.09162e+12 -680616000000.0 -760199000000.0 -2.82997e+12 -2.20448e+12 -1.39973e+12 -2.4531e+12 -2.39207e+12 -3.18766e+12 -197869000000.0 -1.994e+12 -2.00747e+12 -3.55981e+12 -2.32314e+12 -3.00212e+12 -2.1416e+12 -3.51273e+12 -780853000000.0 -3.3355e+12 -2.9057e+12 -3.60407e+12 -2.32204e+12 -2.35584e+12 -1.82673e+12 -1.83413e+12 -1.67382e+12 -1.58831e+12 -1.32096e+12 -1.34463e+12 -1.10013e+12 -3.13124e+12 -315170000000.0 -805171000000.0 -2.90903e+12 -1.8924e+12 -422644000000.0 -2.49174e+12 -12549700000.0 -87343900000.0 -25266400000.0 -13737900000.0 -12549700000.0 -34912500000.0 -36390700000.0 -26671000000.0 -14006100000.0 -12838100000.0 -46679600000.0 -17197300000.0 -22926700000.0 -20673900000.0 -27761000000.0 -37595100000.0 -115995000000.0 -182606000000.0 -268580000000.0 -16111100000.0 -1.38892e+12 -2.4031e+12 -2.20088e+12 -2.33895e+12 -1.5484e+12 -1.09595e+12 -1.67177e+12 -2.01379e+12 -990354000000.0 -2.69691e+12 -2.35262e+12 -1.47931e+12 -1.49671e+12 -1.82215e+12 -2.40303e+12 -1.33462e+12 -2.43747e+12 -3.09726e+12 -1.61568e+12 -2.19581e+12 -3.3735e+12 -2.11464e+12 -2.9892e+12 -666930000000.0 -2.48968e+12 -2.60623e+12 -1.93053e+12 -1.12787e+12 -2.61709e+12 -1.12542e+12 -2.9022e+12 -2.4521e+12 -1.45338e+12 -1.36127e+12 -1.2762e+12 -1.6514e+12 -1.74392e+12 -1.81215e+12 -914325000000.0 -1.4941e+12 -1.54801e+12 -1.80795e+12 -532372000000.0 -1.01725e+12 -1.69332e+12 -747146000000.0 -1.56468e+12 -1.13165e+12 -1.02854e+12 -1.25811e+12 -1.05394e+12 -1.66854e+12 -901557000000.0 -839113000000.0 -2.66657e+12 -1.68699e+12 -1.16511e+12 -1.01173e+12 -892561000000.0 -2.26423e+12 -1.7183e+12 -2.10293e+12 -1.13471e+12 -2.06946e+12 -997418000000.0 -1.56782e+12 -1.26558e+12 -1.49842e+12 -1.02526e+12 -1.16875e+12 -1.16062e+12 -1.65986e+12 -1.84494e+12 -1.33007e+12 -945978000000.0 -1.35103e+12 -1.28722e+12 -806943000000.0 -1.99393e+12 -1.25616e+12 -1.21364e+12 -2.1064e+12 -787097000000.0 -1.48304e+12 -1.31686e+12 -1.32147e+12 -2.1281e+12 -718209000000.0 -1.04988e+12 -1.09091e+12 -12549700000.0 -47780100000.0 -12549700000.0 -12549700000.0 -12719400000.0 -26642700000.0 -27582800000.0 -12549700000.0 -16264400000.0 -16638400000.0 -38814500000.0 -18512500000.0 -19920000000.0 -21667900000.0 -24644800000.0 -21528900000.0 -66525700000.0 -105928000000.0 -108459000000.0 -359754000000.0 -453598000000.0 -967064000000.0 -1.33944e+12 -1.76107e+12 -1.96555e+12 -478533000000.0 -2.17458e+12 -1.33145e+12 -993067000000.0 -2.50024e+12 -1.32281e+12 -1.94038e+12 -2.14713e+12 -1.19012e+12 -1.13613e+12 -1.65737e+12 -1.06344e+12 -724890000000.0 -1.28757e+12 -1.45235e+12 -1.77174e+12 -1.87539e+12 -2.40703e+12 -1.49753e+12 -2.4092e+12 -1.71026e+12 -663483000000.0 -1.82155e+12 -775229000000.0 -2.31368e+12 -582832000000.0 -1.28318e+12 -778200000000.0 -1.31379e+12 -1.68916e+12 -793446000000.0 -1.85814e+12 -2.05786e+12 -2.43702e+12 -2.42008e+12 -1.08062e+12 -891501000000.0 -1.38224e+12 -1.18e+12 -529454000000.0 -1.09362e+12 -1.05948e+12 -692153000000.0 -889845000000.0 -1.69143e+12 -255386000000.0 -1.22406e+12 -1.72608e+12 -833163000000.0 -870917000000.0 -1.15869e+12 -631371000000.0 -762853000000.0 -1.45003e+12 -1.25543e+12 -783513000000.0 -1.95735e+12 -1.09381e+12 -1.08182e+12 -1.49755e+12 -614850000000.0 -1.88174e+12 -1.04616e+12 -791228000000.0 -1.20833e+12 -1.56646e+12 -280928000000.0 -894538000000.0 -843439000000.0 -1.39543e+12 -2.18053e+12 -1.13e+12 -777213000000.0 -1.10059e+12 -264034000000.0 -593174000000.0 -1.8199e+12 -1.51717e+12 -758432000000.0 -976013000000.0 -1.20237e+12 -1.39325e+12 -175862000000.0 -562956000000.0 -740798000000.0 -469937000000.0 -12549700000.0 -24419900000.0 -12950400000.0 -12549700000.0 -12659000000.0 -16277900000.0 -13578500000.0 -17548000000.0 -12764900000.0 -12549700000.0 -33284400000.0 -14410900000.0 -16086800000.0 -19104800000.0 -37514700000.0 -15754800000.0 -36538600000.0 -13076600000.0 -67554200000.0 -82422400000.0 -60438900000.0 -29231800000.0 -55281600000.0 -508234000000.0 -677246000000.0 -1.028e+12 -1.48745e+12 -996217000000.0 -824563000000.0 -1.44085e+12 -838642000000.0 -2.24062e+12 -970132000000.0 -1.01092e+12 -1.26949e+12 -1.86597e+12 -1.32244e+12 -1.81022e+12 -727023000000.0 -1.2438e+12 -735516000000.0 -1.10907e+12 -1.06858e+12 -240152000000.0 -1.19383e+12 -1.30078e+12 -998301000000.0 -744325000000.0 -1.43733e+12 -829179000000.0 -1.92083e+12 -1.44967e+12 -1.33223e+12 -831996000000.0 -1.37038e+12 -907425000000.0 -2.20463e+12 -1.05995e+12 -779971000000.0 -783193000000.0 -475471000000.0 -824577000000.0 -116505000000.0 -843997000000.0 -57752100000.0 -470297000000.0 -1.13767e+12 -490821000000.0 -1.00847e+12 -1.00868e+12 -686557000000.0 -858595000000.0 -774588000000.0 -399847000000.0 -297959000000.0 -662893000000.0 -619189000000.0 -124926000000.0 -225560000000.0 -254419000000.0 -851770000000.0 -142936000000.0 -197873000000.0 -805324000000.0 -890411000000.0 -771518000000.0 -1.35426e+12 -358672000000.0 -616867000000.0 -301230000000.0 -155401000000.0 -769620000000.0 -550750000000.0 -150222000000.0 -218512000000.0 -298028000000.0 -450601000000.0 -656769000000.0 -659273000000.0 -266187000000.0 -551293000000.0 -177160000000.0 -241752000000.0 -166224000000.0 -162297000000.0 -672865000000.0 -308393000000.0 -15804900000.0 -18012700000.0 -32464500000.0 -48325800000.0 -75583900000.0 -71030400000.0 -58849300000.0 -673551000000.0 -1.13327e+12 -507221000000.0 -703089000000.0 -513720000000.0 -930933000000.0 -835505000000.0 -354704000000.0 -525738000000.0 -1.02092e+12 -803697000000.0 -307111000000.0 -328988000000.0 -735878000000.0 -301142000000.0 -486541000000.0 -1.24188e+12 -574421000000.0 -477756000000.0 -667028000000.0 -217067000000.0 -265116000000.0 -532696000000.0 -677255000000.0 -494723000000.0 -434675000000.0 -367452000000.0 -979159000000.0 -140397000000.0 -699526000000.0 -442931000000.0 -932806000000.0 -283151000000.0 -389907000000.0 -408931000000.0 -1.18344e+12 -347085000000.0 -484413000000.0 -1.03095e+12 -1.17297e+12 -162174000000.0 -496453000000.0 -414785000000.0 -391500000000.0 -308954000000.0 -217279000000.0 -159224000000.0 -288700000000.0 -194468000000.0 -240859000000.0 -229915000000.0 -173236000000.0 -175789000000.0 -244367000000.0 -79027300000.0 -149584000000.0 -120279000000.0 -75799000000.0 -86500600000.0 -204702000000.0 -272624000000.0 -155434000000.0 -114515000000.0 -123956000000.0 -249729000000.0 -175595000000.0 -448457000000.0 -414743000000.0 -193024000000.0 -320508000000.0 -328955000000.0 -358309000000.0 -144782000000.0 -119385000000.0 -167070000000.0 -124445000000.0 -203006000000.0 -68703500000.0 -92098600000.0 -69181800000.0 -251986000000.0 -257167000000.0 -164360000000.0 -317731000000.0 -232798000000.0 -227343000000.0 -158182000000.0 -131182000000.0 -106535000000.0 -199655000000.0 -258564000000.0 -353272000000.0 -89958400000.0 -142539000000.0 -93577800000.0 