###############################################
# General settings
###############################################

log         slab_test.log
atom_style  peri
units       si

###############################################
# Size, contact parameters
###############################################

#Elastic-Plastic Parameters: K G s00 alpha YieldStress
variable    K equal 5e6 #Bulk Modulus
variable    G equal 5e6 #Shear Modulus
variable    hor equal 2 #Horizon
variable    s00 equal 2000 #Bond Constant
variable    alpha equal 1e6 #Bond Constant
variable    Yield equal 1e6 #Yield Stress

variable    kn equal 1e6
variable    damp equal 0.0
variable    coeffFric equal .3
variable    kt equal 0.5*${kn}
variable    dens equal 900
variable    gravity equal 9.810

variable    omega equal 0.5*10^(-3)
variable    lambda equal 8.0*10^5

variable    waterDensity equal 1017.0

###############################################
# Geometry-related parameters
###############################################

variable    lx equal  50
variable    ly equal  ${lx}
variable    lz equal  ${lx}

###############################################
# Create box
###############################################

boundary    f f f
atom_modify	map array

variable    x0 equal -${lx}
variable    x1 equal ${lx}
variable    y0 equal -${ly}
variable    y1 equal ${ly}
variable    z0 equal -${lz}
variable    z1 equal ${lz}

region      boxreg block ${x0} ${x1} ${y0} ${y1} ${z0} ${z1} units box
create_box  1 boxreg

###############################################
# Create atoms
###############################################

include atom.include

###############################################
# Computes and Property/atom variables
###############################################

variable    velocity atom sqrt(vx*vx+vy*vy+vz*vz)
variable    R        atom (3/4*mass/(${dens}*PI))^(1/3)

###############################################
# Force Calculations
###############################################

# Buoyancy calculation (need displaced volume):
variable h     atom (z<-${rad})*(2*${rad}+z)+(z>=${rad})*(${rad}+z)
variable Vwed  atom 1/3*PI*v_h^2*(3*${rad}-v_h)

variable V1    atom (z<-${rad})*(z>=-2*${rad})*(${vol}-v_Vwed)
variable V2    atom (z<0)*(z>=-${rad})*(v_Vwed)
variable V3    atom (z<-2*${rad})*${vol}

variable Vdisp atom v_V1+v_V2+v_V3

# Non-Contact Forces (not handled through pair style): Buoyancy, Gravity, Drag
variable Fb    atom ${waterDensity}*${gravity}*v_Vdisp
variable Fg    atom ${gravity}*mass
variable Fd    atom (z<${rad})*(-vz*0)
variable Fztot atom v_Fb-v_Fg+v_Fd

###############################################
# Fixes and pair styles
###############################################

comm_style    tiled
timestep      0.0001

pair_style    peri/pmb
pair_coeff    * *      1.6863e4 1 1 0.25

variable x2 equal ${x0}*3/4
variable x3 equal ${x1}*3/4

fix           1 all    nve
fix           2 all    addforce 0 0 v_Fztot
fix           3 all    indent 10 plane x ${x2} hi
fix           4 all    indent 10 plane x ${x3} lo

###############################################
# Run settings
###############################################

variable      dumpfreq equal 10
variable      logfreq equal 100

variable      skin equal 0.3*${diam}
neighbor      ${skin} bin

comm_modify	  vel yes cutoff ${diam}

thermo_style	custom step cpu atoms ke lx
thermo_modify	flush yes lost warn
thermo        ${logfreq}

run  0

dump 1        all custom ${dumpfreq} ../data/DUMP/slab_test.dump id type x y z v_R

run	 50000
